 %block lattice_cart
   135.996   0.000   0.000
   0.000 142.663   0.000
   0.000   0.000   160.158
 %endblock lattice_cart

 %block positions_abs
N      88.42405172      41.03729747      80.22923325
H      88.11413660      40.66124194      82.07549585
H      90.32511639      41.01840021      80.04592980
H      87.57745433      39.53496505      79.41476121
C      87.35446663      43.45047798      79.13508171
H      88.25208663      45.02839945      80.10262158
C      88.05366537      43.69236294      76.41765528
H      87.48107828      42.06908804      75.28570921
H      90.11157732      43.64511979      76.31561004
C      87.12392001      46.15845578      75.09673657
H      85.11892040      46.33797978      75.53704280
H      87.34312827      45.94491671      73.05772189
S      88.69239285      48.98170689      76.30805115
C      86.49275142      51.44402028      75.22901742
H      84.57089977      50.89599965      75.72790516
H      86.69306241      51.41945384      73.18055410
H      87.04455151      53.32996714      75.84506819
C      84.52176689      43.56764101      79.23523721
O      83.30667286      41.82342362      78.29982268
N      83.35958521      45.53295637      80.22734352
H      84.49342099      46.86143397      80.99646212
C      80.57034916      45.85232012      80.58261207
H      79.63304491      44.74871995      79.11807418
C      79.91083468      44.61265966      83.14319122
H      80.92372798      45.61610433      84.63040582
H      80.38137654      42.61332922      83.28492069
C      77.20474660      44.44825347      83.86317695
O      75.57769224      44.49927608      82.19076915
N      76.31657524      44.32542126      86.23478347
H      74.50054825      43.84165132      86.55414722
H      77.47308774      44.19314042      87.74656452
C      79.80312027      48.66045343      80.55615590
O      81.42450546      50.28372832      80.86229155
N      77.37104251      49.04784731      80.21411543
H      76.20697110      47.53417654      80.20088734
C      76.10870533      51.52149906      80.46733876
H      76.44885607      52.27172040      78.57950218
C      73.09837133      51.34575451      80.53914835
H      72.48798973      50.16089611      78.97067551
C      72.35192942      49.97192348      82.91831378
H      72.12516227      51.12465653      84.60961884
H      73.52544946      48.34486913      83.39641454
H      70.55668943      49.11020828      82.39108015
C      71.72076084      53.95168710      80.29537366
H      72.14783899      55.20646537      81.87140541
H      69.68174615      53.70224322      80.14608528
C      72.63727811      55.25559825      77.83306027
H      72.77711785      53.85342133      76.33072786
H      74.53834278      55.94534836      78.21856444
H      71.39761764      56.81273273      77.30582664
C      77.25954866      53.47736579      82.31171165
O      77.72064189      55.69779421      81.55771085
N      77.88693779      52.74226226      84.61906747
H      77.36159389      51.06229556      85.35417100
C      79.20974621      54.56395842      86.38974103
H      77.95496795      56.18345387      86.59194174
C      79.72942095      53.25248836      88.83315715
H      81.02388348      54.43545703      89.91408060
H      80.76688069      51.48181481      88.66686123
C      77.41072677      52.79706432      90.45643204
C      76.18996356      54.92300642      91.64318017
H      77.00821507      56.78438684      91.47310481
C      74.11126463      54.38632415      93.25133727
H      73.21364463      56.01715796      94.08659630
C      73.16451174      51.93345939      93.66329760
H      71.88138758      51.57252167      95.20909373
C      74.27756054      49.94357759      92.36316589
H      73.53300837      48.05007182      92.50867482
C      76.30712661      50.35742765      90.72099374
H      77.10837056      48.66234315      89.91219088
C      81.73631029      55.52204966      85.24267715
O      82.29755902      57.75192671      85.41275253
N      83.42950507      53.86286996      84.21277631
H      83.00620638      52.00337927      84.14285643
C      85.71418419      54.57151733      83.13185286
H      86.83857135      55.53338802      84.56615514
C      87.28832621      52.28305876      82.20777670
H      88.67538531      53.00115476      80.86418129
H      86.13937261      50.84875649      81.28181079
C      88.58278873      50.97914761      84.37151332
H      87.34879745      50.75427017      86.00423686
H      90.22685062      52.13188066      84.82504764
C      89.39915050      48.25038281      83.79514679
O      91.54021040      47.99149032      82.88807816
O      87.69650709      46.49860652      84.05403931
C      85.39482043      56.20424086      80.78859223
O      87.00675698      57.80105960      80.36529354
N      83.20273792      55.93589973      79.48468107
H      81.86670141      54.81340230      80.26135860
C      82.62070221      57.37398145      77.10173620
H      84.36680933      57.57996162      76.02837165
C      80.67617384      55.84141341      75.57483733
H      78.83180096      56.05495248      76.46489843
H      81.36970340      53.90444394      75.60507295
C      80.52121628      56.66155463      72.87819789
H      81.95929800      56.07573947      71.52515385
H      80.48720121      58.69867959      72.57962113
S      77.69607545      55.47858596      71.33051203
C      78.26677279      56.97902865      68.30128075
H      77.02333287      56.28927855      66.81406614
H      80.06957168      56.13054154      67.77971630
H      78.40283308      59.03127143      68.37309036
C      81.68339796      60.10274625      77.65164655
O      81.80245072      61.69767526      76.02648192
N      80.52499574      60.61864153      79.85506743
H      80.30389775      59.07095568      80.94921897
C      79.70107506      63.07528574      80.84906347
H      79.72753123      64.36596882      79.24279610
C      77.14616509      62.78615761      82.09439312
H      76.93262601      64.61541268      83.01091037
H      77.03089178      61.29327382      83.50790840
C      75.01077435      62.61797197      80.26513805
H      75.80445941      61.42177521      78.78926180
C      72.62971920      61.45012111      81.40842247
H      73.10404050      59.65677084      82.30604247
H      71.25588817      61.04949913      79.92876675
H      71.82091634      62.79749597      82.74256924
C      74.28133999      65.00280659      79.04248512
H      74.13583107      66.45222666      80.49757439
H      72.49554862      64.77225996      78.04281989
H      75.68729636      65.80405053      77.76503014
C      81.55111711      64.39431470      82.58005277
O      81.94229046      66.66954519      82.37974179
N      82.78321868      62.97890969      84.31860099
H      82.25787476      61.15154435      84.47166882
C      84.76743131      64.23935714      86.03447248
H      83.86981130      65.58673201      87.30436855
C      86.19606440      62.07562052      87.58593778
H      87.39037142      61.07973475      86.23667319
H      84.77310049      60.83596005      88.40796873
C      87.98752495      63.02237340      89.66274700
H      87.03699260      64.36785853      90.89862801
H      89.53143134      64.01258999      88.71977356
C      89.08923538      60.80005525      91.22744038
H      90.40259516      61.50492317      92.65040430
H      90.27598350      59.47724684      90.18620119
N      87.13525838      59.20890570      92.54080018
H      86.93305765      57.48547530      91.74900485
C      85.98063559      59.61519686      94.75177996
N      86.53621514      61.59940949      96.10671373
H      85.87103147      61.37075260      97.88305646
H      87.60580022      63.01103504      95.39428691
N      84.43106001      57.91633290      95.49444240
H      83.31801123      58.38687475      96.97220837
H      84.09468874      56.29116827      94.54957925
C      86.81589462      65.52626076      84.49056608
O      88.13492360      67.15709458      85.45054704
N      87.42816595      64.67777365      82.18887944
H      86.45117744      63.31339125      81.27614162
C      89.38970187      65.86641151      80.61284769
H      90.85046030      66.70733971      81.79770609
C      90.77298153      63.66865980      79.25224474
H      90.94872607      62.12664313      80.60906823
C      89.44261420      62.58773635      76.96189644
H      90.70873083      61.20823614      76.10207098
H      88.89648329      64.04849479      75.61830104
H      87.87414136      61.34807589      77.46078420
C      93.50363605      64.29982839      78.31683021
H      93.56410729      66.15364990      77.42487940
H      94.26519576      62.83151104      77.09039784
C      95.37635483      64.64186885      80.58639152
H      94.84534174      63.23780220      81.99801708
H      95.31966304      66.53537461      81.39708411
H      97.28119894      64.42644006      79.83239072
C      88.30688869      67.88085975      78.80248988
O      89.76386768      69.26980860      77.84439864
N      85.79922188      68.00180223      78.58139189
H      84.81845392      66.73568560      79.62074137
C      84.39704495      69.74979907      77.00347043
H      85.67449994      70.15420051      75.43877704
C      82.11047611      68.48179272      75.76380997
H      80.61192315      69.88585937      75.92065725
H      81.37537258      66.83962055      76.76725464
C      82.52432617      67.41598708      73.02181708
O      84.45373674      68.09439882      71.79916416
O      80.85947728      66.03270742      71.96546007
C      83.72241265      72.19510493      78.38486036
O      84.07579148      74.23411961      77.46078420
N      82.77754950      71.87196173      80.69410591
H      82.84935909      70.16931831      81.55393138
C      82.12748364      73.88829971      82.32116027
H      81.23364310      75.27346909      81.08527926
C      80.18106554      72.98690025      84.12773863
H      79.90516550      74.49868130      85.49967994
H      80.92939716      71.29181575      85.02346889
C      77.67906790      72.11573642      83.10728642
H      76.53011430      71.60551032      84.73812023
H      77.88693779      70.45655672      81.90353076
C      76.06146218      73.90341752      81.55582112
O      76.41106154      76.25612677      82.00935544
O      74.71786678      73.16642426      79.68877151
C      84.27799219      75.18276223      83.70066049
O      84.06256339      77.47877969      84.16175370
N      86.34913223      73.83160792      84.03136258
H      86.44361855      71.99668367      83.51168784
C      88.28610169      74.78969915      85.78124915
H      88.86813740      76.69832274      85.27480250
H      89.99063483      73.66342227      85.51101829
C      87.61146940      74.34750320      88.51946258
O      85.96362806      72.73934611      89.19787433
N      88.56767091      75.84038699      90.27312860
H      89.52576215      77.41641874      89.78746894
C      87.81367011      76.02746989      92.86394338
H      85.81244996      75.73078286      93.24188863
C      88.89270384      73.93365313      94.52501281
H      90.84479113      73.37429414      94.18108261
H      87.86091328      72.15731041      94.38328332
C      88.77932026      74.37962855      97.44275022
H      89.90748688      76.04636715      97.88305646
C      86.06945273      74.80859641      98.52556340
H      85.11136149      76.10683839      97.24621869
H      86.42472127      75.59850202     100.39450272
H      85.01120599      73.04548177      98.63327781
C      89.91315606      72.24234809      99.02067170
H      91.61202001      71.69810691      97.99077085
H      88.55822228      70.71355949      99.28901283
H      90.41015407      72.95099545     100.88961102
C      88.47507432      78.64096138      93.77290172
O      90.60668562      79.36661628      93.83148325
N      86.65337817      80.13384516      94.42107786
H      84.87136625      79.48566905      94.21320796
C      87.03699260      82.79269009      95.56436227
H      88.93994701      83.25378331      96.20120005
C      86.06000411      84.92619110      93.74266610
H      85.57812390      86.67229821      94.72343407
H      84.27610246      84.17596975      93.03590847
C      87.89492836      85.34193089      91.56570140
H      88.66404696      83.50133745      91.04980611
H      89.49930600      86.42474406      92.26867959
C      86.59668638      86.63639341      89.27346338
H      85.85213420      88.46564849      89.85738880
H      84.84491008      85.59704393      88.96543798
N      88.13870304      86.67229821      87.02657880
H      89.28576691      88.18218953      86.80737054
C      88.59790654      84.96209590      85.33527374
N      87.66249201      82.69820377      85.54692309
H      88.24452772      81.46799194      84.20710714
H      86.61369391      82.22766193      87.06815278
N      89.94339168      85.03012605      83.32082549
H      90.13047457      83.55802925      82.11895956
H      90.90148292      86.62505505      82.90319598
C      85.29088549      82.69820377      97.97376333
O      83.06856735      83.01945724      97.76211398
N      86.47952335      82.93630930     100.16206639
H      88.35791129      82.81158736      99.84081292
C      85.41560743      82.96087574     102.83224967
H      83.86981130      81.63050841     103.11948808
C      87.59446186      82.35238385     104.58024651
H      87.20139880      82.62261473     106.58335641
H      89.22340594      83.54480116     104.17206563
C      88.45806680      79.64629577     104.47820130
H      89.07978675      79.12662105     102.58469553
C      90.58022945      78.86583881     106.21297005
H      89.72418343      79.31370394     108.03466622
H      92.23185023      80.03179994     105.82179670
H      90.89959319      76.84194193     106.00698988
C      86.30755824      77.86617359     105.30779114
H      85.82756776      78.39340723     107.24098116
H      86.89337341      75.89329932     105.26810690
H      84.51798743      77.96065990     104.29489784
C      84.26287437      85.57058778     103.66939844
O      82.97975021      85.36649732     105.63849325
N      84.30255863      87.66440453     102.11793312
H      85.43828414      87.68519151     100.58347536
C      82.95518377      90.10593092     102.41273044
H      81.58702191      90.04168022     103.95285737
C      85.03955190      91.96731134     103.07980382
H      86.17905685      92.21108603     101.38282960
H      86.50975897      91.17740574     104.28733893
C      84.20429286      94.42206583     104.39694307
H      83.16494339      94.31624114     106.17139606
H      83.23486327      95.68251327     103.08736273
C      86.73085694      95.64471875     104.91661779
H      87.79666259      95.84880918     103.16484150
H      87.71918381      94.46175007     106.28100020
C      86.28677126      98.45285204     105.95785700
H      85.13025875      98.26954860     107.65294150
H      85.33812864      99.35803096     104.37048689
N      88.66404696      99.89093378     106.37170706
H      90.11913623      99.13693298     107.35058528
H      87.98563522     101.54255456     107.04633936
H      89.62213820     100.15171600     104.74276298
C      81.52277122      90.67851799      99.91640197
O      82.03488705      89.55791029      97.87927701
N      79.56879421      92.23943192     100.21119927
H      79.30801199      93.08224986     101.90439405
C      77.77922340      92.67217926      98.16462569
H      77.00254589      90.85426254      97.58070025
C      75.65139156      94.42962472      99.06791485
H      76.37515674      96.14171676      99.95230677
C      73.90528446      95.55779133      96.96653919
H      74.90305994      97.19429432      96.21631785
H      72.13083144      96.37604282      97.61849478
H      73.67662757      94.14616577      95.48121432
C      73.96764543      93.18240535     101.18818778
H      75.19218808      92.44163264     102.66784349
H      72.87538362      91.66117568     100.33025204
C      72.48610000      95.25165567     102.47131194
H      72.02311705      94.76977547     104.41961978
H      70.77400796      95.89605234     101.52455907
H      73.54056728      97.02232922     102.52989347
C      79.20596676      93.73798489      95.81758559
O      80.73097590      95.56157078      96.10482400
N      78.51432693      92.83280600      93.56881128
H      77.21230551      91.43818798      93.56881128
C      79.15494415      93.75499243      91.08004173
H      79.73320041      95.73353589      91.03846775
C      81.31679105      91.95030381      90.12195050
H      82.87581526      92.16951205      91.44853837
H      82.04055623      92.80068064      88.39285091
C      80.81223413      89.24610544      89.66274700
C      80.68184301      88.42218478      87.19854389
H      81.13159787      89.72420621      85.69243201
C      79.87304015      85.93530494      86.60139037
H      79.79178192      85.24177539      84.68331817
C      79.32124006      84.24211017      88.67064068
O      78.60692352      81.84215775      88.22655500
H      78.55968037      81.66830293      86.42375610
C      79.46107982      85.06792057      91.11972599
H      79.15305443      83.66952309      92.57670497
C      80.22452924      87.50188807      91.66207744
H      80.18673472      88.29746284      93.54046539
C      76.69641022      93.63593968      89.52290726
O      74.54779140      93.33736291      90.41107861
N      76.89105204      93.94396506      86.92642330
H      78.65416669      94.29545415      86.28958553
C      74.76510993      93.50932801      85.10850659
H      73.14183503      92.62493610      86.02313412
C      73.86748993      96.08313524      83.82538242
H      72.73554386      95.77510986      82.13407736
H      75.66272992      96.89193811      83.21311110
C      72.31224518      97.99553828      85.53936418
H      72.75066168      97.74987386      87.53680490
H      70.31858392      97.50798889      85.38629635
C      72.50499726     100.74131062      84.72300241
H      72.31980408     100.94351133      82.68398772
H      74.39472358     101.43672989      85.15386002
C      70.43952640     102.48930745      85.69999092
H      70.56613807     102.27198892      87.74278507
H      68.61783023     101.91861010      84.92520314
N      70.76077987     105.06311468      84.91386478
H      69.14128442     105.93805797      85.42031142
H      71.13683540     105.17649826      83.04492545
H      72.02122732     106.04388264      85.95888342
C      75.83469503      91.77833871      83.01846928
O      78.06268234      92.00132641      82.18698971
N      73.83347486      90.47631727      81.92998692
H      72.15728762      90.74654814      82.79926103
C      73.71820156      89.09114790      79.53759342
H      75.50021347      88.09337239      79.26925227
C      71.40328682      87.34504078      79.54137286
H      69.73087904      88.50722246      79.22578857
H      71.29557241      86.36238309      81.34606150
C      71.79257044      85.23799593      77.50235817
O      73.94874816      84.79013080      76.78615190
O      69.99733045      84.00967384      76.68221696
C      73.51033166      90.97898448      77.32283417
O      72.84892745      93.17673619      77.42865885
N      74.05079339      90.17396106      75.01547835
H      74.68763114      88.38061079      74.85485161
C      73.88260775      91.61393251      72.49080400
H      75.29423329      93.09169850      72.74591704
C      74.90683940      89.99254734      70.15321255
H      74.81991199      91.07536053      68.40143626
C      77.50710281      88.97587458      70.50281191
H      78.69196120      90.55757551      71.08295788
H      78.24976525      88.47509711      68.64710068
H      77.54867678      87.51511615      71.95790118
O      73.35726383      87.80424428      69.89998922
H      74.32669343      86.76300507      68.77560207
C      71.35226420      92.80257037      71.97679844
O      71.21431419      94.91906384      71.09996542
N      69.27545498      91.71030856      72.76103486
H      69.56269339      89.95853227      73.46023360
C      66.73566283      92.68540734      72.53804715
H      66.48810868      93.45830541      70.64643111
C      64.82137006      90.42151521      72.97457393
H      65.03301941      89.65995552      74.87563859
H      65.36750097      88.80768894      71.81428198
C      61.88473537      90.71442279      72.63064374
H      61.31781748      92.47186826      73.54338155
H      60.77546604      89.29901778      73.63597814
C      61.21766200      90.80323993      69.92644538
O      62.21543749      92.47753744      68.55828354
O      59.97611181      89.17051639      68.71324110
C      66.32559222      95.04567550      74.25391864
O      64.59460291      96.55178738      73.92699599
N      68.05658152      95.40283378      76.05104836
H      69.52489886      94.18585003      75.96034151
C      67.85060135      97.35114161      77.95967194
H      67.58037049      99.12937407      76.95622726
H      69.83481398      97.59113684      78.45666997
C      66.61661007      96.70485521      80.40497779
O      65.88339626      98.46041095      81.76936018
N      66.39551209      94.30868224      81.22889847
H      66.90573819      92.94996903      79.99112772
C      65.19931533      93.52066636      83.62696116
H      64.13350970      95.03055769      84.53591952
C      63.23022051      91.44385715      83.17342684
H      62.10394364      91.16039821      84.87795997
H      64.20909875      89.75444182      82.51769180
C      61.18742637      92.25643946      81.15141968
C      59.97989125      90.21364532      79.87018525
H      60.72633314      88.31824983      79.98167910
C      58.19409988      90.72009198      78.17699047
H      57.38718676      89.23665682      77.02992660
C      57.56860048      93.20319234      77.50613762
O      55.98500983      93.64160885      75.58806542
H      56.10973176      95.38960570      75.11374412
C      58.65708284      95.31212691      78.81004879
H      58.34716772      97.24909639      78.24124117
C      60.39941049      94.75843710      80.75646688
H      61.22522089      96.31179213      81.79203691
C      67.15896152      92.80068064      85.48456212
O      69.13372551      91.72731609      84.84394490
N      66.64117651      93.38082662      87.93742687
H      65.02923997      94.34458704      88.27190844
C      68.32681238      92.78367310      89.98777992
H      70.16173663      93.53011500      89.42275176
C      67.64840064      94.25199045      92.36505562
H      69.06758509      94.02900274      93.84093187
H      65.84371201      93.53200473      93.05102627
C      67.62194446      97.07146212      91.97955146
C      65.58481950      98.37348354      92.72032418
H      63.73477743      97.58924712      93.08504136
C      65.68119555     101.08335107      92.80347214
H      63.92186034     101.92049983      93.41007427
C      67.94886711     102.50820472      92.60505086
O      68.01689726     105.08579141      92.64662485
H      66.34637921     105.63003259      93.09260025
C      70.12394210     100.97752640      91.84916035
H      71.95319717     101.87892586      91.89451378
C      69.90473386      98.33379928      91.60727538
H      71.59981835      97.26043474      91.23877875
C      68.74822135      90.02089323      90.69642730
O      66.95487107      88.59037041      90.91374581
N      71.13683540      89.32547396      91.13862325
H      72.41806985      90.73332006      91.02712940
C      71.95886635      86.62883450      91.38617740
H      70.35259899      85.36460761      91.65073908
C      73.20041654      85.59137476      88.96921744
H      74.45708454      84.06069644      89.53613533
C      71.37494093      84.71643148      86.95665892
H      70.52456408      82.85505105      87.18153634
H      72.32925271      84.66540886      85.13118329
H      69.81969616      86.04301935      86.69398696
O      74.63660854      87.51322642      87.72766726
H      76.29956770      87.46031408      88.45332215
C      73.68229675      86.21498444      93.64440034
O      74.95219284      87.99510663      94.38706278
N      73.86371048      83.93219505      94.84626628
H      72.70530824      82.50356196      94.33226072
C      75.84225392      83.33126208      96.80591247
H      77.55434596      84.45375952      96.58481448
C      75.04856888      84.20053619      99.59514850
H      74.83691952      86.21498444      99.21909297
C      72.53145342      83.04024423     100.49654795
H      71.19730664      83.15740726      98.92996484
H      71.70753276      84.39706774     101.80990773
H      72.71853633      81.12973093     101.24676930
C      77.18395960      84.10227043     101.58880975
H      78.86203658      84.50100267     100.46631233
H      77.28222537      82.24655918     102.47320167
C      76.82491160      86.20553581     103.59569910
H      76.85514724      88.08014431     102.73965309
H      78.39149473      86.11293922     104.92606643
H      75.15061409      85.76900904     104.71630681
C      76.61326227      80.56659250      96.48276927
O      75.27155658      79.03591418      95.34893347
N      78.89794138      79.92975473      97.31046939
H      79.92406277      81.29413712      98.16462569
C      80.00721073      77.46555162      97.37660981
H      78.69574065      76.14841237      98.25911199
H      81.70985413      77.33705022      98.52556340
C      80.46074504      76.47722476      94.75366969
O      81.44340272      77.78113590      93.08315162
N      79.57446339      74.13774358      94.33037099
H      78.50865776      73.51224416      95.78546026
C      79.47430791      72.81304543      91.88506514
H      80.98986840      73.52169280      90.68130948
C      79.93540112      70.00302240      92.38206317
H      78.33669267      69.42098670      93.54235512
C      80.07713059      68.68966262      89.77046139
H      78.33669267      68.96556265      88.70087630
H      80.39271489      66.66765546      90.00667719
H      81.77599455      69.47578877      88.91063592
C      82.46385493      69.42098670      94.01856614
H      82.46007547      70.48301288      95.78357053
H      84.08901956      69.99735322      92.88850982
C      82.55645152      66.69411163      94.95209094
H      80.85191839      66.17632663      95.98577124
H      84.24397712      66.45978557      96.11049318
H      82.64337893      65.41854636      93.34015441
C      76.99120753      73.58027431      90.56036699
O      75.17329082      72.11951587      90.42997589
N      76.69074104      76.09361032      90.05392034
H      78.13071249      77.32949131      90.26367996
C      74.73109485      76.95343579      88.33237967
H      74.66495443      75.61173010      86.77146574
H      75.02022299      78.90552306      87.73522616
C      72.04012459      77.20476938      89.48511272
O      70.38850378      77.66019342      87.96199332
N      71.46186834      77.00445840      91.97577200
H      72.95097266      76.95721524      93.17007904
C      68.92396589      76.99689949      93.13795368
H      67.73910749      75.50779515      92.34804809
C      69.21498374      76.45832748      96.02167605
H      70.49999765      77.87373249      96.78890492
H      70.06158113      74.62718269      96.44308501
C      66.76400872      76.70588163      97.49188312
N      64.84404679      75.00890741      97.43141187
H      64.73822211      73.22122631      96.77567685
C      62.78424511      76.11439730      98.24777364
H      61.00412292      75.23756429      98.72587440
N      63.32281710      78.53513670      99.05468678
H      62.13606898      79.78424580      99.87482800
C      65.84938118      78.89985388      98.46131272
H      66.99077587      80.57604112      98.69374905
C      67.47454581      79.59338345      92.58615361
O      68.59515352      81.50389674      93.08882080
N      65.15018244      79.39685191      91.72065896
H      64.56058784      77.63751670      91.26901437
C      63.68942400      81.45476386      90.71343483
H      65.03490915      82.90796339      90.15029639
C      62.26834983      80.70076306      88.26812897
H      61.11939623      79.00000938      88.44198379
H      63.83304321      80.24344930      87.00768152
C      60.63373656      82.99867026      87.35539117
H      59.18998566      83.11772301      88.81992906
C      61.81481550      85.61594120      86.88484931
H      63.03935816      86.20742553      88.43064544
H      60.13862827      86.81591742      86.88106987
H      62.93920267      85.92018713      85.18409564
C      59.05392536      82.28057426      84.91764423
H      60.32004200      82.06514547      83.30570769
H      57.62529226      83.75267106      84.74000996
H      58.22811497      80.41730412      85.21055180
C      62.00000868      82.60371746      92.86961256
O      60.34838789      81.46421249      93.84849078
N      62.39307176      85.01878769      93.41952290
H      63.93697815      85.81814191      92.62772759
C      61.24033870      86.38694953      95.58703899
H      60.92097495      85.01311850      97.08748169
C      63.09038076      88.30313201      96.59237339
H      62.05859021      89.38405547      98.00966813
H      63.41352397      89.45397535      94.91618614
C      65.49978182      87.05780237      97.50700092
H      66.41062989      86.09404195      95.93096918
C      67.52934787      89.02122801      98.24210446
H      67.03801904      90.24199121      99.82758483
H      67.91485205      90.31380082      96.68496998
H      69.28868307      88.06502650      98.73154358
C      65.12372627      85.21720895      99.62160467
H      63.91808090      83.61094159      99.16051144
H      64.28846724      86.32080912     101.14661381
H      67.01534231      84.60871707     100.16395612
C      58.66275202      87.71920658      95.04468753
O      56.63885514      87.04079484      96.05758085
N      58.80637121      89.46531370      93.24566809
H      60.48633790      89.61082262      92.34993782
C      56.55570718      90.85804200      92.12883983
H      54.83983569      89.73365484      91.94553638
C      55.68454335      93.04256562      93.69164349