 %block lattice_cart
   135.996   0.000   0.000
   0.000 142.663   0.000
   0.000   0.000   160.158
 %endblock lattice_cart

 %block positions_abs
N      87.36202553      42.41774256      80.79804087
H      86.77998983      42.38372748      82.61406786
H      89.24986212      42.21365212      80.99835185
H      86.72329803      40.93997658      79.77191948
C      86.68928296      44.71564975      79.68877151
H      87.43761459      46.25388696      80.83394567
C      87.89303863      44.75722373      77.07528002
H      87.25809058      43.23977350      75.83372983
H      89.92071497      44.54557439      77.37385679
C      87.44517350      47.18930150      75.72979489
H      85.39859989      47.40850975      75.77703806
H      88.06500372      46.97765215      73.77770761
S      88.72640793      50.00499370      77.16787661
C      87.24486250      52.21030431      75.05327288
H      85.23608344      51.80968232      75.25547359
H      87.79288314      51.79456451      73.11063422
H      87.90437698      54.06034637      75.67877228
C      83.76209690      44.82903332      79.68499207
O      82.37692753      44.09392980      77.95589248
N      82.92305842      45.86838280      81.81660335
H      84.24964629      46.74521581      82.86918090
C      80.23019842      46.53734592      82.42320550
H      78.87148520      45.29201628      81.50479850
C      79.78422302      45.69263825      85.17275727
H      80.72908617      46.93985762      86.51257324
H      80.75176290      43.92763387      85.61684297
C      76.97797944      45.37516423      85.86817656
O      75.11092984      45.96097939      84.55103732
N      76.53011431      44.39817573      88.03002346
H      74.69330034      43.93519278      88.27001870
H      78.04189536      43.89928799      89.08638047
C      79.58958121      49.36248675      81.76180129
O      81.21285611      50.88371644      81.40275329
N      77.14616509      50.09192110      81.96778145
H      75.83658475      48.70297226      81.92053830
C      76.21830947      52.65250027      81.54259303
H      76.65483625      53.09280649      79.58105711
C      73.32702821      52.65816944      81.76558074
H      72.48421028      51.18796237      80.59961961
C      72.34814998      52.22731185      84.46410991
H      72.35003971      53.92617579      85.63007104
H      73.21175490      50.58891913      85.36550936
H      70.38472433      51.60370216      84.46977908
C      72.02689650      55.09402666      80.82449703
H      71.89461567      56.53966729      82.28525547
H      70.02189688      54.69907387      80.57316343
C      73.04356927      56.28833368      78.33572747
H      73.24199053      54.89371568      76.83339505
H      74.77644828      57.33146261      78.71934192
H      71.59225946      57.58090648      77.65542600
C      77.61670693      54.59891837      83.26413371
O      78.20063236      56.63793305      82.30415274
N      78.38960500      54.14538406      85.62818132
H      77.70741380      52.49187353      86.29336498
C      79.73697986      55.77621785      87.31192746
H      78.82613177      57.61870101      87.43475967
C      79.66894971      54.46663753      89.85549909
H      80.74798344      55.46063357      91.30113972
H      80.93506634      52.84714208      89.74400522
C      77.07624522      53.77499770      91.00823214
C      75.57013334      55.57023770      92.26112068
H      76.08980808      57.48453044      92.73544198
C      72.99632611      54.85214170      92.85260501
H      71.74343755      56.12392750      93.84282160
C      71.94752800      52.42762284      92.42363715
H      70.07102976      51.84180767      92.97732695
C      73.58214126      50.63238284      91.25200682
H      73.03790008      48.71431063      90.81736978
C      76.08980808      51.26733087      90.58871290
H      77.24632059      49.78011627      89.80636619
C      82.38070698      56.35069465      86.14029715
O      83.12147968      58.51254156      85.59038680
N      83.77343526      54.46852725      85.23700797
H      83.14037695      52.68462562      85.46377514
C      86.43794937      54.70663277      84.26568864
H      87.44328376      56.09936106      85.40330388
C      87.58690297      51.92873508      83.99167834
H      89.43505530      51.83424876      83.08649942
H      86.41527265      50.95174659      82.60839868
C      87.58690297      50.51333007      86.52202186
H      85.81433968      50.44907938      87.56893025
H      88.74530519      51.62259942      87.81459467
C      88.74530519      47.87338242      86.09305400
O      91.02998430      47.54457003      86.63162599
O      87.40170979      46.19530546      85.07827097
C      86.57778912      55.92739597      81.59550536
O      88.55255311      56.89115639      80.85851211
N      84.38759631      55.95007268      80.29915311
H      82.95140431      54.82568552      80.86040184
C      83.81689897      57.36736742      78.01825345
H      85.43261496      57.18973314      76.75213682
C      81.28655543      56.28266452      76.85796151
H      79.68406752      56.94973789      77.97101029
H      81.30356298      54.24553954      76.55182584
C      80.59113615      57.39949276      74.30872070
H      82.08590967      56.82879542      73.01236846
H      80.49664983      59.45740472      74.37108167
S      77.65450147      56.28833368      72.91032323
C      77.67717817      57.45996401      69.70912685
H      78.37637692      59.34780060      70.14565364
H      75.94240942      57.78877638      68.64899039
H      79.20974621      56.51510084      68.70757192
C      83.32368041      60.18683908      78.64753232
O      84.64648883      61.80444480      77.63274929
N      81.51143286      60.85769192      80.35962435
H      80.58357724      59.37614648      81.12874297
C      80.85380811      63.37858681      80.91709362
H      80.66861493      64.13447734      79.01035977
C      78.28944950      63.41260189      82.51769180
H      78.26866251      64.99619254      83.83672078
H      78.14394057      61.80066534      83.79136734
C      75.88760737      63.39937381      80.82260731
H      76.33736222      62.34112708      79.11429471
C      73.73142964      62.26364830      82.25879930
H      74.39094413      60.44006239      82.95610831
H      72.00799925      62.15593389      81.13441214
H      73.46875768      63.60346424      83.80270570
C      75.08069423      66.09034407      80.05537843
H      74.98431819      67.39614495      81.64274853
H      73.16262202      66.04121120      79.30515707
H      76.32602386      66.79710171      78.57194327
C      82.82101320      64.79399183      82.51580209
O      83.07612625      66.93883118      82.03770133
N      84.33468398      63.48441149      83.98411943
H      83.92272364      61.64003861      84.25435029
C      86.43605965      64.63525481      85.47511348
H      85.66316158      66.12246942      86.67319998
C      87.63981531      62.54332779      87.14185210
H      88.82845316      61.30366732      86.00234713
H      86.23385892      61.27532143      87.95632414
C      88.80199698      63.47874231      89.56637095
H      87.24864196      64.29132463      90.64918413
H      90.18338691      64.98107472      89.29236065
C      90.01898073      61.38114610      91.14996161
H      90.96573362      62.38081133      92.68252965
H      91.36446586      60.34179664      89.98777992
N      88.29177087      59.72385612      92.43875495
H      88.42972091      57.88893187      91.93608776
C      87.17872209      59.98463836      94.61382993
N      87.32990018      62.07467567      95.90262329
H      86.69306241      61.89137221      97.69408382
H      88.01020166      63.68850193      95.14673276
N      85.87481092      58.17994973      95.63995132
H      85.12081012      58.64671213      97.33125637
H      85.20395809      56.69462484      94.64973473
C      88.39003665      65.92026870      83.80837489
O      89.36324569      67.99329848      84.47733799
N      88.98341071      64.70139524      81.59172591
H      88.45050789      62.89670660      81.27236217
C      90.57833971      66.01853447      79.69066125
H      91.83311800      67.24118739      80.76969496
C      92.27720368      64.13447734      78.23935144
H      93.15025723      62.87969906      79.62074137
C      90.70495138      62.25419966      76.59717926
H      91.93894267      61.46996324      75.14775918
H      89.03632304      62.84190454      75.54460171
H      90.23629926      60.71785217      77.88597262
C      94.53353689      65.26453367      76.69166558
H      93.91559638      66.21128656      74.96823518
H      95.61068088      63.68472248      75.93010589
C      96.30610018      67.02008943      78.15809321
H      96.91081260      66.23774273      79.96467155
H      95.31588358      68.78509379      78.54359738
H      98.04842784      67.12780383      77.06394167
C      89.37080460      67.86101763      77.84061918
O      90.57833971      69.47106444      76.74835737
N      86.84801997      67.96495257      77.66109518
H      85.88236983      66.61190853      78.59839944
C      85.47040950      69.98129055      76.39119910
H      86.42283155      70.68615847      74.70367350
C      82.90605089      68.82855750      75.72034627
H      81.54355821      70.37246390      75.82428121
H      82.47330357      67.39803468      77.13764099
C      82.75487279      67.51330798      73.15787739
O      84.57656894      67.87046627      71.57995591
O      80.93884579      66.01664475      72.75536567
C      84.88459434      72.33966900      77.97667947
O      85.24364234      74.45427273      77.06961084
N      84.21941068      71.95983401      80.43710314
H      84.07201202      70.14002756      80.99457240
C      83.20840710      74.03475349      82.02636297
H      82.28622065      75.43315097      80.82827649
C      81.22230475      72.95760950      83.75168310
H      80.63271013      74.28608709      85.20866208
H      82.10669666      71.58566820      85.00835109
C      78.86959548      71.95794427      82.48367674
H      77.91339397      70.81277013      83.90286119
H      79.48375653      70.67859957      80.99268267
C      76.98553835      74.04231240      81.34228205
O      77.75087751      76.18526203      80.72245181
O      74.68007224      73.43571026      80.82071758
C      85.13781767      75.23661943      83.71010911
O      84.77499022      77.24539850      84.71922297
N      87.28643648      74.00262814      84.33749825
H      87.39982005      72.22817513      83.64018923
C      89.21395732      74.69993715      86.15730468
H      90.13614376      76.42525728      85.50912856
H      90.75597400      73.33744448      86.10628207
C      88.15949004      74.96071939      88.90118729
O      86.11669589      74.11412201      89.40196477
N      89.84701563      76.13801889      90.45265260
H      91.37202476      76.89201969      89.59093739
C      89.36702515      76.37234495      93.15874068
H      87.38470224      76.07376819      93.63117225
C      91.16793433      74.81332073      94.71020599
H      93.09545517      75.37267973      94.24155386
H      91.09045554      72.83855673      94.12439083
C      90.61991370      75.02497009      97.53912628
H      90.52353766      76.92792449      98.31769352
C      88.23885854      73.29587051      97.98132222
H      86.47763362      74.24640285      97.50133175
H      88.10090852      72.62312794      99.92207115
H      88.57522983      71.69716204      96.72654395
C      92.76853252      73.92892883      99.03201006
H      94.49763210      75.04953653      98.99043608
H      93.31655315      72.12801964      98.19486131
H      92.23562970      73.53397602     100.98220761
C      89.75630878      79.19181661      93.92407984
O      91.88225088      80.21793799      93.53668593
N      87.91193589      80.28407842      95.15996085
H      86.21685139      79.42236321      95.33759511
C      87.73619135      83.04874800      95.96498426
H      89.59001285      83.70637276      96.57347612
C      86.66093707      84.79107566      93.93541819
H      86.40582402      86.60710266      94.87083272
H      84.86758681      84.12589200      93.17385848
C      88.45995652      85.35799356      91.79057882
H      89.28009775      83.57220219      91.17830751
H      89.80733138      86.74316294      92.50111592
C      87.37525361      86.88111298      89.47377436
H      86.79510763      88.75194203      90.10494295
H      85.73308145      85.81530733      88.83504688
N      89.28198746      87.00772463      87.34972199
H      90.30054996      88.59320501      87.04925551
C      89.26120048      85.26728669      85.44865732
N      88.14059277      83.12244734      85.45054704
H      87.81744958      82.03585470      83.91230982
H      87.07667686      82.62733905      86.95476919
N      90.61991370      85.83798405      83.41909125
H      90.93927744      84.65312564      81.96022254
H      91.32289188      87.61243705      83.41531181
C      86.07701164      83.07898363      98.24210446
O      83.79422225      82.84087812      98.00399895
N      87.12203030      83.13945488     100.59292400
H      89.00041824      83.44936999     100.72709457
C      85.58190335      82.95804115     102.86248529
H      84.15138053      81.53129778     102.45808387
C      87.34501800      82.07931841     105.05267810
H      86.06567329      82.18325336     106.66272491
H      89.00986688      83.29063297     105.14338496
C      88.28421198      79.31842826     104.82024175
H      89.35757653      78.93859327     103.10437027
C      90.01709100      78.87245286     107.01232427
H      89.13836826      79.17291934     108.84913825
H      91.59312274      80.18959209     106.82524138
H      90.85801922      77.00729298     106.76099068
C      86.31133770      77.21705260     104.89016163
H      85.28710605      77.16603000     106.67406327
H      87.22029607      75.37645918     104.72575543
H      85.00553683      77.56854171     103.33491688
C      84.20429287      85.32775795     103.51255115
O      82.65282756      85.22193326     105.30401169
N      84.79010802      87.48015621     102.22186808
H      86.19228495      87.55574527     100.93118501
C      83.46352014      89.89900589     102.55445991
H      82.00465143      89.53428872     103.96041628
C      85.33623893      91.93046168     103.41806483
H      86.39448566      92.27439187     101.68329608
H      86.52676651      91.28228555     104.96764040
C      83.91516473      94.42679014     103.94340874
H      82.44495767      93.86743115     105.27377606
H      83.07234680      94.92378816     102.12927149
C      85.99953286      96.25982466     104.89205136
H      87.47351939      96.20880206     103.45207991
H      87.04644124      95.63054580     106.54934133
C      84.93183749      98.87709560     105.44385143
H      83.89059829      99.04717098     107.21263527
H      83.82256814      99.41566761     103.79412036
N      87.07667686     100.67611505     105.61392681
H      87.90626671     100.81595480     103.89994504
H      88.24830718     100.03927728     106.97830921
H      86.44928773     102.44300915     105.96730562
C      82.03299734      90.49237995     100.10726433
O      82.82101320      89.57019351      98.07391881
N      79.91461413      91.96636648     100.31513422
H      79.40816749      92.36509874     102.11037423
C      78.38582554      93.02839267      98.29501679
H      77.15183426      91.47692736      97.73565781
C      76.59436500      95.16567313      99.31546900
H      77.70174463      96.70013090     100.12427186
C      75.04289969      96.53572471      97.24432896
H      76.29767797      97.09697342      95.71176092
H      74.18307423      98.30072909      97.86982837
H      73.79945979      95.17512175      96.32592197
C      74.95030310      94.20380244     101.54534605
H      76.22775810      94.27372231     103.16106206
H      74.39094413      92.22525899     101.42062411
C      72.60137331      95.78172391     102.26533177
H      71.64139234      95.21669574     103.99821080
H      71.18218885      95.94235065     100.78000689
H      73.28923368      97.70168584     102.56390853
C      80.07524087      93.88254897      96.12183153
O      81.93473156      95.12976832      96.54890968
N      79.03589139      93.28350571      93.87305722
H      77.18773906      92.80351523      93.90140311
C      79.92217303      93.90333595      91.39562602
H      80.75743206      95.78739308      91.39751576
C      82.04244597      92.02494799      90.55091837
H      83.47296879      91.93802059      92.02868435
H      82.95140431      92.89611182      88.92008456
C      81.15238486      89.29807293      89.88195525
C      80.63271013      88.67824269      87.25712540
H      80.73475536      90.07286071      85.77180051
C      80.09413814      86.22159848      86.51635269
H      80.05634360      85.77751280      84.52647088
C      79.77099494      84.34321053      88.51757285
O      79.06990648      81.93569920      87.71632890
H      79.06423729      81.52373887      85.94943480
C      80.20185254      84.96493048      91.03657802
H      80.07524087      83.48716451      92.43875495
C      80.71774781      87.42535415      91.78490964
H      80.99364786      87.77117406      93.77857090
C      77.52977953      94.15277983      89.57015040
O      75.39438879      94.06018324      90.44698342
N      77.67150900      94.79150731      87.13429319
H      79.46485928      94.90867034      86.48800680
C      75.46997784      94.78016895      85.31637647
H      73.78812142      94.18490518      86.34627731
C      75.05234834      97.52216183      84.27891673
H      73.52167002      97.52594129      82.89752680
H      76.79656571      98.00593177      83.29436933
C      74.49676880      99.49503612      86.32738006
H      75.58903061      99.01882507      88.00734675
H      72.57869658      99.25882032      87.04169660
C      75.05045860     102.20490365      85.81148477
H      76.79089654     102.52993657      84.76079694
H      75.26777713     103.20078940      87.60105560
C      72.62593975     103.11575172      84.66064144
H      71.04423883     102.82662360      85.94754506
H      72.09303693     101.95545977      83.04303572
N      72.70152880     105.80483226      84.00490641
H      72.43696711     106.90465299      85.53936418
H      71.59981835     106.53426662      82.62729594
H      74.44763592     106.11474738      83.29625904
C      75.85737174      92.77327962      83.13563231
O      77.90394534      92.55785081      82.11140065
N      73.81268786      91.62621574      82.22856368
H      72.19886160      91.83408564      83.22633917
C      73.57458235      90.46781351      79.79648592
H      75.20730589      89.26972703      79.41287148
C      71.19730666      88.65556598      79.77569893
H      69.72332012      89.81774767      80.62607576
H      71.44108134      87.04740889      81.03803611
C      70.22220788      88.04140492      77.19244305
O      70.98187785      86.01750804      76.24002099
O      68.80302342      89.51917091      76.08317372
C      73.19852682      92.51060766      77.70266917
O      72.24421502      94.59308605      78.05982744
N      73.85804131      91.74715822      75.40476197
H      74.63660855      90.01994838      75.15720782
C      74.14338997      93.32885916      73.16921573
H      75.43218332      94.80851485      73.80416378
C      75.58903061      91.84920345      71.18122365
H      75.84414366      93.19846803      69.64676590
C      78.11559468      90.90811974      72.28860327
H      79.13415717      89.83853465      70.85241127
H      77.78489257      89.54940652      73.80227405
H      79.20785649      92.54651245      72.90087460
O      74.26811191      89.84042437      70.21557352
H      75.05990723      88.53084405      71.19067229
C      71.67729714      94.60820387      72.15821216
O      71.80201908      96.18234588      70.42155367
N      69.43041254      94.24348668      73.35251919
H      69.39072830      92.95280361      74.76036529
C      67.08337246      95.80062116      73.03504516
H      67.16652043      96.66044665      71.16610585
C      64.64940498      94.05262433      72.87441843
H      64.13539943      93.25138037      74.69989406
H      64.96120981      92.27817132      71.87475321
C      62.29291627      95.26960808      71.68956003
H      62.02835459      97.26704879      72.11285872
H      60.56948586      94.30962711      72.27915465
C      62.31748270      94.88788336      68.89087536
O      64.04658228      96.07463148      67.67011217
O      60.58838314      93.80507019      67.79294438
C      66.93975327      98.19679414      74.67721733
O      65.44686949     100.00715195      74.22368302
N      68.36460690      98.27994209      76.75780601
H      69.62127491      96.84563981      76.87118958
C      68.35137883     100.14699168      78.89886592
H      66.85282585     101.53027134      78.60217889
H      70.07480922     101.27137884      78.97823442
C      67.77690202      99.12842921      81.52936494
O      67.80902737     100.57218011      83.28681042
N      66.91707655      96.68690280      81.66164579
H      66.72999365      95.79306227      79.98545855
C      65.94197777      95.34519712      83.86506667
H      64.76089884      96.72658706      84.83449626
C      64.14106860      93.18901941      83.09972751
H      63.33982465      92.34053228      84.79481202
H      65.14262354      91.76983495      81.99423762
C      61.79780797      94.06963186      81.55204167
C      60.85483455      92.57485836      79.49601943
H      61.58993807      90.68513204      79.27870090
C      58.76290752      93.26082901      78.10329115
H      57.96544300      92.10053705      76.62741490
C      57.83316216      95.77038555      78.32627885
O      55.76769130      96.41478222      77.06394167
H      55.40486386      98.18545578      76.88819713
C      58.95188014      97.38232210      80.10073186
H      58.14874647      99.19079017      80.59206070
C      60.95121058      96.57918840      81.79959580
H      61.64662987      97.98325506      83.10728642
C      67.80524793      94.40789287      85.79069779
O      69.69308451      93.39310984      85.03102780
N      67.32336771      94.61954223      88.21332691
H      65.70009280      95.37354303      88.87851057
C      69.06569537      94.03939625      90.17675255
H      70.90817853      94.75560251      89.60038603
C      68.36460690      95.47558825      92.67686047
H      69.51167079      94.56474016      94.12439083
H      66.31425386      95.38677111      92.83370776
C      69.11482825      98.22325030      92.80914130
C      67.35738278     100.24714718      92.98488586
H      65.39962632      99.68589847      93.14173315
C      68.01689726     102.84174142      93.02457010
H      66.76778817     104.37997863      93.51967840
C      70.62849904     103.41432848      93.05858518
O      71.38249984     105.84829598      93.24944754
H      70.05780168     107.08039754      93.36472084
C      72.27067120     101.43767475      92.63717621
H      74.22653794     101.98947484      92.44442414
C      71.59603891      98.95457439      92.48788783
H      72.98687748      97.47302895      92.27812821
C      69.31702897      91.24260130      90.77012661
O      67.55391432      89.86121137      91.58648838
N      71.57147246      90.23537717      90.47532931
H      73.04356927      91.38999996      90.09738404
C      72.48798973      87.68424666      90.92130472
H      70.88361209      86.48616018      91.39940547
C      73.63505359      86.37277660      88.45143244
H      74.55724004      84.59454414      88.92386400
C      71.37494093      85.53373810      86.72422258
H      70.30724556      84.14289955      87.80514603
H      72.05713213      84.64367702      84.99701273
H      70.23543595      87.17968973      86.23856292
O      75.11092984      88.23982618      87.10783702
H      76.67562323      87.56330417      86.49178625
C      74.28322973      87.43102333      93.11527698
O      75.32824837      89.26216812      94.06014013
N      74.59314484      85.12933667      94.12628055
H      73.69174538      83.63456317      93.34960304
C      76.52822459      84.52840371      95.99710959
H      78.17039675      85.72460047      95.66262805
C      75.61170731      85.19358737      98.64461617
H      75.12604766      87.19480753      98.68052096
C      73.08703296      83.61377617      99.36082244
H      71.75477592      83.82920498      97.80557769
H      72.37271642      84.67391263     100.97464870
H      73.20041654      81.57287175      99.62538412
C      77.64883228      84.80241402     100.76299936
H      79.56312504      85.39200863     100.27733969
H      77.46741855      82.79741441     101.19952613
C      76.90428012      86.36710741     103.15917233
H      76.54901158      88.34187142     102.69429965
H      78.32535430      86.35765879     104.64827666
H      75.24510041      85.57153264     104.08891768
C      77.23309249      81.66357863      95.66073832
O      75.84225392      80.20848936      94.44564429
N      79.23431267      80.92091618      96.89283987
H      80.44184778      82.28529858      97.45786804
C      80.14516074      78.31687332      97.04968716
H      78.78833725      77.23028070      98.15139760
H      81.86292196      78.47938978      98.17218458
C      80.60436423      77.25862659      94.59682240
O      81.69284659      78.46427198      92.93008380
N      79.80501000      74.90780706      94.10171410
H      79.10014209      74.07632747      95.66829723
C      80.20374226      73.45271780      91.83971171
H      81.61725755      74.16514462      90.52068275
C      80.85191839      70.82410849      92.61449950
H      79.06612702      69.95672412      93.16252013
C      81.63426508      69.44082883      90.18053201
H      80.02043880      68.99296370      88.98244553
H      82.10669666      67.50007991      90.67753002
H      83.28966532      70.21183716      89.22622021
C      83.01754475      70.54631872      94.56469705
H      82.70007072      71.94471620      96.04246303
H      84.81278474      70.98473523      93.65762842
C      82.98919885      67.91015051      95.84782123
H      83.69973594      66.32655987      94.73855187
H      81.23364310      67.45094703      96.81914054
H      84.20807232      68.22951427      97.47865502
C      77.91717342      73.73239728      90.17108337
O      76.47531224      71.84645043      89.67786480
N      77.36726307      76.05865038      89.45487710
H      78.64660778      77.37956906      89.96321348
C      75.43596278      76.55942784      87.57459943
H      75.16384218      74.97772693      86.28580607
H      75.75721624      78.30931441      86.53336022
C      72.81680210      76.76540801      88.83126742
O      70.92140661      76.37045521      87.60105560
N      72.62782947      77.30964919      91.29924999
H      74.24165575      77.48728346      92.30080494
C      70.22976679      77.88979517      92.50489538
H      68.90884808      76.39880111      91.97766173
C      70.40173187      77.72349926      95.29602114
H      71.99666089      78.90835766      95.83648286
H      70.91951689      75.76007362      95.64939995
C      67.91107260      78.00128903      96.56213777
N      65.88339627      76.30620452      96.20875894
H      66.31236413      74.58088439      95.51522938
C      64.08248708      76.73517240      97.91140235
H      62.56692658      75.48228385      98.45753326
N      64.88562076      78.77229737      99.23232105
H      63.84249184      79.76818313     100.48143013
C      67.16841016      79.66424818      98.26289144
H      68.23043634      81.24972855      98.98665662
C      69.12238716      80.41635926      91.59782675
O      70.49621820      82.13789992      92.15151656
N      67.03423958      80.66013395      90.25234160
H      66.32370249      79.17858852      89.28291201
C      65.60371677      82.91457744      90.11061213
H      66.81314160      84.57186742      89.92352922
C      63.92752952      82.71426646      87.73522616
H      63.06014514      80.84721685      87.76546178
H      65.19364615      82.73883290      86.11006153
C      61.84694085      84.85154692      87.69176246
H      60.80381193      84.85154692      89.46810518
C      62.82014991      87.50472265      87.22500005
H      63.52123837      88.27384126      89.00323251
H      61.27246406      88.79540572      86.79981163
H      64.08248708      87.55952472      85.59983542
C      59.77769054      84.17691461      85.69243201
H      58.04481151      85.21248464      86.11384098
H      59.47911379      82.13978965      85.70943956
H      60.64507493      84.64367702      83.88396393
C      64.09382544      83.25661791      92.62394814
O      62.77668620      81.64657109      93.68975377
N      64.28846726      85.59042989      93.68030513
H      65.05947559      86.88111298      92.50300565
C      63.17919791      86.83764927      95.96876371
H      62.99589445      85.52051002      97.54290572
C      64.87239268      88.84453862      96.99110563
H      63.55147399      89.80074013      98.24966337
H      65.40718523      90.34309157      95.68341503
C      67.30447044      87.82975558      98.10793390
H      68.12839111      86.44269647      96.82669945
C      69.52678859      89.80074013      98.77500727
H      69.06002620      91.26527802     100.14505886
H      70.01244826      90.85142795      97.07047415
H      71.14250459      88.61777145      99.25310803
C      66.80369297      86.42001975     100.62693907
H      66.01000792      84.59454414     100.09781569
H      65.51678936      87.60298843     101.71353170
H      68.52523364      86.21781903     101.73809814
C      60.39752077      87.71259255      95.52089856
O      58.52102255      86.50316771      96.07647811
N      60.02902415      90.00483056      94.28312784
H      61.48600312      90.99693688      93.55180375
C      57.65741761      90.91378893      93.19464548
H      56.44232360      89.29429347      92.81292077
C      56.25902015      92.62588096      94.89161970