 %block lattice_cart
   135.996   0.000   0.000
   0.000 142.663   0.000
   0.000   0.000   160.158
 %endblock lattice_cart

 %block positions_abs
N      88.77837540      39.16079925      80.50702301
H      90.63030719      39.15701980      80.04026061
H      87.98846980      37.90035180      79.31271598
H      88.53460071      38.19136965      82.13218764
C      87.65587797      41.59287702      80.66387030
H      88.61585894      42.65679293      82.14352600
C      87.89020404      43.00261285      78.08061443
H      86.85274428      42.24861205      76.46678815
H      89.85173995      42.76261761      77.49479927
C      87.35163204      45.83720232      78.38108091
H      85.43544956      46.27939827      78.98957278
H      87.67855469      46.64222573      76.51214159
S      89.53804538      47.35654227      80.38419080
C      88.66499182      50.54451056      79.83428044
H      86.64676412      50.58041536      79.41854065
H      89.51347894      51.08875174      78.03904045
H      89.15821039      51.60464702      81.52747522
C      84.78916316      41.26028519      81.46322453
O      83.55517187      39.38567668      80.93599088
N      83.64965819      43.17079849      82.52714044
H      84.65499259      44.78273503      82.72367198
C      80.93601120      43.52039786      83.01846928
H      79.86453639      42.48860729      81.59172591
C      80.34830632      42.34876754      85.57904844
H      81.08907904      43.71503967      86.93209248
H      81.39143525      40.57431454      85.64707858
C      77.57229837      41.60988456      85.96455260
O      75.95469264      42.10310312      84.29970372
N      77.08096953      40.27951723      88.03191319
H      75.24226582      39.79196784      88.20198856
H      78.32062999      40.05841925      89.46621546
C      80.19334876      46.35498733      83.05059463
O      81.83552093      47.91023208      83.20366246
N      77.76127100      46.93324358      82.88618844
H      76.72759071      45.37421937      82.51013290
C      76.63499412      49.36910080      82.93910078
H      77.27750106      50.03617418      81.10039707
C      73.83252999      49.14611309      82.91831379
H      73.03317576      48.00471840      81.40086356
C      72.61932570      48.03873347      85.42031142
H      70.73526857      47.41134434      84.87795997
H      72.50405240      49.39366724      86.96610755
H      73.57363749      46.30396472      85.98911905
C      72.60609762      51.70858197      82.31171164
H      73.10498536      53.01060340      83.82727214
H      70.58220074      51.33441616      82.36651370
C      73.17679496      52.95013216      79.81916263
H      75.12888224      53.60775692      79.84372908
H      71.90878861      54.54884062      79.53003451
H      72.95002781      51.49504290      78.37919118
C      77.66489496      51.03961886      85.02535863
O      77.99937651      53.33374660      84.52647088
N      78.21669504      50.11554269      87.24767677
H      78.00126624      48.22392665      87.37995761
C      78.68912662      51.98259229      89.34716270
H      77.39655382      53.56996239      89.11283664
C      78.50582317      50.72403456      91.92663912
H      78.66456018      52.07707860      93.47243524
H      80.17445150      49.51838917      92.00222817
C      76.26649749      49.09131103      92.19120080
C      73.91189850      50.09286597      93.14551259
H      73.86843479      52.05629161      93.70298185
C      71.82186120      48.59998219      93.50267087
H      70.09276162      49.33508572      94.29635592
C      71.90122970      46.05830030      92.85827419
H      70.22126301      44.92635423      93.10960779
C      74.14811429      45.02462000      91.88506514
H      74.00260536      43.11599643      91.17641777
C      76.39499887      46.51372434      91.66396716
H      78.13165736      45.61610434      91.07248283
C      81.29127975      53.28272399      89.19031542
O      81.40844278      55.64299216      89.51723807
N      83.20179305      51.88054707      88.48544750
H      82.78794299      50.07207898      88.04136182
C      85.68867288      52.92178626      87.81837412
H      86.38598189      54.36364744      89.11472637
C      87.81461498      50.88088185      87.48011311
H      89.24891726      51.46291755      86.11951016
H      86.98124568      49.20658433      86.61650818
C      88.95600968      50.29128724      90.08226624
H      88.87097199      51.90511351      91.35972123
H      90.89675860      49.70736181      89.72132851
C      87.50281014      48.29573625      91.68475415
O      87.24958682      48.62454863      93.96376409
O      86.58440315      46.42868665      90.56414645
C      85.60741465      54.65277557      85.48834157
O      86.74880934      56.63887792      85.26724359
N      83.83107192      53.96302546      83.71955774
H      82.77093545      52.39644235      83.97278107
C      83.23580813      55.40866609      81.33850259
H      84.76459671      55.47291679      79.96278183
C      81.21380097      54.11231384      79.83805990
H      79.38076645      54.58285569      80.65253194
H      81.32529483      52.07329915      80.11018049
C      81.24214687      54.80395367      76.96189645
H      82.75959710      53.91956176      75.88853190
H      81.25348523      56.85997590      76.81071834
S      78.36220397      53.73436858      75.46334348
C      79.22202944      53.74381721      72.14498408
H      79.44501714      55.66377914      71.42877780
H      77.60820317      53.05406711      71.06217090
H      80.88309887      52.53817182      71.98435734
C      82.22669427      58.14498979      81.96022255
O      83.19990333      59.77204415      80.62985522
N      80.64688308      58.49458916      83.86506667
H      79.95335352      57.03005127      84.87418052
C      79.80973432      61.06650667      84.53780924
H      79.55273154      62.22868836      82.85406309
C      77.38143601      60.90021076      85.97589096
H      76.75971605      62.77103981      86.56926502
H      77.73103538      59.76448524      87.65963711
C      75.21769938      59.83251539      84.24868111
H      75.96414128      58.32262407      83.06571244
C      73.30907581      58.91221868      86.05148001
H      71.62532966      58.11475417      85.17464700
H      72.54562637      60.35219013      87.31381719
H      74.26149787      57.43256297      87.11728565
C      74.09709168      61.75058760      82.46288975
H      74.02528208      63.61952692      83.32460494
H      72.23193181      61.20634642      81.77313964
H      75.38966448      61.88853762      80.86418128
C      81.83363120      62.50080895      85.94754507
O      82.03016274      64.76848052      85.77180052
N      83.49848009      61.38020124      87.54625353
H      83.24714649      59.51504137      87.87317618
C      85.44111873      62.60663362      89.06748321
H      84.70601520      64.20723181      90.13706830
C      86.44456341      60.60541345      90.92508417
H      88.14720682      61.28949438      91.86238843
H      86.75447852      58.82529127      89.93297786
C      84.47735832      60.04416474      92.89039954
H      82.72747175      59.59629960      91.89829323
H      84.32051103      61.70145471      94.10171411
C      85.21246185      57.55728491      94.32470181
H      87.03226829      57.67633767      95.27712387
H      85.44867764      56.08896757      92.89795845
N      83.40588350      56.72958479      96.29379663
H      82.99203343      54.87009409      96.19364114
C      83.08840948      57.67822739      98.54446067
N      84.23169389      59.64165303      99.42318340
H      83.81217465      60.35030040     101.14283435
H      85.77560029      60.35974903      98.55768875
N      81.76560106      56.32140390     100.24332462
H      81.77504969      56.89210125     102.06502079
H      81.24025714      54.54317144      99.79356976
C      87.44989781      63.70456461      87.37995761
O      88.61018976      65.58673201      88.15096595
N      87.91477048      62.41199181      85.18409564
H      86.91510526      60.80383472      84.93843122
C      89.53426593      63.24725084      83.21689054
H      91.26903468      63.99180301      84.04081122
C      90.34495852      61.05705804      81.49912933
H      88.74058088      60.01014966      80.74134907
C      91.87185738      61.98491366      79.21822967
H      90.89864833      63.18677960      77.86140617
H      92.78270546      60.42588945      78.22801308
H      93.51402954      63.02615286      79.89853114
C      92.00791767      59.25803859      83.04870490
H      91.18966618      59.04827897      84.92898258
H      93.90331316      60.05739282      82.97689530
C      92.14964715      56.67478272      81.92809720
H      93.63308230      55.48992432      82.72367198
H      92.45200336      56.80517384      79.89286196
H      90.34117906      55.77905245      82.34761644
C      88.41932740      65.46012035      81.86573623
O      89.82717351      67.30827269      81.40086356
N      85.97780101      65.37886212      81.39897383
H      84.94978989      63.97857492      82.19076916
C      84.92144400      67.16465349      79.47334272
H      86.24614214      67.80716043      78.03148154
C      82.79361217      66.09695812      77.99746647
H      81.91488943      67.70133576      77.04882386
H      81.43489895      65.28626553      79.31649543
C      83.46824446      64.16376809      75.92254698
O      85.22002076      64.64186886      74.47690635
O      82.00559630      62.34585139      75.67499283
C      84.23358362      69.83483677      80.55804562
O      84.88364947      71.67165074      79.32216461
N      83.22635950      70.18254641      82.95043913
H      82.92589301      68.50068999      83.79892625
C      82.27960661      72.39730565      84.28458591
H      81.82985175      73.76735722      82.81626857
C      80.13476725      71.65275347      86.19509921
H      79.80406514      73.36106607      87.29869938
H      80.88309887      70.19955394      87.44987749
C      77.61387235      70.80993553      85.11984494
H      76.40633723      70.23167929      86.68453833
H      77.75371209      69.06382842      84.03514204
C      76.38932970      73.01713588      83.46444469
O      74.95313770      72.49179195      81.69188141
O      77.05073391      75.21677730      83.89341256
C      84.45090215      73.95632984      85.59227652
O      84.15043566      76.17864800      86.11762043
N      86.53527027      72.61084472      86.18565058
H      86.75447852      70.84773007      85.49023130
C      88.56861578      73.46500101      87.73900561
H      89.21679191      75.29425607      87.05303496
H      90.25614138      72.28392207      87.69743163
C      88.00736707      73.69743734      90.53202110
O      86.11197158      72.62029334      91.29736026
N      89.62686252      75.03536357      91.82837335
H      91.03281890      75.92353495      90.89295883
C      89.29427069      75.67409106      94.43430594
H      87.34785258      75.40008076      95.05224644
C      90.75124967      73.69554762      96.18797196
H      92.71278559      73.92231478      95.60215680
H      90.01803586      71.84361584      95.65884859
C      90.40731949      74.13207440      99.07547376
H      90.83628736      76.09172058      99.55168479
C      87.77871018      73.33460989      99.91451225
H      87.13620324      73.88074080     101.79290020
H      87.44800808      71.32772055      99.59136905
H      86.57306480      74.31348812      98.55957848
C      92.36129649      72.52202758     100.81402197
H      91.85862929      70.53403550     101.01055351
H      92.27436908      73.13240917     102.77744761
H      94.29448651      72.70533104     100.12805132
C      90.04071258      78.31025927      95.09571015
O      92.24602319      78.97733267      95.23932935
N      88.13397873      79.68975948      96.13128017
H      86.36330518      79.06237035      95.78923970
C      88.33617945      82.11427835      97.38416871
H      90.23535439      82.44309072      98.10604416
C      87.56895056      84.14195467      95.47176568
H      87.50847932      85.93530495      96.48276926
H      85.61119410      83.79235531      94.93886286
C      89.23379945      84.59737871      93.22677082
H      89.53804538      82.85883051      92.16474464
H      91.13675384      85.10949454      93.82770379
C      88.04705132      86.69686466      91.57137057
H      89.51914812      87.87983332      90.74744990
H      86.98313541      87.99321690      92.76756733
N      86.32929010      85.56491859      89.63818056
H      86.23102433      83.66952310      89.83093264
C      85.26348446      86.63828313      87.67853437
N      85.45245709      88.97209514      87.33838363
H      84.82506796      90.02278297      85.87195601
H      86.75447852      89.80735416      88.45899134
N      83.93878632      85.31925417      86.05336974
H      82.78983272      86.19608718      84.80426065
H      83.82162328      83.41441005      86.12328961
C      86.83384703      82.32214824      99.82947456
O      84.60208025      82.03490984      99.96742458
N      88.12264037      82.48277498     101.98754201
H      90.02559477      82.50167224     101.83825363
C      87.07573200      82.63206336     104.59158487
H      85.49592080      81.31303439     104.66339447
C      89.06372408      81.66074403     106.48509064
H      88.21145751      82.04813792     108.31812516
H      90.86652298      82.59237910     106.12226318
C      89.80071734      78.85827991     106.17517552
H      90.28070782      78.42931204     104.21741906
C      92.12319097      78.00223389     107.79278124
H      93.54804462      79.47622040     107.57357299
H      92.88097123      76.31848774     106.88193316
H      91.42588197      77.79625372     109.71841236
C      87.74469511      76.93642825     106.73075506
H      87.08518063      77.32193241     108.64315809
H      88.60452058      75.06181975     106.71185779
H      86.20456817      77.11784198     105.37771102
C      86.06094897      85.27390074     105.25298908
O      84.51704257      85.39673294     106.95563249
N      86.95667924      87.26378254     104.10025603
H      88.32106164      86.90662428     102.81335241
C      85.73024686      89.75066237     103.99065190
H      84.70979465      89.76578019     105.78022272
C      87.76926155      91.80101543     103.64105253
H      89.03537818      91.69330103     102.01777763
H      89.15821039      91.81046406     105.16417194
C      86.50881410      94.37671238     103.49554361
H      85.15577006      94.43340417     105.04889864
H      85.62631191      94.55623639     101.64172210
C      88.31161300      96.64627369     103.78845119
H      87.44233890      98.50576438     103.63727308
H      89.84418104      96.43462435     102.42973797
C      89.44733852      96.63682506     106.33769198
H      90.35629687      94.80945972     106.61548175
H      87.87697595      96.63115587     107.67372849
N      91.27848332      98.74386990     106.75154205
H      92.09862454      98.51521302     108.45985463
H      90.18811123     100.30289411     106.88193316
H      92.59751228      99.00276240     105.39471855
C      83.67989381      89.78467744     102.02722626
O      84.01059592      88.71509235     100.00332938
N      81.66355584      90.99788175     102.49020921
H      81.55395171      91.75755172     104.23820605
C      79.62643087      91.51188730     100.59292399
H      78.59653003      89.73554456     100.43040753
C      77.61009289      93.48287185     101.68518580
H      77.33986203      93.12760330     103.69585460
C      78.72314169      96.26454897     101.60014812
H      77.78394771      97.68940262     102.75666062
H      78.60219921      97.04689566      99.69719372
H      80.74514885      96.22108526     101.99132146
C      74.97959387      92.90461559     100.53812193
H      74.53550818      90.91662350     100.23387599
H      75.14777951      93.77388970      98.67863124
C      72.96703534      94.42206581     102.12360231
H      73.74560258      95.49354064     103.70152378
H      71.68769063      92.93863067     102.76421953
H      71.97492903      95.65605711     100.80457334
C      80.66578034      92.55501623      98.14761814
O      82.59708063      93.90428081      98.16651541
N      79.47147331      91.84447912      96.00466850
H      77.95402308      90.70497417      96.22198703
C      79.72658636      92.94052039      93.47810442
H      80.88498859      94.61859735      93.77101200
C      81.40466333      90.91473379      92.17419327
H      83.26604375      90.90150569      93.05669546
H      82.07173672      91.57046881      90.33737929
C      80.51838169      88.21998407      91.82081445
C      79.42234043      87.42062982      89.51723807
H      79.10297668      88.64517249      87.91663988
C      78.87054034      84.79013080      89.22055104
H      77.76882990      84.22699237      87.59727614
C      79.39021508      82.98922162      91.09515954
O      78.80628965      80.55714387      90.88162047
H      78.19968750      80.17919860      89.21299214
C      80.81317899      83.80747311      93.22866055
H      81.28183112      82.43931127      94.66674227
C      81.21569070      86.38505982      93.61983390
H      82.13220796      86.86882974      95.37727937
C      77.16411748      93.31279647      92.11183230
O      75.15344869      92.95941766      93.26078590
N      77.24159626      93.71530817      89.48889218
H      78.99715201      93.83625066      88.75000919
C      75.01549867      93.20886153      87.71632890
H      73.34120115      92.46619908      88.65930233
C      74.07441496      95.62582149      86.70154587
H      72.93491000      95.41606187      84.99890246
H      75.69580014      96.62737642      85.92108890
C      72.69302503      97.32468543      88.59127218
H      73.63599846      97.03933677      90.39974026
H      70.75605556      96.62926616      88.65930233
C      72.63822296     100.14982628      87.82026384
H      74.48070612     101.00776203      88.15096595
H      71.22659741     101.15516067      88.93331264
C      71.80296393     100.64682430      85.11228604
H      69.76583897     100.35013727      85.07260178
H      72.77050381      99.28055217      83.91230983
N      72.34342566     103.32834594      84.25812974
H      72.66656886     103.31133840      82.37785206
H      73.88922178     103.73841655      85.29747921
H      71.04140423     104.60769064      84.81937846
C      75.67123370      91.55724073      85.38251690
O      77.64788742      91.94652435      84.24868111
N      73.91945740      89.89239184      84.76457639
H      72.27728524      90.21553504      85.68487311
C      73.71914642      88.33336764      82.40619796
H      75.13644115      86.84048386      82.37596233
C      71.14533918      86.99355168      82.32871918
H      69.46537248      88.18785872      82.36651370
H      70.80140899      85.99577619      84.09939273
C      70.95447682      84.93186027      80.15931337
O      72.59853871      83.13662028      80.02892225
O      69.33120192      85.15106852      78.56438436
C      73.94024439      90.13238709      80.07994486
O      73.60198338      92.38116141      80.37474217
N      74.57141298      89.13272187      77.84817809
H      75.06841100      87.29401817      77.69888971
C      74.64322258      90.67473854      75.48602020
H      75.78083782      92.34147714      75.89420108
C      75.71847685      89.14594995      73.36007810
H      75.35942885      90.31946999      71.70656757
C      78.61353757      88.55446561      73.58306580
H      79.09730750      87.20142158      72.10718955
H      78.91211432      87.60393329      75.38586470
H      79.93067681      90.11537956      73.32417330
O      74.37677117      86.83670439      73.19756163
H      75.15911787      85.82570083      71.90876829
C      72.01650301      91.55724073      74.65643035
O      71.67257282      93.02177862      72.87252871
N      69.93024516      90.57269332      75.83372984
H      70.25149863      89.24799517      77.17165607
C      67.38100436      91.61582225      75.73924352
H      67.16368584      92.64761282      73.97045969
C      65.41001981      89.47476234      75.54082226
H      65.34387940      88.49399437      77.34929034
H      66.09221102      88.10282102      74.16321178
C      62.61889405      89.91317883      74.87563860
H      61.91591586      91.37204755      76.14742441
H      61.76662749      88.18029981      75.58806542
C      61.75339940      90.20230696      72.20356559
O      60.98428079      92.24132166      71.35318875
O      61.45293292      88.15951281      71.00925856
C      66.76873303      93.67184448      77.72534588
O      64.66735738      94.52978022      78.04470963
N      68.76239430      94.46552952      79.14453034
H      70.49527333      93.93262670      78.54926655
C      68.68869497      96.37415311      81.15897859
H      67.77028798      98.03144307      80.34639627
H      70.64078225      96.70674494      81.72211703
C      67.40179135      95.60692421      83.61940225
O      66.84999126      97.16594843      85.17275728
N      66.37378023      93.33358347      83.76491117
H      66.63456247      92.27533673      82.19832806
C      65.41568899      92.37549223      86.08171563
H      63.88690041      93.64349857      86.62595681
C      64.05886550      89.83947951      85.53747446
H      63.41068938      88.86816018      87.23444869
H      65.61411025      88.72832044      84.77024557
C      61.99528437      89.68074251      83.57593854
C      61.44726374      87.18441405      82.81626857
H      62.34299401      85.58948503      83.72144747
C      59.72950252      86.74977699      80.86796074
H      59.44037438      84.84871232      80.18010036
C      58.55598248      88.76044579      79.58483657
O      57.12168021      88.22943270      77.47023283
H      56.97806101      89.44641644      76.13230660
C      58.98117090      91.33614275      80.41253670
H      58.02307966      92.84225463      79.42420983
C      60.79908760      91.70463939      82.28525547
H      61.31498289      93.61704242      82.78414322
C      67.35454818      92.01455449      88.22277555
O      69.27828958      90.68418718      87.76924123
N      66.99927965      93.11248549      90.43564506
H      65.35899721      94.03467192      90.75500881
C      68.87577788      92.83658544      92.54835908
H      70.72770966      93.57735816      92.03246379
C      68.15579215      94.42395555      94.84815600
H      69.25372314      93.78900751      96.47143090
H      66.33409597      93.73231571      95.51711912
C      68.42602301      97.31901626      94.59493267
C      66.31708845      98.74009044      94.06014013
H      64.50484091      97.80656565      93.94108737
C      66.46637682     101.28744152      93.45731743
H      64.80341766     102.28332729      92.81858994
C      68.75294566     102.61969856      93.51400922
O      69.00616899     105.06122497      92.69386800
H      67.51328520     105.63003259      91.83782198
C      70.96014600     101.25720589      94.45131347
H      72.83475450     102.06033958      94.53446143
C      70.73148911      98.65883221      94.73099297
H      72.48137568      97.61948274      94.90673752
C      68.99105118      90.11726928      93.42897154
O      67.04652280      88.80390949      93.99777916
N      71.31163509      89.09492735      93.41007428
H      72.67979694      90.31380082      92.87339200
C      71.88611189      86.40395707      93.64817979
H      70.36866166      85.42696857      94.64217583
C      72.47759623      85.18697332      91.03279857
H      74.04039989      86.07514470      90.02746418
C      72.83475450      82.34104551      90.96287870
H      71.14722890      81.40374124      91.67719525
H      74.44669105      81.99522559      92.19875971
H      73.46403336      81.58704471      89.15252089
O      70.31008015      85.45909392      89.53046616
H      70.07386436      87.20142158      89.08827020
C      74.03284098      86.21876389      95.58136981
O      75.26116309      88.02723198      96.07458838
N      74.43346296      83.98888684      96.55835831
H      73.44891555      82.43931127      96.03868358
C      76.56129479      83.39362306      98.28745789
H      78.16567243      84.48777459      97.59581806
C      75.83752961      84.46887732     100.84047814
H      75.28572953      86.44742078     100.67985140
C      73.63788818      83.00244971     102.19163245
H      72.09965097      82.51490033     100.91228774
H      72.69680448      84.15140331     103.61837582
H      74.46936776      81.33949055     103.07791409
C      78.11842927      84.60871708     102.67918184
H      79.70390965      85.37972541     101.61148647
H      78.61353757      82.72843940     103.35948331
C      77.59875454      86.12427758     105.05078836
H      76.42901395      87.73621413     104.51788554
H      79.46958359      86.55324545     105.79723026
H      76.55562561      85.03579523     106.45296529
C      77.18868393      80.37761987      98.32714214
O      75.72981521      78.79969838      97.44841941
N      79.20502190      79.68409031      99.61215604
H      80.16122342      81.05036243     100.54190138
C      79.89477201      77.07815772     100.14883831
H      78.33763752      75.98022674     100.93118500
H      81.45757567      77.31626324     101.46786727
C      80.88120914      75.50023624      97.88683591
O      82.61597790      76.24478842      96.45253364
N      79.63398977      73.32705098      97.42574269
H      78.23181285      72.88674475      98.64272644
C      79.89288228      71.86629254      95.12027659
H      81.40088388      72.66564677      93.96565381
C      80.58263238      69.08272569      95.70987120
H      78.88187870      68.24935638      96.52245351
C      81.37820716      67.78448371      93.22110164
H      79.96091243      68.30604818      91.81892472
H      81.30072838      65.76625601      93.61983390
H      83.10163756      68.48368244      92.33859946
C      82.66133133      68.66131673      97.81880576
H      82.32684977      69.82349841      99.48932383
H      84.51704257      69.27736749      97.17062964
C      83.13187318      65.87963959      98.67107233
H      84.47735832      65.36941348     100.14316913
H      83.81028493      64.69667091      97.12716593
H      81.39143525      65.14075659      99.48554437
C      77.47970178      72.01936037      93.37416948
O      76.04728923      70.19577449      93.28913179
N      76.82585647      74.23789908      92.33293028
H      77.94457445      75.78180546      92.28757685
C      74.62810477      74.42120253      90.67375058
H      74.61865614      72.60895498      89.69676207
H      74.89266646      76.00290345      89.38117778
C      72.14689412      75.08827591      92.09671449
O      70.30630069      74.76135326      90.89673828
N      72.17712974      75.90463768      94.50044636
H      73.81552246      76.16541990      95.44530952
C      69.81119240      76.23533979      95.98010206
H      68.58287030      74.68954365      95.39428690
C      70.23071164      75.97644727      98.81091208
H      71.42690840      77.51657422      99.47798547
H      71.30785564      74.23411961      99.03389978
C      67.67202221      75.78936437     100.10537460
N      66.11488773      73.60862020     100.21308900
H      66.46637682      71.96833777      99.30224092
C      64.03240933      74.26246552     101.43952138
H      62.28252277      73.21555714     101.36204260
N      64.23272032      76.72099944     102.05746188
H      62.83054340      77.83404824     102.71886609
C      66.58920904      77.59972218     101.38471932
H      67.35265847      79.48377931     101.56046386
C      68.60365729      78.85639018      95.36027183
O      69.80174377      80.78391102      95.94419726
N      66.34543434      78.95465595      94.17730316
H      65.41190954      77.29736597      94.01856615
C      64.93380878      81.24311452      93.56503183
H      66.25283775      82.73410857      93.02645983
C      62.94014753      80.56092331      91.52601714
H      62.27685358      78.64096138      91.86616788
H      64.04185797      80.17730887      89.82904291
C      60.71216020      82.51490033      90.93453281
H      59.54619907      82.97410382      92.56914607
C      62.07276315      85.05658221      89.98777992
H      63.40879965      84.72965956      88.45521188
H      62.95526534      85.82381109      91.68286443
H      60.55153347      86.32458856      89.42275176
C      58.87723595      81.50767620      88.99756334
H      58.19504475      79.71810537      89.75345386
H      59.72194361      81.35082891      87.12484456
H      57.37490353      82.91741203      89.03724759
C      63.52974214      82.31836878      95.89317465
O      62.23527961      80.97099393      97.33881528
N      63.80186271      84.82603561      96.27111991
H      65.10577387      85.54413160      95.07681288
C      62.53952555      86.32269884      98.18352294
H      61.74773022      85.18886306      99.71042180
C      64.56342242      87.96298129      99.56113343
H      63.61666955      89.05524310     101.03134050
H      65.34387940      89.29145888      98.19297157
C      66.69314397      86.40206735     100.79323498
H      67.53029274      85.27390074      99.28712311
C      68.91924158      88.11037993     101.48487481
H      69.76772869      89.19130338      99.94852732
H      70.50472196      86.97465442     102.14438929
H      68.22949148      89.22909792     103.07035519
C      65.70670684      84.77690272     102.96453051
H      67.18447282      83.54669089     103.70152378
H      64.46893610      83.41252031     102.04234407
H      64.68625463      85.69341998     104.50087801
C      60.31909712      87.95731210      97.42385297
O      58.23283928      87.67952234      98.52178395
N      60.78963898      89.64105825      95.63995133
H      62.56220226      89.87349459      94.97098821
C      58.67503524      91.09992697      94.42863676
H      57.02341444      89.88672267      94.21887714
C      57.87190155      93.28256086      96.12939044