 %block lattice_cart
   135.996   0.000   0.000
   0.000 142.663   0.000
   0.000   0.000   160.158
 %endblock lattice_cart

 %block positions_abs
N      92.10996289      42.17113327      78.96500634
H      91.37296964      41.03918720      77.61763148
H      92.21578756      41.37366876      80.69599564
H      93.83150356      42.68513882      78.32438912
C      90.54526950      44.53140143      79.17476596
H      91.22557098      45.44602897      80.89063745
C      90.93644285      46.21892703      76.89197658
H      89.79126870      45.20225427      75.51247637
H      92.93388357      46.38144349      76.42332445
C      89.85740913      48.81352126      76.96378618
H      87.82406362      48.47526025      77.01480879
H      90.44133455      49.90956252      75.32350374
S      90.89486887      50.52372357      79.67743316
C      94.06205017      51.28906273      78.66642958
H      93.85229055      52.29061767      76.87685877
H      95.34895379      49.72814879      78.28470487
H      94.85762496      52.60998142      80.03459143
C      87.73524647      43.86243832      79.56215986
O      86.84140594      42.07475722      78.43021380
N      86.46535040      45.22493099      81.22322929
H      87.42533137      46.65356408      82.04714996
C      83.80650547      44.89422888      81.69188141
H      82.88431904      44.24605276      79.96656129
C      83.37564787      43.08765053      83.91797901
H      84.71735355      41.52673659      83.89908175
H      81.56340034      42.10877230      83.91608928
C      83.47958282      44.62966720      86.36139513
O      81.55773117      45.15312139      87.45554667
N      85.65087836      45.42146252      87.34972199
H      85.55639203      46.11310235      89.12606473
H      87.28738135      44.69958707      86.68831778
C      82.74447929      47.65511903      82.13218764
O      84.20523772      49.38043915      82.44021303
N      80.23114329      48.06518964      81.80904444
H      79.22013971      46.69513806      80.94354979
C      78.98770337      50.62387906      81.85628760
H      79.70013019      51.83141418      80.34639628
C      76.12098855      50.28561805      81.25724436
H      75.92823648      49.55807342      79.34106188
C      74.96636578      48.73982193      83.37940701
H      75.80162481      49.19524597      85.20488263
H      75.45769462      46.77828602      82.97689530
H      72.91223328      48.78139591      83.28681042
C      74.59408970      52.73659308      81.22700874
H      74.50338283      53.56051375      83.11295560
H      72.76483462      52.17345464      80.46544903
C      75.48415080      54.63387830      79.18232487
H      77.32285450      55.46913733      79.58672630
H      74.31252047      56.31573472      78.98390360
H      75.82808098      53.63799253      77.41165131
C      79.60942334      52.06951969      84.33371880
O      80.25382000      54.36175771      84.18443042
N      79.76627061      50.80529279      86.58249311
H      79.59619524      48.90800757      86.66186161
C      80.31240152      52.14132929      89.03535786
H      79.32029521      53.94034874      88.87662085
C      79.08785887      50.75615991      91.39562603
H      79.64343841      51.73503814      93.12094615
H      79.93256654      48.89288976      91.62617264
C      76.23815160      50.34797902      91.38428767
C      74.63377396      52.03172517      89.96510321
H      75.30084733      53.66255897      88.93709210
C      72.03729000      51.63866209      90.27690805
H      70.68802540      52.58541498      89.07693184
C      71.14722890      49.92279060      92.09671449
H      69.11955256      49.77161250      92.27245904
C      72.67412777      48.12944033      93.18141739
H      72.02595163      46.75182985      94.53635116
C      75.17612540      48.47714997      92.88662009
H      76.48381602      47.12599566      93.68786405
C      83.10541702      52.86887392      89.26212502
O      83.38698623      54.72647489      90.67375058
N      84.87042138      51.81629637      87.71065972
H      84.50003503      50.21569818      86.73934039
C      87.28738135      53.05406710      87.09082949
H      87.80327662      54.20868988      88.71788384
C      89.35096247      51.15111270      87.11539593
H      89.13553368      49.98704130      85.42787033
H      89.00136310      50.27050024      88.94276127
C      92.02114575      52.28305877      87.20232334
H      92.19500057      53.97436382      88.36639475
H      92.53704103      52.88210201      85.29747922
C      93.98079194      50.20813927      87.83160220
O      94.50991532      48.59620273      86.14785606
O      95.14486335      50.21569818      89.79880729
C      87.15132105      55.01749274      84.90819560
O      88.11886091      57.18122937      85.18598536
N      86.10441267      54.40144196      82.74256924
H      85.63387081      52.57974580      82.43076440
C      85.85307908      56.13810044      80.52214082
H      87.55383276      56.12487236      79.36184887
C      83.96524249      54.80017422      78.84595358
H      82.29283470      54.55828925      80.02514280
H      84.80995014      52.99926504      78.31494049
C      83.55139242      56.10597510      76.22301346
H      84.87042138      55.63921270      74.70934268
H      83.31706636      58.13365143      76.49702378
S      80.43523373      55.04205918      75.02681671
C      80.38799058      55.79228053      71.54405111
H      78.74581840      55.03450028      70.55950370
H      82.02638329      54.93245506      70.63698248
H      80.59586046      57.82373632      71.27948943
C      84.94034127      58.81962208      81.13630188
O      86.21779624      60.61108263      80.38608053
N      83.09596838      59.07284541      82.96366722
H      82.35141622      57.52893901      83.80837488
C      82.11142097      61.50303345      83.71010911
H      81.65221747      62.56505964      82.00746571
C      79.77005006      61.24414094      85.20110317
H      79.16155819      63.16221315      85.64140941
H      80.21224602      60.13298187      86.87729041
C      77.55907028      59.95345787      83.67609404
H      78.09575255      58.12798225      82.88618844
C      75.34053159      59.83062566      85.43731896
H      74.81329795      61.73924924      86.00801631
H      75.89800085      58.81773236      87.14185210
H      73.67946216      58.94245429      84.60394966
C      76.64444274      61.54838688      81.48590124
H      75.03817538      60.80194499      80.43143396
H      78.14110598      61.60318894      80.07238596
H      76.37232216      63.46834881      82.17565135
C      84.06350825      62.93733572      85.29181004
O      83.96902194      65.24847100      85.50534911
N      85.90788113      61.72980060      86.50879378
H      86.01937498      59.83062566      86.39541020
C      87.69178278      63.21890494      88.03947210
H      86.59385178      64.64753803      89.03535786
C      88.75002950      61.58429168      90.05014089
H      90.13519890      62.67655349      91.11405681
H      89.65709813      60.02337774      89.05992431
C      86.87164155      60.18778393      91.84349116
H      85.43733929      59.29394339      90.66619167
H      85.76237220      61.52571016      92.94898106
C      88.21145750      58.30183707      93.52156813
H      89.73079746      59.21835433      94.56847651
H      89.20734327      56.99792592      92.27812822
N      86.34062846      56.99981564      95.06925398
H      85.15765978      55.76204491      94.22454632
C      85.69245233      57.62342533      97.43330160
N      86.87542100      59.33740709      98.73532303
H      86.37842298      59.77771332     100.52300412
H      88.29649520      60.37486684      97.99266059
N      83.86697671      56.47447173      98.58603465
H      83.59296640      56.77304849     100.45119452
H      82.97313616      54.97402904      97.81880577
C      89.86307830      64.26392359      86.41997665
O      91.14431275      65.97790536      87.22688978
N      89.89520365      63.57417349      84.05781876
H      88.58751305      62.28160069      83.54381320
C      91.56950116      64.80627504      82.02258352
H      93.15687127      65.87019096      82.79170213
C      92.51058488      62.72379665      80.14797501
H      90.95911957      61.38020124      79.94955375
C      93.41576377      63.89920641      77.54960133
H      94.07716798      62.56883909      76.12285797
H      95.01636196      65.11807988      77.98990756
H      91.81516558      64.82895176      76.64442243
C      94.74235164      61.31028136      81.41220192
H      94.31338378      60.55439084      83.27736179
H      96.11429295      62.80694460      81.77124992
C      95.95744566      59.27882558      79.81160373
H      96.74546154      60.05172364      78.07305552
H      94.37007557      57.99003223      79.56971876
H      97.48812398      58.44167682      80.90575527
C      89.91410092      66.83584110      80.65253194
O      90.80605174      68.95233457      80.08750377
N      87.34596286      66.32939445      80.28781476
H      86.92455390      64.47746266      80.45789013
C      85.55450232      68.11707554      79.01413923
H      86.39543052      68.80493592      77.26425266
C      83.33785334      66.54293352      78.16943156
H      81.59930514      67.64842342      78.25257952
H      83.00715124      64.93288671      79.40909203
C      83.60430475      65.36941348      75.54271199
O      84.90065700      66.28593075      73.81361241
O      82.48558679      63.28126591      75.20634071
C      84.78916316      70.45844644      80.55426617
O      84.71546384      72.46533579      79.45066600
N      84.54916791      70.29215053      83.04681518
H      84.74191999      68.62730165      83.96144271
C      84.06539797      72.60517554      84.73245105
H      83.80461575      74.23222989      83.49657004
C      81.80528530      71.88141036      86.37651294
H      81.48214211      73.59728185      87.46877475
H      82.41566690      70.54726358      87.82215357
C      79.48092195      71.01024653      85.04803534
H      78.39999850      70.09183954      86.54091913
H      80.11586998      69.45311205      83.85750777
C      77.98236897      73.01713587      83.62696116
O      78.91967322      75.17520332      83.18854465
O      75.99626663      72.36707002      82.39108015
C      86.21590653      73.35917634      86.25368073
O      86.34062846      75.46811090      87.06815277
N      87.92988829      71.63952539      86.79414246
H      87.49525124      69.80460114      86.50501433
C      89.95756463      72.17620766      88.59694136
H      90.76636748      74.02813945      88.18876048
H      91.21801207      70.56616084      88.34749749
C      89.07884189      72.43510017      91.31247807
O      87.21935120      71.28614657      91.91908022
N      90.44511402      73.99979356      92.73166253
H      92.07594782      74.70844092      92.04191243
C      89.82528379      74.80292724      95.26578552
H      87.83351225      74.36073128      95.54735474
C      91.09140042      72.92075983      97.15362210
H      93.10017948      72.57493992      96.86260425
H      90.17677288      71.10284312      96.84181726
C      90.65487364      73.75223941      99.96364513
H      91.68288474      75.52291296     100.17907393
C      87.79193826      74.01680109     100.64016715
H      87.46501561      73.97900657     102.67162294
H      86.54282918      72.46533579     100.12238214
H      87.02659912      75.78747465      99.91451225
C      91.78304024      71.59606168     101.67006799
H      91.40887444      72.27636316     103.57869157
H      93.76914260      71.44488358     101.14661380
H      90.87597161      69.81216005     101.18251860
C      90.41487839      77.59594273      95.91396164
O      92.65798352      78.25356749      96.00088905
N      88.58184386      79.19276146      96.51111516
H      86.77337578      78.76757304      96.07269865
C      88.96545830      81.78168651      97.56180299
H      90.98179629      82.09160163      97.84715166
C      87.97713144      83.45220457      95.44719924
H      87.86185814      85.32492335      96.29568636
H      85.99858800      83.13473055      94.96720876
C      89.68733375      83.55236007      93.16440986
H      90.01992559      81.65129540      92.44442413
H      91.45233813      84.49155404      93.66140788
C      88.49869591      85.09437674      91.00823213
H      88.30783356      87.05213320      91.61861373
H      86.66377166      84.42163417      90.35816628
N      90.06905847      84.88272739      88.78213454
H      91.28982167      86.26789678      88.30214405
C      90.49424690      83.00622916      87.22311033
N      89.33395494      80.84816171      87.45932612
H      89.89331393      79.53291220      86.19320949
H      87.77304101      80.45320891      88.48544751
N      92.25736155      83.24622440      85.48078267
H      92.49924652      81.61350087      84.52458115
H      93.48757338      84.69942394      85.34283265
C      87.71634922      82.33159687     100.12049242
O      85.59607629      81.68720020     100.74410210
N      89.09395969      83.42385868     101.92518104
H      90.80605174      84.12872659     101.46597755
C      88.23791367      83.56558815     104.64449721
H      86.56928534      82.37128112     104.83724929
C      90.34495852      82.69064487     106.37548651
H      89.77993034      83.10449493     108.31245598
H      91.97579232      83.90762861     106.04478441
C      91.14431275      79.79369443     106.20919060
H      92.13830878      79.50645603     104.42906841
C      93.00002398      79.09638542     108.28411009
H      94.80849206      79.97699788     107.84191413
H      93.33261581      77.06870909     108.41450120
H      92.53704103      79.62928824     110.22107956
C      88.64231510      78.12506610     106.41517076
H      87.18722585      78.30081064     104.96764041
H      87.97146226      78.47088601     108.33135325
H      89.10340833      76.12195620     106.29044883
C      87.19478476      86.16774128     105.37960074
O      85.77937974      86.31136048     107.22208390
N      87.85996841      88.35793408     104.04167452
H      89.16010012      88.18785871     102.65461540
C      86.70156618      90.79568103     104.10970466
H      85.62253247      91.19252355     105.81801725
C      88.56672606      92.97453546     103.98120327
H      87.55383276      94.62804599     104.68229174
H      89.27537342      93.28634031     102.07446942
C      90.80227228      92.80446010     105.98431317
H      91.98902040      91.18118519     105.53833776
H      89.94811599      92.45297100     107.82490659
C      92.58806365      95.06457277     106.16194744
H      93.47434530      94.96063782     108.01954840
H      91.60729570      96.86737167     106.34147144
C      94.62707835      94.99843235     104.11726357
H      93.88441590      95.55212215     102.27667014
H      95.35084352      93.06902178     104.10403548
N      96.63207797      96.88437921     104.70496845
H      96.02547581      98.69473701     104.73898352
H      98.10417476      96.72564220     103.49932306
H      97.22167257      96.67650931     106.50776735
C      84.73058165      91.04890435     101.84770227
O      85.11608581      89.91128911      99.80679785
N      82.56117584      92.25643947     102.39194344
H      82.59330119      93.21831016     104.04167452
C      80.42956455      92.53233951     100.42284863
H      79.63776922      90.67851799      99.99766021
C      78.21102587      94.00254658     101.63605292
H      78.91778350      95.88093453     102.09525641
C      76.27594612      94.70741449      99.57814096
H      75.54273230      92.94807930      98.79390454
H      77.25860379      95.64282902      98.03045511
H      74.62621505      95.77133041     100.20364037
C      77.06963117      92.76288612     103.94907793
H      78.51716153      92.51155252     105.39093910
H      76.26838721      90.88827761     103.65239089
C      75.11754389      94.42962472     105.33424731
H      76.13043719      96.04534072     106.11281455
H      74.53928763      93.45263622     107.05389826
H      73.41867994      94.90394603     104.27033140
C      81.31206675      93.84380957      97.96998387
O      82.66889023      95.68062354      98.05313183
N      80.83396598      92.62115664      95.81569587
H      79.98736859      90.91473378      95.94608699
C      81.46324484      93.57546843      93.27212426
H      82.56684501      95.29700910      93.51022977
C      83.37753760      91.80668460      91.98522064
H      85.02726867      91.49676949      93.17952767
H      84.18445073      92.80446010      90.37139437
C      82.43456417      89.24421572      90.85894376
C      81.37820716      89.06469172      88.47410915
H      80.96624682      90.66906936      87.28169185
C      80.29161454      86.74410781      87.69554191
H      79.22580890      86.57403244      85.96266288
C      80.37287277      84.58793009      89.36417024
O      79.11998421      82.46198798      88.60450026
H      78.39432931      82.59048937      86.94721029
C      81.70324009      84.75233628      91.66207744
H      81.94701478      83.01000862      92.69953718
C      82.73692038      87.07858937      92.49922620
H      83.65343764      87.07669964      94.32092236
C      79.06896160      93.72097736      91.73766649
O      77.19624283      92.49265525      92.38395289
N      79.14455065      95.10614675      89.64951892
H      80.72436185      96.11148114      89.27913256
C      76.96191676      95.69574135      88.10561252
H      75.21769939      95.08535976      89.01646060
C      76.54617698      98.49064657      87.77680014
H      77.74237374      99.50542960      86.44076364
H      76.98270375      99.38826657      89.57770932
C      73.92512658      99.40716383      87.19287471
H      72.79507025      98.50198493      88.65363315
H      73.42623883      98.57190480      85.37495800
C      73.50560734     102.28710673      87.03791715
H      74.62054586     103.12047604      85.51857720
H      74.00638481     103.26031579      88.78213454
C      70.68613569     102.68583899      86.25368073
H      69.52017455     102.19073069      87.88073509
H      70.03040065     101.36681002      84.81370928
N      70.23827055     105.23696951      85.26535387
H      71.65934473     105.74908534      84.09750301
H      70.28551370     106.53710121      86.66375134
H      68.56586276     105.19350580      84.34505715
C      77.22080927      94.22742401      85.59038680
O      79.21447054      93.92128835      84.53402979
N      74.95880687      93.25421496      84.67764899
H      73.30151689      93.60948351      85.55448200
C      74.75660616      91.47976195      82.57816305
H      76.49326465      90.37994124      82.43643358
C      72.48893459      89.72420621      83.06760217
H      70.87699804      91.00733037      83.06949189
H      72.64956133      88.86816019      84.93465176
C      71.97114957      87.65306617      81.00591076
O      70.35543358      88.01400389      79.34484133
O      73.44135664      85.75011177      80.99646213
C      74.42401433      92.80257037      80.02703253
O      73.40356213      94.97197618      79.98356882
N      74.69802465      91.50810785      77.82550138
H      75.08919800      89.64483770      77.97101030
C      74.37299172      92.70052515      75.30082702
H      75.41423091      94.43151445      75.70522845
C      75.77894810      91.44196742      73.10307532
H      74.50716228      91.76889008      71.51759494
C      78.49448480      92.16951205      72.57584168
H      78.77983349      94.17829113      72.21490395
H      78.78739239      91.49110031      70.65587974
H      79.87776446      91.51755648      73.95534189
O      76.02083307      88.78690195      73.53204319
H      76.86743046      88.10471076      72.07884366
C      71.60832213      93.51310746      74.76792420
O      71.16990562      95.33102418      73.49991784
N      69.75072116      92.04856957      75.83372984
H      70.30063151      90.43663303      76.69733477
C      67.06164061      92.76855530      76.00758466
H      66.89156525      93.51688692      74.09896109
C      65.66702259      90.26655766      76.38552992
H      65.80497261      89.67696305      78.35462474
H      66.58920904      88.87571909      75.17799481
C      62.83621257      90.45742002      75.67688256
H      61.73450213      92.00510587      76.46867788
H      61.82898846      88.83414511      76.44789089
C      62.65668857      90.52733989      72.79882938
O      61.68536925      92.42273538      71.64042715
O      63.51273459      88.66595947      71.72924429
C      66.21315350      95.00032207      77.79526575
O      64.09099086      95.80345575      77.83306028
N      68.00461405      96.15872430      79.16720706
H      69.71670608      95.32535500      79.28625982
C      67.84398730      98.19395954      80.92843198
H      66.38700833      99.48842206      80.26135859
H      69.66568348      99.15205078      81.02858748
C      66.81219674      97.41350257      83.51168785
O      66.25850693      99.09346927      85.02346890
N      66.78574058      94.96630700      84.07671602
H      67.49249822      93.78711778      82.75012815
C      66.16402061      93.94396506      86.72044313
H      64.72404916      95.19874333      87.49145147
C      65.20781910      91.18685437      86.49367597
H      64.78641013      90.43474330      88.36261530
H      66.86888853      90.16262271      85.82660258
C      63.21604756      90.45930974      84.54914760
C      63.13856878      87.86471551      83.74223446
H      64.62389368      86.53623792      84.18632014
C      61.11278219      86.95386743      82.39485960
H      61.00317805      85.01500823      81.76936019
C      59.12856955      88.66595947      81.74857320
O      57.24640214      87.70975796      80.29726339
H      56.22217048      89.18374448      80.04026061
C      59.26274013      91.25677425      82.30226301
H      57.91158581      92.55690595      81.49912933
C      61.13545889      92.16195315      83.77058036
H      61.09766438      94.11781988      84.34883661
C      68.48271481      93.89672190      88.49867559
O      70.59353910      94.24443155      87.61617340
N      68.05752638      93.37704717      90.89862801
H      66.25850693      93.33925264      91.53357605
C      70.19480684      92.97264574      92.67119129
H      71.98626738      93.50554856      91.80758636
C      69.90945816      94.79245218      94.88217108
H      70.83731378      94.13860687      96.59993229
H      67.99705514      94.74142957      95.64939996
C      70.66723841      97.49665053      94.58359432
C      68.74160731      99.28811108      94.71587516
H      66.87833717      98.46985958      94.84815600
C      69.08553750     101.95073545      94.47399019
H      67.53218247     103.27165414      94.57414569
C      71.68202145     102.71796433      94.22454632
O      72.29996195     105.17838799      94.47021074
H      70.95069736     106.39159229      94.52123335
C      73.65300600     100.85091474      94.15273672
H      75.57296793     101.41216345      93.74077638
C      73.19947167      98.28277668      94.31147373
H      74.80195959      97.06390321      93.98455108
C      70.42346373      90.23254258      93.58203937
O      68.58664974      88.89650608      94.04124287
N      72.72892982      89.33114313      93.88817504
H      74.19535744      90.55001660      93.80124763
C      73.58686557      86.59292970      93.99588944
H      72.06185644      85.54791105      94.90673752
C      74.02339235      85.67263299      91.29924999
H      75.44446654      84.18163893      91.36728013
C      71.91823723      84.24588962      89.99533883
H      70.28740343      85.40051240      89.49834081
H      71.27006112      82.69631405      91.19153559
H      72.59475925      83.42385868      88.23222418
O      74.73959862      87.55291067      89.43975929
H      76.42334476      87.96676073      89.97266212
C      76.10776047      86.19608718      95.58325954
O      77.49670932      87.93652511      96.25222265
N      76.40822696      83.89440053      96.48087954
H      75.13455142      82.52056950      96.11805208
C      78.34141697      83.09504630      98.35926749
H      80.11398026      83.95676150      97.76211398
C      77.66678469      84.16274167     101.04456858
H      77.17545584      86.13750566     100.71953566
C      75.34998022      82.68875514     101.89305570
H      74.00260536      82.51679005     100.34348012
H      74.55818490      83.65440529     103.52955868
H      75.81485290      80.73288841     102.34092083
C      79.78138842      84.19297729     102.94752298
H      81.51993663      84.57281228     101.91006323
H      79.94768434      82.33726605     103.82813544
C      79.49981920      86.16396183     105.04511919
H      77.51371685      86.40962625     105.52699940
H      80.09508299      87.94597375     104.19852180
H      80.84719406      86.14884402     106.60225367
C      78.82329719      80.32281780      98.37816476
O      77.30395723      78.83938264      97.40873516
N      80.87176050      79.34393957      99.65184029
H      82.15110523      80.62328428     100.25466298
C      81.48025239      76.70399191      99.82380538
H      79.85319803      75.81959999     100.72142538
H      83.06384303      76.23345006     101.05212749
C      82.05472918      75.53614105      97.33503583
O      83.41911157      76.59627751      95.77979107
N      80.96435709      73.37996332      96.85693507
H      79.61887197      72.97367217      98.14950787
C      80.86042216      71.98534531      94.40218059
H      82.62542652      72.26313507      93.37605920
C      80.62042690      69.10351268      95.12027659
H      78.69668552      68.53659478      95.58325954
C      81.25915441      67.61440834      92.69764746
H      81.73725516      65.68688750      93.23999891
H      82.90699574      68.54226396      91.88317542
H      79.72091718      67.78070426      91.33893424
C      82.23614291      68.22290022      97.33314610
H      81.79016749      66.31049719      97.95675579
H      81.75237297      69.37185381      98.97153882
C      85.08585018      68.18888514      96.96087002
H      86.06283870      69.99168405      97.16496046
H      85.65087836      67.23457335      95.22421154
H      86.04205171      66.89631234      98.24777364
C      78.68723689      73.18910097      92.75055980
O      76.94868869      72.02691928      91.79246855
N      78.68345744      75.62306846      92.28568712
H      80.09130354      76.75879397      92.88850982
C      76.75782632      76.77013233      90.75311908
H      77.01293938      76.00290345      88.85772359
H      77.30017778      78.75623468      90.69831702
C      74.03095125      76.75501452      91.81514527
O      72.28484414      76.91186180      90.26367997
N      73.70591834      76.52824736      94.30580455
H      75.31029598      76.60761587      95.33759512
C      71.19069261      76.44887886      95.59459790
H      70.26472671      74.88985465      94.61760939
C      71.41368031      75.81393082      98.44808463
H      72.46436815      77.34082968      99.34381490
H      72.19224755      73.95066067      98.85437579
C      68.78129155      75.98211646      99.54790534
N      66.81597619      74.52135802      98.78067646
H      67.08809679      72.88674476      97.83203385
C      64.65034984      75.51535406      99.71798071
H      62.77007216      74.73300736      99.83325402
N      65.26073143      77.50334614     101.24110012
H      63.95871001      78.61261549     102.08958723
C      67.88367156      77.81704071     101.17118025
H      68.89845460      79.29291696     102.15005848
C      69.75072116      79.02646555      95.24310880
O      70.84298297      80.99556037      95.74010682
N      67.31675366      78.99434020      94.67997036
H      66.46070764      77.33327077      94.28501756
C      65.88245140      81.33382138      94.05636068
H      66.98794129      82.47332634      92.74300089
C      63.65824352      80.69509388      92.29135630
H      62.54519472      79.18709228      93.14929205
H      64.45948748      79.91652664      90.56036700
C      62.01040217      82.94008874      91.36161096
H      60.74806501      83.58826487      92.85449474
C      63.69981750      85.20776032      90.46966014
H      65.38923282      84.62761434      89.44542847
H      64.27807376      86.46253859      91.99844872
H      62.75495434      86.51923038      89.19220515
C      60.54019510      82.26923590      88.98244553
H      59.27596820      80.75556512      89.57959904
H      61.98583573      81.92908516      87.55570216
H      59.37423397      83.83770874      88.33048995
C      65.06419990      82.71332158      96.46009255
O      63.49572706      81.76845843      97.80746741
N      66.01662196      84.88272739      96.97598783
H      67.39612217      85.49310899      95.80813697
C      65.13223005      86.49844339      99.05846623
H      64.38200871      85.20398086     100.47387124
C      67.26195161      87.92329703     100.21875818
H      66.30197064      89.42751917     101.24865902
H      68.30319080      88.94563896      98.76555865
C      69.19514162      86.35293446     101.71353170
H      70.27039590      85.27012129     100.33214176
C      71.06597067      88.14439501     103.00988395
H      70.11921778      89.55791029     104.17206563
H      72.11476877      89.12894242     101.53589742
H      72.29240304      87.05024347     104.25143414
C      68.32397779      84.60871708     103.85648134
H      67.04085363      83.07992849     103.34247578
H      67.51328520      85.75767067     105.36070348
H      69.96992940      83.71865598     104.71252736
C      62.70204201      88.31636010      98.51989423
O      60.78396980      87.81558263      99.53467726
N      62.93258863      90.27789602      96.81914055
H      64.53885598      90.25899875      95.78734998
C      60.71971910      91.91817845      96.32781171
H      59.03030379      90.75788650      96.55835832
C      60.38334783      94.22175483      98.20808939