 %block lattice_cart
   135.996   0.000   0.000
   0.000 142.663   0.000
   0.000   0.000   160.158
 %endblock lattice_cart

 %block positions_abs
N      89.30088473      40.89462314      79.76814003
H      88.66782641      39.34504757      78.85351249
H      88.88136549      40.73210668      81.62196154
H      91.19439050      40.86060807      79.52247561
C      88.16893867      43.22465569      78.98012415
H      89.12514018      44.70620112      80.04404007
C      88.87002713      43.78401468      76.15309359
H      88.02531947      42.44986790      74.83028517
H      90.90337264      43.61393931      75.87341410
C      88.31822705      46.62616305      75.38208525
H      86.29999934      46.98521105      75.19122290
H      89.24041349      46.80190760      73.54905073
S      89.15348608      48.99776957      77.77636849
C      88.31633732      51.77755698      75.79782504
H      89.52198271      51.72086519      74.12919671
H      88.78687917      53.57657643      76.68221696
H      86.36425004      51.72086519      75.14209001
C      85.42694579      43.38339270      79.63774891
O      83.83957569      42.27412335      78.28659460
N      85.03577244      44.83470251      81.60495400
H      86.51164869      45.73799168      82.41375686
C      82.61125358      45.40539985      82.71233362
H      81.22986365      44.11660651      81.88652322
C      82.79455703      44.57014082      85.53747446
H      84.47641345      45.41106903      86.38029240
H      82.94006596      42.51789805      85.44676760
C      80.53444436      45.01989568      87.16830827
O      80.69885055      46.52033838      88.83882633
N      78.45574542      43.61582903      86.88295959
H      77.07246576      43.47220983      88.18876048
H      78.40283308      42.24577746      85.55826145
C      81.69851577      48.19652562      82.29659383
O      83.30856259      49.92562519      82.15486436
N      79.14360580      48.53856608      82.10951093
H      78.09291797      47.01355694      81.65786634
C      77.71875216      50.96875412      82.19265889
H      77.85103300      51.85314603      80.33883737
C      74.78967637      50.63049311      82.62540621
H      74.48920989      49.66862241      80.82827649
C      73.90339473      49.06768945      84.90441615
H      71.91540265      48.60659623      84.62662638
H      74.16228724      50.08625193      86.67508970
H      75.03912025      47.36882549      85.15574974
C      73.41206589      53.19485171      82.71044390
H      74.07724955      54.46663752      84.18820987
H      71.43919162      52.78856056      83.14508095
C      73.57458235      54.47041698      80.22923325
H      72.23287667      56.03322064      80.28025586
H      72.99443637      53.22697706      78.69099603
H      75.46808812      55.12237255      79.74735304
C      78.68818176      52.79989892      84.25812975
O      78.91683864      55.04678350      83.66097623
N      79.36659350      51.93251454      86.60516983
H      78.92439755      50.18262797      87.22688978
C      80.37381763      53.72964426      88.38718174
H      78.96975098      55.23953559      88.38340229
C      80.41539161      52.43329201      91.08760064
H      81.51521232      53.62759904      92.35560700
H      81.37726230      50.61348557      91.05358557
C      77.89827616      51.88338165      92.35938645
C      76.48665060      53.92617580      93.42897154
H      77.07624521      55.80645348      92.89606872
C      74.23031738      53.44240586      94.78957449
H      73.10026105      54.96741500      95.54546501
C      73.31568985      50.92718014      95.24688826
H      71.46564779      50.64939037      96.06325002
C      74.76888938      48.96753395      94.22454632
H      74.18874340      47.04946174      94.61194022
C      76.92695683      49.38138401      92.80914131
H      78.06079262      47.74488103      92.35560700
C      82.91549952      54.66316906      87.68798300
O      83.24431190      56.93084064      87.59160696
N      84.78065939      53.11737294      86.95476919
H      84.22885931      51.29378704      86.82248835
C      87.29966456      53.84302784      86.02502385
H      88.10468797      55.26410203      87.27980212
C      89.11380182      51.56590763      86.06470810
H      90.85046031      52.39360776      85.33149429
H      88.58656818      50.01444233      84.81748873
C      89.61268957      50.53600679      88.78780372
H      87.70784545      50.13538481      89.46621546
H      90.63125205      51.99865496      89.81959429
C      91.07155828      47.94708174      88.85205441
O      89.79221357      45.99688419      89.49078191
O      93.34111959      47.86582351      88.21521665
C      86.97463164      55.09024721      83.41720154
O      88.73018738      56.40549672      82.61406785
N      84.71451897      55.05434241      82.25501985
H      83.21029682      54.34380531      83.18854465
C      84.17594697      56.52832893      79.93065649
H      85.90315682      56.61903579      78.81193851
C      82.36936861      55.05056295      78.21100554
H      80.67050466      54.61214645      79.29003927
H      83.07423653      53.17028527      77.75747123
C      81.49631506      56.42061453      75.74491271
H      83.16116394      56.50943167      74.53359814
H      81.23364310      58.44451141      76.03026138
S      78.70140984      55.10158556      74.22557275
C      78.81668315      56.33935630      70.93177979
H      77.37860142      55.40394177      69.79038509
H      80.59869506      55.61748085      70.19100707
H      78.55212146      58.38026072      70.89776471
C      83.51832221      59.24008619      80.43521341
O      84.56901004      60.87469945      79.19555295
N      81.77032537      59.62181091      82.11895956
H      80.84624921      58.18183945      82.96555695
C      80.86892592      62.10680101      83.06004326
H      80.55334163      63.39559435      81.48590124
C      78.24598580      61.59279545      84.25435029
H      77.77355422      63.25764433      85.37306827
H      78.68062285      59.96385137      85.43542924
C      76.02555738      61.15059949      82.38163152
H      76.43373826      59.67283352      81.00402104
C      73.76355498      60.54966652      83.96333244
H      72.05335267      60.35313499      82.83138638
H      73.47064741      61.94995372      85.44676760
H      73.98276324      58.90749436      85.18598537
C      75.45863949      63.42016079      80.85473266
H      77.04223014      63.78298825      79.59050575
H      75.21486479      65.14548092      81.95077392
H      73.79190088      63.21229090      79.66231535
C      82.43361931      63.51086766      84.93087231
O      82.34102272      65.87491527      85.13874221
N      84.15893943      62.21451541      86.20265812
H      84.11358600      60.32856855      85.91164027
C      86.06567328      63.27087242      87.78057959
H      85.16994301      64.55021713      89.12228528
C      87.81555985      61.27343170      89.16763871
H      89.52954161      62.12002909      89.93486759
H      88.37491884      59.68417187      87.98089058
C      86.30755825      60.54210762      91.54302468
H      84.57089977      59.51598623      91.12350544
H      85.78977324      62.21073595      92.63528649
C      87.67760983      58.65049158      93.36472085
H      89.16482444      59.73141503      94.29068674
H      88.50719968      57.15571807      92.21387752
N      85.86914175      57.49964826      95.11460741
H      85.50253484      55.78566649      94.35682716
C      85.01876490      58.37270181      97.32369747
N      85.31545194      60.59313023      98.34225996
H      84.34224288      61.01453920      99.92963006
H      86.20551303      62.01987360      97.43897078
N      83.78477362      56.83257487      98.65973398
H      82.50542891      57.55067087      99.87860745
H      83.37470301      55.07323967      98.04368320
C      87.80800094      64.95650829      86.13651770
O      88.64325997      66.96339763      87.00957126
N      88.38814692      63.97385060      83.87073585
H      88.02720919      62.11058046      83.67609404
C      89.99441429      65.40248370      81.90353076
H      91.20005967      66.73096129      82.91453434
C      91.73107277      63.60346425      80.43143396
H      93.10112435      62.62269629      81.61629236
C      90.24196843      61.46429406      79.10862554
H      91.68949879      60.17550071      78.41320626
H      89.17805252      62.07467566      77.45322529
H      89.11191210      60.34746581      80.42198533
C      93.49985660      65.15870900      78.49635422
H      93.87591213      67.09567847      79.09161801
H      92.59278797      65.12280420      76.64631216
C      96.11523781      63.85290812      78.20533637
H      97.36056745      65.22106997      77.29637801
H      96.19838577      62.04632976      77.22078896
H      96.74829613      63.45417587      80.12340857
C      88.26342498      67.24307713      80.47678739
O      88.96073399      69.46350554      80.16876200
N      86.04677602      66.53631948      79.77002975
H      85.50631429      64.71084387      79.90797977
C      84.30066891      68.30132386      78.51525148
H      85.47040949      69.09689864      77.02236769
C      82.15393981      66.79143254      77.16787662
H      80.46452449      67.93093750      76.88441767
H      81.22230474      65.51964673      78.49257477
C      82.79266731      65.77853923      74.61674610
O      84.90160187      66.33600850      73.64164732
O      81.36970339      64.30455271      73.40165208
C      83.38604137      70.61056942      80.09884213
O      82.97408103      72.63824575      78.94043990
N      82.87014609      70.39892007      82.59517059
H      82.96841185      68.59234171      83.19988301
C      81.84213497      72.46628065      84.19009960
H      81.09380335      73.95160554      82.97689531
C      79.44974146      71.45338735      85.61117379
H      78.73731464      73.06532390      86.67886915
H      79.87304015      70.03609262      87.04358633
C      77.18395961      70.60867969      83.95010436
H      75.81768749      69.50130007      85.02346890
H      77.84536382      69.35201169      82.45722057
C      75.71186281      72.68548891      82.55548634
O      75.57769224      74.82654882      83.55704128
O      74.79345582      72.18660116      80.38230108
C      83.83012705      73.47350478      85.99100878
O      83.88681884      75.74684553      86.73178149
N      85.92016436      72.11668129      86.31415197
H      85.96551779      70.38191253      85.52424638
C      88.15004141      73.00485265      87.59916587
H      88.26909416      74.98906528      87.05114524
H      89.74874987      71.77086137      87.18909526
C      87.88736945      73.13335404      90.46966014
O      86.16771850      72.04487169      91.51656851
N      89.53143134      74.57710495      91.79057883
H      90.62180342      75.88668528      90.93453281
C      89.21773677      74.94371185      94.58926350
H      87.20895770      74.59411248      94.88217108
C      90.56511163      73.11445678      96.40906994
H      92.55499344      73.61712398      96.22387676
H      90.15315130      71.16992840      95.86671849
C      89.83756700      73.37901846      99.15295255
H      89.94528140      75.34622356      99.75577524
C      87.18817071      72.26030049      99.72931907
H      85.72741227      72.93304305      98.44430518
H      86.91227067      72.87824099     101.67762690
H      86.98974945      70.21561662      99.87860745
C      91.79910292      72.05621004     100.87638294
H      91.81044127      70.03798234     100.46064315
H      91.20005967      72.08644567     102.84547776
H      93.72473403      72.74784988     100.61560071
C      89.90559715      77.65546911      95.03145946
O      92.12791529      78.52474321      94.67997036
N      87.93650233      79.01040288      95.91774110
H      86.30566852      78.02774519      95.79301916
C      88.04043728      81.65224026      96.79646383
H      89.94339168      82.38167462      97.10070977
C      86.92927821      83.38133984      94.56091760
H      86.68172406      85.21059491      95.46987596
H      85.25498069      82.43458696      93.82959352
C      88.87947576      83.67424742      92.47843921
H      89.66560191      81.78074165      92.26112068
H      90.27787323      84.93658459      93.30991879
C      87.82122903      84.76839895      90.13895803
H      89.47284982      85.26539697      89.01457088
H      86.86502751      86.55041087      90.52257247
N      86.03354793      83.09032199      88.83315715
H      85.56489581      81.47460599      89.73266687
C      85.62914650      83.07331445      86.42375610
N      86.17338768      84.86099554      84.83449627
H      85.84268558      84.79107567      82.95610832
H      86.81589463      86.51261634      85.54314364
N      84.63704019      81.18736759      85.20110318
H      84.71829842      81.24972856      83.29625905
H      84.35736069      79.54330570      86.13084852
C      86.56078158      82.10388485      99.20397516
O      84.25342575      82.23427597      99.01500252
N      87.76642696      82.03585470     101.36960151
H      89.58056422      81.44626009     101.25810766
C      86.56645075      82.27962940     103.87537860
H      85.07923615      80.85288603     103.83758408
C      88.40893391      81.48594435     105.99754125
H      87.55666734      81.71271150     107.85892167
H      90.09079033      82.65190548     105.77077409
C      89.18750115      78.70615694     105.78400218
H      89.87725126      78.35466785     103.87537860
C      91.36446586      78.01640684     107.66994904
H      92.86490856      79.40157622     107.95151826
H      92.04854679      76.20037985     106.98019893
H      90.56889109      77.95971505     109.57101371
C      87.01620562      76.87123269     106.33958171
H      85.48363758      77.02052107     104.96953014
H      86.14504179      77.49484237     108.09891691
H      87.57367488      74.88890979     106.30745637
C      85.43450469      84.86477499     104.45363485
O      83.44651261      84.95359213     105.70274395
N      86.38125758      86.89623078     103.35759359
H      87.89492835      86.70725815     102.21241945
C      85.03388271      89.34909553     103.07980382
H      83.90760583      89.49649419     104.79945477
C      86.98785972      91.49771435     103.03256067
H      88.34846267      90.93079646     101.59447894
H      88.08768044      91.52417052     104.77299860
C      85.92394381      94.17167709     102.58091608
H      84.62381211      94.85386828     104.02277725
H      84.86758680      94.36442917     100.82158088
C      88.07067290      96.09919792     102.15005848
H      88.93805728      95.71558348     100.32080341
H      89.39537105      95.92723283     103.71853132
C      87.00864671      98.93378739     102.57902635
H      85.79355269      99.03772234     104.23820605
H      85.81811913      99.50448474     100.99732543
N      89.13080936     100.79138836     102.68674075
H      90.42338216     100.63832053     101.29023301
H      90.13614376     100.61186436     104.29867730
H      88.44861816     102.56962082     102.82091132
C      83.10069270      89.49271473     101.05023776
O      83.56556537      88.49682897      99.06035596
N      80.85191838      90.48860050     101.69463444
H      80.71963754      90.78717726     103.57491212
C      78.74109409      91.04606976      99.93151979
H      77.97764466      89.14689482      99.72364989
C      76.49231978      92.36509873     101.40172686
H      76.05201355      91.35220543     103.14216479
C      77.11403974      95.05984845     102.24454479
H      75.90461490      95.51338277     103.84892243
H      76.78711709      96.51871717     100.82725006
H      79.00754550      95.08252517     103.05712711
C      74.09803654      92.39155490      99.85215128
H      73.63883305      90.43379844      99.40806560
H      74.45708454      93.70491469      98.30824488
C      71.67729713      93.43468382     101.11826791
H      71.34092585      92.44824669     102.89461064
H      70.04268387      93.16634269      99.89183553
H      71.77934236      95.43779372     101.58880976
C      79.41194693      92.34242201      97.40495571
O      80.63459986      94.29261957      97.36527145
N      78.52377557      91.38244105      95.30358005
H      77.49009527      89.77995313      95.36405129
C      79.22297430      92.10809595      92.70898582
H      80.23397788      93.90333595      92.66174266
C      81.19017939      90.11443469      91.92663912
H      82.73786524      89.94435932      93.27590371
H      82.27110285      90.95158345      90.38273273
C      80.44562723      87.34031646      91.25389656
C      79.98453401      86.67891225      88.62528726
H      79.68028807      88.12266316      87.21744115
C      79.38360104      84.17313516      88.04514128
H      78.47086323      83.82353580      86.25179101
C      79.83713535      82.22104788      89.74967441
O      79.44029283      79.81353656      89.05992431
H      78.61070298      79.79274957      87.44798776
C      80.56656971      82.78796578      92.21198780
H      81.12403897      81.26484637      93.44975853
C      80.74798344      85.30508123      92.96976805
H      81.08057527      85.59420935      94.96153958
C      76.70018967      92.41990079      91.18964586
O      74.55912976      92.27439187      92.23088506
N      76.96286163      93.02272349      88.66875096
H      78.68818176      93.61231810      88.11317142
C      74.91628804      93.15122488      86.84894452
H      73.27411587      92.40667271      87.84483029
C      74.29645780      95.91022529      86.15730469
H      72.81869183      95.84597460      84.72111269
H      75.91973271      96.69257199      85.15952920
C      73.58025153      97.83585641      88.26057008
H      75.09959149      98.14955097      89.61550384
H      71.94374854      97.16878302      89.31881681
C      72.93207541     100.47769379      87.32326583
H      72.17240543     101.58507341      88.88417976
H      71.52233958     100.30572870      85.82849231
C      75.30746138     101.91577552      86.42753555
H      76.26744235     100.97280209      84.86851135
H      76.56223965     102.10852760      88.05081046
N      74.68574142     104.44800878      85.42976006
H      73.79757006     104.44611905      83.74034474
H      76.28067043     105.45712263      85.15386002
H      73.49332412     105.38531303      86.58627256
C      75.26399768      91.20291705      84.89118806
O      77.47875692      90.70969848      84.36773387
N      73.21742408      90.54718202      83.71577829
H      71.47698615      90.92701701      84.40174895
C      73.09837132      89.32641882      81.12496352
H      74.43818728      87.76550488      81.03047720
C      70.56046888      87.99794122      80.96433678
H      68.95609124      89.27350648      80.76780525
H      70.32047364      87.04362943      82.77469459
C      70.73810316      86.01750805      78.95366799
O      69.20364539      86.37844577      77.15653826
O      72.35759861      84.43391739      78.75146727
C      73.63316387      91.28228555      78.77981316
O      73.20041654      93.58964138      78.92532209
N      74.13961052      90.03128673      76.74079847
H      74.42873865      88.14345015      76.72946012
C      73.99599132      91.01583414      74.18021932
H      75.34903536      92.52950492      73.82684050
C      74.42117974      88.91256876      72.09396147
H      72.62782947      87.95447752      71.76514909
C      75.29045385      90.13333195      69.58629465
H      76.99498698      91.24449103      69.90565840
H      73.79945978      91.29362391      68.76993288
H      75.74587789      88.70658859      68.17277937
O      76.56412938      87.47637676      72.90087461
H      76.04445464      86.49560880      74.33517688
C      71.44486080      92.32919393      74.02715149
O      71.31257996      94.36631890      72.97268420
N      69.47576598      91.24260130      75.15153864
H      69.51733996      89.57019351      76.06427645
C      66.93219436      92.30651721      75.02492698
H      66.92652518      93.08508446      73.11819313
C      64.87239268      90.15600867      74.99847081
H      64.12973024      89.47948665      76.79560054
H      65.76056405      88.53840295      74.08573300
C      62.40441012      90.87032522      73.43566715
H      61.37072982      92.25738433      74.55438513
H      61.10049896      89.29429347      73.20323082
C      63.14329311      91.95502812      70.79005031
O      62.09827445      93.86176197      69.76581865
O      64.48499879      90.45647515      69.54472067
C      66.38417373      94.52883536      76.92221220
O      64.21287820      95.29606424      77.13953073
N      68.11327331      95.21291628      78.61351725
H      69.84993179      94.43812850      78.43777270
C      67.82036573      97.07996588      80.73945935
H      66.49566758      98.56529076      80.21222571
H      69.74221739      97.79617215      80.93977034
C      67.12683617      96.05762395      83.32649467
O      67.22510194      97.36909401      85.19921345
N      66.19520110      93.65200235      83.30003851
H      66.01000792      92.78461797      81.60873346
C      65.07648312      92.36131928      85.40897307
H      63.87083774      93.53105987      86.59950065
C      63.74611580      89.91979288      84.50757362
H      62.75589921      89.24894004      86.18376086
H      65.27301466      88.62344063      84.02758314
C      61.99433951      89.92357233      82.31549110
C      61.34238393      87.50850211      81.52180604
H      62.23622447      85.88333748      82.37218289
C      59.70210149      87.07197533      79.52625506
H      59.40352473      85.10665996      79.06138239
C      58.47188966      89.00516535      78.43210352
O      56.74467981      88.57808720      76.55938475
H      56.04170162      90.14844977      75.98679767
C      59.25990553      91.50716298      79.04437485
H      58.34338827      93.00004677      77.99557674
C      61.02868936      91.98715347      80.96244706
H      61.51056957      93.92601267      81.38385602
C      67.04935739      91.81707810      87.41019324
O      69.11104880      90.85520741      86.76579656
N      66.52212375      92.48982067      89.82148401
H      64.91774611      93.51216260      89.97077239
C      68.24366442      92.15344938      91.93419803
H      70.04268387      92.84697894      91.21610203
C      67.73910750      93.55373658      94.34359908
H      68.83892821      92.73926454      95.88372602
H      65.93063942      92.98681869      95.14862249
C      68.30791512      96.42801030      94.37005525
C      66.33882030      98.13443316      94.06580931
H      64.47366043      97.42389607      93.63495171
C      66.78290598     100.83674179      94.33037099
H      65.27301466     102.13120432      93.87683668
C      69.22443238     101.62664739      94.79146421
O      69.86693933     104.06817379      94.74800051
H      68.33059183     104.97902187      95.05791562
C      71.16140185     100.00148276      95.15807112
H      73.04734871     100.64021026      95.60593626
C      70.69463945      97.34641729      94.87461217
H      72.23665612      96.01793969      94.99933411
C      68.66885284      89.33586745      92.52379264
O      66.75833954      87.96014669      92.49733647
N      71.04234909      88.38155566      92.49355702
H      72.36704724      89.74971751      92.60883032
C      71.91729238      85.82286623      92.55969744
H      70.19197225      84.84398800      93.11716670
C      72.57680686      84.91768733      89.85927854
H      74.18118450      86.00805941      89.16574898
C      73.33080766      82.20970952      89.68353399
H      73.65773031      81.93191976      87.66908574
H      71.68674577      81.14579361      90.31659231
H      75.01077435      81.75050603      90.78335470
O      70.58503533      85.27484560      88.15663513
H      70.52078463      87.08520341      88.08482553
C      73.83158513      85.53940729      94.71965461
O      75.03345107      87.55385554      95.39806636
N      74.22842766      83.34732476      95.75900409
H      73.13994530      81.84877180      95.29224169
C      76.13138205      82.86355483      97.79423933
H      77.66583982      84.22415777      97.61282560
C      75.08069422      83.32653778     100.47954042
H      74.42306947      85.27295588     100.33025204
C      72.61460139      81.86766906     101.10126037
H      71.18407857      82.57631643      99.79734922
H      72.00988897      82.25128350     103.03256067
H      72.89995006      79.85888999     100.74788155
C      77.11970892      83.56086384     102.54123182
H      78.72219683      84.43391739     101.58692004
H      77.63749393      81.61444574     102.97019970
C      76.31468551      85.00839419     104.81457258
H      75.77989296      86.89812051     104.19474235
H      77.86993026      85.21815381     106.15060908
H      74.74243321      83.99739062     105.68006723
C      77.11970892      80.13290031      97.46542695
O      75.97453477      78.47750006      96.35615760
N      79.42517502      79.54519542      98.63516754
H      80.41161215      81.03241003      99.30979983
C      80.57223889      76.96193955      99.04334842
H      79.43651338      75.53897564     100.00332939
H      82.44117821      77.00351353      99.90695334
C      81.05033965      75.63535168      96.52812270
O      82.63959948      76.49895661      95.03901836
N      79.61603738      73.66058768      95.99899933
H      78.33291321      72.92359442      97.20653444
C      79.80501001      71.98062099      93.68219487
H      81.18639994      72.70816562      92.34048919
C      80.55145190      69.23295893      94.34926826
H      78.89416192      68.56210609      95.37349992
C      80.91616908      67.85345872      91.97766173
H      81.21852529      65.86546664      92.41985769
H      82.60180495      68.50541430      90.98933487
H      79.29667363      68.05943889      90.72099374
C      82.77943922      69.13280344      96.34481924
H      82.24653640      70.32522074      97.93785853
H      84.51987716      69.70539051      95.40562527
C      83.37848246      66.48907633      97.44841941
H      84.72774705      66.90103666      98.94886210
H      83.99642297      65.33445355      95.85915958
H      81.80434045      65.59712551      98.43296682
C      77.28600483      72.37935324      92.21765698
O      75.60792787      70.77497560      92.16285491
N      76.96286163      74.66403236      91.18586641
H      78.29889814      76.00951749      91.38995685
C      74.86526542      75.15347147      89.42653121
H      74.96353119      73.91948019      87.78057959
H      75.04667915      77.16036082      88.99378389
C      72.27067120      75.26118587      90.75311908
O      70.33370173      74.71127551      89.46810519
N      71.98721225      75.97550242      93.15874068
H      73.50088303      76.30053534      94.27367921
C      69.57403175      76.28163808      94.29257647
H      68.22854661      74.84733581      93.68408460
C      69.72709958      76.17203395      97.23488034
H      70.78723604      77.78586023      97.95297634
H      70.91762716      74.55064878      97.68085575
C      67.11549782      75.93581817      98.42162846
N      65.43364140      73.84767059      98.43674627
H      65.88528599      72.13179910      97.72998863
C      63.19809517      74.55064878      99.37405052
H      61.62206342      73.28264242      99.65750947
N      63.26234586      77.12067656      99.78223141
H      62.06425938      78.33955004     100.63260825
C      65.69064418      78.01262738      99.10570939
H      66.45976278      79.90424342      99.08114295
C      68.53657200      79.01229260      93.85038051
O      69.56269339      80.83776822      94.98421630
N      66.35771756      79.22772140      92.58426388
H      65.34104481      77.62334376      92.41229879
C      64.94798173      81.45003955      92.00033845
H      66.19520110      82.95615142      91.35594178
C      63.21510271      80.79430452      89.87439635
H      62.34015942      78.94048300      90.06525871
H      64.27901862      80.85099631      88.11128170
C      60.71121534      82.39868216      89.43220039
H      59.81170562      82.42324860      91.28791163
C      61.16852911      85.05374763      88.35694612
H      59.44509871      86.02128750      87.77680014
H      62.46488136      84.88556198      86.76579656
H      61.70143193      86.18002451      89.99722856
C      58.98022604      80.90012919      87.79947686
H      57.26435455      81.99994990      87.51034873
H      58.68731846      79.06331521      88.68197904
H      59.67564532      80.83776822      85.86061766
C      63.36817054      82.31364447      94.31147373
O      62.20787858      80.82831959      95.64184106
N      63.25667668      84.90256952      94.68941899
H      64.25823163      85.90979365      93.41385373
C      61.98678060      86.28018000      96.72087478
H      61.10427841      84.83642910      97.89439482
C      63.87650691      87.90723436      98.14950787
H      62.94676157      88.73871394      99.78790059
H      64.58893373      89.39822842      96.91551659
C      66.12717095      86.24238548      99.10381966
H      66.93975327      85.15201339      97.55613381
C      68.14917811      88.08108918     100.14127941
H      67.08904165      89.46058939     101.24487957
H      69.47009680      88.94091465      98.81469154
H      69.46253790      87.08898286     101.37905014
C      65.23710986      84.52273453     101.37716042
H      63.57226098      83.43047272     100.84992677
H      64.70798649      85.75861554     102.93807435
H      66.82825942      83.27362544     101.75321595
C      59.78146999      88.01116931      95.96687398
O      57.63285118      87.56708362      96.80213301
N      60.38051324      89.86499082      94.39651142
H      62.17197378      90.28073061      93.89384422
C      58.37362389      91.56763423      93.52912704
H      56.58405307      90.56796901      93.30613933
C      57.96733273      93.66334071      95.55113419