 %block lattice_cart
   135.996   0.000   0.000
   0.000 142.663   0.000
   0.000   0.000   160.158
 %endblock lattice_cart

 %block positions_abs
N      90.35251743      40.08676514      80.98795835
H      89.49647140      39.32520544      79.45916977
H      89.77993036      39.05497458      82.48651133
H      92.25925127      40.01306582      80.99740700
C      89.41899262      42.80230186      81.06921660
H      90.23346466      43.54496430      82.80965453
C      90.28070783      43.97960135      78.61824157
H      89.77804062      42.97048750      76.89670090
H      92.32728142      44.21203769      78.54643197
C      89.26970424      46.69702779      78.44060728
H      89.29238097      47.29418130      80.41159183
H      87.43100054      46.67435107      77.51275166
S      91.22935043      49.07052404      76.81922212
C      89.10907750      51.60275730      77.35401466
H      88.75002950      51.73881759      79.37791154
H      87.32517587      51.12654626      76.43749740
H      89.96701326      53.34319523      76.66615429
C      86.50503464      42.77962514      81.03520152
O      85.41844202      41.12233516      79.84845340
N      85.30505844      44.66368227      81.98573386
H      86.40865860      45.93168863      82.88713330
C      82.52905048      45.03217891      82.28809007
H      81.65221747      44.13077945      80.65725625
C      81.60875377      43.50905950      84.77496989
H      82.76715601      41.85554897      85.18504050
H      79.60564389      43.02906901      84.75985207
C      81.59741542      45.30996867      87.00673667
O      79.61131306      46.16223524      87.78152446
N      83.74225479      45.78428998      88.01774024
H      83.47391365      46.59687229      89.72416311
H      85.37119886      45.17201865      87.23350383
C      81.56529006      47.84598139      82.12935305
O      83.02037932      49.64122138      82.24651608
N      79.03116708      48.26361090      82.13880169
H      77.74426346      46.87277233      82.36178939
C      77.78772717      50.84308732      82.22761883
H      78.33196835      51.78039157      80.47395281
C      74.83975412      50.60309208      82.36745856
H      74.33708692      49.52405835      80.68371243
C      73.96670056      48.90800757      84.48962121
H      71.90689889      48.83619797      84.46694451
H      74.48826503      49.62610357      86.34722218
H      74.44102187      46.90300795      84.49529040
C      73.21269976      53.14666369      82.40714282
H      73.65300600      54.18034399      84.13435268
H      71.26061248      52.54195127      82.67737368
C      73.48104090      54.69245982      79.99774178
H      73.71347723      53.49815279      78.33478261
H      75.19313295      55.83574424      79.95049862
H      71.89367079      55.99259152      79.82199722
C      78.70802388      52.60998142      84.33655339
O      79.08596915      54.78694613      83.66759028
N      79.39777398      51.55173468      86.60800442
H      79.00849037      49.70736180      86.91225035
C      80.31429124      52.94635270      88.83032256
H      79.21069109      54.68301119      88.89835271
C      80.20279740      51.50449153      91.25484141
H      81.33663319      52.29439713      92.78174028
H      80.76971528      49.54484534      90.96382357
C      77.64221825      51.70102306      92.41135393
C      76.74459824      53.96869464      93.46582120
H      77.92756691      55.63165379      93.49038764
C      74.35031500      54.18979262      94.60154672
H      73.78339711      56.00581960      95.34609889
C      72.73270928      52.13188066      94.67335632
H      70.79573981      52.11298340      95.30641464
C      73.57174776      49.81696593      93.38834242
H      72.46247841      48.10298416      93.43180613
C      76.03784060      49.61476521      92.22994020
H      76.75782632      47.83275330      91.54585926
C      83.05628412      53.83074462      88.33143481
O      84.00303701      55.50693186      89.60322063
N      84.46790968      52.64588622      86.55131263
H      83.71579862      51.51960934      85.20771722
C      86.84140594      53.80806790      85.62345701
H      87.82973279      54.88899135      87.06909763
C      88.54026988      51.69346416      84.52363629
H      90.04638177      52.68746020      83.52964026
H      87.52170741      50.62576879      83.08933401
C      89.54182483      50.02672555      86.68548319
H      87.99224925      49.59964740      87.97427654
H      91.28793194      50.62576879      87.60200045
C      90.25803110      47.44724913      85.70093579
O      88.75569868      45.65767831      86.02218926
O      92.32350196      47.21859225      84.57465891
C      86.23291406      55.82440588      83.48239710
O      87.24769710      57.88798701      83.24996075
N      84.43011516      55.15922222      81.82888657
H      83.68367327      53.40933565      81.99329275
C      84.09563360      56.59352449      79.45539031
H      85.78882838      56.35919843      78.30832645
C      81.81851339      55.27071607      77.99463188
H      80.01382477      55.62598462      78.92248750
H      82.20968674      53.26193700      78.21761958
C      81.79961614      55.90755384      75.16760132
H      83.44745747      55.04772836      74.28131967
H      82.20023811      57.91066373      74.91248827
S      79.04250544      54.92111670      73.39881748
C      80.17067205      54.12365220      70.37714511
H      78.85353280      53.99893026      68.79733391
H      80.97380573      52.22825670      70.46029307
H      81.73536544      55.43890171      70.12581152
C      83.31139719      59.42433450      79.93727053
O      84.19389936      61.25358958      78.87335462
N      81.65599693      59.66244002      81.76274614
H      81.14388110      57.96357606      82.46194489
C      80.60530911      62.05105408      82.41659146
H      80.21413576      63.04505012      80.65347680
C      78.04472995      61.58429168      83.78853276
H      77.68190250      63.26614810      84.92047881
H      78.06929639      59.86464074      84.92614800
C      75.77327891      61.46712865      81.97439550
H      76.43279340      60.08195926      80.60056446
C      73.49993817      60.35407985      83.32932927
H      71.79162558      60.41833055      82.18037567
H      73.29206827      61.32539918      85.13212817
H      73.98370809      58.48703025      84.05498417
C      75.56351929      64.03337698      80.74607339
H      76.82396675      64.29415921      79.13980603
H      75.71847686      65.61696763      82.05376399
H      73.69080052      64.08817905      79.89002737
C      82.58007309      63.61385774      83.94160059
O      82.99581288      65.81727862      83.50885326
N      83.96335275      62.17766574      85.57054466
H      83.20368279      60.47691206      85.98061527
C      85.96268320      63.31528098      87.22972437
H      85.17277759      64.85351820      88.35033208
C      86.69022782      61.19311833      88.96449312
H      87.55005331      59.58307152      88.01018133
H      84.88364947      60.45423535      89.62022816
C      88.38720205      62.00192120      91.10933249
H      87.30816834      63.32850907      92.25639637
H      90.16354480      62.75592199      90.38745704
C      89.30182959      59.69267564      92.54930394
H      90.48668800      60.19723257      94.15746104
H      90.46023182      58.47191244      91.35877637
N      87.09651898      58.10719526      93.30141502
H      86.50692438      56.69745944      92.15813059
C      86.07039760      58.16577678      95.62955784
N      86.38031272      60.09896680      97.18858205
H      85.47513380      60.03093665      98.86854873
H      87.40076493      61.62208621      96.65567923
N      84.67011039      56.35919843      96.21915244
H      83.55328214      56.40266213      97.76494856
H      84.44523297      54.97591876      94.92468991
C      88.04327187      64.57383871      85.71227415
O      88.99380421      66.56183079      86.53997427
N      88.62341785      63.41732620      83.44649230
H      88.00358761      61.63909374      83.13846691
C      90.43188592      64.31683593      81.58889132
H      91.57328062      65.67365942      82.63957916
C      92.19122112      62.16254793      80.83678026
H      92.42554718      60.85863678      82.41470173
C      91.24824770      60.55817029      78.68627170
H      89.79315844      59.25425914      79.33633757
H      92.73924175      59.25803859      78.10990519
H      90.49235717      61.74302869      77.18393929
C      94.88786057      63.35496524      80.07333082
H      95.36596134      64.93099698      81.31110155
H      94.54015093      64.12786330      78.19494287
C      97.25001847      61.64476292      79.95994724
H      97.96244529      61.18366970      81.83833520
H      98.92242626      62.44222743      79.06232725
H      96.68688002      59.81172840      79.20594644
C      89.19789464      65.90420603      79.48562595
O      90.50747498      66.72434725      77.68660650
N      86.68455865      66.42199104      79.48373621
H      85.55639204      65.59807037      80.78386792
C      85.57906876      68.47045437      77.98707297
H      86.96990733      68.97879074      76.55277071
C      83.25848484      67.65409260      76.42804876
H      82.22858400      69.37752300      75.97640417
H      82.04339082      66.48246228      77.61101744
C      83.55517187      66.23112868      73.93549975
O      85.32017626      66.74135479      72.42749817
O      81.94512506      64.50958801      73.52920861
C      84.95356935      70.93087802      79.52719992
O      85.60174548      72.95288518      78.56343950
N      83.78004931      70.80993554      81.77975369
H      83.38698623      69.13185857      82.59800517
C      82.92211356      73.03414341      83.19704842
H      82.36275457      74.57049090      81.94604960
C      80.47491798      72.40675428      84.66158631
H      80.03461175      74.11506686      85.72550223
H      80.79050227      71.01780544      86.14880092
C      78.36409370      71.53181099      82.95327373
H      76.99593185      70.73056704      84.26852324
H      78.86487117      69.88207992      81.82510712
C      76.97514485      73.63885583      81.49629473
O      77.81418333      75.79503355      81.13346728
O      74.92101235      72.99634888      80.48529115
C      84.90443647      74.00168328      85.06976719
O      84.42066653      76.03880825      86.12045503
N      86.89053881      72.63163171      85.54219878
H      87.38753683      71.09528421      84.52552601
C      88.93333297      73.47067019      87.24295245
H      89.41710289      75.43220610      86.84610993
H      90.74369076      72.65241870      86.69304210
C      88.40798904      73.49334691      90.12289535
O      86.41621751      72.81115571      91.06208933
N      90.25236193      74.46655596      91.54774900
H      91.92287999      74.66497722      90.64257009
C      89.85173995      75.08827591      94.28407269
H      87.96579309      74.51757857      94.87933649
C      91.72823818      73.46500101      95.79207429
H      93.48568366      74.41931280      95.30074545
H      91.69800255      71.53370072      95.07586803
C      91.43722032      73.46878046      98.77406242
H      91.46934567      75.46244172      99.29562688
C      88.95223022      72.33305495      99.72837420
H      88.78782403      72.16675903     101.77494781
H      88.84451583      70.41309301      98.99327067
H      87.37808821      73.54247979      99.18413302
C      93.65764874      72.08361108      99.83041943
H      95.44344011      72.72044884      99.02539602
H      93.44788912      70.05404502      99.55829883
H      93.75024533      72.56549129     101.82974986
C      90.32984071      77.79436399      94.92091046
O      92.52948213      78.59560795      95.21570776
N      88.24736232      79.09260597      95.58798386
H      86.60519014      78.26868530      95.07019884
C      88.21523697      81.64940567      96.75205526
H      90.18244205      82.08026327      97.19236150
C      87.08140117      83.57314706      94.91524129
H      86.44456340      85.27390074      95.88278116
H      85.50347970      82.43175237      94.23871927
C      88.91254598      84.74288765      92.91780058
H      90.13330917      83.20087098      92.30741897
H      90.22779549      86.09404196      93.74550070
C      87.32706559      85.73121451      90.48761254
H      88.63286647      86.77623316      89.28385687
H      85.87197633      87.05780238      91.08854551
N      86.39920997      83.77723750      88.94181642
H      86.70912509      81.99711531      89.55975692
C      85.62631192      83.74511215      86.60044551
N      85.24458720      85.79546520      85.17181242
H      84.25248089      85.51200626      83.56554506
H      85.73213659      87.52645451      85.81242964
N      85.09151937      81.62861868      85.44960219
H      84.77404534      82.01412285      83.60900875
H      84.54538847      80.13384517      86.50595920
C      86.71101481      81.43775633      99.29751660
O      84.44334324      81.63050841      99.37121594
N      88.17933217      81.69853856     101.37810527
H      90.05583039      81.83648858     101.06441071
C      87.20612311      82.03679957     103.89144128
H      85.52048724      80.88784597     104.18812830
C      89.09773915      81.13540011     105.86998472
H      88.16799381      81.29224740     107.70112951
H      90.74747023      82.36561194     105.94557378
C      90.18811124      78.52568808     105.43345795
H      91.05738533      78.30647982     103.57963643
C      91.93610807      77.63751671     107.62554047
H      92.62774791      75.83660753     106.90366502
H      90.82683872      77.38996256     109.34330169
H      93.64442066      78.69387372     108.07907478
C      88.01492598      76.50935010     105.58652578
H      87.00581213      76.64918985     107.37798632
H      88.77081649      74.59694707     105.50715727
H      86.83384703      76.72666863     103.91222827
C      86.22346543      84.71832120     104.59819892
O      84.85719331      85.28145965     106.45579987
N      87.09084981      86.60615779     103.17523500
H      88.21523697      86.12805703     101.70880739
C      86.20078871      89.17996503     103.40956106
H      85.54883313      89.75822128     105.27661066
C      88.56105687      90.82969610     102.81807672
H      89.45867688      90.37616179     101.01905727
H      90.08984546      90.38183096     104.12387760
C      88.30594382      93.69641092     102.84264316
H      86.56739562      94.09703290     101.80896287
H      90.08039683      94.50332405     102.17556978
C      88.07350748      94.55434666     105.68101209
H      89.71567966      93.78144860     106.65233141
H      86.44267368      93.71152873     106.62020606
C      87.89398349      97.39649504     105.94179432
H      87.81461498      97.88593415     107.94112477
H      86.17811199      97.90105196     104.92134211
N      90.08795574      98.71930346     104.88543731
H      90.35251743      98.47930822     103.01082881
H      91.72445873      98.49064657     105.84352856
H      89.64575978     100.57123524     105.01015925
C      84.01248564      89.74499320     101.55384983
O      84.17689183      88.81524785      99.41845908
N      82.13220796      91.27945096     102.20013622
H      81.99236821      91.97298052     103.97269951
C      80.04028093      91.77833871     100.51639008
H      79.30328768      89.96231172      99.88711122
C      78.02772240      93.36948827     101.90344920
H      77.85197787      92.28667509     103.64577686
C      78.90455542      96.06801744     102.34753488
H      80.66011116      96.16250376     103.42278914
H      77.47781205      96.91461483     103.57018780
H      79.12376367      97.11114637     100.58630995
C      75.43879736      93.12193412     100.77150313
H      75.13266169      91.11315505     100.43702157
H      75.33108297      93.98175959      98.90256380
C      73.44513610      94.26521854     102.64800135
H      71.51950498      93.88916300     102.01872249
H      73.58875531      96.31935104     102.62910410
H      73.36009842      93.47531294     104.54906603
C      80.95868792      93.05012452      98.12777601
O      82.50448404      94.82457753      98.00305409
N      79.74737336      92.26399837      96.02829009
H      78.35653479      90.98843311      96.31174903
C      80.33696796      93.07469096      93.31275337
H      81.45190648      94.79434191      93.12378075
C      82.17189221      91.16039821      92.11655662
H      83.73091643      90.89205707      93.43558559
H      83.12242455      91.99943669      90.49139199
C      81.06829204      88.55068617      91.49861612
C      80.09319326      87.99132718      89.11945069
H      79.87209530      89.62027126      87.90813611
C      79.56784935      85.51011653      88.25395603
H      78.87809925      85.13406099      86.36989890
C      79.96847134      83.49188883      89.94148164
O      79.42989933      80.99178092      89.43503498
H      79.29761849      80.88595624      87.62845663
C      80.52027141      84.07014508      92.51528887
H      80.62042691      82.56592293      93.89100963
C      81.24781605      86.52867901      93.27495885
H      82.08496480      86.74410781      95.12500091
C      78.03717105      93.38082662      91.63656614
O      76.05484813      92.38872031      92.29041144
N      78.44157247      94.64694325      89.38401236
H      80.24059192      95.23842759      89.14023768
C      76.47436738      94.75465765      87.44515318
H      74.73581917      94.28600553      88.44481839
C      76.40633723      97.41917175      86.38312698
H      75.43501790      97.26043474      84.57465891
H      78.25826901      98.27521777      86.10344749
C      75.10053636      99.27488299      88.09710875
H      76.38366052      99.61125428      89.67125076
H      73.23348676      98.47363904      88.43725948
C      74.76227535     101.64837924      86.41903178
H      74.05740743     101.08524080      84.56710000
H      76.59908931     102.57056568      86.27352286
C      72.99916070     103.65337886      87.60766964
H      71.46092347     102.60458076      88.49017183
H      72.34342567     104.73808176      85.98439473
N      74.18590882     105.23507978      89.57487473
H      75.68068232     106.22529637      88.91913970
H      74.70936301     104.21651730      91.10177358
H      72.88577711     106.50875532      90.15313098
C      76.73703933      92.86304161      85.35133641
O      78.84408418      92.45297100      84.34789174
N      74.55251573      91.78589762      84.54064382
H      73.00294014      92.29423399      85.53275014
C      74.18968827      90.30624191      82.24840581
H      75.46903298      88.69052591      82.20683184
C      71.45525430      89.31980478      82.15014005
H      70.11165888      90.87315981      82.27675171
H      71.28706865      88.05557787      83.76963549
C      71.06219122      87.85148743      79.79365133
O      72.79507025      86.26222760      79.37224237
O      69.28584849      88.35415463      78.29320864
C      74.69046575      91.93707572      79.88813765
O      74.27094650      94.29356443      80.09978699
N      75.17234595      90.88260844      77.70928320
H      75.35753912      88.98721295      77.81510787
C      75.42556927      92.25266001      75.33200751
H      76.62554549      93.88916300      75.68727606
C      76.50271327      90.60670840      73.22874211
H      76.17768034      91.47220305      71.38625896
C      79.30139794      90.41962549      73.20417567
H      79.73981445      88.90028554      71.88514671
H      80.04217066      89.88672267      75.04854855
H      80.04028093      92.18651959      72.44639542
O      75.43879736      88.14439501      73.32511816
H      76.11531938      87.22220857      74.73296426
C      72.86876957      93.43940814      74.42115943
O      73.09742646      95.13827209      72.95284208
N      70.67668706      92.76666557      75.46239862
H      70.68991514      91.15094957      76.47718165
C      68.30697026      94.11781989      75.28287463
H      68.59042920      95.38771597      73.68605589
C      66.16968979      92.36793332      74.37202654
H      64.50106146      93.56601980      74.49296903
H      65.79552398      90.99032284      75.85735142
C      66.40212614      91.03756600      71.77932204
H      67.62477906      89.44074726      72.22718718
H      67.39234272      92.24699084      70.43761635
C      63.93603330      90.26466793      70.45840334
O      62.95715506      91.79345652      68.92961475
O      63.25006264      88.08014432      70.73619311
C      67.75894962      95.75243315      77.50897222
O      65.61788971      96.60280999      77.64503251
N      69.56741770      96.34391748      79.11901904
H      71.27573029      95.54834270      78.81477309
C      69.52395401      98.20151845      81.16559263
H      68.33342642      99.83991116      80.78953710
H      71.50816663      98.70796510      81.38291115
C      68.53940660      97.29633954      83.68270809
O      69.04774298      98.63426577      85.50251453
N      67.28651805      95.13071319      83.74506905
H      66.82542482      94.32380005      82.07833045
C      66.33976516      94.33135896      86.17336736
H      65.25128280      95.90361125      86.93492707
C      64.40846487      92.18274014      85.86723169
H      63.26140099      91.95219353      87.56042648
H      65.48371914      90.42907412      85.77085565
C      62.70393173      92.43218401      83.67136973
C      62.22772070      90.13238709      82.30320787
H      63.28029826      88.45242040      82.77563946
C      60.62523279      90.09459256      80.23962674
H      60.21516218      88.36171354      79.24185124
C      59.63123675      92.46997854      79.50641293
O      57.93048307      92.35470524      77.58456126
H      56.94593567      93.86837601      77.41259618
C      59.97327721      94.75087820      80.77819873
H      59.28352711      96.51588258      80.01663903
C      61.46994045      94.66961997      83.00051688
H      61.64757472      96.31368186      84.19671364
C      68.26161683      93.70774928      88.36544989
O      70.31385961      92.74209913      87.78719363
N      67.70225783      94.14994523      90.69926188
H      66.07898293      95.08913921      91.06586878
C      69.30285603      93.44696704      92.87055742
H      71.26061248      94.04034111      92.62678272
C      68.89845460      94.89827685      95.30641464
H      69.79985404      93.73987462      96.75016554
H      66.84999126      95.04378578      95.47271055
C      70.01150338      97.53066561      95.35176806
C      68.39578739      99.59235701      95.70136744
H      66.41913367      99.26165491      96.09065105
C      69.31419439     102.08112657      95.57475576
H      68.07264420     103.67605558      95.87144281
C      71.89745025     102.43072594      95.05508104
O      72.85932095     104.77020711      94.96248445
H      71.63666801     106.10057444      95.11177283
C      73.51694571     100.37659343      94.85854950
H      75.51627613     100.76587705      94.73193783
C      72.64389214      97.84058072      94.79996798
H      73.97803892      96.30423323      94.68280495
C      69.54096154      90.60859812      93.31275337
O      67.60777151      89.56357947      93.60755067
N      71.86532490      89.62783017      93.34109926
H      73.44702582      90.69363581      93.27684858
C      72.53239830      86.93308044      93.27684858
H      70.85999050      85.86916453      93.83431784
C      73.35442923      86.17718992      90.62745229
H      75.19502267      87.01811813      90.24194812
C      73.29584772      83.38984361      90.13045426
H      71.30218647      82.86827914      90.14746179
H      74.43346296      82.45820853      91.57231544
H      74.18023963      83.20087098      88.27852247
O      71.60832213      87.33748187      88.99094930
H      71.47226183      89.14594996      88.94937531
C      74.41456569      86.27167623      95.38767287
O      75.82241181      87.82125181      96.41568398
N      74.67345821      83.76022996      96.08687159
H      73.53206352      82.34293523      95.51617426
C      76.67845783      82.95709628      98.00305409
H      78.31496080      84.15140331      97.63644718
C      75.89422140      83.48621965     100.80929765
H      74.57330271      85.06414112     100.70914217
C      74.39188899      81.28279877     101.82974986
H      73.01616823      80.81225692     100.37088116
H      73.51883542      81.98010778     103.55884944
H      75.20258158      79.46866151     102.37966023
C      78.22803340      84.27045607     102.45902872
H      79.35997947      85.82570082     101.72770464
H      79.59808498      82.79457982     102.90122468
C      77.40600245      85.25500348     104.94212910
H      79.11620476      85.53657270     106.05328818
H      76.53483862      83.64306693     105.88510253
H      76.12665774      86.86505030     104.82496607
C      77.59497508      80.22266231      97.41345947
O      76.28917420      78.84316210      96.12844558
N      79.75871172      79.42330808      98.56430280
H      81.00593108      80.64974045      99.32964195
C      80.81506873      76.98556113      98.25060823
H      79.66989458      75.60984038      99.26728099
H      82.62353680      77.02335566      99.23893509
C      80.86231187      75.91975549      95.52373316
O      81.82796203      77.12918033      93.78896441
N      79.79650624      73.64263528      95.29696601
H      79.13132257      72.99256943      96.96370461
C      79.71713773      72.09116998      93.02740470
H      81.29505921      72.74879474      91.87656137
C      80.11209053      69.23768325      93.65857328
H      78.35464506      68.62730165      94.54485493
C      80.55050704      67.94322072      91.06964823
H      82.41566690      68.61974274      90.51406870
H      79.01038009      68.12274472      89.71471447
H      80.51271252      65.90987521      91.40224008
C      82.20212783      68.67076535      95.70703661
H      81.44245785      69.31705175      97.50794579
H      83.94256577      69.66476140      95.22137695
C      82.98825399      65.94955946      96.25127779
H      83.99358838      65.75302793      98.03895888
H      83.98602948      65.01036549      94.71493029
H      81.33663319      64.72501681      96.37788946
C      77.26049352      72.75446392      91.64223531
O      75.52761449      71.22000615      91.51940311
N      76.99404211      75.04859166      90.76540231
H      78.22992312      76.35061309      91.41168870
C      74.78306234      75.89140960      89.21204728
H      74.35220473      74.28325250      87.99884299
H      75.55218093      77.50901532      88.19348479
C      72.34531538      76.69454328      90.50839952
O      70.43102264      76.66997684      89.14968630
N      72.23571126      76.98934058      92.98394100
H      73.77016903      76.93264879      94.11966650
C      69.77717732      77.10839334      94.43525081
H      68.56586276      75.78369520      93.42235749
C      69.97181914      76.42053296      97.29440672
H      71.30974536      77.62239890      98.29785139
H      70.52361923      74.44009979      97.41156975
C      67.43013724      76.43376105      98.56430280
N      65.81064179      74.36262101      98.38855825
H      66.05441649      72.67509541      97.53251223
C      63.49761678      75.15630606      99.34664949
H      62.00095355      73.87507162      99.87766258
N      63.72816339      77.45232353     100.36143251
H      62.36756045      78.20443460     101.47070186
C      66.19992541      78.31592846      99.83986806
H      67.08620705      80.09416092     100.29718182
C      68.63767236      79.87306294      94.03084938
O      69.77150814      81.66074403      94.95303581
N      66.47582546      80.01668214      92.84977043
H      65.66513287      78.49545246      92.02962920
C      65.16813484      82.47710580      92.50017106
H      66.34354461      84.06447590      91.92002508
C      63.29163662      82.12372698      90.27596318
H      62.48661321      80.29636163      90.78052012
H      64.34799363      81.67775157      88.56765061
C      61.24506303      84.10416015      89.80542134
H      60.06776353      84.24777935      91.49105721
C      62.21638234      86.71576192      89.09110478
H      63.63367708      87.15984760      90.52162760
H      60.74239582      88.15384364      89.12700958
H      63.11400234      86.57592217      87.24295245
C      59.47627919      83.57503679      87.60955935
H      58.73172702      81.67586184      87.89679775
H      60.47972386      83.61472104      85.80865019
H      57.86245292      84.85438150      87.55853674
C      63.97193809      83.25567304      95.02106596
O      62.22583098      81.85538584      95.93002431
N      64.62200394      85.40240213      96.07175378
H      66.07520349      86.48710503      95.47271055
C      63.42580718      86.41340571      98.36966098
H      62.94770644      84.98288289      99.76994819
C      65.27206979      88.20108680      99.70002831
H      64.57665051      89.35759930     101.25716279
H      66.13189526      89.48610069      98.33942537
C      67.50383658      86.59859889     100.76961341
H      68.36933122      85.48366036      99.26728099
C      69.42568823      88.64139303     101.53495256
H      70.10032053      89.61460208      99.85120642
H      71.05085286      87.72487577     102.40422667
H      68.59231893      89.86404595     102.96736510
C      66.88589606      84.89217603     103.11476376
H      68.60932647      83.91896697     103.68168166
H      65.41946845      83.46543266     102.87287879
H      66.44747956      86.11671868     104.71158249
C      61.01640614      87.92140730      97.87833215
O      58.98495035      87.24866474      98.80996722
N      61.19970960      89.86593568      96.23615997
H      62.94770644      90.42529467      95.71648525
C      58.96227363      91.07725025      95.31964272
H      57.44860286      89.69208086      95.13067008
C      57.82465840      92.90650532      97.26606082