 %block lattice_cart
   135.996   0.000   0.000
   0.000 142.663   0.000
   0.000   0.000   160.158
 %endblock lattice_cart

 %block positions_abs
N      91.12352576      42.08231613      82.73312061
H      92.93766301      42.39979015      82.23423286
H      90.68132979      40.32109120      82.14730545
H      91.06683397      42.00861680      84.63985446
C      89.41332345      43.93802736      81.54637248
H      89.86118857      45.81074614      82.28525547
C      89.51347893      43.79062871      78.65131177
H      89.24891725      41.79129827      78.22990280
H      91.28982167      44.47093019      77.86140617
C      87.22502037      45.18524673      77.52692462
H      85.25781527      44.62021856      77.76503013
H      87.54627385      45.09453987      75.49357910
S      87.12864432      48.55651847      78.14486512
C      85.04805565      49.49571245      75.55971952
H      84.90254674      51.54795523      75.64475721
H      83.09596837      48.85320550      75.69766955
H      85.84174072      48.99682470      73.72479527
C      86.74691961      43.44858825      82.47422810
O      85.93055784      41.32831533      82.57816305
N      85.42411119      45.37421936      83.31893577
H      86.51826273      46.86521342      83.79325707
C      82.86920122      45.21737208      84.39230031
H      81.84307983      43.70370130      83.44554743
C      83.03927658      44.22337604      87.08138085
H      84.53216038      45.37043991      87.91852961
H      83.92933768      42.36766480      87.13996237
C      80.82262762      44.23282467      88.81992906
O      80.20090767      46.32475170      89.78557921
N      79.80973432      42.13333874      89.63251138
H      78.42834439      42.20136888      90.94776089
H      80.47680770      40.46660013      88.98244553
C      81.41033250      47.70992109      84.13907699
O      82.68400804      49.69602344      83.73467555
N      78.84786363      47.75527452      84.49056608
H      77.93890527      46.10743317      84.81370928
C      77.56284974      50.18924201      84.06915711
H      78.01071486      50.69190921      82.12084928
C      74.69991436      49.79995839      84.32049071
H      74.14811429      48.50738559      82.81626857
C      73.74749230      48.50360614      86.70721504
H      75.03628566      47.03717852      87.36483980
H      71.77083858      47.92157043      86.77146574
H      73.77961765      49.84531182      88.27190843
C      73.22214840      52.17912382      83.65152760
H      73.36387786      53.62854390      85.11039631
H      71.28895837      51.51960933      83.37373783
C      73.93646494      53.36965139      81.09094844
H      75.66934396      54.42222895      81.44432726
H      72.51728047      54.73970297      80.49190520
H      74.12732730      51.98070255      79.58105712
C      78.50582316      52.36809645      85.93809644
O      78.59275057      54.54317143      85.15763947
N      79.19935272      51.83708335      88.26434953
H      79.10864586      49.99648992      88.76134755
C      80.25193027      53.78539118      90.05203062
H      79.04817461      55.45401952      89.93486759
C      80.16500287      52.88021228      92.71276527
H      81.27427221      54.10664466      93.94297710
H      81.20057288      51.10386954      92.84126666
C      77.50048877      52.32841219      93.79557844
C      76.17579061      54.28049948      95.14106358
H      76.86176127      56.20046141      95.24877798
C      73.99504645      53.90255421      96.63961655
H      73.17112579      55.37465101      97.78857014
C      72.87821820      51.54417577      96.53190215
H      71.25683303      51.28906272      97.74510644
C      74.06118688      49.56185287      95.19775537
H      73.34498061      47.65133957      95.22421154
C      76.20413652      50.00404883      93.66329760
H      77.05073391      48.38077393      92.76189815
C      82.95234917      54.71135708      89.38117778
O      83.56084105      56.92989577      89.61739357
N      84.62097751      53.05973628      88.14718650
H      84.15799456      51.21536340      87.98278031
C      87.01148129      53.90633367      87.05681441
H      87.96012391      55.01560301      88.51001395
C      88.67821991      51.67456689      86.30659307
H      90.47345990      52.50226702      85.73022654
H      87.82595333      50.55206946      84.80615037
C      89.28104260      49.63555220      88.35694612
H      87.46123617      48.75305001      88.74622974
H      89.82528378      50.61632016      90.08604569
C      91.04793670      47.51716900      87.46877475
O      93.34773363      48.09542525      87.17775690
O      90.17866260      45.49705157      86.83193698
C      86.73747099      55.58063118      84.64930309
O      88.26248012      57.31728966      84.20710713
N      84.83829603      54.96647013      83.26791316
H      83.61564311      53.56240348      83.68932212
C      84.15421511      56.41777994      81.04181556
H      85.75292357      56.83351972      79.80971400
C      82.09063398      55.01182356      79.33350297
H      80.26326864      55.06473590      80.27836613
H      82.51015322      52.99926504      79.19933240
C      81.47269347      56.15321825      76.73512929
H      83.07896084      55.88676684      75.47468184
H      81.04561532      58.16766650      76.68788613
S      78.77794375      54.66978310      75.36129826
C      79.52627537      54.67545228      71.94278336
H      81.22135988      53.60775691      71.46090315
H      79.78894732      56.58974503      71.22468736
H      77.90677992      53.90444394      70.93177978
C      83.15454990      58.96135155      81.93943556
O      84.08240552      60.89832102      81.10417653
N      81.46135512      59.22024406      83.79703652
H      80.83774544      57.67822739      84.73434077
C      80.51082279      61.64098347      84.76835585
H      80.28783508      63.02993231      83.26413370
C      77.99937651      61.04194022      86.14029715
H      77.57796754      62.69167130      87.30058911
H      78.36598342      59.36008381      87.27224321
C      75.86965496      60.12164351      84.35450579
H      76.38743996      58.57773711      83.09405833
C      73.63410873      59.10119130      85.88140465
H      72.95380726      60.67344359      87.02279934
H      74.36543282      57.60641779      87.09649867
H      72.27728523      58.33963160      84.53402978
C      75.06274183      62.63875896      83.12996313
H      76.46680847      63.32472961      81.79014718
H      75.23470692      64.16943727      84.49623526
H      73.29962717      62.63497951      82.06604722
C      82.46102034      63.09040355      86.40485883
O      82.50637376      65.41665664      86.14218688
N      84.14287676      61.85641226      87.80703576
H      83.90477123      59.99503185      88.15663513
C      86.32740037      63.09418300      89.22622022
H      85.55072286      64.54360309      90.46777041
C      87.76548209      61.27059711      90.95720952
H      88.72168362      59.91566334      89.73644632
H      86.41999696      60.19723256      92.08726586
C      89.52481730      62.55183155      92.83937693
H      88.45523221      63.64031390      94.22454632
H      91.01770108      63.50803306      91.79057883
C      90.86652297      60.79438608      94.65162446
H      91.56194226      61.93956022      96.21631785
H      92.28948689      59.73424962      93.60471609
N      89.14876175      58.93300566      95.75711436
H      88.94656104      57.24359033      94.89161971
C      87.61241426      59.05394814      97.69597355
N      87.74658483      61.01926351      99.18696762
H      86.86219291      60.88320321     100.87260349
H      89.39253645      61.97735475      99.06224568
N      85.88709414      57.34941501      98.15706678
H      84.54916791      57.73680890      99.45908820
H      85.94378593      55.65999968      97.26700568
C      88.09051503      64.54360309      87.56137134
O      88.83506719      66.53348489      88.39285092
N      88.51570344      63.58362211      85.24645660
H      87.33840396      62.14931984      84.79859147
C      89.92165982      64.92343807      83.34161248
H      91.13108467      66.17443689      84.44710237
C      91.62619295      63.10930081      81.85628760
H      92.77703628      61.87153008      83.03358709
C      89.98591052      61.59185058      80.00435581
H      91.26525523      60.21424010      79.16720706
H      88.93333295      62.73702473      78.65320150
H      88.62719730      60.68100250      81.25724436
C      93.65008984      64.41888115      80.18576954
H      94.73668247      66.00058207      80.93788061
H      92.91120684      65.21067647      78.43210352
C      95.74579631      62.59718498      79.52247560
H      94.99557497      61.46145947      77.97667948
H      96.20877927      61.42933412      81.15330941
H      97.38796849      63.59685020      78.77981316
C      88.56294660      66.87930481      81.63141017
O      89.76103308      68.60840439      80.67898811
N      86.07984622      66.52025681      81.29503888
H      85.11986525      65.14075660      82.20399724
C      84.68144876      68.33817353      79.77569893
H      85.68678316      68.99768800      78.10329114
C      82.12275933      67.24024253      78.70044466
H      80.93790092      68.92587840      78.69099602
H      81.23269824      65.82105807      79.89664141
C      82.37598266      66.03837660      76.07750453
O      83.80839520      67.05126990      74.51281115
O      81.32907427      63.95589820      75.77136887
C      83.97280138      70.79481773      81.12118406
O      84.13342812      72.78847899      79.91364895
N      83.92366850      70.94410611      83.67042486
H      83.89910206      69.29626476      84.63607501
C      83.46635473      73.23256467      85.12929357
H      82.93912110      74.82182450      83.92931736
C      81.34419209      72.67320568      86.99823290
H      81.09852767      74.21333264      88.34371803
H      81.81095448      71.00835681      88.12073033
C      78.68345743      72.26502480      85.69621147
H      77.54962165      71.98534530      87.39318570
H      78.58708139      70.47356425      84.68331816
C      77.65922577      74.45143814      84.18254069
O      78.17134160      76.72666863      84.79292229
O      76.04917896      73.96388875      82.51958154
C      85.86063798      74.07727234      86.61650818
O      86.47479902      76.34872336      86.63162599
N      87.16643885      72.34061385      87.86372755
H      86.74125043      70.48301288      87.73144671
C      89.22435081      72.95288518      89.75534359
H      90.60763047      74.16419974      88.82559824
H      90.10307355      71.19166025      90.36383546
C      88.40043013      74.36640046      92.26490013
O      86.57495452      75.76857738      92.28757685
N      89.79882760      74.17553810      94.36438607
H      91.38619771      73.13240917      94.16407508
C      89.24324807      75.48700816      96.74544122
H      87.24013818      75.29425609      97.18574745
C      90.63786609      74.05648534      98.79768400
H      92.67877051      74.30781895      98.72020522
H      90.02937422      72.13274395      98.38572366
C      89.72890773      74.54403473     101.51888989
H      90.23535438      76.51501927     101.85337144
C      86.98691485      73.98467575     101.85148172
H      86.65243329      72.15164122     100.97086926
H      85.96268319      75.56070750     101.00866378
H      86.31606201      73.94499149     103.79789982
C      91.44099977      72.93398791     103.13838534
H      91.13675383      70.90631158     102.94374353
H      91.24824770      73.49712636     105.11125961
H      93.45733775      73.22689550     102.83980858
C      89.90654201      78.31025927      96.93063440
O      92.02492521      79.05481144      96.55268914
N      88.16232462      80.02613077      97.75266534
H      86.34818737      79.44409506      97.63739204
C      88.78782403      82.31269961      99.26822585
H      90.79282365      82.31647906      99.73687797
C      88.29649520      84.66162941      97.59959751
H      87.71634921      86.33025774      98.65973397
H      86.58629287      84.35738348      96.49221789
C      90.35062770      85.33059252      95.57192118
H      91.04982642      83.63739775      94.62894775
H      92.04949165      86.07136524      96.47143090
C      89.46434605      87.06158183      93.49511196
H      91.17454836      87.56424903      92.46710085
H      88.71979389      88.75666634      94.40029086
N      87.63887044      86.00522482      91.62239318
H      86.55227781      84.57848146      92.27434876
C      87.38942656      86.65718040      89.17897706
N      88.43066575      88.63383412      88.17931184
H      88.06972803      88.90784444      86.32738006
H      89.19789465      89.97553980      89.30369900
N      86.34440790      85.00744933      87.69932136
H      85.90788113      85.21342949      85.85305875
H      85.51292833      83.49566827      88.51946258
C      87.45934644      82.54702567     101.70786252
O      85.26159474      81.95932078     101.75510568
N      88.67633018      83.15173809     103.80734845
H      90.41109893      83.90195943     103.54089704
C      87.41399300      82.83993324     106.24131594
H      86.18189145      81.19209190     106.12793236
C      89.51914811      82.70387296     108.39560394
H      88.63475621      82.99678053     110.23241792
H      90.89675859      84.19675674     108.04978402
C      90.90431750      80.10171983     108.28033063
H      92.02681494      79.85416567     106.57012832
C      92.72223422      80.03935885     110.62548099
H      94.06393990      78.47655520     110.55556111
H      91.64509021      79.58393481     112.32056549
H      93.88063644      81.73822280     110.76343101
C      89.15821039      77.73578248     108.73197522
H      87.94122665      77.90963729     110.38548575
H      90.41487838      76.11817676     108.93417594
H      88.08862529      77.37295502     107.00854483
C      85.49970024      85.19642196     106.67217354
O      84.08240552      85.19453223     108.57890739
N      85.45434681      87.21653939     105.03000138
H      86.53527026      87.10882499     103.45963881
C      83.96524249      89.43885753     105.66872887
H      82.68967722      89.09870679     107.24854007
C      85.95512428      91.57802772     106.13549127
H      87.19100529      92.06557710     104.56134925
H      87.08329090      91.05457354     107.77577371
C      85.14443171      94.37482266     106.77043931
H      83.96146303      94.45797063     108.45418545
H      83.93689658      95.10236729     105.26999662
C      87.49714096      95.93573660     107.07846470
H      88.71034525      95.72408726     105.42873363
H      88.39854041      95.12315428     108.74142385
C      86.97557649      98.72497264     107.53577847
H      85.96835237      98.93473226     109.31968011
H      85.83040236      99.37503849     105.95218782
N      89.32639604     100.22163588     107.98553333
H      88.93144324     101.97719162     108.61859164
H      90.29015646     100.61280923     106.38304542
H      90.53393114      99.17472749     109.02677253
C      82.20968674      90.00388570     103.41806483
O      82.59897036      89.17429585     101.26755629
N      80.44846182      91.80857434     103.70152378
H      80.16122341      92.45864019     105.47219733
C      78.72125196      92.57391348     101.70408306
H      78.09008337      90.80135021     100.86693431
C      76.56885370      94.30301306     102.72264555
H      77.22080927      96.23053390     103.06090656
C      74.56385407      94.52033159     100.62315961
H      73.43757720      92.81390873     100.36804656
H      75.34053158      95.11937484      98.81280181
H      73.26939155      96.06045853     101.06535557
C      75.35564940      93.57168899     105.36259321
H      76.62554549      93.00855053     106.88193316
H      74.09520194      91.94274490     105.26810689
C      73.75883067      95.76188178     106.43784748
H      72.48515513      95.01921934     107.87592920
H      72.55885446      96.49887503     104.93740479
H      74.87187946      97.37003886     107.08602360
C      80.25948918      93.76822051      99.54223616
O      81.65977637      95.57857832      99.90506361
N      79.77760897      92.80634982      97.30291048
H      78.58141222      91.32102495      97.26133650
C      80.50704332      93.79467668      94.87461217
H      81.39521469      95.60125504      95.30924922
C      82.59708063      92.09581273      93.79935790
H      84.24492197      92.04290040      95.03523891
H      83.32651499      92.86304161      92.03246379
C      81.90544080      89.49365959      93.21921192
C      80.94923929      88.93996978      90.75500881
H      80.96624682      90.47820701      89.41519285
C      80.24248164      86.50600230      90.18242173
H      79.57918770      86.10915977      88.29458515
C      80.59586047      84.59170954      92.00411790
O      79.79083705      82.13695506      91.64506990
H      79.45824522      81.74956116      89.90274224
C      81.54639280      85.04146440      94.46076211
H      81.70324009      83.53535253      95.82892396
C      82.14354631      87.52645451      95.02012110
H      82.80117107      87.90817922      96.91173713
C      78.29795327      94.15561442      93.10582834
O      76.18901870      93.37704718      93.56881129
N      78.74770813      95.45007693      91.03090885
H      80.43901318      96.28533597      90.73800127
C      76.83530511      96.06045853      89.06937294
H      74.95502742      95.60125504      89.77424085
C      76.70680371      98.99898296      88.45521188
H      75.32163433      99.46763508      87.00579180
H      78.57196359      99.65849743      87.88451454
C      76.09075293     100.51832290      90.86839239
H      77.49104014      99.91361048      92.25167205
H      74.11220948     100.29155574      91.39184657
C      76.24948994     103.36991991      90.45265260
H      78.12787791     103.95951453      89.84794018
H      75.93579537     104.17116387      92.32348165
C      74.15189374     104.58312420      88.88040030
H      72.64578187     105.43539078      89.99911828
H      73.15789770     103.11480686      87.83349193
N      75.22525828     106.31600323      86.96421782
H      73.93457521     107.19850543      85.87006629
H      76.37988106     105.40515515      85.74723408
H      76.27783584     107.64637056      87.83727138
C      77.20002229      94.46930897      86.68642806
O      79.29950822      94.27466716      85.70377037
N      75.22336855      93.46397458      85.63007105
H      73.49615870      93.57924789      86.43509446
C      75.25360417      91.69330102      83.33027412
H      76.62743520      90.19285833      83.65152760
C      72.59475925      90.49710426      83.41720153
H      71.20958986      91.96731134      83.01091038
H      72.19791673      89.62027126      85.23889770
C      72.15256329      88.49399437      81.38007657
O      70.68991513      89.05335336      79.63019000
O      73.32419361      86.45308995      81.31771560
C      75.73170493      93.14650056      80.89252718
O      75.89044194      95.54645297      80.98323404
N      76.03217141      91.90117093      78.72690082
H      76.32885846      90.01900352      78.61540697
C      76.23059269      93.23720743      76.23813127
H      77.39088463      94.93040219      76.41009637
C      77.36064901      91.41173180      74.23880083
H      77.31529559      92.38494085      72.42277384
C      80.20090767      90.89961597      74.65454062
H      81.34986127      92.58147239      74.35785359
H      80.60908855      89.58436646      73.12386231
H      80.30862206      90.08892338      76.54615666
O      75.82430152      89.16106776      73.91376791
H      76.74270852      87.84392852      73.06906024
C      73.73048477      94.29167470      75.24602496
O      73.64733682      95.70330026      73.31850412
N      71.63477828      93.71719791      76.52536967
H      71.92012696      92.42084565      77.89542125
C      69.17246490      94.89071795      76.37230184
H      69.05341214      95.86392699      74.56194403
C      67.23927489      92.77044502      76.34584567
H      66.78385085      92.02967230      78.21289527
H      68.12366680      91.16228793      75.41043115
C      64.89034507      93.30901703      74.85863106
H      64.31775801      95.21575087      75.39342361
H      63.41824829      91.94085517      75.31405510
C      65.46482187      93.33547319      72.03915940
O      65.27206980      91.35504001      70.87508799
O      66.08276239      95.38582625      70.98658185
C      68.74349704      96.77477508      78.52092066
O      66.63456247      97.71774851      78.84784331
N      70.60487744      97.27366283      80.06104760
H      72.24138043      96.41950653      79.57916739
C      70.60676718      99.30133917      81.99990680
H      69.84898693     101.04366683      81.20811147
H      72.57019281      99.81534471      82.34572671
C      69.44269576      98.58702261      84.55670650
O      69.53340262     100.04022215      86.40674856
N      68.59987784      96.25132089      84.87607025
H      69.11766284      94.98520426      83.54570292
C      67.26384133      95.33858308      87.10027812
H      66.44558984      96.95996826      88.07348717
C      65.13789922      93.47342321      86.28958553
H      63.83398806      93.73798489      87.86183782
H      65.86922331      91.54968182      86.39541020
C      63.59399283      94.04034110      83.84994886
C      62.55464335      92.07313601      82.35895480
H      63.04597220      90.13049736      82.74256924
C      60.64979924      92.50210388      80.68654701
H      59.43281549      91.02244819      79.98167910
C      59.94493132      95.04378578      80.20466680
O      58.14780160      95.57857832      78.54926655
H      57.71883372      97.33224434      78.71367274
C      60.94459654      96.98264497      81.46511425
H      60.32287658      98.89126855      81.09094844
C      62.76062352      96.57257437      83.41909126
H      63.44848391      98.01443554      84.68898734
C      68.87955733      94.31624114      89.18086679
O      70.96014600      93.20319234      88.74245028
N      68.14256407      94.45230144      91.54680413
H      66.63456247      95.47842284      92.10805285
C      69.64867593      93.64916776      93.76345310
H      71.49115908      94.36159457      93.18519685
C      68.88900596      94.83780562      96.18041305
H      70.16457121      94.13860687      97.63928177
H      67.07108924      93.96664179      96.59993229
C      68.74916621      97.59869575      96.38828295
C      66.41913367      98.92339390      96.46387200
H      64.69570327      97.83302181      96.43174665
C      66.26417611     101.49720113      96.28812745
H      64.45003885     102.42505675      96.39017267
C      68.45058945     102.88048079      96.24844320
O      68.35043395     105.49019283      96.13505962
H      66.63078302     106.04199292      95.97065343
C      70.87888777     101.77688063      96.30324526
H      72.51917020     102.99197466      96.29001718
C      70.97337407      99.04811584      96.15395688
H      72.73270928      98.01443554      96.14828770
C      69.81875130      90.80323993      94.10549356
O      67.88556129      89.54846166      94.48910800
N      72.08831260      89.79412608      94.10360383
H      73.64544709      90.75410704      93.56125238
C      72.71192228      87.19386267      94.38895251
H      71.10565492      86.22065362      95.23366017
C      73.19758196      86.09782141      91.73577676
H      74.93613016      86.94630853      91.03279858
C      73.42245938      83.29535730      91.45798700
H      74.07441495      82.75867501      89.57959904
H      71.61966048      82.33726605      91.73199731
H      74.65267121      82.56025375      92.93575297
O      71.21147960      86.81024823      89.92730868
H      70.82219597      88.56769370      90.15407584
C      74.97770413      86.86127085      96.22198703
O      76.54806670      88.49777384      96.46009255
N      75.05518292      84.53690747      97.19897553
H      73.61143202      83.30291619      97.01000290
C      76.79373112      83.75456078      99.15673199
H      78.54172796      84.71265202      98.63705726
C      76.01327416      84.68808558     101.81179746
H      75.35375967      86.62694479     101.60014812
C      73.60765256      83.35960798     102.64138732
H      72.22059345      83.59015460     101.13716517
H      72.77806270      83.94542315     104.43284786
H      74.03284098      81.34515973     102.59603388
C      78.24882039      84.67107805     103.59380938
H      79.94012543      85.21909867     102.55445991
H      78.59653002      82.71143187     104.12104302
C      77.61198262      86.11671867     106.02210769
H      76.02083307      85.22665758     106.98208866
H      76.99593183      88.00833471     105.48542542
H      79.25037534      86.26789679     107.26176815
C      77.30206750      80.87650762      99.18696762
O      75.79973508      79.40252108      98.17974349
N      79.44690687      80.13384516     100.26600134
H      80.83207626      81.27901931     100.91039801
C      80.14610561      77.39752146     100.37182601
H      78.42456493      76.43565077     100.97086926
H      81.52938527      77.04414264     101.85715090
C      81.08529959      76.20699389      97.92463044
O      82.22291483      77.30870433      96.25978156
N      80.47491799      73.72956269      97.61282560
H      79.46580413      72.89997285      99.00366416
C      80.31051179      72.32171659      95.26200606
H      81.92244833      72.79036871      94.06769903
C      80.24815082      69.50791412      95.80813697
H      78.50960262      68.97879074      96.77945629
C      80.61475773      67.96400771      93.43653045
H      80.64499335      65.96278754      93.92030038
H      82.20023810      68.73501605      92.37072480
H      79.05006434      67.85440359      92.10049394
C      82.45157170      68.62163247      97.55802353
H      82.23614290      66.61852257      97.98321195
H      82.11142096      69.35484627      99.45152930
C      85.16899815      69.37563327      96.61127065
H      85.58851739      71.39008151      96.71331587
H      85.57150984      68.73879550      94.69508817
H      86.56739561      68.43454956      97.79423932
C      78.02016350      73.35539689      93.75022501
O      76.27594611      71.79826241      93.21543247
N      77.89733130      75.71944450      93.06236464
H      79.51682675      76.69454328      93.33637495
C      76.11153993      76.70966108      91.21988148
H      76.41011669      75.73078286      89.43220039
H      76.62932493      78.70332235      91.14996161
C      73.35631896      76.41675351      92.08915558
O      71.73682351      76.00668290      90.51879302
N      72.74593737      77.16697486      94.39840114
H      74.03851015      78.13262500      95.41885335
C      70.04173900      77.30492487      95.46042733
H      68.76806348      76.09361032      94.38706278
C      69.99260612      76.42242269      98.20619966
H      71.26061248      77.70554685      99.20208543
H      70.95258709      74.61962378      98.45753326
C      67.49816739      76.36006173      99.18885734
N      65.96559936      74.31915731      99.02256143
H      66.28307338      72.91887010      97.76211398
C      63.94926138      74.89552382     100.44741507
H      62.27118440      73.73334214     100.49276850
N      64.20815388      77.23311527     101.55101523
H      62.99494959      78.00223388     102.80768323
C      66.56086314      78.14963255     100.89528020
H      67.42635780      79.95621089     101.28267410
C      69.02884570      80.01857186      95.14484303
O      69.61655058      81.73066391      96.65662408
N      67.32620230      80.42864248      93.31180851
H      66.82542482      79.05481144      92.08348641
C      66.12622608      82.86638941      92.90929680
H      67.60966124      84.21565401      92.44064468
C      64.28941212      82.84371271      90.58871289
H      63.14423797      81.13728984      90.75689853
H      65.51962395      82.58482019      88.95787908
C      62.54897417      85.09059729      90.12384022
H      61.30175481      85.52523435      91.70554114
C      64.00595317      87.44141683      89.61361411
H      65.13600949      87.88928196      91.27657327
H      62.66802694      88.88327799      88.99945306
H      65.20781910      87.03701539      87.99033921
C      60.67814513      84.60682736      87.89774262
H      59.58588332      82.90985312      88.30970296
H      61.80064255      84.58981981      86.17053277
H      59.46872029      86.26600705      87.72577753
C      64.40657515      83.61472104      95.28090333
O      63.32565170      81.82326049      96.30513499
N      64.34610391      86.01656318      96.18797196
H      65.60655136      87.22598802      95.42074307
C      63.11778179      86.85182221      98.43674627
H      62.55842281      85.16996579      99.48365465
C      64.78263068      88.56580397     100.06380063
H      63.48438871      89.46720343     101.38660904
H      65.50828558      89.95664254      98.72965385
C      67.02573582      86.99355168     101.28834328
H      68.21059422      86.14506457      99.83136429
C      68.54129631      88.93619033     102.80012433
H      69.85654582      88.02156279     104.09458685
H      67.33187147      89.79979527     104.22497797
H      69.54285126      90.15884325     101.48109536
C      66.14890281      85.01878769     103.06657574
H      64.78829986      85.61594120     104.49331910
H      67.73627291      84.08148343     103.98687245
H      65.23427527      83.49566827     102.02344681
C      60.62523279      88.09526213      97.74132699
O      58.65802770      86.92363181      98.34792913
N      60.87467666      90.36860289      96.58103503
H      62.55842281      90.72765087      95.75333491
C      58.63346126      91.55157155      95.52656775
H      57.52986109      89.86215623      95.11271768
C      57.38246244      93.31279647      97.53723654