 %block lattice_cart
   135.996   0.000   0.000
   0.000 142.663   0.000
   0.000   0.000   160.158
 %endblock lattice_cart

 %block positions_abs
N      89.65142896      40.57525940      82.41092227
H      89.74213582      38.89340298      81.51519200
H      88.75758842      40.52801623      84.09466842
H      91.47690457      41.09682385      82.61123327
C      88.28515683      42.58592819      80.92370766
H      88.68577881      44.33959422      81.92715233
C      89.34340356      42.83159262      78.20061205
H      87.64453961      42.30057953      77.16126257
H      91.11596685      41.82625821      77.90959420
C      89.99157969      45.59626221      77.52409002
H      90.94022230      45.96664856      75.73451922
H      91.28226276      46.25199724      78.98862793
S      87.16643885      47.53323169      77.33322767
C      88.46279110      50.44718966      76.32222409
H      88.97301721      50.26955539      74.33612174
H      90.21645712      50.60214722      77.38991946
H      87.37052929      52.17628923      76.56788851
C      85.42789064      42.19853430      80.92748711
O      84.65688231      40.09904837      80.20561166
N      83.89721233      44.03912773      81.57944270
H      84.68900765      45.73232250      81.96683659
C      81.14955027      43.82936811      81.75518725
H      80.34074741      42.72387821      80.21883976
C      80.50704332      42.41963227      84.20616227
H      81.21380096      40.49211143      84.04742526
H      78.44724164      42.44230900      84.21372117
C      81.57473869      43.73677152      86.40580371
O      81.77315995      45.91751568      86.62690167
N      81.98858875      42.21932128      88.29930946
H      82.51015322      42.97899127      89.96982752
H      81.45757566      40.39762513      88.08010122
C      79.80217541      46.44474933      81.73440025
O      81.07207149      48.37604961      81.55298652
N      77.37576682      46.64506031      82.22005992
H      76.38932970      45.06335940      81.81187904
C      76.07185567      49.09981480      82.22950854
H      76.57830232      49.92751492      80.41348157
C      73.05585247      48.82391476      82.31832568
H      72.66278940      47.50677552      80.78386792
C      72.16579138      47.43118646      84.72394729
H      72.80829832      45.49232727      84.97717060
H      70.10976915      47.37260495      84.65024795
H      72.81585723      48.66139829      86.24328723
C      71.76516940      51.46386241      81.92904207
H      72.47948595      52.83202427      83.29531418
H      69.74127252      51.30512540      82.27108252
C      71.85020708      52.74131739      79.27775604
H      70.98471243      54.61214644      79.24941015
H      70.61810553      51.72842409      77.97762435
H      73.72481559      52.73375850      78.42171003
C      77.10364623      50.92718014      84.20616227
O      77.31718531      53.18351336      83.79231221
N      78.26393819      50.09381083      86.37934753
H      78.50582316      48.20975370      86.57587907
C      79.40155343      51.72275491      88.38245743
H      78.32440943      53.46697230      88.18214643
C      78.95179857      50.74009723      91.12067086
H      79.80595486      52.00054468      92.50772997
H      80.01193503      48.99399012      91.39846062
C      76.00949470      50.41506431      91.65924286
C      74.37488144      52.38982830      92.53040669
H      74.95502742      54.34569504      92.53040669
C      71.85020708      51.79645424      93.30519446
H      70.58409045      53.22697706      94.02518019
C      70.89211584      49.42673745      92.80252727
H      68.92302103      48.99776957      93.12189101
C      72.31130030      47.63527690      91.57231544
H      71.58753513      45.79657319      91.06397907
C      74.88510754      48.15306191      91.05830988
H      76.01138443      46.70742128      90.15880015
C      82.10953124      52.55990368      87.86467242
O      82.96368753      54.29089298      89.16480412
N      83.31895608      51.53567202      85.94093102
H      82.52527103      50.21475331      84.81654388
C      85.86063797      52.43140229      84.97150143
H      86.83573675      53.75043125      86.21683107
C      87.65776769      50.13916427      84.56898972
H      86.86597237      48.87304764      83.14980526
H      87.73524647      48.93351888      86.23572834
C      90.37708386      51.05946099      84.02096909
H      90.78148529      52.79800918      85.04898020
H      90.45267291      51.31457403      81.97817495
C      92.61451981      49.21508809      84.81276442
O      92.29137661      47.55590840      86.48517220
O      94.67054204      49.38138401      83.63546493
C      85.49403106      53.91294772      82.49595995
O      86.72991207      55.87637335      82.01407975
N      83.45501637      53.23453597      81.04465015
H      82.64432378      51.56212819      81.46794884
C      82.65944159      54.63482317      78.73162515
H      84.21468635      54.64049234      77.38047083
C      80.34074741      53.40461133      77.57889209
H      78.60597865      53.94507307      78.54832169
H      80.62420636      51.36370691      77.51464140
C      80.03839120      54.19262720      74.85579648
H      81.70701954      53.68429083      73.76164495
H      79.71902745      56.22597273      74.82745059
S      77.24159626      52.53155777      73.66526889
C      77.53828329      53.30067639      70.15415741
H      79.25604450      52.43329202      69.41527443
H      77.21702981      55.32268355      69.93116971
H      76.18901870      52.09692073      69.16583055
C      82.20401755      57.33335234      79.33255812
O      83.56651022      59.02276767      78.35556960
N      80.46735907      57.94562366      81.05598850
H      79.42989933      56.47352686      81.68715710
C      79.79083705      60.57423296      81.87990919
H      79.65099730      61.87436467      80.28686989
C      77.31340585      60.65549119      83.31988064
H      77.00160101      62.51120244      84.15702938
H      77.21891954      59.36102868      84.92047881
C      75.04573428      59.92038766      81.75329752
H      75.38210556      58.21018534      80.65347680
C      72.65900995      59.47819171      83.38602105
H      72.38877908      60.86714054      84.88268429
H      72.80262915      57.62059075      84.26285406
H      70.82597542      59.45929444      82.44682707
C      74.38055062      62.17672088      79.95805752
H      74.01016427      63.85668757      81.09567276
H      72.75727571      61.60413381      78.82800119
H      75.82052207      62.52254079      78.52942443
C      82.06795726      61.67783314      83.35011625
O      82.27771688      63.94361498      83.53908889
N      83.85563835      60.24353086      84.38568628
H      83.72713696      58.34624564      84.21561091
C      86.00992635      61.18650430      85.84833443
H      85.23513856      62.64537300      87.08043599
C      87.03226829      59.07568000      87.54719840
H      88.24925203      57.74720240      86.54375372
H      85.34096323      58.38781963      88.49962046
C      88.80483157      60.23597195      89.64290487
H      87.64264988      61.59279544      90.67091598
H      90.62841746      60.95973713      89.01929520
C      89.58906798      58.24042098      91.56286680
H      90.76825720      59.25142455      92.91402113
H      90.82683872      56.90816392      90.59910638
N      87.59918618      56.81745706      92.81575535
H      87.63509098      54.95796637      92.38678749
C      86.37275380      57.41461057      94.81697551
N      86.51259355      59.47819171      96.20025519
H      85.75292357      59.31567524      97.94636230
H      87.74469510      60.88414808      95.82230992
N      84.72680218      55.85369664      95.68813934
H      83.72524723      56.23920080      97.26795054
H      84.36019528      54.13404569      94.95114609
C      88.11130201      62.15404417      84.07955061
O      89.62497278      63.78298824      84.87134593
N      88.02626432      61.55689066      81.58133242
H      86.64109494      60.43817268      80.89158231
C      89.62308306      62.83245591      79.69727528
H      91.17454836      63.89070265      80.54387267
C      90.88919969      60.94083987      77.82077706
H      89.19789464      59.91849794      77.24252080
C      92.13074989      62.32411953      75.55121575
H      90.67944007      63.13670185      74.33612174
H      92.89230958      60.92761178      74.24163542
H      93.37607952      63.72818618      76.39970288
C      92.68821914      59.13426152      79.11901904
H      92.11941152      58.61269705      81.02953233
H      94.54959956      60.00731507      79.24374098
C      93.25513703      56.61336662      77.59967908
H      94.41542899      55.28299929      78.65981554
H      94.20377964      56.93650981      75.79876991
H      91.46745594      55.62503976      77.33322767
C      87.98091089      64.76564593      78.32533398
O      88.71223497      66.77631472      77.92471201
N      85.55450231      64.16849242      77.87368940
H      84.99892277      62.34868597      78.01919832
C      83.86508698      66.00152694      76.40915151
H      84.84774466      66.46639962      74.65737522
C      81.45946539      64.71651304      75.72696031
H      79.98358914      66.12624888      75.44917054
H      80.83018652      63.56566973      77.31622014
C      81.70701954      63.13481212      73.29866200
O      82.92778273      64.00786568      71.44861994
O      80.65444198      60.99375220      73.08134347
C      83.35108142      68.38825128      77.89825583
O      82.37598265      70.19482962      76.78142758
N      83.53060542      68.34289784      80.32844388
H      84.04650071      66.69883594      81.15236455
C      83.01282041      70.46317077      82.12368388
H      82.62542652      72.22061623      81.12023920
C      80.80184063      69.91326041      83.84711427
H      80.40121865      71.40236474      85.20960694
H      81.25726467      68.18794028      84.87701512
C      78.25826901      69.23673838      82.44304762
H      77.09419760      68.44305334      83.94538005
H      78.60975811      67.80621557      81.00307617
C      77.15088939      71.46661543      81.05409879
O      77.73859428      73.62090344      81.73440025
O      75.59753436      71.13024415      79.27397659
C      85.18789540      71.16614895      83.79798139
O      85.69434205      73.48106368      83.86034236
N      86.62030795      69.39547539      84.97528088
H      86.14976609      67.58322786      84.60489452
C      88.55349796      69.89058369      86.97461133
H      89.67599540      71.50063050      86.35478109
H      89.78182007      68.28620605      87.37523329
C      87.34029367      70.65781257      89.45393225
O      85.25592555      71.61023463      89.48227814
N      88.72924251      70.26663922      91.55908736
H      90.45834209      69.51830760      91.24539279
C      88.03382323      71.27575307      94.09887953
H      86.04016197      70.81465986      94.32942614
C      89.35096247      69.52019733      96.02073118
H      91.36163127      69.96806247      95.95837022
H      89.26403506      67.54543333      95.44247492
C      88.02437460      69.60334529      98.71548090
H      87.85996841      71.53086613      99.42034882
C      85.33340433      68.51864238      98.80051858
H      84.68522820      68.31077249     100.74504697
H      85.36175022      66.56655510      98.14667328
H      84.17311237      69.62224255      97.50794579
C      89.74969472      68.41848690     100.76205451
H      89.07695216      68.95516917     102.63288356
H      91.67343611      69.14981097     100.71670106
H      89.70056184      66.37002356     100.54662570
C      88.61585893      74.11601172      94.44847889
O      90.73802158      74.89079951      93.92313498
N      86.89431826      75.67503593      95.43113658
H      85.14065224      74.95882966      95.66546264
C      87.23635872      78.26018154      96.44025042
H      89.17332820      78.71371584      96.96559433
C      86.34251818      80.30486541      94.50328096
H      85.70190096      81.90357386      95.63711674
H      84.80995014      79.45637828      93.41668832
C      88.54404933      80.95304152      92.70804096
H      89.15632066      79.05575631      92.19403540
H      90.21267767      81.94514784      93.39401161
C      87.56517110      82.46671231      90.53863515
H      87.00203266      84.36210780      91.10555304
H      85.82851262      81.62200464      89.82053914
N      89.22435081      82.65568493      88.30497865
H      90.02181531      84.35265916      87.95348956
C      90.19755986      80.74895109      87.13145861
N      89.64009059      78.40946990      87.52074222
H      90.53582087      77.09799984      86.45871604
H      88.31539245      77.98239177      88.82276365
N      92.15153686      80.98705660      85.54219878
H      92.99057535      79.54330570      84.61623288
H      92.75813901      82.69347946      84.93937608
C      85.93433729      78.14301849      99.07641863
O      83.99925755      76.82398953      99.41845910
N      87.17210803      79.35622279     100.96425522
H      88.91254596      79.71905024     100.27261538
C      86.61085931      79.36189197     103.80829332
H      84.94034125      78.16758495     103.97080977
C      88.83128773      78.25073289     105.27472094
H      88.19633969      78.29041716     107.23436713
H      90.60763047      79.28630291     105.17834490
C      89.36230083      75.52763728     104.82307635
H      89.76292280      75.07032351     102.85587126
C      91.70556145      74.56576658     106.44257179
H      91.43344087      74.65269399     108.48158649
H      93.32694663      75.75062499     105.98903749
H      92.14019851      72.60989985     105.95880186
C      87.08707035      73.95916444     105.38054561
H      87.70123140      71.99384907     105.38999424
H      85.67166534      74.19726995     103.90088991
H      86.13653801      74.61867892     107.08507875
C      85.71890850      82.00183963     104.65111125
O      84.42066652      82.34954928     106.55595537
N      86.43322505      83.89912485     103.18846308
H      87.72201839      83.68747550     101.79573479
C      85.16521869      86.48616017     103.30562611
H      84.00303700      86.69969924     104.99504144
C      87.07573199      88.51572624     103.11854321
H      86.19322980      90.27128197     102.50060271
H      88.12075065      87.89589600     101.45558406
C      88.70467607      89.03540096     105.55629015
H      89.41143371      87.20236644     106.17989983
H      87.52737658      89.93113123     106.98681297
C      90.91943531      90.91567864     105.07818940
H      90.11441190      92.78461797     104.76260511
H      91.98335122      90.11821414     103.50404739
C      92.63530680      90.77961835     107.43089865
H      93.03592878      88.77461873     107.67845281
H      91.59028815      91.44858146     109.07496055
N      95.06360511      92.15911856     107.02271777
H      94.89730920      94.02238870     106.64099307
H      95.85917989      91.33330816     105.49959836
H      96.21633816      92.03250689     108.53827828
C      83.05439439      86.72804514     101.22314772
O      83.30383827      85.49216413      99.25216317
N      81.19490370      88.45336527     101.56707790
H      81.04939478      89.29996266     103.27161105
C      79.30706712      89.18468934      99.73215365
H      78.36220396      87.47826648      99.06885973
C      77.29450859      90.89867111     100.70158326
H      78.31685054      92.55596108     101.37621555
C      75.14966923      91.65834108      98.94224807
H      73.86654506      92.92445772      99.93813382
H      74.15000401      89.91412370      98.49438292
H      75.87910358      92.61265287      97.26606083
C      76.24004131      89.67979764     103.06752060
H      77.73292510      88.94658383     104.28261463
H      74.91345344      88.17746522     102.58941985
C      74.59786914      91.56385477     104.50749206
H      73.91567794      90.82686151     106.30273206
H      72.79318051      91.90211578     103.57018780
H      75.71091794      93.17579131     105.14244010
C      80.46735907      90.16545730      97.27173000
O      82.47613814      91.53739860      97.27550945
N      79.53383427      89.09209275      95.14389818
H      78.22803339      87.73337953      95.44814411
C      80.04972956      89.83475519      92.58898820
H      81.07963040      91.60164930      92.35277240
C      81.87331545      88.13967069      91.27184895
H      83.60430475      87.82597612      92.34332377
H      82.27771688      88.94847355      89.42180690
C      81.09474821      85.37689082      90.97705165
C      80.83585571      84.48116056      88.56765061
H      80.99837218      85.83420460      87.05020038
C      80.45980017      81.98861154      87.99506353
H      80.27460699      81.50673133      86.02218926
C      80.27082753      80.28596813      90.00951177
O      80.01571448      77.81420612      89.71849392
H      79.60753361      77.28886221      88.03096833
C      80.44657208      81.17791895      92.57576012
H      80.40499810      79.87400780      94.14612267
C      80.85097351      83.82920497      93.00850744
H      81.13821191      84.53218316      94.90390293
C      77.47592232      90.17868538      91.10555304
O      75.45769462      90.42623953      92.29041144
N      77.62899015      90.21081073      88.63190130
H      79.38265617      90.34876076      87.89301830
C      75.49170969      90.47537241      86.96138323
H      73.80607382      89.86877028      87.97616626
C      75.20069184      93.24949064      85.84455499
H      73.58686557      93.10587144      84.57465891
H      76.82396674      93.57641329      84.61623288
C      74.77739314      95.40566836      87.86467242
H      76.50271327      96.14644108      88.71504925
H      73.80985327      94.57607851      89.48227814
C      73.29773744      97.68089885      86.94248598
H      73.96481083      97.97947560      85.01685486
H      73.62277037      99.35519636      88.09332929
C      70.47448633      97.09886314      87.17492230
H      70.37811029      96.79272749      89.20826783
H      70.07575408      95.32818958      86.20549271
N      68.87955732      99.19267989      86.19037490
H      69.33687109     100.90099248      86.90847089
H      67.05786115      98.81473463      86.60800442
H      68.96081555      99.34385801      84.28742051
C      75.31974459      88.67824269      84.71449865
O      77.39844354      88.38722484      83.46727928
N      73.07663946      87.80896859      83.82065811
H      71.43446730      88.44202690      84.56143081
C      72.94435862      86.76394993      81.24118168
H      74.26527731      85.18602846      81.14480564
C      70.19291712      85.91168337      80.89158231
H      69.04018406      87.61621650      80.77819874
H      69.57497660      84.87611336      82.56210037
C      69.68836018      84.14289954      78.56721895
O      68.43169218      85.09910105      76.70016936
O      70.85810077      82.09254649      78.45572510
C      73.43757719      88.75005229      79.30988139
O      73.40167239      91.18024033      79.78042325
N      73.86087588      88.03006656      76.96473105
H      73.93268548      86.13656081      76.72851525
C      74.25582868      89.71192299      74.71406701
H      75.50871723      91.27283692      75.20350612
C      75.69580013      88.32297414      72.59757354
H      75.91878784      89.60987776      71.00453425
C      78.38110122      87.60109869      73.50086271
H      79.10297667      85.92491146      72.54844064
H      78.50015398      87.39889798      75.54743630
H      79.60942333      89.23004278      73.21929349
O      74.50905201      86.03640531      71.77932204
H      75.42934872      84.92524623      72.87725302
C      71.85020708      90.91189919      73.67471753
O      72.05240780      92.74682344      72.29710704
N      69.59576359      89.92546206      74.27942995
H      69.42190877      88.18880357      75.05232802
C      67.15801665      91.09142319      73.83345454
H      67.22415707      92.17990555      72.08545771
C      65.05475126      89.22059414      73.94494840
H      64.48216419      88.44580636      75.76664455
H      65.77284726      87.68991583      72.76953862
C      62.63590158      90.18435456      72.66182423
H      61.84599599      91.72637124      73.77676275
H      61.36789523      88.56674884      72.78276672
C      62.76440297      90.86654576      69.85369092
O      62.60566597      93.16634268      69.28866275
O      63.28407771      88.97492972      68.50631606
C      66.87833715      93.08697419      75.88002814
O      65.13600949      94.56851961      75.44350135
N      68.28807298      93.26649818      77.86990994
H      69.76016978      92.05707334      77.98518325
C      68.23516065      95.35086630      79.65003214
H      68.17468941      97.15366520      78.65603609
H      70.16079176      95.31118205      80.38324594
C      66.45314873      95.04662036      81.89880644
O      65.05097181      96.80973502      82.65469696
N      66.25094802      92.58619670      82.75107302
H      67.22982625      91.29740336      81.74006944
C      65.34765884      92.05896307      85.34566724
H      64.24783813      93.65767152      86.03919680
C      63.57131612      89.81396820      84.92047881
H      62.39023717      89.54373734      86.58532770
H      64.68247519      88.08108918      84.87134593
C      61.91780558      89.69113599      82.53753393
C      61.81765009      87.41212606      81.09945222
H      62.95526533      85.74916690      81.42259541
C      60.04697653      87.26472741      79.14547520
H      60.03563818      85.53562783      78.06266203
C      58.47661397      89.26216813      78.46517374
O      56.69460206      89.11287975      76.59245495
H      55.91792454      90.74938273      76.48474056
C      58.55976193      91.49015544      79.95427807
H      57.18026172      92.95847279      79.62357596
C      60.47972386      91.82274727      81.92337288
H      60.38901700      93.44224272      83.16492307
C      67.41312970      91.41456639      87.31098260
O      69.59009441      91.25771912      86.58343798
N      66.89912415      91.25960883      89.74495010
H      65.07742798      91.54873696      90.23060975
C      69.00427926      90.89111220      91.58743326
H      70.84676242      91.55440615      90.94492630
C      68.66601825      92.27439186      94.00628294
H      69.94536297      91.57330340      95.45759273
H      66.83676318      91.92290277      94.88500566
C      68.95325665      95.08441489      93.88911989
C      66.76306385      96.61887266      93.89478908
H      64.85066082      95.95746845      94.15746104
C      67.02951527      99.23992305      93.72660343
H      65.30986431     100.33974378      93.69447809
C      69.38411426     100.38509720      93.82675893
O      69.55796907     102.94378663      93.59243287
H      67.91579690     103.65999290      93.30330474
C      71.60643239      98.82796272      93.70392673
H      73.35631896      99.83896629      93.98738567
C      71.46092346      96.23903767      93.71337536
H      73.13711070      95.07496627      93.69825754
C      69.28017930      88.09431727      92.21293267
O      67.40935025      86.80174446      92.53418613
N      71.50249744      87.15134383      92.88945469
H      73.00294013      88.33053305      92.88000604
C      72.21492426      84.46226328      93.03307388
H      70.50094250      83.37189120      93.36188626
C      73.35442923      83.61755562      90.48761254
H      73.83252999      81.62011492      90.63501118
C      71.31730426      83.74227756      88.35789099
H      70.41212536      85.54696619      87.95159982
H      69.85654582      82.29096775      88.42781085
H      72.30752085      83.62889398      86.55698180
O      75.23848636      85.26728669      89.45393225
H      76.90144552      84.60399277      89.75250901
C      74.05362797      83.85377141      95.24027421
O      75.17045622      85.65657031      96.34198466
N      74.39566843      81.45948817      95.99616474
H      73.26372238      80.23116607      95.07397829
C      76.03595087      80.42580788      97.97092874
H      77.94079499      81.20626486      98.05596643
C      74.80951849      80.75462026     100.62410447
H      74.23504169      82.73316371     100.67701682
C      72.23571125      79.28441319     101.17590456
H      70.81841652      79.51307008      99.69813859
H      71.51761525      79.86833862     103.01460826
H      72.47759622      77.26618548     101.51416557
C      76.58964068      80.56186818     102.93901922
H      77.73670455      78.84977614     102.98059320
H      75.38966447      80.54486064     104.61142699
C      78.41133684      82.74072261     103.08263841
H      77.33419284      84.48871945     102.94468840
H      79.84374939      82.59332396     101.60865189
H      79.39588425      82.44781504     104.86842978
C      76.54995642      77.67058692      97.46637182
O      74.90589453      76.42714700      96.44025042
N      78.72314168      76.53675114      98.10131986
H      80.27460699      77.54019580      98.58131034
C      79.20313217      73.83822195      97.91423694
H      77.38521545      73.06721362      98.49627266
H      80.57885292      73.33366503      99.35987758
C      79.86831583      72.93493279      95.26862010
O      81.69190172      73.56421165      94.01195212
N      78.32440943      71.06599345      94.69414331
H      76.80317975      70.63891531      95.76372840
C      78.19968750      69.90948095      92.18269703
H      79.77760897      70.39136116      90.94870575
C      78.28850463      66.92371337      92.39434639
H      76.67089891      66.45128180      93.57542534
C      77.98047924      65.74641388      89.77518571
H      75.98681798      65.97507076      89.30653359
H      78.16000324      63.70361974      89.97549671
H      79.11242530      66.49474550      88.22749986
C      80.61097827      65.92593788      93.75494933
H      80.68467760      63.88503347      94.03273910
H      80.68278787      66.76875582      95.63144757
C      82.99770261      66.62702634      92.31497788
H      82.81439915      66.18105094      90.31375772
H      84.51704256      65.35901999      92.88945469
H      83.39454513      68.62257734      92.63056217
C      75.81674262      70.99985304      90.90713178
O      73.74560259      69.95672412      90.78807903
N      76.04350977      73.38846709      90.14746181
H      77.76127099      74.21616722      90.21927141
C      74.25204923      74.77930566      88.67725473
H      74.20480607      74.04042268      86.75540306
H      74.98337331      76.68792923      88.42025195
C      71.60832213      75.07410296      89.79975215
O      69.86410473      75.44259959      88.26907385
N      71.32675290      74.97583719      92.31119842
H      72.93302026      74.96449884      93.34298900
C      68.94191829      75.04386734      93.82675893
H      67.41312970      74.10467336      92.81197590
C      69.28395876      73.73617674      96.42135315
H      70.73526856      74.55064877      97.63266773
H      69.65434511      71.74440520      96.04718734
C      67.15801665      73.75507400      98.26572605
N      65.45915270      71.62724217      98.58697951
H      65.51962394      69.91892959      97.73849240
C      63.69225859      72.47761902     100.38599896
H      62.30142002      71.28709143     101.28739842
N      64.11555728      74.97016801     100.95669631
H      63.14423797      76.06809900     102.17745951
C      66.32842680      75.70338182      99.79640435
H      66.95014675      77.64035130      99.93624411
C      67.98571678      77.68570474      93.96281923
O      69.43324713      79.44503992      94.80752688
N      65.59710271      78.11278287      93.05386086
H      64.65223957      76.65202444      92.26773472
C      64.53318680      80.58076544      92.96126428
H      65.95993017      81.84499234      92.17702787
C      62.13512411      80.67147230      91.23594415
H      60.54775401      79.89857424      92.29608061
H      62.41669333      79.44503992      89.60511035
C      61.61166993      83.29252270      89.92258437
H      62.41669333      84.67013318      91.22460580
C      62.90046327      83.89912485      87.31854151
H      64.75050533      84.77406813      87.54530866
H      61.51340416      84.79674484      86.08832968
H      63.63367709      82.13412047      86.55509208
C      58.83944143      84.04085432      89.80542134
H      58.03063857      84.09943583      91.69892710
H      57.87379128      82.59521369      88.69804171
H      58.29708997      85.87388884      89.03819246
C      63.86422369      81.55208476      95.57097631
O      63.19904003      79.95526603      97.17535395
N      63.69792777      84.13723036      95.98482638
H      63.93981274      85.31452985      94.50139122
C      62.74739544      85.23894080      98.40745552
H      61.89890832      83.84432279      99.66223379
C      64.86955808      86.92457667      99.60554200
H      64.05508604      88.37399675     100.82063601
H      65.81064179      87.92235216      98.07108424
C      66.75550494      85.45436960     101.13622032
H      67.01061800      83.60810699     100.25749758
C      69.35954780      86.75639103     101.10787441
H      70.00205475      86.69214033      99.15200769
H      70.67668704      85.37689082     101.88077247
H      69.51450536      88.51194677     102.17368006
C      65.71804520      84.94036404     103.70057891
H      65.58009518      86.54096223     104.98937227
H      66.91802141      83.73660838     104.86465033
H      63.86800315      84.03518514     103.71191727
C      60.49106222      86.78284720      97.89344995
O      58.48228316      86.26506219      99.00838849
N      60.58176908      88.51383651      96.08120242
H      62.27874331      88.69902968      95.22893586
C      58.40291464      89.95191823      95.10799338
H      57.01774525      88.46092416      94.79051935
C      57.60733987      91.99282264      96.86732857