 %block lattice_cart
   135.996   0.000   0.000
   0.000 142.663   0.000
   0.000   0.000   160.158
 %endblock lattice_cart

 %block positions_abs
N      90.30716399      40.35038196      81.34228205
H      89.68922348      40.02534904      83.11673504
H      92.19878003      40.59793611      81.38196629
H      89.88008584      38.93119751      80.13852639
C      89.24135835      42.85993851      80.54859699
H      90.00480778      44.25077708      81.86195677
C      90.39409140      43.86527290      78.11651923
H      90.01992559      42.55947203      76.56883337
H      92.43877527      43.74810987      78.33194803
C      89.72701801      46.55813290      77.27937046
H      87.67666496      46.71309045      77.13764099
H      90.38275304      46.66395757      75.33106265
S      90.87408188      49.17729356      79.18043513
C      88.97490694      51.65283503      77.72156643
H      89.25647616      53.48775928      78.61162751
H      86.96045869      51.25221306      77.88219317
H      89.26403506      51.88149192      75.69389010
C      86.33495928      43.01300634      80.55804563
O      85.03104812      41.40295951      79.60751328
N      85.40521393      44.98777033      81.73723485
H      86.46912985      46.34648355      82.54981715
C      82.64999297      45.17485324      82.20777669
H      81.42734004      44.31880721      80.78859223
C      82.22291482      43.81425029      84.76646612
H      83.52682598      42.23443909      84.98378465
H      80.47113853      42.72954739      84.74945858
C      82.19456893      45.45264300      87.07949113
O      80.35397550      45.97420746      88.21143718
N      84.45468160      46.41829316      87.74089534
H      84.79483233      47.34236931      89.37739833
H      86.09496404      45.97987665      86.86973151
C      81.86197709      48.06424477      82.35328562
O      83.51170817      49.77255736      82.41564659
N      79.35997946      48.52722771      82.53280962
H      78.23370257      47.00221858      82.75201787
C      78.42456493      51.13127058      82.66320074
H      78.66267045      51.72275491      80.70733400
C      75.61832136      51.17473428      82.91831378
H      74.80573904      49.92184574      81.50101906
C      74.68101710      50.21664304      85.52991556
H      75.60131382      51.16717537      87.10972675
H      75.17612540      48.22298179      85.66219639
H      72.64200241      50.46041773      85.67353476
C      74.70558355      53.86570455      82.56115551
H      75.39344392      55.08646776      84.07104684
H      72.69491475      53.79767440      82.99957201
C      74.94179934      54.83324443      79.78325784
H      74.01394372      56.65116113      79.51302698
H      74.30307184      53.34602981      78.50769257
H      76.95813731      55.08457802      79.44688656
C      79.65855621      52.86037015      84.68142844
O      80.01193503      55.08268829      84.20332767
N      80.21602548      51.84936658      86.85272398
H      80.08374463      49.96341972      87.10405757
C      81.26860303      53.40461133      88.92575374
H      79.92878708      54.96741499      89.01646059
C      81.11931465      51.75676999      91.33137534
H      81.84119010      52.92840030      92.86394338
H      82.27960661      50.08058275      91.03657802
C      78.49259508      50.98954111      92.18175217
C      76.58964068      52.84525234      92.49922620
H      76.70869344      54.70474303      91.66018772
C      74.29551294      52.16684059      93.65951816
H      72.64011269      53.35547845      93.72376884
C      74.06496633      49.80468271      94.75177996
H      72.27728523      49.11871206      95.45475814
C      75.96792072      48.00566326      94.61382993
H      75.52194531      46.28790204      95.61916433
C      78.24126148      48.62927294      93.33259549
H      79.65288703      47.17796313      93.08693107
C      83.94067604      54.45529916      88.36072556
O      84.85908303      56.25053915      89.54936342
N      85.36930913      53.44618531      86.50690405
H      85.10285772      51.65661449      85.89841218
C      87.74280538      54.46096834      85.35606073
H      88.63097675      55.46630273      86.92075411
C      89.58150908      52.42951256      84.54725787
H      91.16132028      53.16650581      83.44743716
H      88.47979864      51.12938085      83.39074537
C      90.39409140      50.69096434      86.72800204
H      88.82561856      50.54923487      88.05836935
H      92.00413822      51.60937133      87.62184258
C      90.96289902      48.10203929      85.67731421
O      89.22246108      46.64128086      85.35606073
O      93.26647539      47.70897623      85.30503812
C      87.39320601      56.37337136      83.31137686
O      88.53082125      58.44262168      83.45499605
N      85.45245709      55.87826307      81.71077868
H      84.79294261      54.09814088      81.89975130
C      84.88742892      57.44862564      79.59617492
H      86.56739561      57.42594893      78.40564735
C      82.60086008      56.32801793      78.28092541
H      80.84719406      56.76454471      79.26925227
H      82.87487040      54.29656216      78.47556723
C      82.24181208      56.80800842      75.56349898
H      83.75359313      55.77432812      74.61863582
H      82.26448880      58.84702311      75.26303250
S      79.39021508      55.44740547      74.36541250
C      79.32974383      56.63604333      71.17744421
H      77.91811828      55.58724523      70.10596938
H      81.11175575      56.10125079      70.29494202
H      79.15399929      58.68261693      71.32673259
C      84.20145827      60.18683907      80.32560928
O      84.87798029      62.05388867      79.08405910
N      82.81628888      60.34557607      82.40430822
H      82.33818812      58.72419091      83.29436933
C      81.84119010      62.78521274      83.37373783
H      81.59741541      64.01353486      81.73723485
C      79.22391916      62.41293667      84.54347841
H      78.69479579      64.04188075      85.68865256
H      79.36186918      61.14682004      86.16108415
C      77.11687432      61.73263520      82.62162675
H      77.73670455      60.02054315      81.65786633
C      74.73014999      60.88225836      84.00301669
H      73.10498536      60.46273912      82.80870966
H      74.11598894      62.15971335      85.49967994
H      75.34998022      59.19095330      85.00268191
C      76.39877832      63.77542933      80.67142920
H      78.05039912      64.08723417      79.48279136
H      75.95091319      65.58767687      81.53881358
H      74.84164384      62.98741347      79.57538793
C      83.79516711      64.03621157      85.13874220
O      83.99169865      66.22451463      84.95543876
N      85.35230159      62.48663600      86.46721980
H      84.95923852      60.61769666      86.42375610
C      87.58406837      63.42771969      87.84105084
H      86.91510526      65.10957611      88.82748797
C      88.61585894      61.61547216      89.79502784
H      90.55471813      62.10302155      90.28446695
H      88.82372883      59.72763557      88.99189415
C      86.92077443      61.71373793      92.14962682
H      85.09529882      60.86147136      91.72065896
H      86.84707511      63.69417110      92.71087554
C      88.09996365      60.26620757      94.34926825
H      89.85740912      61.22996799      94.82169984
H      88.68388908      58.34435591      93.88628531
N      86.15354555      60.30589183      96.39017268
H      85.05372484      58.74497790      96.39773157
C      86.19322980      61.71751738      98.40084146
N      87.93366774      63.45417586      98.70319767
H      88.32106163      64.18549995     100.42284863
H      89.40009536      63.48063203      97.47865502
N      84.58696244      61.51720640     100.13183077
H      84.45090214      62.64159356     101.67006799
H      83.43044993      60.00164589     100.14694859
C      89.63064197      64.52754042      85.99478822
O      91.40320525      65.67271455      87.00012263
N      89.35663165      64.48407670      83.48712140
H      87.75981292      63.75275262      82.73501033
C      91.14998192      65.85034882      81.66542524
H      92.14964714      67.22795932      82.82571719
C      92.93955274      63.87558483      80.54859699
H      93.37796925      62.65293191      82.14730545
C      91.36541072      62.19561814      78.73445974
H      92.67121160      60.81044875      77.94833359
H      90.72857295      63.21418062      77.06016222
H      89.66465704      61.30744678      79.48279136
C      95.50013190      64.83934525      79.42420983
H      95.02581059      66.01475501      77.79904520
H      96.48845876      63.17071691      78.72879056
C      97.18954722      66.24530162      81.36306903
H      97.17064996      65.29287956      83.19043437
H      96.59428343      68.20494781      81.59172591
H      99.05281736      66.08845435      80.50513328
C      89.73079746      67.47173401      79.74168386
O      90.96478874      69.18193632      78.76469536
N      87.29871970      67.03331750      79.09917690
H      86.40487915      65.38169670      79.44877628
C      85.94378593      68.81721914      77.40409241
H      86.99636349      69.07422191      75.65231612
C      83.36053006      67.64747856      76.71434231
H      82.40243882      69.35390141      76.07561481
H      82.56873474      67.03331750      78.51525147
C      83.31139718      65.76342141      74.51848032
O      85.43167010      65.29287956      73.36763701
O      81.19112425      64.93194184      73.86652475
C      85.58473793      71.41937228      78.50958230
O      85.69434206      73.35823147      77.18110470
N      85.16143924      71.44015927      81.01913885
H      85.03293785      69.73373641      81.86573623
C      85.14254197      73.72294865      82.62729594
H      85.39387557      75.32732628      81.35928958
C      82.47802787      73.77019180      84.00301669
H      82.32118059      75.46716604      85.15952920
H      82.30606278      72.22250596      85.35039156
C      80.06673710      73.67948494      82.36084453
H      78.56440468      72.78186494      83.44554743
H      80.35208577      72.33588954      80.82449703
C      79.02360817      76.22872575      81.34606150
O      76.86176127      76.13234970      80.48056684
O      80.28027617      78.23183563      81.43487864
C      87.22691010      73.87979594      84.49245581
O      88.16988353      76.02463529      85.09905796
N      88.29649519      71.76330246      85.36172991
H      87.69367250      70.20427826      84.43954346
C      89.79882761      71.41748254      87.75790287
H      91.57517034      72.45683202      87.68609328
H      90.22590576      69.41437266      87.97900085
C      88.37964315      72.24140322      90.12195049
O      86.07606677      72.97272731      89.95754430
N      89.50592003      72.02408469      92.28001794
H      91.33517510      71.51196887      92.46521112
C      88.22846504      72.97461703      94.64973473
H      86.17244281      73.01997047      94.58359431
C      88.80483157      71.00174275      96.74733095
H      90.77392639      70.49151665      96.42229801
H      87.68233414      69.31421717      96.38261377
C      88.26625957      71.76141274      99.51011082
H      89.52481729      73.34311367      99.91262251
C      85.56773039      72.68170946      99.86915882
H      85.42033174      73.20516364     101.85526117
H      84.16366374      71.19827430      99.59514850
H      85.18789540      74.39758095      98.79579426
C      88.95789940      69.82822271     101.46408782
H      90.84384626      69.03642740     101.22031313
H      87.75225401      68.15959439     101.41117549
H      88.84262609      70.63702559     103.35381413
C      89.16198984      75.67503593      95.17507865
O      91.49958129      76.02085584      95.43586088
N      87.47257452      77.43815059      95.85349039
H      85.59985574      77.07343341      95.82136506
C      88.23224450      79.83810299      97.06291524
H      90.25803110      79.55086460      97.27645431
C      87.57461974      81.99050127      95.24310881
H      87.34029368      83.74605702      96.29379663
H      85.71134959      81.49161353      94.52123334
C      89.37930837      82.65379521      93.06614409
H      89.99346942      80.87178330      92.23277479
H      91.03092916      83.48716450      93.97132299
C      88.20578833      84.44336603      91.16318969
H      89.59095771      85.68491622      90.28068751
H      87.06250391      85.77184363      92.24978232
N      86.55416753      83.30575079      89.52857642
H      85.56584067      81.82042591      90.21076763
C      86.00614690      84.13534064      87.22122060
N      86.57117507      86.41624030      86.27257800
H      85.80961536      86.88489241      84.58694212
H      87.31005805      87.69558500      87.48011311
N      84.53782955      82.80686304      85.77746969
H      83.54572324      83.38700902      84.25435029
H      84.04083153      81.03052030      86.26690881
C      86.85274429      80.14612838      99.53467726
O      84.55861654      80.15179756      99.66695809
N      88.21901641      80.44470515     101.67573717
H      90.11063245      80.64123668     101.52833852
C      87.16643885      80.39557226     104.24009578
H      85.47891326      79.21449331     104.25521358
C      89.20356382      79.15402208     105.95785700
H      88.61963839      79.50929061     107.90238537
H      91.01581135      80.07242907     105.61770626
C      89.58150908      76.36478604     105.76699464
H      89.64953923      75.75251470     103.80167927
C      92.13074988      75.85078048     106.71563724
H      92.60885064      74.01018704     105.92573164
H      92.38019375      76.13612916     108.74142385
H      93.51780899      76.95249091     105.66872887
C      87.46312589      74.90402760     107.17484074
H      87.52359713      75.18181737     109.21574515
H      87.90721157      72.89524852     107.07657497
H      85.66599616      75.23095025     106.22241868
C      86.31795174      82.85977537     105.32857814
O      84.94790016      82.86166510     107.17106128
N      87.44422862      84.85532636     104.38749442
H      88.57806441      84.59076468     102.87571338
C      86.56172643      87.42535415     104.94118423
H      85.52993587      87.19669726     106.70807835
C      88.69711717      89.22626333     105.16795140
H      88.05838967      90.94213482     106.11470427
H      88.88797953      89.82152711     103.20641548
C      91.20667371      88.26061318     106.35847897
H      91.94933615      86.90945887     104.99409658
H      90.88919969      87.79196105     108.33891214
C      93.14364318      90.28828951     106.39249405
H      92.48790815      92.05140416     107.22775307
H      93.46489666      90.81741288     104.42906840
C      95.55115451      89.41712568     107.91372372
H      95.84973126      87.43291306     107.44318187
H      95.53036752      89.69491545     109.95462815
N      97.70166305      90.70969847     106.70240917
H      97.78103155      92.54651245     107.22019418
H      97.59205892      90.65300669     104.79756504
H      99.37029138      89.92924151     107.19562774
C      84.57940353      88.30218715     103.00799423
O      84.64176450      87.67479802     100.74410210
N      82.54227857      89.61365722     103.83191489
H      82.27771688      89.67979763     105.72164120
C      80.59775019      90.68702176     102.12360231
H      79.52627537      89.03540097     101.52455907
C      78.79495129      92.31785557     103.60514774
H      78.00315596      90.95725262     104.93551505
C      80.03083230      94.47592302     105.07724454
H      78.61353756      95.07685599     106.44918583
H      80.50893305      96.08974930     103.88860668
H      81.57473869      93.88821814     106.30556664
C      76.62554548      93.21736530     101.87226870
H      75.91689811      91.44669174     101.09748092
H      77.39844354      94.23403805     100.25466298
C      74.50905201      94.92189842     103.04956820
H      75.20069184      96.73225624     103.74309775
H      73.56796831      94.03750652     104.65583557
H      73.06908056      95.05039982     101.58314058
C      81.89032299      92.10809595      99.87293827
O      83.36053006      93.75026811     100.29245751
N      81.16466808      91.38244105      97.55424408
H      79.72280691      90.13522167      97.65250984
C      81.99425794      92.45013642      95.21665264
H      83.32840471      94.00538117      95.42263281
C      83.54761297      90.52072585      93.68786404
H      85.15577006      90.00861002      94.86705326
H      84.23547334      91.40322803      91.95876447
C      82.16622303      88.08486862      92.89795845
C      80.80373036      87.95069806      90.73044237
H      80.52405086      89.59287022      89.54936342
C      79.73225554      85.59042989      90.05392034
H      78.84786362      85.31452986      88.23222417
C      79.91177954      83.52684876      91.74711512
O      79.16911710      81.28563336      90.68508893
H      78.70991360      81.68247588      88.97488662
C      81.05506396      83.72527003      94.13006001
H      81.30828728      82.17191500      95.43019170
C      82.33440867      86.00427996      94.56469705
H      83.43044993      86.31986425      96.25600210
C      79.73225554      93.37799204      93.64251062
O      77.59497508      92.95658307      94.42863675
N      80.12720834      94.76694088      91.53735550
H      81.92811752      95.35464576      91.30113972
C      78.43212384      95.27716698      89.37550859
H      76.45169066      95.22425464      89.93486759
C      78.98014447      97.97002697      88.38718173
H      78.29039436      98.13065371      86.45399172
H      80.99459272      98.39143594      88.45710161
C      77.34742093      99.79928204      89.91030115
H      78.22047449     100.15455058      91.74333567
H      75.39533365      99.13598810      89.89140389
C      77.18679420     102.36742011      88.65930232
H      76.45924957     102.08396115      86.75445821
H      79.13510202     103.00992704      88.47599888
C      75.44257681     104.07006351      90.24478271
H      76.16067281     104.18155737      92.17230355
H      73.62277037     103.16488460      89.90652169
N      75.47848161     106.61930430      89.27913256
H      74.87565891     106.41143442      87.48011311
H      77.10931542     107.60763117      89.30558872
H      74.33708692     107.71534557      90.34682792
C      78.90077596      93.35909477      87.38562679
O      80.99837217      93.06807692      86.32360060
N      77.01104965      92.07597060      86.46721980
H      75.25549390      92.38399600      87.15696990
C      77.09230788      90.69080122      83.96144272
H      78.70802388      89.41712568      83.92931737
C      74.72070136      89.02217287      83.77435981
H      73.23537648      90.14278058      82.88996789
H      74.06874578      88.44202691      85.63951968
C      75.32352405      86.66568417      82.35139589
O      74.28606431      86.20270122      80.22734352
O      76.88632771      85.07264489      83.12807340
C      77.63654906      92.39911380      81.70321977
O      77.21136064      94.64032921      81.73534512
N      78.36409369      91.49015544      79.51113725
H      78.44724165      89.61176749      79.18043513
C      78.49826426      92.93579607      77.11685400
H      79.87209529      94.44568740      77.38330541
C      79.55273154      91.24638074      75.10240576
H      79.26360341      92.20825145      73.30527604
C      82.39299019      91.01205468      75.40665169
H      83.24903621      89.99727166      73.83250967
H      83.01093069      90.07852989      77.13764099
H      83.14888071      92.92823716      75.35751880
O      78.79495129      88.71036804      75.15531809
H      77.75182236      88.22659811      73.75125144
C      75.91689811      93.93168184      76.09829152
O      75.65422616      95.20913683      74.16888096
N      73.94780330      93.26649817      77.41165132
H      74.23315197      92.16289801      78.94421936
C      71.34187071      94.30962711      76.91465329
H      71.10754465      94.86520664      74.94555847
C      69.36710671      92.25549460      77.37196705
H      67.50572629      93.03406184      76.96189644
H      69.34443000      91.96825621      79.41287148
C      69.89623008      89.91979287      75.83939901
H      68.90412377      88.31919470      76.67087860
H      71.88044271      89.36610307      75.84317848
C      69.26695122      90.50371831      73.09173696
O      70.98471244      91.45803009      71.72735456
O      67.08809678      90.22781826      72.23380121
C      70.56519319      96.66611581      78.40564735
O      68.68113606      97.96813725      77.61196231
N      72.05996671      97.30106385      80.38041134
H      73.63599845      96.29950892      80.78103332
C      71.74438241      99.46857994      81.92809720
H      70.26850616     100.69690205      81.18354503
H      73.40545184     100.64587943      82.24179177
C      70.83731378      98.85630862      84.67575926
O      70.26472671     100.55895202      86.16108415
N      70.54818566      96.36564934      85.30125867
H      71.20203096      95.04851009      84.08238520
C      69.11010393      95.50582386      87.50090010
H      67.81375168      97.01382546      88.04325155
C      67.26573105      93.38177149      86.78847328
H      66.22071240      92.82997140      88.47410914
H      68.38444903      91.82841645      86.02880330
C      65.38356364      93.79373182      84.59828047
C      64.73916697      91.73581986      82.94288022
H      65.80875207      90.03506619      83.29625904
C      62.73983653      91.92857195      81.22322929
H      62.29386112      90.25427443      80.14419555
C      61.26207056      94.18679490      81.02102856
O      59.22683532      94.34742162      79.46767354
H      58.59944618      96.01227051      79.10673581
C      62.27496386      96.38832604      82.23234313
H      61.41513839      98.18356605      81.78447800
C      64.42169295      96.16722807      83.89530229
H      64.65790874      97.83207696      85.05370453
C      70.62755416      94.50993809      89.77613057
O      72.34342566      93.05484884      89.46621547
N      70.11732806      95.48881633      91.95687474
H      68.82286553      96.89099325      91.90585214
C      71.22092823      94.62521140      94.44564429
H      73.26750182      94.86709636      94.46832102
C      70.13244587      96.35809043      96.50922544
H      70.40267673      95.50582386      98.36493667
H      68.10099008      96.63399046      96.30135553
C      71.47982073      98.93189767      96.74355150
C      70.17024040     101.12398019      96.10293427
H      68.19925585     100.90099249      95.62105406
C      71.32675290     103.53527096      96.53757133
H      70.04551846     105.10752326      96.76811794
C      73.99315673     103.55227851      96.97787756
O      75.24982472     105.80483227      97.50511119
H      74.04228961     107.14464822      97.30668993
C      75.32163432     101.26381994      97.14606319
H      77.33230312     101.09941375      97.45975777
C      74.04606906      98.94512574      97.23110089
H      75.04384456      97.25382070      97.78857014
C      70.62377471      91.82652673      95.07114370
O      68.47137644      90.93079646      94.96720876
N      72.57775172      90.37899637      95.49633212
H      74.18401908      91.39755885      95.36405129
C      72.94057917      87.70881309      95.16751974
H      71.24360494      86.68269170      95.72120956
C      73.52261487      87.13055685      92.34993782
H      75.34998022      87.98093368      91.92663912
C      73.53206351      84.27895983      91.60916511
H      74.29551294      84.06920021      89.70810042
H      71.60454267      83.62322481      91.29736026
H      74.58653079      83.17158022      92.99055503
O      71.53273307      88.15667823      90.86461293
H      71.95603176      89.91223398      90.69075811
C      75.12321306      86.61655128      96.76244875
O      76.95813731      87.95258779      97.27834404
N      74.93801988      84.25061394      97.60715642
H      73.61710119      83.08465281      96.87583233
C      76.74837769      82.99772540      99.28145394
H      78.46613891      84.08620774      98.95453127
C      75.94902346      83.51740013     102.03667490
H      75.78272755      85.55641483     102.28611876
C      73.49804843      82.23994515     102.78311679
H      71.93146532      82.77095823     101.55479469
H      72.94057917      82.84087811     104.67284310
H      73.53017378      80.18203319     102.88705174
C      78.07307584      83.14323432     104.03411560
H      79.73225554      83.67991660     102.93618462
H      78.55873550      81.15335252     104.24387522
C      77.69513057      84.42068930     106.53800297
H      76.53861807      83.37378093     107.88348810
H      76.81262839      86.27073137     106.33391253
H      79.52627537      84.77217841     107.41294625
C      77.13199213      80.33321129      98.64083672
O      75.62776999      79.23528031      97.19141663
N      79.15588901      79.04630768      99.62538412
H      80.69034678      80.11211332     100.01655747
C      79.38832535      76.37423467      99.37782997
H      77.63843878      75.37078999      99.79168003
H      80.67900842      75.59377769     100.78378636
C      80.02327339      75.51440919      96.63016792
O      81.40844278      76.74273129      95.39050746
N      79.07274106      73.43759997      95.69475338
H      77.92567718      72.40391969      96.81536110
C      79.01982872      72.71950397      92.90362762
H      80.53160977      73.57177055      91.79057882
C      79.50926783      69.83011244      92.76567760
H      78.11842927      68.75674790      93.84093187
C      79.06329242      68.83989586      89.99722856
H      80.02894257      70.00963644      88.60450026
H      77.05640308      68.91359519      89.53991478
H      79.87587474      66.94639009      89.93675731
C      82.23803263      69.04209658      93.76156337
H      82.90132657      70.23451388      95.30735950
H      83.43233966      69.18382605      92.09104532
C      82.58763200      66.30199341      94.62705802
H      84.39421035      66.17916120      95.60404653
H      82.30606278      65.00186172      93.05669545
H      81.10041739      66.09790297      96.03868357
C      76.52727971      73.62279315      91.84349117
O      74.64889176      72.16770390      91.74333567
N      76.61987630      75.92259008      90.94398143
H      77.88599293      77.07721285      91.78490964
C      74.59975887      77.30020056      89.68542371
H      74.34842527      77.03374915      87.65774738
H      75.24604527      79.25228784      89.77235113
C      71.89745025      77.12256629      91.04413693
O      70.08709244      76.63501690      89.68542371
N      71.94280368      77.07910259      93.53668593
H      73.54529159      77.26996494      94.55524843
C      69.69780882      77.51184991      95.19019646
H      68.04240857      76.57643538      94.40029087
C      69.99449585      76.49139770      97.83203384
H      70.95447682      77.78963968      99.10948883
H      70.98849189      74.68859880      97.76967289
C      67.59643316      75.99817914      99.21909297
N      65.84276714      74.11412200      98.68619014
H      66.33787543      72.71761426      97.48243448
C      63.82264971      74.08955556     100.30001642
H      62.52062828      72.54564916     100.59859318
N      64.28374293      76.01896611     102.01399817
H      63.06486946      76.59533264     103.36515250
C      66.54952478      77.17358890     101.31101999
H      67.22037762      78.85166587     102.26344205
C      68.88711623      80.29163732      95.31491841
O      70.28173425      81.75806494      96.58859394
N      66.82353510      81.07020456      94.24344358
H      65.72182465      79.80408793      93.34015440
C      65.90890756      83.66290906      94.25478193
H      67.51895438      84.75139142      93.57637019
C      63.61289009      83.51362067      92.38584262
H      62.51117965      81.86388960      92.93575297
H      64.42169295      83.32653778      90.49989575
C      62.08221178      85.94380872      92.21009806
H      61.28474727      86.26506219      94.08092711
C      63.68658942      88.09431726      91.30869861
H      64.20626415      87.44047196      89.42653121
H      65.38923282      88.27573098      92.45387276
H      62.49606184      89.77050449      91.18586640
C      59.96949776      85.48838468      90.31092313
H      58.76385237      84.05975159      91.17452805
H      60.46649578      84.71926606      88.46466052
H      58.78274963      87.13811575      89.97455183
C      65.12089169      84.42824821      96.89095015
O      63.93792302      82.99394595      98.31202434
N      65.07364853      86.86221570      97.32369748
H      66.05063703      87.95447752      96.09915482
C      63.98516617      87.94124942      99.67451700
H      63.20659893      86.47671154     100.89528021
C      66.05252676      89.29807292     101.21653367
H      65.14923758      90.32230458     102.75855035
H      66.94258785      90.76450055     100.07513898
C      67.91390718      87.58031170     102.32013385
H      68.59420865      86.25939301     100.89150075
C      70.12488696      89.12610783     103.04767847
H      69.43513686      90.75883137     104.09647657
H      70.95636654      90.01049975     101.38282960
H      71.51950498      88.26250291     104.28922866
C      66.69881316      86.00427996     104.49898828
H      68.03484966      84.70036880     105.37015211
H      65.12089169      84.90445924     103.76010530
H      66.16402061      87.33842673     105.97486453
C      61.88568024      89.81018875      99.04145868
O      59.69926690      89.53806816      99.69908344
N      62.45259813      91.53361915      97.29535157
H      64.22705114      91.55251641      96.58859394
C      60.76129308      93.40822766      96.02734523
H      58.99817843      92.34620147      96.11994180
C      60.31531767      95.77605473      97.69597355