 %block lattice_cart
   135.996   0.000   0.000
   0.000 142.663   0.000
   0.000   0.000   160.158
 %endblock lattice_cart

 %block positions_abs
N      89.38025323      40.79446764      82.97406072
H      91.27564873      41.00044782      82.84933878
H      88.70184149      39.27323796      82.04242564
H      88.73396684      40.71320942      84.76930071
C      88.15760031      43.11505156      81.78353314
H      88.61491408      44.61549425      83.11956964
C      89.02309496      43.58559341      79.15681356
H      88.07256263      42.35727131      77.80376952
H      91.01108704      43.11694128      78.89603133
C      88.63759079      46.39939589      78.62391074
H      86.84990970      47.00032887      79.45728005
H      88.36547020      46.60159660      76.59245496
S      91.26242064      48.24754822      79.93160135
C      90.13236431      51.19363154      78.74296350
H      88.14815168      51.26355142      79.29098413
H      90.47629450      51.29189731      76.71339744
H      91.07344801      52.77155302      79.66892939
C      85.22663480      42.90340221      81.91392425
O      84.22507985      40.94186630      81.26574813
N      84.03988667      45.10493337      82.58099764
H      85.07545669      46.68096511      82.87201549
C      81.31301160      45.11438200      83.21027650
H      80.21508062      44.30746886      81.66448038
C      80.93128689      44.06747362      86.00329200
H      81.70796440      42.16073977      86.07699132
H      78.91494891      43.90306743      86.39068589
C      81.88370895      45.84003690      88.05931422
O      80.80089577      47.86771323      88.32765536
N      83.72997156      45.13327926      89.35188702
H      84.46507509      46.43530069      90.53863515
H      84.55389223      43.45898175      88.95126504
C      80.33791283      48.03022970      83.08933402
O      81.88748840      49.58547445      82.43926817
N      77.96441658      48.53667635      83.36145461
H      76.81546298      47.09292545      83.86034236
C      76.85325751      51.00465892      82.80209562
H      77.44663157      51.55645901      80.90858986
C      74.04323448      50.52088898      82.84933878
H      73.81268787      49.02800519      81.44905158
C      72.76200004      49.45508334      85.20582749
H      73.46686795      47.56346730      85.61211865
H      70.75889015      49.19052165      84.80331579
H      72.97742884      50.62482393      86.88957364
C      72.54846096      52.91706195      82.03675646
H      72.66562400      54.21530393      83.63168547
H      70.51322573      52.65438998      81.87424000
C      73.64639195      54.21908337      79.52531019
H      73.99221187      52.94918729      77.94171954
H      75.47186757      55.11481364      79.86357120
H      72.30468627      55.58913495      78.77319912
C      77.72820079      53.22130788      84.60111507
O      77.62993502      55.42850822      83.94160059
N      78.61448243      52.53155777      86.76674143
H      78.64660778      50.67206708      87.19381957
C      79.80123055      54.27010599      88.49773073
H      78.78266807      56.05400762      88.64701911
C      79.81634836      53.30823529      91.16980374
H      80.71963754      54.70663276      92.38300803
H      81.13348760      51.73031382      91.30964348
C      77.49576445      52.56746258      92.55497312
C      75.98587313      54.69151495      93.42802668
H      76.63215953      56.56801318      92.95748483
C      73.69930429      54.27766490      94.71682002
H      72.53523288      55.77432813      95.47082082
C      73.24954943      51.76810834      95.59365303
H      71.48832450      51.63582750      96.61599497
C      74.64794690      49.68185049      94.55430356
H      73.79190088      47.83369817      94.69225358
C      76.63971843      50.07869302      92.90835194
H      77.40505759      48.38927770      92.05230592
C      82.38826588      54.99765061      87.45271208
O      82.97786049      57.32768316      87.42247646
N      83.92083392      53.20241062      86.76674143
H      83.58068318      51.48653913      87.53208058
C      86.39259593      53.76932851      85.67070016
H      87.36013581      55.10914448      86.90091199
C      87.97807631      51.37693500      85.12645899
H      89.74308069      51.80023369      84.15136021
H      86.80833572      50.16751016      83.93971086
C      88.79443808      50.08814166      87.55475730
H      87.27509812      49.16028603      88.59032732
H      89.72796288      51.50165693      88.72638761
C      90.70306165      47.95464064      87.20704766
O      90.00386292      45.74555058      86.84799966
O      92.99907912      48.41195441      87.45082235
C      86.27354318      55.41528013      83.32743954
O      87.87036191      57.18217423      83.10634156
N      84.30255863      55.14315954      81.76652560
H      82.89282280      53.88082237      82.00085166
C      84.25531547      56.69273512      79.42326497
H      86.17716713      56.96485570      78.72973542
C      82.39960423      55.26221230      77.57511264
H      80.73664508      54.77088346      78.68816144
H      83.54666811      53.61626069      77.10646051
C      81.92339320      56.58691045      75.12413761
H      83.69784621      56.57179264      74.08100869
H      81.52466095      58.59757924      75.34712532
S      79.47619763      55.16583625      73.19094759
C      80.22641897      56.56234400      70.18628276
H      80.28122104      58.57490252      70.62280953
H      78.80912424      56.02377200      68.79166474
H      81.99142335      55.83668910      69.40771551
C      83.42572562      59.45362526      80.12813289
O      84.29688945      61.09390770      78.71650733
N      81.91016512      59.85046778      82.09155853
H      80.99175813      58.36325318      82.85689768
C      81.45285135      62.52254079      82.84933878
H      81.68339796      63.68472248      81.16370291
C      78.74676327      62.91371415      83.83010674
H      78.73353519      64.73918976      84.78630825
H      78.50298858      61.61736189      85.40991793
C      76.40161292      62.56411478      82.06132291
H      77.00632534      61.08256934      80.76497066
C      74.09614682      61.86491604      83.54664779
H      74.40984138      60.18305962      84.69560139
H      72.48421027      61.43594816      82.33911267
H      73.48576522      63.45606559      84.70316029
C      75.53989772      64.93383157      80.59300556
H      73.87882829      64.57289384      79.43082388
H      77.26332812      65.15681928      79.48751567
H      75.44163195      66.66104143      81.70983381
C      83.43139480      63.61102315      84.72583701
O      83.69217703      65.90893034      84.69749111
N      84.72396760      62.07467566      86.27352286
H      84.31200726      60.21140551      86.33399410
C      86.77432065      63.03276690      88.00262243
H      86.19795412      64.46328972      89.36511511
C      87.71729408      60.80855903      89.55786719
H      88.76798191      59.44417663      88.42781086
H      86.17716713      59.68606160      90.34399334
C      89.45584229      61.70995849      91.62522778
H      88.89081412      62.98741346      93.14078828
H      91.06966856      62.62458601      90.73138723
C      90.40448490      59.31000606      93.01039716
H      91.91626595      59.64826707      94.36533093
H      91.18872132      58.28388467      91.40412980
N      88.28043252      57.85113735      94.12155624
H      87.96862768      56.16361175      93.28440748
C      87.20328852      58.31789974      96.33253602
N      87.86847218      60.02621233      97.84809653
H      87.06533850      59.99975617      99.57908583
H      89.36324570      61.19028374      97.61566019
N      85.15104575      57.08012901      97.13566971
H      84.43861893      57.43161810      98.87043846
H      84.42728057      55.61748084      96.14545312
C      88.86813740      64.39714929      86.43225987
O      90.37991845      65.91459952      87.51318332
N      89.02498469      63.72251701      84.06821225
H      87.75697833      62.48852572      83.35200598
C      90.85612949      64.83934525      82.33533322
H      92.16382009      65.71995771      83.66003137
C      92.29421121      62.66427026      81.02953234
H      93.00285858      61.41138172      82.50351886
C      90.68227466      61.29610841      78.97728956
H      88.96640317      60.71596244      79.95805752
H      91.65170426      59.57834721      78.38769495
H      90.37802873      62.54521751      77.36535302
C      94.67904582      63.62236152      79.74640817
H      94.29921083      64.75808702      78.07022093
H      95.71272611      61.99341742      79.02264300
C      96.51774952      65.00753090      81.41692623
H      95.78075626      66.76308665      82.20116265
H      98.08811208      65.30988711      80.11679453
H      96.81821600      63.65070740      82.93626619
C      89.79410330      66.91993392      80.61946173
O      91.35312751      68.59423143      79.95805752
N      87.38092280      66.96528736      79.77286434
H      86.49842061      65.30232820      80.09222809
C      86.24897673      69.02319931      78.40848194
H      87.42627623      69.86601724      76.94772350
C      83.77343526      68.22762453      76.93071597
H      82.79833649      69.84900971      76.11624393
H      82.57156933      67.26386411      78.30076754
C      84.24397712      66.56466538      74.48352039
O      86.12614452      66.84056542      73.16260170
O      82.59424604      65.11146584      73.85613126
C      85.55544718      71.36645995      80.05632329
O      85.86914175      73.58121918      79.22295398
N      84.81467446      70.81843931      82.47706270
H      84.51231825      69.04587602      83.11390046
C      83.88303939      72.79131358      84.20427255
H      83.11958996      74.40325012      83.17626143
C      81.51710205      71.54409422      85.58944193
H      80.92939716      73.08233144      86.82532294
H      82.01221034      69.91515014      86.74595444
C      79.25887910      70.83733657      83.83955537
H      77.86804054      69.80743573      84.95449389
H      79.76910521      69.35201170      82.50540859
C      78.16094811      73.09178006      82.39391474
O      78.92817700      75.23661943      82.96650181
O      76.39405401      72.80454167      80.82166245
C      85.83512667      73.73428701      86.04864543
O      85.95039998      76.09077573      86.52674618
N      87.52265227      72.03920250      86.89335309
H      87.22218579      70.20994744      86.43792905
C      89.50875462      72.60989985      88.74150542
H      90.52920683      74.27096928      88.07443203
H      90.59534725      70.87513110      88.97583149
C      88.44105926      73.04075746      91.43058597
O      86.13370343      72.78564440      91.83309767
N      90.09645951      73.75507400      93.07464786
H      91.92571458      73.62090344      92.54741422
C      89.78465467      74.22372612      95.72782360
H      87.81933930      73.84200141      96.20970381
C      91.48918780      72.39258132      97.11866217
H      93.45450317      72.88013071      96.75583472
H      91.41548847      70.44994268      96.43458124
C      91.56288713      72.31510255     100.00994343
H      92.29988039      74.18404187     100.47670583
C      88.90215248      71.92581893     101.24015526
H      87.46596048      73.22217118     100.53528734
H      89.37647378      71.95794428     103.24326515
H      88.45806679      69.97184192     100.76016477
C      93.45450317      70.39136116     101.03606482
H      95.35556784      70.90914618     100.43135240
H      92.62302359      68.73029173     100.14789345
H      93.53198194      70.48206803     103.09397677
C      90.46117669      76.94871147      96.21159354
O      92.57578043      77.62901294      97.08086764
N      88.59601681      78.61545007      96.10198941
H      86.86124806      77.96727395      95.64656537
C      88.84546069      81.40468612      96.62544360
H      90.86179866      81.66168889      96.96748406
C      87.58501324      82.66135411      94.21037337
H      86.88959395      84.41690986      95.03429405
H      86.08079109      81.36878131      93.64912466
C      89.46151147      83.03174047      91.99561413
H      90.16637938      81.25728747      91.22460580
H      91.21706721      83.87455841      92.67024643
C      88.23318936      84.54730097      89.79030353
H      89.55410806      84.98571748      88.27285330
H      87.19761934      86.15734779      90.55753241
N      86.36613977      82.79363496      88.77552050
H      86.35858086      81.06831483      89.58999254
C      85.09624368      83.09032199      86.67981402
N      84.98097038      85.17280039      85.47983781
H      84.17216752      85.21059490      83.75073823
H      86.07323219      86.69780952      85.83321663
N      83.92839282      81.13634498      85.83699608
H      82.58101796      81.42169365      84.51607739
H      84.08335038      79.53952625      86.87256610
C      87.40926869      81.92247113      99.20869947
O      85.03955189      81.80719783      99.25405290
N      88.81522507      82.38356434     101.34786966
H      90.70873083      82.33443146     101.11354359
C      87.70028654      82.37600545     103.98970704
H      86.38881648      80.79052506     104.06529610
C      89.82811837      81.70515260     105.94935323
H      89.02309496      81.81286699     107.84096927
H      91.44194464      82.98071787     105.85675664
C      90.95061580      79.05008713     105.75660115
H      91.67060153      78.73828228     103.85175702
C      92.94616679      78.67025214     107.92222750
H      94.64314102      79.70015299     107.36664796
H      93.49607714      76.69926759     108.15655356
H      92.30365984      79.46204746     109.70990859
C      88.99852852      76.95249092     106.10997997
H      88.04421673      76.42147782     104.36387285
H      87.54532898      77.20760397     107.54806169
H      90.05866498      75.26685505     106.63532388
C      86.39070621      84.88556198     104.66622906
O      85.00931627      84.74761197     106.58430127
N      86.83479189      86.92079723     103.30373639
H      87.92705370      86.69403006     101.75416081
C      85.56111636      89.30941128     103.69113029
H      84.65593745      89.48893528     105.53361344
C      87.59824132      91.44102256     103.73459399
H      88.34846267      91.30118282     101.82408069
H      89.07789702      90.77772862     105.00826953
C      86.45306718      93.98081473     104.43379273
H      85.76709652      93.88065923     106.37454165
H      84.87703543      94.54773262     103.23381652
C      88.65837778      95.94801983     104.38465984
H      88.92482919      96.26360411     102.36832187
H      90.41771298      95.38110192     105.29550792
C      87.80800094      98.54828322     105.46558329
H      88.17460785      98.66355653     107.48948017
H      85.77087598      98.82418327     105.32007437
N      89.25175185     100.67611505     104.09931117
H      91.10557336     100.62320272     104.54150713
H      88.64325997     102.39954545     104.65111125
H      89.01364633     100.64587943     102.20580540
C      83.59769072      89.79507094     101.59920326
O      84.13437299      89.06563658      99.44869471
N      81.69851577      91.05929785     102.25682801
H      81.48497670      91.57141368     104.08419336
C      79.63304491      91.84164454     100.66945791
H      78.63337969      90.10120661     100.21214414
C      77.59025077      93.27027763     102.11320881
H      77.17451098      92.19880281     103.82341113
C      78.69763039      95.93290201     102.89744523
H      78.70518929      97.36909400     101.41967926
H      80.59302588      95.73637048     103.67979193
H      77.36537334      96.86264735     104.16545159
C      75.30935111      93.68412770     100.48426473
H      74.73865376      91.92857195      99.56963720
H      75.52666963      95.05039982      98.95736587
C      72.98120829      94.33041409     102.08108347
H      71.51478067      94.69702100     100.68079627
H      73.37805082      96.05573422     103.12988157
H      72.50499726      92.82241249     103.40200216
C      80.48531148      93.05862828      98.16368082
O      82.06134322      94.91433953      98.07864314
N      79.35525514      92.10620622      96.10954832
H      78.25543443      90.55285120      96.24560861
C      79.87115043      92.72036728      93.47715956
H      80.81979304      94.54395317      93.32409173
C      81.81189935      90.74560329      92.58709847
H      83.32368040      90.87410467      93.97982676
H      82.65282756      91.47314791      90.85232971
C      81.18073076      87.92424189      92.18458677
C      80.14138129      87.15512329      89.84888504
H      80.02232853      88.47604198      88.29553001
C      79.63682436      84.66446400      89.49928567
H      78.97164070      84.25817285      87.61144909
C      80.24720596      82.85032675      91.30397430
O      79.88815796      80.32943185      90.67469544
H      79.12659826      79.88345643      89.08921506
C      81.41883628      83.53440767      93.58298424
H      81.96307746      82.12467184      94.95492554
C      81.83835552      86.05719229      94.08187198
H      82.27110285      86.71481705      95.96403939
C      77.40505759      92.88666319      91.88978946
O      75.35848399      92.95469334      92.91402112
N      77.72820079      93.13232761      89.37078429
H      79.41383666      93.35909478      88.50717936
C      75.61737650      93.19846804      87.61333881
H      73.75977553      92.82808167      88.42403140
C      75.61170732      95.87621022      86.35478109
H      74.98998736      95.60786909      84.40836299
H      77.53355898      96.60186513      86.50784892
C      73.86182075      97.53538993      87.94215119
H      74.68385170      97.62420706      89.82998778
H      72.01177869      96.64154937      87.80042172
C      73.58592071     100.26604444      87.04453119
H      72.94341376     100.37564857      85.09055419
H      75.46808812     101.06728840      87.28830589
C      71.82091633     101.93656250      88.72260816
H      72.34248080     103.89809841      88.37489852
H      72.33303217     101.67389054      90.69926188
N      69.04112893     101.36586515      88.41647250
H      68.45342404      99.61786833      88.90969106
H      68.56302817     101.80239194      86.62123250
H      68.08870687     102.75292427      89.31598222
C      75.87248955      91.28795473      85.47038918
O      77.87937889      90.52639502      84.59166644
N      73.66906867      90.35254020      84.56898972
H      72.10059583      90.84953823      85.53652960
C      73.31380012      88.86721533      82.25785444
H      74.88605241      87.55196582      82.05943318
C      70.85148674      87.49527403      82.30887705
H      69.33970569      88.87855368      82.09533798
H      70.71542644      86.44080673      84.07577116
C      70.63605794      85.39956754      80.34923087
O      69.43041255      86.01939778      78.28564973
O      71.96264581      83.36811176      80.51174733
C      73.51789056      90.52261558      79.83711504
O      73.21364463      92.79595633      79.95427807
N      73.92040227      89.20547634      77.62235580
H      74.40795166      87.36299318      77.74518801
C      73.81268787      90.45080597      74.93138553
H      75.39438879      91.76038631      74.78776633
C      74.36637768      88.40234265      72.82056124
H      73.00766446      86.88300270      73.11346881
C      74.02622694      89.52861954      70.19195193
H      72.13650063      90.11443469      69.61936486
H      74.52133524      88.10187616      68.78977501
H      75.34714563      91.10654100      70.25431290
O      76.66050542      87.13433629      72.96607016
H      76.40161292      85.70003402      74.04699361
C      71.25588817      91.59409039      74.45139504
O      71.08770252      93.53105987      73.12480717
N      69.13750497      90.55285120      75.35279450
H      69.21309402      88.90500986      76.31844464
C      66.59015390      91.76038631      75.34523559
H      66.18575247      92.49171039      73.46306818
C      64.55680839      89.86877028      76.12947201
H      62.75023003      90.67379368      76.70205908
H      65.09915984      88.54029268      77.60723799
C      63.77446169      88.09809671      73.82967509
H      62.31937243      86.95859174      74.73485399
H      65.27868384      86.87733352      73.12858663
C      62.60094165      89.43980240      71.44484048
O      60.30303446      89.13555646      71.18405825
O      63.92186035      90.73237520      70.01431766
C      66.33504085      94.06018323      77.03843037
O      64.52279331      95.39055056      76.61324195
N      68.17563428      94.59686550      78.65981554
H      69.63639272      93.37421258      78.54265251
C      68.30035621      96.68879254      80.42481992
H      66.74133200      97.95490917      79.96372670
H      70.13339074      97.58641253      80.14514043
C      67.88083697      95.87243077      83.18382034
O      68.33437129      97.44090361      84.82410278
N      66.71109638      93.78050373      83.68648754
H      66.43897579      92.69580084      82.14258114
C      65.52056881      93.05106938      86.11478585
H      64.56625702      94.82930185      86.53619482
C      63.59304797      90.64355805      85.70282551
H      62.63873618      90.25427443      87.48672715
H      64.79869336      88.99571672      85.43826383
C      61.66174768      90.88166358      83.54664779
C      60.96632839      88.61966118      82.22572910
H      61.93386826      86.89245132      82.72272712
C      59.12951442      88.64611734      80.31143634
H      58.75723833      86.79418556      79.53853828
C      57.88229505      90.82686152      79.61979651
O      55.83005227      90.66623477      77.98518325
H      54.92865282      92.24037680      77.95116818
C      58.49078692      93.18335022      80.81221381
H      57.85394915      94.96914159      80.05632329
C      60.38807214      93.14366598      82.78319836
H      60.84349618      94.90300116      83.70916425
C      67.58981912      92.30273777      88.11978547
O      69.37561049      90.76639027      87.54341894
N      67.24966838      93.10587144      90.48383308
H      65.57915032      93.90522567      90.93925713
C      68.84270766      92.44446724      92.65890807
H      70.63983739      93.36098449      92.24505801
C      67.93752876      93.68223797      95.01161733
H      68.99766522      92.75627207      96.51583947
H      65.98355175      93.17957078      95.42924684
C      68.42129870      96.42612057      95.09854474
C      66.45409361      98.05884411      94.48816314
H      64.57003647      97.44279334      93.99683430
C      66.93030464     100.69123287      94.65634878
H      65.25222767     101.76648713      94.22549118
C      69.30569061     101.72869261      95.32909135
O      69.56080366     104.27037450      95.35554752
H      68.02634590     105.23602465      95.34609889
C      71.29935187     100.07140263      95.90545788
H      73.10026105     100.82162399      96.50639084
C      70.80613330      97.40877826      95.71081607
H      72.32925271      96.14833081      96.22104217
C      69.31891870      89.56830378      92.91402112
O      67.42541293      87.99794122      92.78174028
N      71.58659027      88.74249339      93.74172125
H      72.90183979      90.11632441      93.89478908
C      72.32547326      86.14034025      93.69258836
H      70.64928602      85.08209353      94.25383708
C      73.17018092      85.22571272      91.13578866
H      74.87660378      86.06664093      90.34966252
C      73.55757482      82.38923352      90.92035986
H      74.81991199      81.73727795      92.41135392
H      74.37015713      81.84688207      89.10622260
H      71.81713688      81.35933268      91.30586403
O      71.08770252      85.52995866      89.55786719
H      70.33370173      87.13811574      89.92258437
C      74.36070850      85.85499158      95.79963320
O      75.67784774      87.75605626      96.20970381
N      74.67440307      83.64590152      97.04496284
H      73.48765494      82.17947390      96.74260663
C      76.76633010      82.88245210      98.72303981
H      78.42739952      83.81975635      97.94447257
C      76.12571288      83.97660362     101.31385458
H      75.39816824      85.87955802     101.01716755
C      74.03756530      82.36844654     102.49682326
H      73.19852682      83.42858299     104.05017828
H      74.81046336      80.56753735     103.13366102
H      72.51255616      82.25506295     101.11732305
C      78.52755502      84.30730573     102.92012195
H      80.10925594      85.30508122     102.05462730
H      79.10392154      82.44025613     103.57585698
C      77.81323847      86.00427996     105.21991887
H      76.83436024      87.77306379     104.82307635
H      79.51777161      86.09498682     106.37076220
H      76.43940744      85.10099078     106.45957933
C      77.36915279      79.87967699      98.91012271
O      75.98965258      78.49450760      97.74605130
N      79.49509489      79.18047825     100.07230440
H      80.55712108      80.55997845     100.85465109
C      80.19051417      76.56320730      99.96459000
H      78.63148997      75.54464481     100.84142301
H      81.91205485      76.07943737     100.98504220
C      80.78010878      75.77897088      97.21314848
O      82.04433569      77.11311765      95.79396402
N      79.93351140      73.50563012      96.58009017
H      78.87715439      72.44738340      97.76683829
C      80.39082516      72.47383956      94.11777678
H      81.93095211      73.55665274      93.28062803
C      81.25820954      69.66192680      94.39934600
H      79.76154630      68.67359995      95.41223931
C      81.49820478      68.18794028      91.93703262
H      83.02510364      69.11201644      90.90902150
H      79.93918057      68.25408071      90.59532694
H      81.88748840      66.24908109      92.51150942
C      83.67516950      69.26508429      96.10576886
H      84.34602234      71.09811880      96.76528335
H      85.08112587      68.31644167      94.93791800
C      83.01565501      67.85345872      98.63044322
H      81.09947253      68.16904301      99.31452414
H      84.54633333      68.23140399      99.95514136
H      82.84557964      65.83523102      98.24682878
C      78.12882277      72.88579989      92.45103818
O      76.45452525      71.38724693      92.18458677
N      77.68662681      75.30653931      91.74617026
H      79.10581127      76.55564839      92.01640112
C      75.57580252      75.98495105      90.20793304
H      75.45674976      74.52041315      88.76418214
H      75.85548201      77.88034654      89.45771170
C      72.93963431      75.98117159      91.51373392
O      71.08392307      75.72794828      90.19092551
N      72.80357402      76.38935249      93.92691443
H      74.39283385      76.70493677      94.93224882
C      70.22787705      76.55375867      95.19492078
H      69.13372552      74.95693993      94.48816314
C      70.54724080      75.82621403      98.08431231
H      71.78879099      77.25295741      98.89878436
H      71.58659027      74.09522474      98.49627265
C      67.93374931      75.80542705      99.27483989
N      65.82292502      74.28041792      98.78540078
H      65.77568186      72.71005535      97.70069787
C      64.12217134      74.73395224     100.62410448
H      62.72188414      73.34878285     101.15322785
N      64.93475365      76.63879635     102.09053210
H      63.77068224      77.57610060     103.27728022
C      67.38005950      77.32854645     101.24582444
H      68.69341929      78.73450284     101.92990536
C      69.02601112      79.19748578      94.67524605
O      69.74221739      81.00406413      95.88656061
N      67.08715192      79.26551593      93.04063279
H      66.66763268      77.75751433      91.94648125
C      65.51867908      81.45759845      92.74583548
H      66.48999841      83.18102885      92.17135868
C      63.43809041      81.00973331      90.88823451
H      62.32126216      79.44126047      91.62144832
H      64.06925900      80.38990309      89.02685410
C      61.32348667      82.94292334      90.20415359
H      60.36161597      83.36811176      91.97482714
C      62.08315664      85.29563260      88.92669860
H      62.67464098      85.13878531      86.95949351
H      63.52123837      86.36710741      89.94148163
H      60.49011736      86.60332320      88.95126504
C      59.45076789      81.66924780      88.53741498
H      60.36539542      81.11177853      86.77807978
H      57.82182381      82.76717878      87.91191557
H      58.60983968      79.93447905      89.26684934
C      64.27145971      82.22860678      95.24972285
O      63.44942877      80.68281066      96.77284225
N      64.23366519      84.73060442      95.73727223
H      64.79302418      85.93436008      94.36533093
C      63.31336847      85.82097651      98.25249796
H      62.90518759      84.21281941      99.47326115
C      65.44120030      87.40834661      99.42223854
H      64.63050771      88.52328513     100.95102713
H      66.14795794      88.72170639      98.00494381
C      67.64840064      86.03073613     100.45780856
H      68.53090282      84.96682021      98.93090970
C      69.48710434      88.08486863     101.30440595
H      68.68963983      89.18279961     102.85587125
H      70.10504484      89.26594757      99.73593311
H      71.09148198      86.98315820     101.97525879
C      66.91140737      84.43391739     102.69146507
H      65.45442839      85.32964766     103.83474948
H      68.56680762      84.08053857     103.86687483
H      66.12150177      82.65190549     102.02250195
C      60.94743113      87.38566989      97.84242735
O      59.17486785      87.16835138      99.35798785
N      60.85105509      89.04107014      95.93947295
H      62.43086628      89.48704555      94.96437417
C      58.67598010      90.69269094      95.39523177
H      56.96766751      89.55507570      95.21948722
C      58.27346840      92.87154539      97.29251699