 %block lattice_cart
   135.996   0.000   0.000
   0.000 142.663   0.000
   0.000   0.000   160.158
 %endblock lattice_cart

 %block positions_abs
N      89.22907512      39.86755689      80.04404006
H      88.05366537      39.17780678      81.38007657
H      90.92226991      40.09243432      80.89252718
H      89.53710051      38.56553546      78.68343712
C      88.33712431      42.32231137      79.18799404
H      89.11758127      43.65267869      80.55426617
C      89.12702991      42.90812653      76.38741965
H      88.30499896      41.57020029      75.05705232
H      91.17549324      42.77395595      76.23057236
C      88.21807155      45.56508172      75.51814554
H      86.20173357      45.89200437      75.78648668
H      88.95884426      45.79751806      73.60952197
S      89.57867450      47.92534988      77.50046845
C      87.35824607      50.47081123      77.52692461
H      88.58656819      51.98826147      78.18454937
H      85.76520679      50.06452007      78.76658508
H      86.70440077      50.86009485      75.61263186
C      85.46474032      42.44136412      79.42798929
O      84.06067366      41.05052557      78.22045417
N      84.57656894      44.04007258      81.15141968
H      85.84835476      45.27217415      81.86384650
C      81.92528293      44.06274930      81.98478899
H      80.75743206      42.94781078      80.70544427
C      82.01221033      42.87978063      84.62284692
H      83.64871332      43.56575128      85.66975530
H      82.35236108      40.85399402      84.48489690
C      79.67650861      43.43536016      86.05714919
O      79.46485927      45.36099128      87.28925075
N      77.85670217      41.84987979      86.02124439
H      76.16539712      42.21648670      86.82815753
H      78.08346933      40.23038434      85.04047644
C      80.77254987      46.79907300      81.82416225
O      82.17661652      48.67935068      81.58227728
N      78.32913375      47.16379018      81.92809720
H      77.34269661      45.59909679      81.45944507
C      77.15750345      49.58641932      81.87896431
H      77.77544395      50.45569342      80.11773939
C      74.23787628      49.01005280      81.79770608
H      73.67662757      47.95747523      80.11773939
C      73.32891793      47.54551489      84.18820987
H      74.44385646      45.90901192      84.75323804
H      71.36360257      46.95969974      83.98222970
H      73.65962003      48.61321026      85.91730944
C      72.45208493      51.33252643      81.43298890
H      72.56735822      52.51927455      83.11484532
H      70.58503533      50.58986399      80.98701349
C      73.33269738      52.93312461      79.14453034
H      73.38372000      51.86542925      77.38330541
H      75.13549628      53.83452406      79.57160849
H      71.90784375      54.42222895      79.13130225
C      77.90016589      51.49315316      83.89719202
O      78.22141935      53.66822815      83.36617892
N      78.60314407      50.68057085      86.08549509
H      78.50865776      48.81730071      86.48422734
C      79.49509489      52.38888344      88.06214881
H      78.04945426      53.84019324      88.28135706
C      79.67650861      51.10764899      90.62839714
H      80.87648483      52.25471287      91.84916034
H      80.72341700      49.33508571      90.56036700
C      77.10270137      50.71836537      92.00978708
C      76.60003417      52.31518412      94.06014013
H      78.02299809      53.64177198      94.68374981
C      74.12638243      52.34541974      94.95776013
H      73.37616109      53.67767678      96.31080417
C      72.30468626      50.38199409      94.33604017
H      70.41495996      50.56529754      95.08437179
C      72.82814045      48.70202740      92.46332139
H      71.55635464      47.23937923      91.82270417
C      75.13360656      49.04973705      91.08382118
H      75.47942647      47.75716424      89.54369424
C      82.22196995      53.59641855      87.43664940
O      82.73030633      55.72991956      88.11884060
N      83.68272839      52.40400125      85.89841218
H      83.07423653      50.78072634      85.10283740
C      85.98063559      53.25437809      84.77591475
H      86.97085218      54.32774263      86.22911429
C      87.52076254      50.91678664      84.01246532
H      89.13647853      51.75204567      83.04492545
H      86.42094182      49.56185287      82.92020351
C      88.47885378      49.43713093      86.31793142
H      87.04077205      48.62832807      87.55192271
H      89.67694026      50.76938798      87.33460418
C      90.15504103      47.30174020      85.33716347
O      89.14214771      45.60287625      84.07482629
O      92.45483794      47.39622652      85.71888818
C      85.46474032      55.08741261      82.54036852
O      86.59857611      57.10753004      82.59139113
N      83.74319965      54.42978786      80.83394566
H      83.18006120      52.61754033      81.03803610
C      82.69818100      56.02849631      78.81760769
H      84.10413736      55.98692234      77.31527527
C      80.19429363      54.92300642      77.62519038
H      78.44818652      55.75448600      78.33572748
H      79.96941620      52.94068352      78.13730621
C      80.08657922      55.01938246      74.70745296
H      81.81567881      54.15955699      73.98746723
H      80.11681484      57.02060263      74.22179329
S      77.21230550      53.68712541      73.24102534
C      78.48787076      53.77216310      69.98124745
H      80.30578747      52.80084377      69.90754812
H      78.78455779      55.69401476      69.30472543
H      77.27844592      52.89721981      68.56206299
C      82.06323294      58.69678988      79.65475644
O      83.00431665      60.59218536      78.71367274
N      80.54767244      58.80828372      81.72400676
H      79.67839835      57.22091362      82.32871918
C      79.59336065      61.16288271      82.57060414
H      79.06423729      62.29293904      80.92843198
C      77.16695207      60.43533808      83.98600915
H      76.61704171      62.00948010      85.19732372
H      77.73009052      59.03316115      85.38629635
C      74.81235308      59.49047493      82.57816305
H      75.10904011      58.24514528      80.96433678
C      73.45175015      57.93145071      84.71355378
H      71.55635464      57.37398145      84.12395917
H      73.13994529      59.21646460      86.29336498
H      74.54401196      56.29494773      85.32204566
C      73.11726859      61.66554991      81.85061842
H      72.52011506      62.66143567      83.55137210
H      71.38061010      61.03627104      80.93788061
H      74.03945502      63.01670422      80.59961960
C      81.44340271      62.48758085      84.36206469
O      81.65127261      64.84406956      84.35450578
N      83.09502352      61.13075737      85.73022654
H      83.14793585      59.25425913      85.38629635
C      85.05844916      62.29860822      87.22688978
H      84.39893467      63.85952216      88.39852009
C      86.00331231      60.23691682      88.92953319
H      86.96707273      58.78938646      87.82404329
H      84.40649357      59.37898107      89.91030114
C      87.82311875      61.12508818      91.03090885
H      86.72518776      62.31183630      92.30836383
H      89.55410806      61.96412666      90.29769504
C      88.90404220      59.02182279      92.51434400
H      90.04165744      59.84196401      94.02234560
H      89.99252455      57.78783152      91.27468354
N      86.88392477      57.54972600      93.86927777
H      86.33401441      55.91700246      93.04346737
C      85.67449994      57.83507467      95.98577124
N      85.89181845      59.73802908      97.46353722
H      84.91482995      60.11597433      99.05846622
H      87.17494262      61.09296283      97.05913579
N      84.00776132      56.15888743      96.58481448
H      82.95896322      56.52360461      98.13816951
H      84.18539559      54.39955223      95.86671848
C      87.01809535      63.66299062      85.76802107
O      88.12358524      65.55460666      86.62784654
N      87.54532898      62.89387201      83.43231934
H      86.44550827      61.50870262      82.71989252
C      89.32734089      64.13353247      81.65219716
H      90.63125206      65.11241071      82.90697543
C      90.91093154      62.27593150      80.14230583
H      91.49485698      60.72824565      81.36684848
C      89.27442855      60.95879226      78.03337127
H      87.62469748      60.02715720      78.84217413
H      90.17771773      59.35819409      77.09984647
H      88.45995651      62.28160069      76.68032723
C      93.31844286      63.57417348      79.11429472
H      92.89892362      65.10296207      77.80093493
H      93.96283954      62.00948010      77.93888495
C      95.16470548      64.34896127      81.24590600
H      94.61479513      63.55716594      83.06571244
H      94.86423899      66.37096843      81.50101905
H      97.13191056      63.84440435      80.90386554
C      88.27287361      66.28782047      80.16120309
O      89.51253407      68.15864952      79.66798453
N      85.86347256      65.87774986      79.48468107
H      84.73152651      64.46045512      80.08372432
C      84.44050866      67.64653369      77.81227329
H      85.56300608      68.20967214      76.17954975
C      82.11803502      66.25569512      76.85607177
H      80.78199850      67.55582682      75.98301822
H      81.33568831      65.00091685      78.29037405
C      82.69440153      64.50958801      74.55249540
O      84.74853404      64.52092637      73.62086033
O      81.06734718      63.03749121      73.69266993
C      83.74130991      70.16175942      79.10862554
O      83.59013182      72.19321521      77.85006781
N      82.95707350      70.00869159      81.46511425
H      82.93061732      68.25880502      82.22478423
C      81.95362882      72.08172135      83.05815353
H      81.33946778      73.65208391      81.87518486
C      79.78233328      70.96678282      84.87418052
H      79.22486402      72.57682965      86.02691357
H      80.46830395      69.55704700      86.21021702
C      77.47119800      69.92932307      83.50979812
H      76.34303141      68.95800375      84.93465176
H      78.05890289      68.32872489      82.35328562
C      75.85926147      71.81715966      82.03581160
O      76.42806909      74.09050042      81.85817732
O      73.76355498      71.14819654      81.13441215
C      84.01343051      73.42153730      84.63607500
O      83.66005168      75.68731916      85.17653673
N      86.21496165      72.16864875      85.22000043
H      86.38314730      70.36773959      84.60772911
C      88.23318936      72.94343654      87.01146098
H      89.01364632      74.81237587      86.63918490
H      89.79032384      71.59606168      86.97366645
C      87.40926869      72.96989271      89.83660182
O      85.51954237      71.86062337      90.59060262
N      89.25931074      73.73712159      91.48255344
H      90.89014456      74.39285663      90.73989100
C      88.90971138      74.14152302      94.21509768
H      86.92360902      73.75979832      94.60627103
C      90.81833495      72.48423306      95.78734998
H      92.74018661      73.02280505      95.27334442
H      90.51975820      70.48868207      95.38294855
C      90.64259042      72.83194270      98.69185932
H      90.62180342      74.85017039      99.11137856
C      88.04043727      71.86629254      99.56491288
H      87.74941942      71.75479870     101.60203784
H      87.46407075      70.09372927      98.68807987
H      86.67038571      73.23256467      98.85815524
C      92.90837225      71.59228223      99.83892319
H      93.09356543      69.58350316      99.41562450
H      92.98963050      72.07794190     101.83636390
H      94.73384787      72.30659877      99.19830597
C      89.30844364      76.91564125      94.79335394
O      91.37013504      77.74523110      94.64784501
N      87.31289265      78.11750720      95.69475339
H      85.69906638      77.12729060      95.46609650
C      87.32423101      80.60249730      96.90039878
H      89.16860388      81.21476861      97.58258997
C      86.43039045      82.68497569      94.97854712
H      86.18472603      84.40273691      96.08970619
H      84.55956140      82.19931603      94.26423057
C      88.18027702      82.87016887      92.70898581
H      88.32011678      80.98611174      91.89073432
H      90.01520127      83.70542789      93.13606396
C      86.55889185      84.06447589      90.51123411
H      86.36236031      86.04679881      91.03279857
H      84.89593269      82.90607367      90.14840666
N      88.15004140      83.93030533      88.23789336
H      89.23852375      85.47799119      87.99033921
C      88.50153049      82.12750643      86.62406709
N      87.28454676      79.94487254      86.72422258
H      87.94784068      78.61639493      85.52424637
H      85.81056022      79.65763413      87.90152207
N      90.31377803      82.31836878      85.05181479
H      90.42716161      80.84249253      83.84994886
H      91.36257613      83.90006970      84.84583462
C      85.70662529      80.74611649      99.26633612
O      83.34446739      80.67997607      99.13972446
N      86.90093232      80.95965556     101.53589742
H      88.79632781      81.11083368     101.37149123
C      85.69717664      80.91430213     104.06057178
H      84.08524010      79.65385468     103.82435599
C      87.45840157      79.82959923     105.93707000
H      86.84801997      80.06203557     107.89293674
H      89.03443332      81.13540012     105.71030285
C      88.29366060      77.15752622     105.43818226
H      89.17238334      76.82493439     103.60325801
C      90.02087045      76.38273843     107.64160314
H      91.76508784      77.47877969     107.66050040
H      90.72195891      74.46088678     107.41294625
H      88.97396208      76.55281380     109.40849724
C      85.90882600      75.59283283     105.40038773
H      84.76554157      75.75534931     107.10303114
H      86.47952334      73.62562775     105.16795139
H      85.03577243      76.07093359     103.59569910
C      84.61247374      83.47488129     105.06968563
O      82.97219130      83.43330732     106.86870508
N      85.25498070      85.52901379     103.72042104
H      86.60424527      85.19642196     102.41273043
C      84.03232776      88.07447514     103.81112790
H      82.83235156      88.08203405     105.48542542
C      86.17149796      90.04923913     104.19096289
H      87.71540436      89.86404595     102.84169830
H      86.78943845      89.85837678     106.14305017
C      85.55355744      92.91217449     103.70152378
H      83.62036743      93.14839029     104.37426634
H      85.55166772      93.15972865     101.65683991
C      87.64926393      94.73765012     104.87126436
H      89.46340119      94.01199521     104.22119851
H      87.61524886      94.30868224     106.88760234
C      87.34690772      97.66483618     104.74465270
H      88.86435794      98.65127330     105.72731038
H      85.48930676      98.02010473     105.55912474
N      87.54910843      98.37726299     102.06691052
H      89.33489980      98.12592939     101.43952138
H      87.33745909     100.26320985     101.86848925
H      86.21874112      97.62137247     100.92929527
C      82.33535353      88.47887657     101.46219810
O      82.90038171      87.48110107      99.44208067
N      80.20563198      89.89050213     101.82313582
H      79.99776209      90.53489880     103.60703746
C      78.24031661      90.34781588      99.85971018
H      77.22553358      88.62816495      99.35704298
C      76.16350740      92.31502098     100.84425759
H      77.09514247      94.12915824     101.13527544
C      73.88638719      92.64572308      98.94697237
H      74.53456331      92.99532246      97.02134126
H      72.38027532      93.92506779      99.52900808
H      72.92073704      90.83158582      98.85059633
C      75.03534079      91.48354141     103.40672647
H      76.60381363      91.31535576     104.73142462
H      74.18307422      89.64294797     103.05145792
C      73.29490286      93.38082662     104.37426634
H      71.40517654      92.95185875     103.67506761
H      73.92607144      95.33480363     104.21552933
H      73.23632134      93.11059575     106.41328104
C      79.31935035      91.44952632      97.46542694
O      81.05600882      92.99910191      97.56369271
N      78.38204609      90.79190157      95.24688825
H      77.50332335      89.09870679      95.22232181
C      79.41383665      91.68007293      92.81481049
H      80.37759707      93.49609993      92.90551735
C      81.35836503      89.71853702      91.84916034
H      82.85502827      89.59948427      93.25700644
H      82.18417543      90.52922961      90.14462721
C      80.65349711      87.00300032      91.19720476
C      80.00154154      86.38317008      88.66119205
H      80.39082516      87.88739222      87.33649391
C      79.11337018      83.93597450      88.00167757
H      78.80156533      83.46543266      86.04014165
C      79.00754550      82.05380711      89.88195525
O      78.71652764      79.62739852      88.91819483
H      78.53322420      79.75778963      87.11728565
C      79.63871409      82.66418870      92.45009331
H      79.47808735      81.09193640      93.74077638
C      80.33035392      85.14350963      93.15874068
H      80.65727657      85.68208162      95.09948960
C      77.18773906      91.96920106      90.83248758
O      75.00888463      91.49487977      91.51656851
N      77.75654668      92.73642994      88.46655024
H      79.58958121      92.98965327      87.99789811
C      75.73453953      92.99910191      86.35950540
H      73.98654268      92.67973815      87.40263433
C      75.94996832      95.62960093      85.22566961
H      74.31157561      95.73920506      83.97845025
H      77.70552407      95.74676396      84.15230507
C      75.81579776      97.82168345      87.07949113
H      77.34647607      97.81601427      88.45710161
H      74.02811666      97.41728202      88.02246456
C      75.39438879     100.43328522      85.76991079
H      75.41328605     101.76554228      87.33838363
H      73.63316387     100.38982151      84.70410515
C      77.45230075     101.09090997      83.78002898
H      77.00065616     102.86158353      82.82949665
H      77.39749868      99.61503372      82.34383699
N      80.03744635     101.45562716      85.11228603
H      81.19773829     102.37214442      83.90664065
H      80.95774305      99.82479334      85.48456212
H      79.81445863     102.32868071      86.79603218
C      75.97264505      90.98843310      84.37907223
O      78.07780016      90.14372545      83.69499130
N      73.83536459      90.12671792      83.42476044
H      72.20075132      90.45930974      84.35450578
C      73.63883304      88.65840056      81.07583063
H      75.26966685      87.44897572      80.73379017
C      71.30880050      86.86316056      81.46133480
H      69.68174615      88.04990869      81.89219240
H      71.99666088      85.95042276      83.17342684
C      70.93463469      85.21342949      79.21256049
O      68.78601588      84.92052191      78.18832882
O      72.77333839      84.05313754      78.29226377
C      73.34403574      90.42529466      78.70233438
O      73.49899329      92.76288611      79.00469059
N      72.89428087      89.43507808      76.46489843
H      72.96609047      87.52834423      76.39686828
C      73.38183026      91.05268380      74.23313165
H      75.14305519      91.94085517      74.82272626
C      74.07724955      89.28767942      72.04482858
H      74.36637767      90.32891863      70.29116256
C      76.16917657      87.60204355      72.77237321
H      75.91973271      86.45497968      74.46556799
H      77.83402546      88.76989442      73.09551641
H      76.74554310      86.56080435      71.09240652
O      71.93052045      87.75322166      71.56105864
H      72.35759860      87.24866474      69.87164332
C      71.38061010      93.06335261      73.38086508
O      71.80957797      94.80379053      71.92388610
N      69.12805633      92.77422448      74.44478100
H      68.69341929      91.25299480      75.51247636
C      67.16463069      94.58269255      74.29549262
H      67.28368345      95.65794683      72.54182660
C      64.59838236      93.15028001      74.14242479
H      63.16030064      94.62237680      74.05171792
H      64.39429193      92.05801820      75.87530382
C      64.20531929      91.46275442      71.88420184
H      62.64251563      90.14561517      72.14498408
H      65.88906543      90.34025698      71.50247713
C      63.72154935      93.00477108      69.45023435
O      65.65662909      93.68885202      68.18222800
O      61.52190792      93.28634031      68.65465958
C      66.90951764      96.23431336      76.68599641
O      65.19553587      97.84813962      76.66142996
N      68.63483776      95.82613248      78.47745695
H      70.08803731      94.65828160      78.07116579
C      68.71987545      97.13193336      80.89819636
H      67.64462118      98.87237128      80.67331893
H      70.61905039      97.79711701      81.33661286
C      67.94508766      95.73542560      83.30570768
O      68.01500753      96.92784291      85.28425113
N      67.10415946      93.33169373      83.11484532
H      67.44431019      92.26588810      81.56904920
C      65.70954143      92.24699083      85.27669222
H      64.67964059      93.81357395      86.12895879
C      63.96154459      89.95097337      84.53402978
H      62.76912729      89.57491782      86.17053277
H      65.17096943      88.30502175      84.26001947
C      62.33071078      90.17774052      82.12273901
C      62.11339226      87.90439976      80.71300318
H      63.21510270      86.29624268      81.31393615
C      60.77546603      87.79101618      78.46044941
H      60.80570165      86.07325496      77.35684925
C      59.49234186      89.98309872      77.53070407
O      58.20543824      89.89050213      75.26114277
H      57.16230932      91.30590713      74.81894681
C      59.79469807      92.29612371      78.79493097
H      58.70432599      93.88349382      78.11840895
C      61.20632363      92.43785320      81.10228680
H      61.53702573      94.28222608      81.90919993
C      67.47643553      91.33803248      87.46877475
O      69.37183103      90.11726927      87.07760140
N      66.87739229      91.87471475      89.87250662
H      65.25222766      92.86304161      90.02935390
C      68.54791035      91.33047357      91.97955146
H      70.46031339      91.68574212      91.30113971
C      67.96587465      93.30901703      94.12628055
H      68.70097820      92.58714158      95.91018219
H      65.90985242      93.30712729      94.24533331
C      68.88239191      95.98486948      93.58014964
C      67.37250059      97.78766838      92.34804809
H      65.39584686      97.41917176      92.00789735
C      68.43830623      99.97975091      91.29358080
H      67.06069575     101.16271958      90.36383546
C      71.05935662     100.49942565      91.38995685
O      72.24043557     102.58379376      90.46588068
H      71.26533679     103.32267676      89.12606472
C      72.55979933      98.75709799      92.72032417
H      74.58369620      99.01410076      92.76000842
C      71.52422931      96.49698531      93.56503183
H      72.63727811      95.02866797      94.44753402
C      68.47421103      88.59226015      92.81481049
O      66.44653469      87.33370242      92.91874543
N      70.77400796      87.61716136      93.08504135
H      72.19508214      88.88705745      93.01323175
C      71.27289570      84.94508837      93.18141739
H      69.64395162      83.85282656      93.81636543
C      72.06658075      84.19675674      90.45076287
H      73.60859742      85.38161514      89.77424085
C      72.79412539      81.55869881      89.96888266
H      74.15472833      81.00122955      91.41263356
H      73.49521384      81.51712482      88.03191319
H      71.08581279      80.41352467      90.08226624
O      70.19008253      84.59926845      88.78780371
H      69.84615233      86.37183172      88.60261054
C      73.55946454      84.62005544      95.07303343
O      75.03534079      86.29813240      95.50200130
N      73.72953990      82.30703042      96.02734522
H      72.36137805      81.00689872      95.73821709
C      75.74776761      81.59271388      97.67707629
H      77.34080689      82.83237435      97.26889541
C      74.94274420      82.05758656     100.42284862
H      73.88260775      83.82259093     100.33970067
C      73.03790007      80.09227118     101.31668917
H      71.73398893      79.80503279      99.75010606
H      71.94941772      80.74233704     102.93996407
H      73.92418172      78.35183326     101.96864475
C      77.03845068      82.54891539     102.37682563
H      78.56157010      83.67141283     101.56046386
H      77.96630630      80.75178568     102.76421952
C      75.96697586      83.93597450     104.63882803
H      77.44852130      84.69942393     105.84258369
H      74.55157085      82.68686541     105.46463843
H      74.81613253      85.51200625     103.97931354
C      76.63971843      78.99245047      97.20275499
O      75.43974223      77.61295026      95.67207667
N      78.61826188      78.13073528      98.46131271
H      79.72375177      79.45165396      99.28145393
C      79.32124006      75.47189035      98.65595452
H      77.57135350      74.62718269      99.33814572
H      80.78955741      75.14874715     100.06380062
C      80.08091004      74.37017991      96.13883907
O      81.88181922      75.46244172      95.05224644
N      78.99998659      72.22345082      95.38294855
H      77.50521309      71.59984113      96.39017267
C      79.37793185      70.80237664      93.05858518
H      81.08057526      71.28992602      92.00789735
C      79.78233328      67.97723579      93.72943802
H      78.17606592      66.94922468      94.50422581
C      80.92939716      66.44466775      91.31058834
H      79.66517025      66.48246228      89.68542371
H      81.31679105      64.45100650      91.64506990
H      82.61692275      67.40653844      90.62083824
C      81.92528293      67.76558644      95.77034244
H      81.53599930      68.97879074      97.38983789
H      83.81311951      68.06227348      95.00500328
C      82.14260146      65.15209495      97.11393785
H      82.68117345      63.69322624      95.76089381
H      80.24531623      64.84217985      97.85282084
H      83.44840233      65.27870662      98.70130795
C      77.01955342      71.19543970      91.21043285
O      75.69863473      69.38508189      90.59438207
N      76.52444512      73.63318666      90.53202110
H      77.94173986      74.83505258      90.95909925
C      74.54023249      74.45521759      88.94843045
H      74.30023725      73.08516603      87.43098022
H      75.25832850      76.28258295      88.31915159
C      71.93052045      74.81237587      90.10872241
O      70.06914004      74.75568408      88.85394413
N      72.16673624      75.03347385      92.57670497
H      73.85237211      75.25835129      93.44219962
C      69.76300437      75.06559920      94.01289697
H      68.59137406      73.49145717      93.38361811
C      70.04646332      74.49868130      96.84937616
H      71.28045460      75.85172535      97.79234960
H      71.08203334      72.73367692      97.06669469
C      67.69186433      74.61017516      98.42540791
N      66.01567710      72.53903511      98.86949359
H      66.17252439      70.90442186      97.89439482
C      63.90107335      73.49145717      99.85215128
H      62.19654022      72.37084947      99.93340951
N      64.23744464      75.96510893     100.22820681
H      62.75211975      77.08760635     100.64961578
C      66.51645457      76.71910972      99.24554913
H      67.27990400      78.55970314      98.81469153
C      68.30791511      77.52980231      93.82581406
O      69.24143992      79.34960875      94.98232657
N      66.16118602      77.58082491      92.56158716
H      65.42608248      75.94243220      91.91530076
C      64.80247280      80.06014584      92.14584737
H      66.13850930      81.48310975      91.48633289
C      62.76534784      79.57448618      89.96321348
H      61.23466952      78.28191338      90.43753478
H      63.81792539      78.75056550      88.39852009
C      61.57859971      82.10860916      89.21110241
H      61.00979209      83.15362781      90.89295883
C      63.15085200      84.09849098      87.75034397
H      63.53257672      83.45598402      85.83038203
H      64.71743512      84.75800545      88.91630510
H      61.91308127      85.71609670      87.46121584
C      59.23911854      81.78735570      87.67853437
H      57.96544300      80.41163493      88.53458039
H      59.56037201      80.77824184      85.91164027
H      58.27724784      83.60905185      87.67097546
C      63.68942400      81.01823709      94.55713815
O      61.97922169      79.69920812      95.48877322
N      64.42641727      83.26890112      95.51522939
H      65.77190240      84.17596976      94.50989499
C      62.98644581      84.60682736      97.58825915
H      62.27401899      83.13284082      98.84114770
C      64.84971597      86.32836803      99.08303267
H      63.77824114      87.59448466     100.30568559
H      65.82481474      87.60771274      97.79801877
C      66.93030463      84.87138903     100.63260824
H      68.08303768      83.57503679      99.52144917
C      68.47043159      87.00489004     101.78345157
H      69.59481873      88.01589362     100.38694382
H      69.80268863      86.12805703     103.08925245
H      67.29880126      88.10849021     103.06846546
C      65.51678935      83.22732715     102.71886609
H      66.70164775      82.42986264     104.20230125
H      64.43964535      81.76656870     101.74565704
H      64.15807613      84.54068692     103.54089704
C      60.44287420      85.93719468      96.83803781
O      58.40008005      85.39106377      97.72054000
N      60.71688451      87.89306140      95.27334442
H      62.46110190      88.02723198      94.51367444
C      58.66464174      89.41240136      94.09604493
H      57.07727163      88.16896145      93.67841541
C      57.46466553      91.32669412      96.01600686