 %block lattice_cart
   135.996   0.000   0.000
   0.000 142.663   0.000
   0.000   0.000   160.158
 %endblock lattice_cart

 %block positions_abs
N      87.45273239      38.93214237      82.10856606
H      86.74219529      38.66380123      83.86034235
H      89.24041349      38.33687858      81.81376876
H      86.47007472      37.75295315      80.97473027
C      87.06911795      41.66468661      81.47361802
H      87.89681807      42.81930940      82.96461208
C      88.69428258      42.28451684      79.05098889
H      88.08768044      40.91257554      77.63936333
H      90.68983356      42.02751407      79.49507457
C      88.46751542      45.03784809      78.25163466
H      86.57589938      45.65389887      77.70928320
H      89.62780738      45.28729196      76.56788851
S      89.42749639      47.25071759      80.64402817
C      89.45206283      50.31207423      78.96973066
H      90.00953209      51.76716348      80.31332606
H      87.53965980      50.83930786      78.41415112
H      90.86179867      50.20247009      77.46928796
C      84.28933054      42.30152438      81.26763785
O      82.97597075      41.06186392      79.94482943
N      83.34635711      44.14778700      82.81910315
H      84.59357648      44.95658986      84.01529991
C      80.69318137      44.40290004      83.40491831
H      79.44596200      43.33709441      82.15769895
C      80.06768196      42.95347996      85.91636458
H      80.95396360      41.09398927      85.97494610
H      78.12315359      42.34876755      86.21305161
C      80.77443960      44.35943633      88.21049233
O      80.91616907      46.59687229      88.22938959
N      81.15805405      43.16323958      90.29675018
H      82.01787952      44.17802262      91.66869148
H      81.37348284      41.27351327      90.14557207
C      79.76343603      47.27906350      83.24618130
O      81.27521708      48.87777196      82.54509284
N      77.30679181      47.84409165      83.59011149
H      76.11815397      46.44947364      84.12490404
C      76.10870533      50.40089137      83.44082311
H      76.40539237      50.85631541      81.45472076
C      73.24576998      50.23648517      83.60333957
H      72.67507262      48.84942605      82.19549347
C      72.49365890      49.13477473      86.13368311
H      73.44797069      47.40567515      86.72516744
H      70.53212299      48.51116504      86.14313174
H      72.91317814      50.46136261      87.65302306
C      71.92296156      52.71013692      83.15925389
H      72.78278703      54.16900562      84.33088421
H      69.89717494      52.51171566      83.47861764
C      72.37460615      53.78350147      80.47962198
H      71.68296631      52.36998617      79.14925466
H      74.39472358      53.93845902      80.11490480
H      71.33714639      55.56173392      80.45505554
C      77.26332812      52.06196078      85.50062479
O      77.60536857      54.29183783      84.95827334
N      77.82646655      51.22292230      87.84010597
H      77.40127813      49.45035902      88.40135468
C      79.04534003      52.76304925      89.77329599
H      78.22141935      54.62631939      90.07754192
C      78.88471329      51.25882710      92.38489775
H      79.78044356      52.19802108      93.98549594
H      80.13193265      49.62610358      92.24316828
C      76.27878071      50.74860100      93.30519447
C      74.69707978      52.50793619      94.61099535
H      75.36037372      54.33341182      95.24027421
C      72.35570888      51.81440665      95.47271055
H      71.44108134      53.12209725      96.74449636
C      71.35415393      49.38799805      95.01539678
H      69.51733996      48.72848357      95.60877084
C      72.83191991      47.67779574      93.47149038
H      72.03445540      45.84098176      93.07086840
C      75.28289494      48.42801708      92.71371013
H      76.55846020      47.16001074      91.74617026
C      81.76276646      53.36209249      89.25362125
O      82.52243645      55.56929283      89.35755620
N      83.02321391      51.52716824      88.02907860
H      82.19929325      49.82641456      87.75884774
C      85.54032936      51.98070255      87.12389970
H      86.71384940      52.81407187      88.59977595
C      86.80266654      49.61098576      86.37367835
H      88.55255310      49.86609882      85.31543161
H      85.46851976      48.49982669      85.26629873
C      87.49241664      47.84598139      88.58087868
H      85.72363282      47.43402104      89.55219801
H      88.59034764      48.69824795      90.10210837
C      88.85490931      45.57830981      87.58688264
O      87.62091803      43.67913486      86.96516269
O      91.23596448      45.55752283      87.32799014
C      85.64237458      53.87987750      84.87890484
O      87.32801045      55.42945307      84.69560138
N      83.67139005      53.95735629      83.35389570
H      82.43361931      52.51738484      83.53908888
C      83.46352014      55.62409489      81.09189330
H      85.10947176      55.76582437      79.86357120
C      81.08246500      54.84741738      79.68404720
H      79.38171131      55.35575375      80.72717613
H      81.19206912      52.82541022      79.30232249
C      81.04467046      56.19857169      77.13858586
H      82.79077757      55.91133328      76.08600830
H      80.80656495      58.23758639      77.29732287
S      78.34992074      54.82663039      75.62491508
C      79.27021745      55.50693186      72.48041050
H      81.10136225      54.65466530      72.07033989
H      79.33824760      57.45523968      71.81333711
H      77.93418095      54.41655977      71.35224389
C      83.32368039      58.48514053      81.76274615
O      84.66916553      60.01770857      80.84811861
N      81.56434520      59.09930157      83.38791078
H      80.56467998      57.79350070      84.35923010
C      81.07112663      61.66743963      84.25529515
H      81.29033488      62.76726036      82.52808530
C      78.44629678      61.79405130      85.54975768
H      78.46141460      63.52882005      86.65713730
H      78.05890289      60.05739282      86.58721742
C      76.22208892      61.58807114      83.63924437
H      76.56979856      60.04416473      82.32210513
C      73.72765018      60.82462170      84.63324042
H      72.88672198      62.40821236      85.64424399
H      73.81646732      59.23914133      85.94660020
H      72.35192943      60.14054078      83.26129911
C      76.16539712      64.07306123      82.31076678
H      75.89894571      65.67743888      83.57499368
H      74.46842290      64.12219411      81.14291592
H      77.64316310      64.43588868      80.92181794
C      83.12147968      62.83340078      85.86912142
O      83.54099892      65.13508742      85.60644947
N      84.41783194      61.43689303      87.39602029
H      84.06634285      59.56417425      87.27885725
C      86.65337816      62.24380616      88.79063830
H      86.28110208      63.97857491      89.83943641
C      87.40737896      60.25581408      90.76729203
H      89.45584228      60.15943805      90.95248521
H      87.10124329      58.39254394      89.94526108
C      86.06378355      60.63753879      93.22582596
H      84.04177639      60.24636546      93.17102390
H      86.39259594      62.53860346      93.94770141
C      86.93494738      58.71946660      95.16468516
H      88.88892440      58.75159193      95.81475101
H      86.73652613      56.92989578      94.16124049
N      85.11325121      58.96891046      97.34353960
H      83.55989618      57.86153085      97.33409097
C      85.19261972      60.55250111      99.26728098
N      87.07667685      62.06428216      99.80585298
H      87.29588510      62.93355627     101.48959913
H      88.62436271      61.94711913      98.69469391
N      83.24809135      60.69234087     100.75260587
H      83.32368039      62.08506915     102.05273757
H      81.96685690      59.27882557     100.71859079
C      88.93238809      62.80316516      87.02941338
O      90.92415963      63.76314611      87.88545940
N      88.73585655      62.51214730      84.59733562
H      87.04077205      62.05294380      83.84900400
C      90.21173282      63.87652970      82.56210038
H      91.33989941      65.36185459      83.43704366
C      92.07500296      61.99436230      81.56054543
H      93.01041747      61.10619093      83.16681280
C      90.78998906      59.81550786      79.96939587
H      90.10023896      60.49202988      78.15147916
H      89.31411281      58.84607825      81.02953234
H      92.12980501      58.28293982      79.65192185
C      94.07433339      63.17544123      79.90514518
H      93.44316481      64.01258999      78.13069217
H      95.36690619      61.66743963      79.36279373
C      95.82799941      65.17477168      81.20905634
H      95.35367811      67.07961580      80.57788775
H      97.83110930      64.96501206      80.78386792
H      95.79776380      64.99335794      83.26129911
C      88.77932026      65.25980936      80.47206307
O      89.75441904      67.14764595      79.62357596
N      86.50408978      64.49824965      79.69538556
H      85.86347256      62.83718022      80.37946648
C      84.91860940      65.97790536      77.91148392
H      86.19417466      66.19900334      76.30899601
C      82.36747888      64.65698667      77.29165369
H      81.07490609      64.42077088      78.87902379
H      82.91549951      62.75214254      76.72851525
C      81.11459034      65.93255192      75.03532047
O      82.53188507      66.39175542      73.18338868
O      78.71841738      66.16309854      74.97484923
C      84.33846342      68.60840439      78.93004640
O      84.49153126      70.44332864      77.49007495
N      83.66383114      68.98445993      81.29976320
H      83.37281329      67.46323025      82.41848118
C      83.46918933      71.43165550      82.59233600
H      83.71863319      72.78280982      81.05787823
C      80.82735193      71.62440759      83.79609166
H      80.74042453      73.34972771      84.91480964
H      80.49664983      70.13908269      85.18315077
C      78.48976049      71.56393634      82.03864619
H      76.93829518      70.65875743      83.04776004
H      78.91494891      70.44899781      80.36056922
C      77.43340348      74.23978880      81.36590362
O      75.72131144      75.15063688      82.62257162
O      78.80723452      75.60039175      80.00341095
C      85.64426431      71.93243297      84.56521027
O      86.56078157      74.04136754      84.67670412
N      86.40582402      69.92932307      85.82376799
H      85.34757728      68.37407832      85.51574260
C      88.36169075      69.92554363      87.78719363
H      89.85268482      71.28425685      87.36956412
H      88.97018263      67.98290498      88.09899847
C      87.00108780      70.59450675      90.31753716
O      84.76365184      71.33527946      90.53296596
N      88.52420721      70.47356425      92.42647173
H      90.06433416      69.34728738      92.36600049
C      87.66816120      71.48078838      94.86043922
H      85.63481567      71.25969041      95.09098583
C      88.62814216      69.93688198      97.09976490
H      90.67093630      69.90664637      96.85221076
H      87.85713383      68.05093513      96.80874705
C      87.97051741      70.74946430      99.69813858
H      88.94183673      72.55604265      99.88144204
C      85.25120123      70.75513348     100.10254001
H      84.81845391      70.56238140     102.10753963
H      84.44239838      69.04115171      99.29373715
H      84.39137576      72.46533580      99.34475976
C      89.38970187      68.93910650     101.35542856
H      91.37391450      69.47200932     101.48204022
H      89.42182722      67.03993155     100.55607433
H      88.60546544      68.84462018     103.25649323
C      88.18027703      74.26435525      95.08153720
O      90.17771773      75.02591495      94.19714529
N      86.45684662      75.74023150      96.19458600
H      84.88270460      74.76324299      96.65378949
C      86.92738847      78.40852505      97.24338410
H      88.96451344      78.45954766      97.53818141
C      86.15071097      80.45887810      95.26673038
H      86.59101720      82.31836879      96.03395926
H      84.18350588      80.39462741      94.66012823
C      87.41493786      80.23966985      92.59087792
H      86.69684187      78.49167301      91.76695725
H      89.45584228      79.99778488      92.69670259
C      86.54377403      82.54891540      91.00728727
H      84.50475934      82.70198323      90.75973312
H      87.28076730      82.15585232      89.12323014
N      87.81933929      85.03012605      91.74805998
H      88.39381610      85.06414113      93.56786642
C      87.55855707      87.17874486      90.54808378
N      86.41716238      87.58881548      88.41458277
H      86.15638014      89.28389997      87.57554428
H      86.01654039      86.00711456      87.42625591
N      88.30310923      89.25366435      91.54774899
H      88.02154001      90.98087421      90.78996874
H      89.21773676      89.17240613      93.22015678
C      85.74819926      78.96977376      99.89655985
O      83.46918933      78.60883604     100.35198389
N      87.27509811      79.83904786     101.59542380
H      89.12514018      79.98077733     101.14755866
C      86.54377403      80.15841162     104.26182763
H      85.21529643      78.66552782     104.76638455
C      88.87002713      79.62739852     105.81518266
H      88.56011201      80.13951435     107.78616720
H      90.46684587      80.87272816     105.44101685
C      89.95850949      77.00445840     105.42967849
H      90.09456977      76.51879874     103.43223778
C      92.39814616      76.66241794     106.74492800
H      93.20505929      74.78402998     106.49170468
H      92.13358447      77.11406253     108.73858926
H      93.88914021      77.91719621     106.07974434
C      88.14059277      74.93709781     106.41233617
H      87.86847219      75.00890741     108.45135086
H      88.84546069      73.02847424     106.09864160
H      86.29433016      75.02213550     105.49959836
C      85.31734166      82.69253459     105.08763803
O      83.71863319      82.70387296     106.81673760
N      86.03543766      84.68997531     103.90844881
H      87.66249201      84.50667186     102.92768085
C      84.96585257      87.33748188     104.12954679
H      84.02098940      87.47354216     105.95502241
C      87.36013580      88.99855131     104.28261462
H      88.59601681      88.72832045     102.65556026
H      88.55255310      88.25021969     105.78494704
C      86.75542339      91.85392777     104.45080026
H      84.78254911      92.15061480     104.96669554
H      87.14281727      92.74398885     102.63288355
C      88.19350510      93.20697181     106.53327866
H      90.09268005      93.22397934     105.73770388
H      88.04610646      92.26588810     108.36064400
C      87.17305289      95.87904481     106.67689786
H      85.12269984      95.89416261     106.46902796
H      87.80233176      96.87115112     104.98559281
N      87.85146464      97.19996350     109.09763726
H      89.63914573      96.71430384     109.54739213
H      86.73463639      96.58769218     110.52060118
H      87.92894342      99.10102818     108.95779752
C      83.13470777      87.80802372     101.98659715
O      83.40871809      86.76867426      99.98348726
N      81.15994377      89.34815067     102.44013146
H      80.98419922      90.08136449     104.19379748
C      79.28344555      90.17018162     100.56930241
H      78.25354470      88.44108205     100.13277563
C      77.39938840      92.14305589     101.85431631
H      78.36503855      93.74176435     102.72170068
C      75.56824362      93.25232524      99.76805846
H      74.45330509      94.75654738     100.62410448
H      74.53456331      91.92762708      98.57753088
H      76.63782871      94.40127883      98.43769113
C      75.58525115      90.93741051     103.75538098
H      76.68507186      89.80924390     105.08574830
H      74.40795166      89.41618082     103.01649799
C      74.03189611      92.63438473     105.41267095
H      72.69774935      93.82113286     104.38465984
H      75.23754150      93.88160410     106.52383003
H      72.84325827      91.50432840     106.65989032
C      80.51932655      91.43818798      98.23926987
O      81.98197472      93.22208962      98.53217745
N      79.48942572      90.63505430      96.08876132
H      78.04567481      89.38594520      96.14545311
C      80.37759708      91.39094481      93.54896916
H      81.43773354      93.15028002      93.72282398
C      82.08213022      89.45208562      92.53229640
H      83.44462289      88.94941842      93.99305484
H      83.21407627      90.19096861      90.97705165
C      80.88782319      86.91229345      91.60822024
C      80.19240389      86.47387695      89.02496437
H      80.46263476      88.04801896      87.75317856
C      79.34580651      83.98699713      88.45804647
H      78.64849750      83.53724226      86.59288660
C      79.37982159      82.05380711      90.34777279
O      78.23086799      79.83715814      89.93392272
H      78.13827140      79.53102248      88.14813136
C      79.86737098      82.61883528      92.85354988
H      79.54611750      81.13351039      94.21604255
C      80.80089577      85.04902331      93.44314449
H      81.36403422      85.30791582      95.38767286
C      78.29322895      91.69708048      91.64601476
O      76.15405877      91.23787698      92.29041144
N      78.81668314      92.72698132      89.30464386
H      80.67428410      93.09547796      89.06464862
C      76.82491161      93.32791429      87.39413056
H      75.01455380      93.43373897      88.36922934
C      77.21041578      95.92250852      86.11100639
H      75.99721149      96.17006267      84.46316505
H      79.12848798      96.06423799      85.37779258
C      76.46397389      98.02766363      88.00640188
H      77.56190488      98.16372392      89.74495009
H      74.55912975      97.71963824      88.72260816
C      76.61515199     100.61469895      86.75729279
H      75.86493064     100.38982152      84.85055894
H      78.58235708     101.20429356      86.61745304
C      74.88227295     102.37592387      88.11222656
H      75.08636340     102.44017457      90.16068988
H      72.94908294     101.70507104      87.86845186
N      74.97297983     105.05366606      87.24484218
H      74.35881878     105.29366131      85.45338164
H      76.78144790     105.66215794      87.23161410
H      73.75788581     106.06466964      88.31820673
C      76.58869581      91.36448865      85.32110079
O      78.48598104      90.60481867      84.17403692
N      74.36826741      90.56702415      84.90725073
H      73.06624597      91.15850848      86.16958791
C      73.67473785      89.04390473      82.68115313
H      74.91250858      87.39984285      82.76619082
C      70.79479495      88.31636011      82.77186000
H      69.82158589      90.07758503      82.32777431
H      70.31102501      87.69464015      84.67670412
C      69.98788181      86.42285434      80.73662476
O      69.86315988      84.11360879      81.18260017
O      69.51356050      87.43763737      78.60879293
C      74.23787628      90.60859813      80.29442880
O      74.52889414      92.89327723      80.41537128
N      74.36259822      89.59003564      78.04754421
H      74.41740028      87.68141207      78.07211066
C      74.56479893      91.08291943      75.59845891
H      76.17484576      92.36793332      75.56444384
C      75.38494016      89.30468697      73.34023597
H      74.79345582      90.21931450      71.59034940
C      78.10425632      88.62060605      73.31944898
H      79.41950583      90.20608642      73.40259694
H      78.55590091      87.58503603      71.59601858
H      78.54645228      87.33181270      74.86146565
O      74.24921464      86.93308045      73.30811062
H      75.12793737      85.89184125      74.50619710
C      72.29334791      92.66462036      74.84256839
O      72.49743835      94.63371516      73.48574490
N      70.14472910      92.17140179      76.01230898
H      70.07858867      90.54434742      77.00630502
C      67.90351369      93.85136848      76.07655967
H      67.83548353      95.04567551      74.40037243
C      65.55080442      92.30935181      76.07466994
H      64.02579529      93.52066638      76.74741251
H      65.65095991      90.82024747      77.49385440
C      65.29380165      91.13961122      73.37992022
H      66.52401348      89.56735893      72.87347357
H      65.78135104      92.65139226      72.07222961
C      62.61416973      90.11726929      72.93772426
O      60.93987222      91.61582225      73.61613601
O      62.25890118      88.16518199      71.69050490
C      68.07736850      95.99998729      78.14580998
O      66.42007853      97.70829989      78.45194565
N      70.05969140      95.98297976      79.59334034
H      71.45430942      94.73198094      79.22862316
C      70.53779216      97.88404442      81.49629474
H      69.78001191      99.69629197      80.87835423
H      72.55790959      97.74042523      81.86479137
C      69.34915431      97.32468544      84.07199170
O      69.78379136      98.46419041      86.00140227
N      67.65029035      95.56346052      84.27230269
H      67.19108686      94.60536928      82.68871204
C      66.47488060      94.56190557      86.51540782
H      65.55269415      96.14549622      87.45649153
C      64.40940973      92.63816419      85.86345225
H      63.45509794      91.98620861      87.56798538
H      65.22199205      90.80701939      85.38157204
C      62.65763344      93.48476158      83.78664303
C      61.55403327      91.44007771      82.36367911
H      62.06992855      89.48988015      82.67170450
C      59.87784603      91.80668461      80.36623840
H      59.09171988      90.22120423      79.34767592
C      59.11439660      94.35403568      79.98073423
O      57.16986822      94.77733437      78.41226139
H      56.50846401      96.43651408      78.73540459
C      59.97422208      96.32502022      81.52275090
H      59.26557470      98.21096707      81.19960770
C      61.78457988      96.04723046      83.45405120
H      62.54802932      97.55523204      84.59733562
C      68.27956922      93.38082662      88.44670812
O      70.10315511      92.24321139      87.63979498
N      67.84682190      93.64727803      90.94681603
H      66.16874492      94.25954936      91.61577914
C      69.73276875      92.56635458      92.83276289
H      71.63383343      93.11626494      92.25828609
C      69.47009679      93.80790477      95.38578314
H      70.83636892      93.03689644      96.71992991
H      67.63328282      93.32602456      96.17946819
C      70.33937091      96.52344149      95.27239956
C      68.44019596      98.41316780      95.75994895
H      66.63172787      97.58168821      96.21726271
C      69.10160017     101.00776203      95.58231467
H      67.74099723     102.46096155      96.02640036
C      71.50533204     101.78066009      94.87933648
O      71.97398416     104.26942964      94.69225358
H      70.49999763     105.31822775      94.83587278
C      73.42718369      99.89471323      94.52406794
H      75.33013809     100.37470371      93.96092950
C      72.83947882      97.35492106      94.56186246
H      74.40228247      96.11715032      94.11966651
C      69.68930506      89.67507332      93.22015678
O      67.61627529      88.77367388      93.72093425
N      71.81146770      88.45997931      93.30897392
H      73.39505836      89.50688769      93.49983628
C      72.21775885      85.81058302      93.58487396
H      70.50755654      84.77690272      94.08565143
C      73.22876243      84.83170478      91.07342769
H      75.27344630      84.85060205      91.32476129
C      72.45019519      82.11616808      90.78429956
H      70.39606269      82.02357149      90.89012424
H      73.34214601      81.22232752      92.41324365
H      73.37427136      81.27901931      89.14401712
O      72.48232054      86.19986664      88.86433763
H      73.59347962      87.63227918      88.78118967
C      74.05079338      85.31925417      95.78640511
O      75.50588264      86.83481468      96.61788469
N      73.80701869      83.07425932      96.97882242
H      72.29712736      81.92341599      96.78984979
C      75.77989296      82.06892492      98.59831787
H      77.50521309      82.97977300      97.93691366
C      75.18273945      82.90985312     101.44802515
H      74.91439830      84.93563974     101.18535319
C      72.91884731      81.27901931     102.32863761
H      71.57903136      82.28057426     103.53050355
H      73.43852205      79.70865674     103.55506999
H      71.83603414      80.42108357     100.80173875
C      77.43718294      82.78702091     103.12799184
H      79.12470853      83.63172857     102.30029172
H      77.97953438      80.81414665     103.37365626
C      77.08758356      83.92652588     105.69801963
H      78.56345981      83.41252033     107.03972531
H      75.34147645      83.35582854     106.62965470
H      77.06112739      85.98065838     105.55251070
C      76.05957245      79.24945326      98.20147534
O      74.54968113      78.06081540      96.85410048
N      78.03244672      78.12128664      99.34475976
H      79.23431265      79.31937312     100.21592359
C      78.49353995      75.30181499      99.44302553
H      76.87593422      74.26813470     100.18757770
H      80.05634360      74.96166426     100.74315723
C      79.28344555      74.34372375      96.78229088
O      81.27332734      74.78780943      95.76939758
N      77.55056651      72.72422830      95.66735236
H      75.88571763      72.54848374      96.58575935
C      77.78867203      71.61873841      93.14834718
H      79.18706950      72.56171183      91.96726824
C      78.25732415      68.78981812      93.49038764
H      76.51499649      67.93755155      94.18958638
C      78.99998659      67.57472410      90.95059548
H      79.16061333      65.53570941      91.20381881
H      80.78766769      68.21156187      90.14935152
H      77.46363910      67.89408785      89.61833843
C      80.31523610      68.22856940      95.44058520
H      79.78233328      68.77092085      97.35298823
H      81.87803977      69.52114220      95.07397829
C      81.53599930      65.55649639      95.68058044
H      82.73975497      65.25980936      94.03651855
H      80.17917582      64.06739205      95.24594339
H      82.83613102      65.44500254      97.27550945
C      75.23187232      72.41620291      92.08632099
O      73.26466723      71.28047740      92.69103341
N      75.18462916      74.48356349      90.68603380
H      76.77010954      75.49834653      90.37044950
C      72.94530349      75.26968964      89.38023291
H      72.40106231      73.73145243      88.12356492
H      73.66906866      76.86650838      88.29930946
C      70.49810791      76.05581579      90.85988862
O      68.59704325      76.42809186      89.59755144
N      70.62282984      76.51312956      93.33165063
H      72.21586913      76.34494392      94.37100011
C      68.25689250      76.90052345      94.76406318
H      66.84904640      75.83849726      93.69825754
C      68.47988022      75.68542943      97.37566494
H      69.66473860      76.94776660      98.49060347
H      69.29813171      73.79570312      97.34542932
C      65.91552160      75.63818628      98.71548090
N      64.23177545      73.59350241      98.75138570
H      64.62483853      71.89274872      97.97281846
C      62.26268064      74.22089154     100.13655509
H      60.73200232      73.01335642     100.74315723
N      62.33260051      76.70210219     100.68079627
H      61.06081470      77.61861945     101.77116835
C      64.55491865      77.59216328      99.85120641
H      65.32403726      79.46488206     100.10820919
C      67.40462593      79.65574442      94.73760701
O      68.76144944      81.30547549      95.87333253
N      65.39773659      80.15463216      93.44503421
H      64.30547479      78.83749291      92.59654710
C      64.61916935      82.83048462      93.39023215
H      66.28023878      83.95298204      92.92724920
C      62.75023003      83.45787376      91.26995923
H      61.95843470      85.29846719      91.74994971
H      61.21577226      82.08782217      91.17925236
C      63.87650692      83.62983885      88.62056294
H      65.07648312      82.04057902      88.09143957
C      61.88284565      84.17030057      86.54375372
H      60.86050372      82.38828867      86.70627018
H      62.51779369      84.49533349      84.61245343
H      60.74145095      85.67830217      87.35822576
C      65.41663386      86.00333509      88.52418689
H      67.30069099      85.79357547      89.33298976
H      64.47932961      87.66818398      89.29330550
H      65.73599760      86.70064411      86.61178387
C      63.29069175      83.63550803      95.85632499
O      61.68064493      82.29380235      96.85032103
N      63.97477268      86.02979127      96.57064153
H      65.20309478      86.94252908      95.42924684
C      62.84471634      87.31858462      98.81941585
H      62.05292102      85.78412685      99.93813382
C      64.93853309      88.75666634     100.30285100
H      64.20342956      89.89806103     101.85053685
H      65.86071954      90.08703367      99.02728574
C      66.74511145      86.91418318     101.64266696
H      67.10793890      85.20587060     100.54851542
C      69.33970568      88.05557787     102.38721913
H      68.97498850      89.58625619     103.71569672
H      70.29590719      88.54312727     100.62977365
H      70.38094488      86.58537081     103.38310489
C      65.58481950      86.17152074     104.11253925
H      65.44309003      87.75700112     105.41645041
H      66.57881553      84.57470201     104.95346746
H      63.64029112      85.55169051     103.83285976
C      60.61483929      88.95886705      98.05029724
O      58.56070679      88.55446563      98.89122545
N      61.22900034      90.80890912      96.41001480
H      62.92408485      90.99410230      95.55207905
C      59.37517883      92.78745257      95.61821947
H      57.60639500      91.77266954      95.33098107
C      58.95376986      94.72064257      97.74794103