 %block lattice_cart
   135.996   0.000   0.000
   0.000 142.663   0.000
   0.000   0.000   160.158
 %endblock lattice_cart

 %block positions_abs
N      89.61457930      42.06530858      77.99746647
H      91.45139327      42.55663743      78.17321102
H      89.60513067      40.66880085      76.69733477
H      88.97207235      41.37933794      79.65664617
C      87.97240713      44.06085958      77.09039784
H      88.52609694      45.77295161      78.09006306
C      88.45428734      44.67124118      74.28982344
H      87.71918381      43.22560055      73.01803764
H      90.47440477      44.97926657      74.03660012
C      87.12203029      47.12032647      73.36952673
H      85.07923615      46.84442644      73.39220345
H      87.85524410      47.60787586      71.50814631
S      87.81744957      49.58452958      75.79971477
C      91.07344801      50.18546256      75.15342837
H      91.51375424      51.97125392      76.07939426
H      91.45328300      50.35553793      73.13520067
H      92.13925365      48.69446850      76.09451207
C      85.17372246      43.59976635      77.70455889
O      84.02665859      41.64389962      77.11874373
N      84.03043804      45.54618446      78.97256525
H      84.93372722      47.21103333      79.20311186
C      81.28088626      45.49327211      79.56027013
H      80.34925119      44.26872947      78.19210828
C      80.88404373      44.20447877      82.24935067
H      81.84402470      42.38278261      82.31549110
H      78.87904411      43.76795200      82.41942604
C      81.74008975      45.78428998      84.52836061
O      81.76087674      48.10109444      84.65308254
N      82.41472205      44.61076992      86.55225749
H      83.12147969      45.64256049      87.99033921
H      82.35236108      42.70214635      86.56359585
C      80.23964706      48.30329515      79.33728243
O      81.81945826      50.05507144      79.12941253
N      77.82457683      48.58675410      79.74924276
H      76.73609448      47.07119359      80.15364419
C      76.40728210      51.03394967      79.80026537
H      76.70207940      51.85031144      77.93321578
C      73.56891317      50.64277632      79.96845101
H      73.09270214      49.42012340      78.37919119
C      72.76388977      49.34453434      82.43643358
H      73.78623170      47.58708888      82.77658432
H      70.78534632      48.93257401      82.03770133
H      73.04734871      50.71080647      83.95010436
C      72.18185406      53.27327535      79.65853590
H      72.69774934      54.33341182      81.34984095
H      70.20520034      52.70446773      79.53381396
C      72.86026581      54.60553239      77.23401704
H      74.84069898      55.13843522      77.43432803
H      71.55446492      56.19101278      77.07339030
H      72.72798497      53.14099451      75.79404559
C      77.60536858      53.09564108      81.52558550
O      77.83402546      55.26693660      80.73190045
N      78.06079262      52.19802107      83.87262558
H      77.96441658      50.32530231      84.22600440
C      79.01888386      53.67200761      86.00234713
H      77.93985014      55.40488663      86.27635745
C      78.73920437      52.01093818      88.41930709
H      79.43651338      53.14288423      89.99155938
H      79.86170180      50.28372832      88.39474064
C      76.05012382      51.17378942      88.75945782
C      74.45708454      52.62131978      90.43375534
H      75.04289970      54.42411868      91.19153559
C      71.97209444      51.77472239      90.97421706
H      70.85904564      52.73659308      92.38773234
C      71.06691554      49.59019876      89.72321824
H      69.12616661      48.98926580      89.89518334
C      72.59381440      48.06707936      88.23978309
H      71.88138758      46.33797979      87.42153159
C      75.21864425      48.82485961      87.82026385
H      76.27122180      47.46236694      86.72611231
C      81.94040074      54.29183784      85.72266764
O      82.67928373      56.08329837      86.95854865
N      83.47863796      53.01627258      84.14096671
H      82.92494815      51.43268192      83.23389808
C      85.97874587      53.87987750      83.22444945
H      87.18628099      54.99859548      84.46410991
C      87.62469749      51.59519839      82.77658432
H      86.90849122      50.38766327      81.27047244
H      87.69272764      50.49726740      84.51702225
C      90.33456502      52.23959506      82.06982667
H      91.39092203      53.56996238      83.23389808
H      90.21173281      53.08241299      80.19332845
C      92.09390022      50.01349746      81.77313964
O      91.57422548      47.81196630      82.49879455
O      94.30865946      50.29695641      80.87740937
C      85.44962250      55.81117778      80.98701350
O      86.71762886      57.75003699      80.72245181
N      83.59958044      55.36520238      79.43365847
H      82.66416592      53.72114049      79.68877152
C      83.29155505      56.67478272      76.99969098
H      85.03766217      56.76926902      75.91120862
C      81.45852053      55.16678112      75.33862155
H      79.64816272      54.89277080      76.28159498
H      82.16338845      53.24492946      75.11374412
C      80.69696083      56.26849155      72.67032799
H      82.25031586      55.82251615      71.39287301
H      80.62326150      58.32451379      72.74969650
S      77.67906791      55.22536263      71.54972029
C      78.48031186      55.10064070      68.33529583
H      80.08657923      53.81184735      68.31450884
H      79.12659826      56.82596082      67.41121966
H      76.90805957      54.38254470      67.21468813
C      82.29188984      59.35819408      77.23590677
O      83.31801122      60.92288747      76.00569494
N      80.57412862      59.87975854      79.07083102
H      79.59336066      58.42088983      79.80593455
C      79.63115519      62.38364591      79.61696192
H      79.56312504      63.49480498      77.88219317
C      77.18962879      61.93578077      81.01535939
H      76.68507186      63.44378237      82.32305000
H      77.32379936      60.30305723      82.26257876
C      74.85392707      61.62586565      79.35051051
H      75.11281957      60.28793943      77.80660411
C      72.55224042      60.72635593      80.90197581
H      70.92140661      60.68478194      79.64719754
H      72.26500202      61.97357530      82.51391236
H      72.82436101      58.82340154      81.64274853
C      74.03378585      64.14487082      78.37163228
H      73.81457760      65.45067171      79.94955375
H      72.26122257      64.19022426      77.32283418
H      75.33580728      64.94611479      76.99024235
C      81.56056575      63.78582282      81.43298891
O      81.73631030      66.07995057      81.49534988
N      83.23675299      62.32506439      82.69343636
H      83.47674823      60.54872166      82.04148078
C      85.20962726      63.23780220      84.30348318
H      84.31767644      64.80627503      85.29558949
C      86.07512191      61.24603067      86.38407185
H      87.00297753      59.87219964      85.15952920
H      84.29499973      60.57328810      87.17964663
C      87.79288313      61.93578077      88.56859547
H      86.93494739      63.46645908      89.64762919
H      89.69394780      62.50647812      88.02057483
C      88.25775581      59.74936743      90.32793066
H      89.32167172      60.32951341      91.99277954
H      89.49552654      58.34341104      89.46621546
N      85.92394381      58.56639876      91.18586641
H      84.95451421      57.45901914      89.97266212
C      84.72018815      58.86119606      93.34204413
N      85.12269985      60.77737853      94.88217108
H      84.46885455      60.59596482      96.66796244
H      86.42472128      62.09829724      94.43808539
N      83.06856735      57.09997114      94.06014013
H      82.35047135      57.35697391      95.81002670
H      83.14226668      55.40488663      93.19086603
C      87.46596048      64.39620443      82.96366722
O      88.67916477      66.12341428      83.90853038
N      88.16893867      63.62708582      80.60906823
H      87.57934406      61.97735474      79.85317771
C      89.96228894      64.97824014      78.94232963
H      91.31344325      65.88341904      80.20655653
C      91.49296725      62.96379189      77.35684925
H      92.43972014      61.58618139      78.56060491
C      89.67882999      61.24225122      75.94900315
H      88.61302435      60.05928254      77.25291430
H      90.58967808      59.96857567      74.60918719
H      88.42027227      62.33451301      74.74146803
C      93.64725525      63.74613858      75.50680719
H      93.09545517      64.81005449      73.83250968
H      94.68282527      62.03026709      75.02681671
C      95.65981377      65.52815048      76.64442243
H      96.05665630      65.15776414      78.63241451
H      94.98329175      67.46889942      76.79182108
H      97.38513390      65.58862174      75.52192500
C      88.90215248      67.16276375      77.34551089
O      90.24763761      69.08083595      77.01669851
N      86.48519252      67.08150552      76.68032723
H      85.64804377      65.39209020      76.97323481
C      85.14537657      69.00713664      75.29515784
H      86.32078633      69.98601487      73.91754736
C      82.71707826      67.96589744      73.90809873
H      81.77032537      69.64208468      73.17110547
H      81.29600407      67.24024252      75.21200988
C      83.25942971      66.20656224      71.58184564
O      85.30789303      66.35207116      70.39698724
O      81.50954314      64.75903188      70.95634623
C      84.26098465      71.31449245      76.95244782
O      84.63515046      73.46311128      76.09451207
N      83.19139956      70.78347937      79.14453034
H      83.09691324      68.99012910      79.79081674
C      82.65093783      72.75824336      81.01346967
H      81.56056575      74.30781894      80.20277708
C      80.68373274      71.79070348      82.92587269
H      80.37759708      73.38752222      84.19198932
H      81.67394933      70.27514299      83.91230983
C      78.06646180      71.11796093      82.00935543
H      76.88349313      70.84584034      83.67231459
H      78.27244197      69.23579351      81.19488339
C      76.94396437      73.14563725      80.35584491
O      77.27466647      75.33205061      80.95677788
O      75.60225869      72.53903510      78.40564735
C      85.15104575      73.50090581      82.35517535
O      85.79355269      75.74023148      82.39108015
N      86.09401918      71.54692879      83.73278583
H      85.03766217      69.95577923      83.73845501
C      88.14437223      71.85495418      85.63196077
H      89.61268957      73.11918108      84.92898259
H      89.13080936      70.09183954      86.03069303
C      87.22029606      72.73934610      88.13206869
O      84.93939640      72.98312080      88.36639475
N      88.90593193      73.68609899      89.84416073
H      90.75408426      73.75034967      89.36983942
C      88.15193113      74.45710732      92.39529125
H      86.09590890      74.33616484      92.34615836
C      89.13269909      72.49746113      94.31714291
H      91.17738296      72.45588715      94.07903739
H      88.20484347      70.78536909      93.64629007
C      88.32200650      72.93776736      97.08370223
H      88.63570107      74.90875191      97.59392834
C      85.48552730      72.39352618      97.71676055
H      84.01720996      73.03414340      96.42229802
H      85.05655943      73.12673999      99.59325878
H      85.13403821      70.36207040      97.69030438
C      89.81678001      71.18221161      98.70319768
H      89.63347656      71.37874315     100.74599183
H      91.79910292      71.55826715      98.28556817
H      89.35946625      69.25847024      98.12872088
C      88.82845315      77.14051869      93.18708657
O      91.11502199      77.71121602      93.37039003
N      87.00108781      78.81859565      93.86360859
H      85.18506082      78.23278050      93.91652093
C      87.46407075      81.43964605      94.85571491
H      89.45773201      81.69475909      95.31113895
C      86.99919808      83.28590866      92.63339676
H      86.96707273      85.20398085      93.38928729
H      85.27954714      82.62828389      91.70932060
C      88.85112987      83.20842987      90.45643205
H      89.18372170      81.25823232      89.88951416
H      90.64070069      84.00589437      91.08949037
C      87.84012629      84.89595547      88.26434953
H      89.44828338      85.67830217      87.24389732
H      86.53054596      86.26222759      89.07693184
N      86.21685139      83.31614427      86.70343559
H      86.16393905      81.46610222      87.16830827
C      85.08112587      84.01534301      84.57938322
N      84.92049914      86.35860363      83.73467556
H      83.68650785      86.94630853      82.40052878
H      86.11858562      87.71164767      84.33938798
N      83.65060305      82.31836877      83.40586318
H      82.70951935      82.59048936      81.76747046
H      83.64115442      80.55525413      84.13907699
C      85.75953762      82.05758655      97.09126114
O      83.52399139      82.33159686      96.85882480
N      86.90849122      82.05002765      99.33625600
H      88.81522507      82.05002765      99.37594025
C      85.80489105      82.06514546     101.95352694
H      84.34980179      80.61194591     102.06502079
C      88.15382086      81.45665358     103.76577447
H      87.38092280      81.85916529     105.63282407
H      89.76953686      82.71521130     103.53333814
C      89.19883951      78.75245523     103.64294226
H      90.19094582      78.44820929     101.86470980
C      91.18494186      78.27246474     105.62148571
H      92.58522906      79.77857662     105.73864874
H      92.16193037      76.46021721     105.53455830
H      90.51597875      78.08916129     107.56034491
C      87.09179467      76.82115493     103.97364437
H      85.82756777      77.11217278     105.57235283
H      88.09334962      75.02591494     104.11159439
H      85.97307669      76.78713987     102.24454479
C      84.87325598      84.65218078     102.49209894
O      83.01943447      84.78635134     103.90939367
N      85.80678078      86.72521054     101.48109536
H      87.39982006      86.48332557     100.45497397
C      84.61058402      89.27067188     101.46408782
H      83.48997632      89.48988013     103.17995932
C      86.72896722      91.17362628     101.37149124
H      87.76453724      90.91284405      99.61026631
H      87.78154477      90.67095908     103.07035519
C      85.72552255      94.04790001     101.18440833
H      84.46318537      94.28033634     102.79445515
H      84.56145114      94.54867748      99.56113343
C      88.19161538      95.76566123     101.37338096
H      89.35568679      95.35937006      99.72176016
H      89.42749639      95.19307416     102.92106681
C      87.42438650      98.61725823     101.55290496
H      85.51765265      98.79489250     102.31257494
H      87.16738372      99.45062753      99.68585536
N      88.96451345     100.13659818     103.36893195
H      88.02531947     101.76176281     103.70341351
H      90.75408426     100.32935027     102.73209418
H      89.13836827      99.32968505     105.09047262
C      82.78699813      89.55413083      99.21531351
O      83.33879821      88.79635058      97.05535634
N      80.52121628      90.69552552      99.84081292
H      80.21886007      91.01866872     101.69841389
C      78.55212146      91.38338590      98.16462568
H      77.66206037      89.67507332      97.43897078
C      76.61515199      92.93863065      99.70475263
H      75.75721624      91.81424350     101.20330559
C      77.71119325      95.29133991     101.05401722
H      76.29389852      95.88282426     102.42784824
H      78.21386045      96.77099562      99.71231153
H      79.48375653      94.90394602     102.02533654
C      74.37582631      93.75499242      98.35548804
H      73.78056252      92.01644421      97.42763242
H      74.88416269      94.95496864      96.75866931
C      72.08169857      94.94174055      99.55546425
H      72.46153356      96.62548670     100.67796168
H      71.51478067      93.50176910     100.91417747
H      70.56046888      95.29322964      98.20997911
C      79.44785173      92.97642518      95.82703423
O      81.16750268      94.53922884      95.99333015
N      78.43306870      92.25077029      93.60660582
H      77.23687195      90.78434266      93.34960304
C      79.34769624      93.22964851      91.22555066
H      80.33035392      95.00788098      91.56381167
C      81.43206436      91.47409276      90.07848679
H      83.01565501      91.22275916      91.36916986
H      82.38259670      92.56068539      88.61016944
C      80.66483548      88.87193964      89.21677159
C      79.78044357      88.28612447      86.71855340
H      79.66517026      89.85648704      85.42220115
C      79.13415717      85.85026726      86.00612658
H      78.32157485      85.27956991      84.22222495
C      79.56879422      83.86038545      87.69932136
O      79.03967085      81.35649808      87.29680966
H      78.55023174      81.10516449      85.56582035
C      80.58546697      84.38006019      90.10683268
H      80.86892592      82.94764765      91.53546578
C      81.31679106      86.79702015      90.78713416
H      82.26543367      87.13717087      92.55969744
C      77.21230551      93.96475204      89.41519285
O      75.18273945      93.08602932      90.03502308
N      77.64883228      95.39338514      87.28736102
H      79.30990171      96.33068939      87.21933088
C      75.57769225      95.50676871      85.29747922
H      73.85993103      94.69229667      86.08738482
C      75.45863949      98.25821022      84.38663113
H      74.86904488      98.21285679      82.41375686
H      77.36159388      99.01976993      84.19009960
C      73.43852206      99.89849267      85.84927930
H      74.00543995     100.17817217      87.80892549
H      71.68485604      98.81567949      85.81904368
C      72.96042130     102.23419440      84.39041059
H      71.28045461     103.17149864      85.13118330
H      72.64483701     101.73719637      82.41753632
C      75.24887987     104.08045700      84.67197981
H      76.86270614     103.10724794      83.84050023
H      75.36982235     104.26187072      86.72044313
N      74.87093460     106.60324162      83.50790840
H      75.70619363     106.68827932      81.79392663
H      75.70241418     107.99785965      84.51135307
H      73.03034118     107.09646020      83.39830427
C      76.23342728      93.63971912      83.14319122
O      78.41228171      93.76822051      82.28336575
N      74.63093936      91.81424350      82.35895480
H      73.00766446      91.68763184      83.35106111
C      75.18084972      89.83570006      80.37474217
H      77.12537810      89.18185474      80.56560453
C      73.54245701      87.52078531      81.24968545
H      71.56202383      88.08014431      81.22322929
H      74.00166050      87.17496540      83.22822890
C      73.91095364      85.13406099      79.67176398
O      76.05201355      84.33470675      79.31082626
O      71.99855061      84.03990946      78.97445497
C      74.72920513      90.55946524      77.67054382
O      74.05457284      92.75910665      77.14142045
N      74.94841338      88.84548347      75.82806066
H      75.12982711      87.00489004      76.30616142
C      75.03912025      89.46342397      73.16543629
H      76.46397389      90.92040296      72.85741090
C      75.77233406      87.09181745      71.61208126
H      75.68729637      87.47921134      69.59007410
C      78.45952487      86.20364607      72.17899915
H      79.74264904      87.75133193      71.73302374
H      78.92817700      84.85627122      70.69367427
H      78.68062285      85.41940965      74.07061519
O      74.24543519      85.15484797      72.26214711
H      75.23187233      84.08337316      73.34685001
C      72.62405002      90.65962072      72.21112450
O      72.69774934      92.47564771      70.74658661
N      70.45086476      89.85459732      73.10496505
H      70.54913053      88.12927720      73.91565763
C      67.95264657      91.22275916      72.88197734
H      67.75611504      91.67062431      70.88075718
C      65.53001744      89.45586506      73.25236370
H      63.79146923      90.47820699      72.84040336
H      65.38450851      88.85682182      75.21767906
C      65.62450375      87.18252431      71.39476273
H      64.66263306      85.63483845      72.35285397
H      67.55580405      86.49277421      71.20201065
C      64.61727963      88.01778334      68.75292535
O      63.25667668      86.71387218      67.41688884
O      65.06703449      90.15695353      67.90065878
C      67.53690678      93.64727803      74.42777346
O      65.85694009      95.15905908      73.87030420
N      69.32269815      94.36348430      75.94144424
H      70.75511069      93.16917727      76.35151485
C      69.32836733      96.94485045      77.16976635
H      68.15673701      98.22230543      76.05860727
H      71.32958749      97.43239983      77.22645813
C      68.29657676      96.76910589      79.83994963
O      67.80146847      98.75898770      80.89252718
N      67.68808489      94.59214119      80.90008609
H      68.22665689      93.17295673      79.74357358
C      66.25000316      94.11781987      83.26980288
H      65.14829272      95.74298450      83.88963311
C      64.34326931      92.01644421      82.81437884
H      63.28880203      91.97487023      84.58316267
H      65.28624274      90.21175559      82.49123564
C      62.49511698      92.12226890      80.59772988
C      61.72221892      89.88861239      79.34484133
H      62.26646010      88.09715184      80.15742365
C      59.82682343      89.92829665      77.51180681
H      58.92542397      88.30124229      76.67087860
C      59.17486785      92.34714632      76.34395595
O      57.94843547      92.39438949      73.99880559
H      57.99378890      94.11781987      73.43377742
C      60.22744540      94.55434666      77.37574651
H      59.96666317      96.37793254      76.49513405
C      61.81859496      94.42773499      79.53759342
H      62.48566835      96.06612770      80.55237645
C      68.12650139      93.53011500      85.48456212
O      69.87827769      92.09959217      85.15763947
N      67.51800952      94.30490278      87.77680014
H      65.87394763      95.24787622      88.00167757
C      68.94475289      93.48098212      89.97644157
H      70.89872989      94.05545890      89.66085727
C      68.17374455      94.76410628      92.55024881
H      69.41529474      93.77011024      93.85982914
H      66.14417849      94.55056720      92.84882556
C      68.90695836      97.54011424      92.81292076
C      66.93030464      99.28811108      93.31180851
H      65.01601188      98.58702261      93.40251537
C      67.34604443     101.93561763      93.47243525
H      65.77379213     103.23574933      93.47621470
C      69.83481398     102.85213490      93.01134203
O      70.37527571     105.32767637      92.55213853
H      68.93908371     106.43505599      92.46143167
C      71.83225469     101.01721065      92.77323651
H      73.73331936     101.75798337      92.71087554
C      71.32202859      98.43773422      92.49355702
H      72.91695760      97.17350733      92.36316590
C      68.93341453      90.56891386      90.46399096
O      66.94542245      89.44830615      90.89862801
N      71.11226897      89.38783491      90.59438207
H      72.73554387      90.32702889      90.24100325
C      71.51667040      86.55135572      90.74556018
H      69.81591672      85.60082338      91.40885411
C      72.15728762      85.61216174      88.02246456
H      73.79757006      86.63450368      87.31570692
C      72.71286715      82.85883051      87.60483505
H      73.51222139      82.70576268      85.71321901
H      70.87038400      81.98766667      87.91663989
H      74.25677355      82.18797767      88.79158317
O      70.08614758      86.25277897      86.45210199
H      69.85749070      88.05179841      86.40485884
C      73.68229675      86.26033786      92.52190291
O      75.17895999      87.85148743      93.02268038
N      73.96764543      83.92085669      93.59904691
H      72.69019044      82.53757703      93.29669070
C      76.00099094      83.17630453      95.36027183
H      77.62615557      84.29691222      94.77634640
C      75.28667439      84.00589437      98.05502156
H      74.39850303      85.86349535      98.09470581
C      73.30813094      82.23333109      99.29657174
H      74.00355023      80.30203081      99.47231629
H      71.76800400      81.75523033      98.01344758
H      72.58814522      83.14417918     100.99921515
C      77.69985489      84.46698760      99.77467250
H      79.01132496      85.60838229      98.67107233
H      78.68251258      82.68686541     100.10348488
C      77.24254113      85.82003164     102.21052972
H      75.91028408      87.36960722     101.95163721
H      78.88471329      86.72710027     103.05523738
H      76.57357801      84.43864170     103.58436075
C      76.73231502      80.42297328      95.01823137
O      75.12415793      78.92442032      94.34926826
N      79.09636264      79.70109783      95.61916434
H      80.37948681      80.98233228      96.21253840
C      79.93918058      77.01768648      95.81758560
H      78.66928449      75.93298357      97.01945154
H      81.61536782      76.70588163      96.97031865
C      80.51554710      75.94054248      93.21732220
O      81.65694179      77.04414264      91.55814249
N      79.32312980      73.62562773      92.93008380
H      78.34236184      73.11918108      94.48721828
C      79.06990647      72.09116997      90.63217660
H      80.68940192      72.48801250      89.42275176
C      79.34202706      69.27547777      91.13484380
H      77.83024601      68.88619415      92.47843921
C      78.99431742      67.33472885      88.91063593
H      79.30234281      65.46201007      89.70810043
H      80.23397788      67.69377685      87.30625829
H      77.09892193      67.68243849      88.18309130
C      82.01787952      68.67265508      92.32726110
H      82.80211594      70.38285738      93.16063041
H      83.41060781      67.91676455      91.01201159
C      81.82134798      66.61285340      94.22643605
H      83.73942019      66.35018144      94.93130396
H      81.16372323      64.83651065      93.41385373
H      80.53444436      67.05504935      95.77223217
C      76.63971843      72.91131119      89.33960380
O      74.69519006      71.76991650      88.88229003
N      76.65483624      75.35661704      88.78780372
H      78.13260222      76.46021721      89.28669146
C      74.75566130      76.47533501      87.21744115
H      74.74999212      75.74590066      85.28992031
H      75.08258395      78.49167300      86.93398220
C      71.96642526      76.42242269      88.36261530
O      70.09181676      76.48667337      87.01524044
N      71.84548278      76.25801650      90.91563555
H      73.49710357      76.39407678      91.86049870
C      69.31891870      76.56037271      92.24789260
H      67.86193971      75.42086774      91.33893424
C      69.57025230      75.81959998      95.02201082
H      71.05179773      76.88540563      95.97632261
H      70.02189688      73.80893119      94.97476767
C      67.17974851      76.17675827      96.42418775
N      65.02923997      74.66875667      96.34103979
H      65.02923997      73.08138657      95.28090333
C      63.15274174      75.87440206      97.46542695
H      61.24033871      75.29047662      97.86793865
N      64.12595079      78.02491059      98.37627503
H      63.14329311      79.41574916      99.23987995
C      66.56558746      78.28758256      97.73565781
H      67.51800952      80.08471228      97.57503107
C      68.46665213      79.31748339      91.97199255
O      69.67418724      81.08059805      92.97921668
N      66.26701070      79.72377456      90.75689854
H      65.47521538      78.22900103      89.87439635
C      64.92341529      82.14640368      90.42052725
H      66.38228401      83.49755799      89.89140388
C      62.91463622      81.82137076      88.17931184
H      61.52568738      80.48344452      88.90496675
H      63.88406582      81.05036243      86.53524995
C      61.49923121      84.31014031      87.65207820
H      60.81515029      85.09626646      89.42842094
C      63.37194999      86.12049812      86.39163075
H      64.86105432      86.47765639      87.76924123
H      62.27590873      87.72487576      85.70377037
H      64.30925424      85.28712882      84.75890722
C      59.25234663      83.74511214      85.86439711
H      58.27157867      85.52901379      85.56015117
H      57.79914709      82.66040924      86.83949589
H      59.56037202      82.80780789      84.05781876
C      63.55336372      82.95142709      92.92063516
O      62.28346763      81.40941043      94.14139836
N      63.91997062      85.27201100      93.71432022
H      64.95365091      86.63450368      92.86583310
C      62.44409437      86.37561118      95.81380615
H      61.69009357      85.05847194      97.20464472
C      64.15996586      88.36360326      97.05913579
H      63.13195475      89.21586982      98.62760863
H      64.59460291      89.83192060      95.68152531
C      66.72810392      87.36393804      98.17407431
H      68.14539866      86.77623315      96.79835356
C      67.74666640      89.62216097      99.67640673
H      68.13595002      91.06402216      98.25911200
H      69.46442762      88.97398485     100.61371098
H      66.23677508      90.36671315     100.86315486
C      66.38228401      85.17563497     100.12049242
H      65.19553588      85.83137000     101.67195772
H      68.17941373      84.37061155     100.72709456
H      65.65095992      83.62605939      98.97909772
C      59.95532482      87.48677025      94.88406080
O      57.95977383      86.73654889      95.70798148
N      59.85516932      89.01366911      92.88095091
H      61.47088532      89.56168974      92.02679462
C      57.60639501      90.13805627      91.82270418
H      56.30248385      88.57147314      91.51845824
C      56.19099000      91.94652435      93.66518733