 %block lattice_cart
   135.996   0.000   0.000
   0.000 142.663   0.000
   0.000   0.000   160.158
 %endblock lattice_cart

 %block positions_abs
N      90.50180579      43.81330543      84.89213292
H      90.14842698      41.99538872      84.43292942
H      89.90465228      44.04952122      86.68926264
H      92.27058963      44.49738636      84.66158631
C      88.76136787      45.54429474      83.58255259
H      88.94467131      47.42079296      84.40836298
C      89.82906324      46.08286673      80.85567751
H      89.80827625      44.30463427      79.81254859
H      91.84729093      46.49104762      80.86512615
C      88.41554795      48.19369103      79.64247323
H      86.59574151      47.52094846      78.95272312
H      89.29616042      48.46770134      77.79999007
S      88.08484584      51.13599490      81.35267554
C      91.25958605      51.85220117      82.23139828
H      92.32161224      51.72747923      80.47017336
H      91.99846903      50.40467081      83.49562518
H      91.25013742      53.71169186      83.11579018
C      85.93433731      44.62399802      83.55798615
O      85.07829129      43.27851289      81.79865094
N      84.66255150      45.43658034      85.47605835
H      85.52615642      46.39845103      86.87823527
C      81.98480930      45.28540223      85.64991317
H      81.32340509      43.97960135      84.20238281
C      81.31584620      43.86999722      88.11222657
H      82.64054433      42.31664219      88.36544989
H      79.47336304      43.05363545      87.68703815
C      81.35175100      45.53484610      90.53296597
O      79.41289180      46.61765928      91.29074621
N      83.48336227      46.11499208      91.50428530
H      83.64776847      47.37354981      92.92724920
H      85.06317347      45.36288101      90.73894613
C      80.72814131      47.97826223      85.55731658
O      82.08118534      49.89633443      85.70849469
N      78.11464982      48.26172117      85.32488025
H      77.23403735      46.61199010      85.71794332
C      76.80129003      50.84686677      85.07165692
H      77.22836818      51.53661687      83.18004088
C      73.91756768      50.46136260      85.02819322
H      73.70969779      48.90044867      83.69971562
C      72.95002780      49.54673507      87.62656689
H      74.13488621      47.94424715      88.14624163
H      71.00927889      48.86076441      87.57932374
H      73.27128128      50.90166883      89.14401712
C      72.23760099      52.69501910      84.22316980
H      72.55318528      54.40900087      85.31921107
H      70.24016027      52.27738959      84.51040820
C      72.42090444      53.54539594      81.39235979
H      71.18691316      55.18567838      81.21283580
H      71.98815712      51.97125393      80.13758151
H      74.35787390      53.97814327      80.84244943
C      77.77260936      52.88966091      86.84988938
O      77.85008813      55.13087632      86.12612420
N      78.73825951      52.15644710      89.07976643
H      78.80628964      50.31207422      89.56542609
C      79.61131306      54.10475493      90.96760301
H      78.21102586      55.59385927      90.70682078
C      79.25037534      52.88588146      93.63022739
H      80.03272202      54.18412344      95.02295568
H      80.40877757      51.21725313      93.97226785
C      76.42712421      52.58541498      94.54674465
C      75.36509803      54.46191321      96.21348326
H      76.30240228      56.06818057      97.04874229
C      72.88955656      54.14632891      97.04496285
H      72.22059344      55.59763872      98.31485892
C      71.42312895      51.90511350      96.40056617
H      69.47482111      51.80495801      96.99394023
C      72.50216267      50.13066050      94.68847412
H      71.41557004      48.51872395      94.06486444
C      75.03061647      50.41222972      93.95903977
H      75.95847209      49.21225351      92.59276764
C      82.17945112      55.22725236      90.31186798
O      82.77471490      57.38154036      90.70493106
N      83.76115204      53.61342609      89.21393700
H      83.06195331      51.97692310      88.52418689
C      86.10819212      54.29750702      88.32387590
H      86.99825322      55.65244078      89.59377199
C      87.55572248      51.78228129      88.13679301
H      89.32450630      52.01471763      87.10689216
H      86.44267368      50.38955300      87.10689216
C      88.35507670      50.50671603      90.61044474
H      86.64109494      50.11743241      91.68380930
H      89.68355431      51.79739910      91.50806474
C      89.77237145      47.98771086      90.07565220
O      88.54593906      46.13766880      89.32921031
O      92.16287522      48.06141018      90.15502070
C      85.93055785      55.28772360      85.59700084
O      87.58406837      56.65021628      84.66347604
N      83.70068080      54.89655026      84.38190681
H      82.37220321      53.71547131      85.08110555
C      83.11864510      56.14187990      81.91770370
H      84.68900766      55.87542849      80.61379256
C      80.86609133      54.88710163      80.47962198
H      79.02549790      55.23481127      81.33755772
H      81.21758042      52.85942529      80.57032884
C      80.51271250      55.78472163      77.80187979
H      82.17378193      55.06851535      76.81733239
H      80.41255702      57.83507467      77.64314278
S      77.70646894      54.43545704      76.40915150
C      78.53605878      54.85686601      73.13425580
H      78.66267045      56.90343960      72.93961400
H      76.94490923      54.32585291      71.93616932
H      80.40310838      54.07829876      72.74119273
C      82.48747650      59.01237417      82.27297225
O      83.61942257      60.60163400      80.88213368
N      80.73947967      59.70590372      84.01529991
H      80.22736384      58.35852886      85.26629873
C      80.12153917      62.37608700      84.73528563
H      79.56029044      63.30961180      82.98539908
C      77.67812303      62.32317467      86.32454546
H      77.29450859      64.29604894      86.77996951
H      78.24504093      61.31973000      88.03096833
C      75.26305282      61.23658204      84.86945620
H      76.00949471      59.52637972      84.00018210
C      73.12199290      60.51281686      86.72705717
H      73.82308137      59.65488111      88.46182592
H      71.89933998      59.37520162      85.52330151
H      72.26216743      62.18522465      87.56798539
C      74.00638481      62.97701997      82.98728879
H      72.87443875      64.37352772      83.99073347
H      72.79884970      61.66743964      81.95360850
H      75.36698775      63.78393311      81.66825984
C      82.37409293      63.69511597      85.89179814
O      82.83518614      65.88152932      85.22661448
N      83.91799933      62.36852810      87.39035110
H      83.47580336      60.53549358      87.68136896
C      86.21401679      63.48346662      88.41836222
H      85.67166535      65.27870662      89.27440825
C      87.32328614      61.67877800      90.57642967
H      89.26025562      62.31372604      90.87878588
H      87.43666971      59.71157290      89.97360697
C      85.94378593      62.21357054      93.13133964
H      83.96335275      61.65232183      93.10677320
H      86.22724487      64.20534208      93.57731505
C      87.10218817      60.72635593      95.44625439
H      89.05427545      61.23091286      95.86766334
H      87.19478476      58.75159194      94.86421868
N      85.53938450      60.62997989      97.78951500
H      84.20334800      59.28827421      98.02195134
C      85.42411119      62.19089383      99.60365228
N      87.06817309      64.13164275     100.09498111
H      86.55794699      65.43177445     101.39889227
H      88.44200412      64.34140237      98.78729051
N      83.76115204      61.89231707     101.44613542
H      83.78760820      63.16221315     102.87098907
H      82.71235394      60.30683669     101.59920325
C      88.37208424      64.02203862      86.50784892
O      89.79693789      65.74357929      86.97272159
N      88.48357810      62.75403227      84.39324517
H      87.28171216      61.28004574      84.24584652
C      89.92165983      63.33228852      82.11990443
H      91.79437860      63.92566258      82.73973465
C      90.14842698      61.03249160      80.35867949
H      88.49491646      59.83440511      80.09411781
C      90.96289902      61.91499378      77.66770922
H      89.60229607      63.06205766      76.62458030
H      91.16509974      60.30872642      76.39403369
H      92.62207872      63.13386726      77.69227567
C      92.26303072      59.44890095      81.55865570
H      91.51469911      58.57206794      83.26885803
H      93.80315767      60.72257648      82.06132290
C      93.32127746      57.37587118      79.78609242
H      94.51936395      56.20235114      80.97850972
H      94.70455712      58.29049872      78.56532922
H      91.95311560      56.09463674      78.93193614
C      88.75569868      65.64153407      81.03142207
O      90.17110369      67.45567133      80.48718089
N      86.28015722      65.74735875      80.77819874
H      85.17844677      64.38675580      81.53597899
C      85.14821116      67.65031314      79.25318961
H      86.12330994      67.49157613      77.44661125
C      82.42511554      66.70922944      78.79209638
H      81.13065302      68.28148173      79.09634232
H      81.58607706      65.49224570      80.22450894
C      82.07929563      65.64909298      76.13325147
O      82.94856972      66.83962056      74.41360051
O      80.93790093      63.51748170      75.95750691
C      85.16143923      70.32427588      80.30009798
O      85.85307907      72.06093436      78.98484846
N      84.58507271      70.53970468      82.75863191
H      83.84618972      68.97690102      83.57121423
C      84.55105764      72.90375229      84.29875886
H      84.50948367      74.62907242      83.16870253
C      82.14165660      72.73745638      86.08832967
H      82.17189222      74.41175389      87.28641616
H      82.49314569      71.22756506      87.44326344
C      79.63210004      72.30281933      84.76363154
H      78.23937176      71.53559044      86.07321186
H      79.90233091      71.20110889      83.04398058
C      78.57196358      74.74245600      83.38413132
O      76.27594612      74.90497246      82.96083264
O      79.98358914      76.47155557      82.77941890
C      87.02659911      73.12485027      85.89746732
O      88.18311162      75.13929852      85.87290087
N      87.81272526      71.20299861      87.21838601
H      87.24391764      69.38697163      87.03886201
C      89.67221595      71.80582131      89.17614247
H      91.30871894      72.83005297      88.45804648
H      90.42621675      70.05026556      89.94715082
C      88.56294661      73.06437903      91.48916748
O      86.26881886      73.57649486      91.44759351
N      90.01236668      73.27602838      93.52818217
H      91.80382722      72.69021322      93.22582596
C      88.93144323      73.93932231      96.04529763
H      86.88109019      73.98656547      95.83742772
C      89.59662690      72.03447819      98.16179109
H      91.60540596      71.96833777      98.61910486
H      89.04671654      70.13719297      97.58164512
C      88.38153288      72.81115571     100.70536271
H      89.02781928      74.67820530     101.29306759
C      85.47702354      73.17776261     100.64678120
H      84.52271175      71.44299385     100.08364275
H      84.94412071      74.64041078      99.29940634
H      84.74003028      73.46878046     102.54784586
C      88.92010487      70.93087802     102.87665825
H      90.87408189      70.28459162     102.83508426
H      87.73335675      69.24902161     102.85398152
H      88.91632542      72.00613230     104.63410371
C      89.49836113      76.69265355      96.62922305
O      91.62997240      77.35027831      97.23204574
N      87.54438412      78.38206888      97.04874229
H      85.73969548      77.85861469      96.71237102
C      87.78626909      80.98989119      97.87266297
H      89.79315844      81.37728508      98.13155547
C      86.57873398      82.73788803      95.86766334
H      86.28393666      84.65218078      96.56686208
H      84.75136862      81.91774681      95.38578313
C      88.05838968      82.62261472      93.41857805
H      88.12641982      80.74233704      92.57953956
H      89.99535915      83.11016411      93.92124524
C      86.80928059      84.38950883      91.47215995
H      87.00203267      86.27923514      92.26395528
H      84.81183988      83.95298205      91.22649552
N      88.00925679      84.21376428      88.93236778
H      89.30938850      85.54035215      88.49017182
C      87.22691009      82.81914626      87.15602504
N      85.57339957      80.89918432      87.35444630
H      84.87987001      79.99211569      85.82376799
H      84.97246660      80.43431165      89.10622260
N      88.25681094      83.03646478      84.86756648
H      87.65398824      81.94987215      83.41814639
H      89.58528853      84.40651636      84.80898496
C      86.44078396      81.21854807     100.33497635
O      84.03894181      81.11083367     100.62032502
N      87.82028417      81.62672896     102.46469790
H      89.71378993      81.64751594     102.22848211
C      86.63353603      81.56058853     105.01393871
H      84.80428097      80.61950483     104.96102636
C      88.50814454      80.11116845     106.79973007
H      87.70879031      80.39840685     108.67622830
H      90.37141468      80.96343502     106.59563962
C      88.58751305      77.26902008     106.52571975
H      89.11663641      76.81548576     104.58497083
C      90.50180579      75.97455755     108.15844328
H      90.20889823      76.11250757     110.19178881
H      92.35373759      76.84761111     107.91277886
H      90.47157018      74.02813945     107.48570073
C      85.98913936      76.10116922     106.99437188
H      85.42600093      76.77958096     108.85575230
H      85.71512904      74.07538261     106.73736910
H      84.60019052      76.93453852     105.72069634
C      85.96457292      84.07392453     106.23659163
O      84.82884741      84.23455127     108.16222274
N      86.66377166      86.04868853     104.87976813
H      87.70123140      85.56491859     103.35286928
C      85.39009613      88.51478137     105.04228459
H      84.63798504      88.59792932     106.95846708
C      87.57084029      90.46119947     104.88543731
H      86.62786686      92.29045454     104.77772291
H      88.77648568      90.20230696     103.23570625
C      89.00892201      90.59159058     107.42522947
H      89.57395017      88.64706221     107.81262338
H      87.72390812      91.28134069     108.87842901
C      91.31627783      92.37549222     107.31562535
H      90.64164554      94.12726852     106.46713823
H      92.66932188      91.31724549     106.17989984
C      92.14964714      92.71564296     110.03872098
H      92.89986849      90.92229269     110.71713271
H      90.63786609      93.07469096     111.38987529
N      94.23779472      94.67906860     110.05383878
H      95.62485384      94.41450692     108.77071462
H      95.11651746      94.90961521     111.73380547
H      93.39119733      96.35147639     109.69479078
C      83.24714649      88.64517248     103.07507950
O      83.66855545      87.78345728     100.89055588
N      81.18167562      90.14183572     103.66845356
H      80.78483310      90.58025223     105.48259083
C      79.41856097      90.92229269     101.78061698
H      78.45480055      89.23287737     101.09842579
C      77.34364149      92.65328199     102.90122469
H      78.24126147      94.20096784     103.91978717
C      75.55596038      93.52255610     100.85087163
H      73.92890604      94.46363980     101.69179984
H      74.77550343      91.90872982      99.83986805
H      76.38366052      94.92284329      99.58286528
C      75.86209605      91.37204755     105.01582844
H      77.20002228      90.62371593     106.39154919
H      75.11187470      89.66373496     104.14655432
C      73.71914642      92.89894641     106.31596013
H      72.03540026      93.23531770     105.18023462
H      74.33897665      94.66017134     107.18523423
H      73.12388262      91.64227841     107.83530009
C      80.76215638      92.27344700      99.61688035
O      82.46102034      93.95530342     100.00049479
N      80.09130354      91.49676949      97.31519370
H      78.87998898      90.02845214      97.18102314
C      80.77349474      92.56068540      94.74705565
H      81.64276885      94.42206582      94.89067484
C      82.74636901      90.83536528      93.54896917
H      84.41121789      90.51222208      94.72059948
H      83.27927184      91.67440376      91.74805998
C      81.71646817      88.25021968      92.85543961
C      81.07774068      87.78912646      90.30808853
H      81.43489895      89.13272187      88.81142529
C      80.16878231      85.41563021      89.51251376
H      79.82863159      85.10949455      87.52452168
C      79.85508775      83.42952786      91.29074621
O      78.89321706      81.13162066      90.71437969
H      78.37921151      80.94831721      88.98339040
C      80.43334401      83.95109232      93.83998701
H      80.31807069      82.46576744      95.23649477
C      81.34608181      86.28490432      94.59209809
H      81.75615243      86.51167147      96.57820044
C      78.47936699      93.00288136      93.00283826
O      76.23248241      92.50777307      93.60566095
N      78.99526227      94.15561441      90.72571806
H      80.78105365      94.69418641      90.32320635
C      77.03750582      94.75465765      88.87945544
H      75.18935348      94.61103845      89.77707544
C      77.14522021      97.59302657      88.07821148
H      75.98303853      97.68751289      86.37934753
H      79.01793900      98.13726775      87.41491756
C      76.13421665      99.57157002      89.86022340
H      77.25482435      99.83235225      91.56853598
H      74.29551294      98.88937882      90.49517144
C      76.07185567     102.29277591      88.76040269
H      75.19880212     102.13403890      86.90091200
H      77.97669980     103.00898219      88.43348004
C      74.75849589     104.24486320      90.30808853
H      75.94335428     104.51887351      91.96915796
H      73.05774221     103.57212063      91.25295169
N      74.38810953     106.73930193      88.97772122
H      75.89989058     107.90148361      89.01929519
H      72.81963669     107.61802466      89.61455897
H      73.88355261     106.44261490      87.16169422
C      77.06396198      92.89705669      86.68359347
O      79.04439516      92.08258465      85.64046455
N      74.83597467      92.08258465      85.92392349
H      73.26372238      92.79312174      86.73272635
C      74.35031500      90.52922962      83.74506906
H      75.23470692      88.67351838      83.90002660
C      71.50060773      90.04923913      83.80743001
H      70.56519320      91.87471475      83.63357519
H      71.00171998      89.33114313      85.67258990
C      70.83731378      88.07447514      81.82132766
O      71.65367556      85.88617206      82.18226540
O      69.68647047      88.76800469      79.87679928
C      75.02116785      92.01455450      81.37913170
O      75.18935348      94.30679252      81.42637486
N      75.09864663      90.74087896      79.21161562
H      74.80573904      88.85493210      79.29098414
C      75.70524876      91.93896545      76.77197895
H      77.58741617      92.77800393      76.77386868
C      75.76005083      89.93774528      74.61580123
H      73.87788342      89.58436646      73.85613125
C      77.77260936      90.84292418      72.63158860
H      77.24537571      92.66273062      71.82467546
H      77.65544633      89.58814591      71.00075479
H      79.66611511      91.00733037      73.42527365
O      76.78806195      87.73054495      75.51531096
H      75.46525353      86.50411257      75.33389723
C      73.68513133      93.97420068      76.08789803
O      74.25960814      95.48976119      74.46084367
N      71.45903374      93.95719315      77.29921260
H      71.27195084      92.47942717      78.49351962
C      69.33309164      95.65605710      76.85323718
H      69.88300200      96.79934152      75.23185202
C      67.00494882      93.90617054      76.26742203
H      65.39301228      95.11748510      75.84790279
H      66.58920904      92.65328199      77.84912295
C      67.35643792      92.16573260      73.80888810
H      68.87010869      90.77111458      73.84857236
H      67.81186195      93.41673142      72.23663580
C      64.95459578      90.75221732      73.16071197
O      63.56753665      91.83314077      71.54688570
O      64.44247995      88.56769370      73.84101345
C      68.77562238      97.39460531      79.13791630
O      67.11266323      98.99898295      78.89225187
N      70.49527332      97.33791352      80.94827410
H      72.05618725      96.27399761      80.68371242
C      70.89400557      99.04244666      83.11390047
H      70.45369934     100.97941613      82.57154902
H      72.94246889      99.02354939      83.32932926
C      69.48615947      98.20907735      85.59133165
O      69.80552321      99.36181040      87.66625115
N      68.03673939      96.09258388      85.54408850
H      67.63800714      95.24031731      83.88301907
C      66.95014675      94.94174056      87.81742925
H      65.63111779      96.43084489      88.35411152
C      65.41190955      92.56068540      87.10122298
H      64.39334705      91.75755172      88.70371090
H      66.53818642      90.98087420      86.41336261
C      63.61289010      92.87249024      84.92803772
C      63.48816816      91.06402216      82.95327373
H      64.40090596      89.24988490      83.14413608
C      61.60600075      91.27189206      81.08055495
H      61.56064732      89.91128911      79.56121500
C      59.87501144      93.29767866      81.03142207
O      58.14969132      93.59058624      79.16437246
H      56.81932399      94.75465765      79.57444307
C      59.95249022      94.98331454      83.14980526
H      58.55409275      96.45919079      83.31043200
C      61.71560488      94.67906860      85.16992269
H      61.74395077      95.92817769      86.78563868
C      68.92491076      94.20096784      89.73550146
O      70.89022612      93.09547795      89.26873906
N      68.31641888      94.82457753      92.02018057
H      66.71015152      95.78266877      92.40379502
C      69.75261088      93.92695753      94.24249872
H      71.74438241      94.24632127      93.83053838
C      69.17246490      95.47275365      96.73693746
H      70.41212537      94.82079807      98.24493906
H      67.19770091      95.11181593      97.19992039
C      69.55985879      98.29222531      96.37599972
C      67.47360095     100.04400160      96.42513261
H      65.69914794      99.45062754      97.24149438
C      67.95170171     102.64615473      96.11899694
H      66.47960491     104.01053713      96.49505249
C      70.53684731     103.47952404      95.68435990
O      71.06597067     105.94939633      95.32153245
H      69.52773346     106.90748757      95.41790848
C      72.54184692     101.80900598      95.85065581
H      74.45047049     102.53088143      95.85443526
C      72.05996672      99.18606586      96.17379902
H      73.68513133      97.95774375      96.31174903
C      69.53907180      91.13772149      94.71682002
O      67.42824752      90.07947475      95.05319130
N      71.70658789      89.95286309      95.13067008
H      73.26372238      91.05268380      95.01161733
C      72.10909960      87.29401817      94.83209333
H      70.30441096      86.41907489      95.29696601
C      72.72326065      86.99733114      91.88223055
H      74.40322733      88.08014431      91.37956336
C      73.19569222      84.29502251      91.04886125
H      73.75505122      84.48588487      89.07598699
H      71.47793100      83.16685590      90.92413931
H      74.80006987      83.59204432      92.12978470
O      70.49527332      87.90439977      90.41202348
H      71.06408095      89.46531370      89.67880967
C      74.35031500      86.36805227      96.66701758
O      75.89233168      87.74755248      97.66290335
N      74.31629993      83.92085670      97.48526907
H      72.92168191      82.68119624      97.08275736
C      76.17957008      82.85505106      99.34475976
H      77.93512581      83.92841560      99.26161181
C      75.15533841      83.26512167     102.01683277
H      75.09108772      85.29468773     102.35698351
C      72.45680924      82.14829342     102.51194107
H      71.06030150      83.16118672     101.38377445
H      72.03540026      82.71332159     104.44702082
H      72.33019757      80.10549927     102.28517390
C      76.74459824      82.22955165     104.36387285
H      77.37387710      80.30958972     103.95947143
H      75.56729874      82.29569207     106.05139845
C      78.93101158      83.97754849     104.79473045
H      78.07685530      85.84459809     104.93834965
H      80.14610561      83.86227518     103.13555075
H      80.01760422      83.50511691     106.48036632
C      76.57641259      80.01668214      98.95169669
O      74.89644591      78.70710180      97.93880338
N      78.66267045      78.98489157      99.73404338
H      79.85697748      80.24533902     100.52583871
C      79.26927259      76.27124458      99.73782284
H      77.62710043      75.26591019     100.46158802
H      80.99648244      75.89707877     100.79417985
C      79.66044594      75.58149448      97.04118338
O      80.54672759      76.91942071      95.32720163
N      79.12376367      73.21555714      96.59142852
H      78.66456017      71.97022750      97.96336983
C      78.53038961      72.59572691      93.82486920
H      79.85508775      73.29870509      92.41513337
C      78.27527656      69.71578400      93.60944041
H      76.56318451      69.39075108      94.70359194
C      77.52505521      68.92587841      90.93169821
H      76.48570574      67.17032266      91.21704689
H      79.23147807      68.30415845      89.96226862
H      76.52161054      70.35829095      89.84510558
C      80.39365975      68.04526594      94.85288031
H      80.41444674      66.07806085      94.24627818
H      80.12720835      68.10195773      96.89378473
C      83.07896085      69.01469554      94.29919050
H      84.66444122      67.83550632      94.87555703
H      83.46257529      70.80615609      95.24027421
H      83.40588350      69.31705175      92.28663198
C      76.02272279      73.80326202      93.16535473
O      73.98748754      72.97745162      93.80219248
N      76.10209130      75.90274795      91.71404492
H      77.83686005      76.59816724      91.33043048
C      73.86654506      77.01390703      90.37422895
H      73.42623883      75.80826164      88.76418213
H      74.39755816      78.67875591      89.28385687
C      71.33620154      77.67720096      91.61010996
O      69.60332250      78.35372298      90.22494057
N      71.01872751      77.49956669      94.04596718
H      72.51539075      77.07059881      95.14956736
C      68.61310592      77.97766745      95.31964272
H      67.29407695      76.81926522      94.24060900
C      68.68869496      77.01390703      98.17123972
H      69.86977391      78.45576820      99.04429328
H      69.58253551      75.15819579      98.22037260
C      66.04874731      77.00445839      99.30885496
N      64.53696626      74.75001490      99.42034881
H      65.16435540      73.20988796      98.48493430
C      62.56598171      75.19599031     100.80740794
H      60.91247119      74.00546274     100.94157850
N      62.60188652      77.63940644     101.65211559
H      61.29230618      78.57860041     102.67256780
C      64.89034507      78.77135250     100.80740794
H      65.67647123      80.55147468     101.41778953
C      67.97059896      80.79146993      95.27617901
O      69.16679573      82.25222837      96.54985455
N      65.85977468      81.41130016      93.98738566
H      64.89412454      80.09794037      92.99716908
C      64.57665052      83.76400942      93.85510482
H      66.11866718      85.11516373      93.66613220
C      62.84566120      83.86038546      91.65357367
H      61.00884723      83.05347232      92.12222579
H      63.64501543      82.68875514      90.15880015
C      62.46393649      86.36427282      90.45737691
H      64.37444980      86.87638865      89.88478985
C      61.17136370      85.94853303      87.92892310
H      59.32888054      85.07925893      88.23505877
H      62.22583098      84.78824108      86.59288661
H      60.83688214      87.75889084      87.00484694
C      61.16758425      88.46564848      91.97671687
H      59.34777780      87.66062507      92.51339914
H      60.85955886      90.14372545      90.82587354
H      62.28630221      89.16295749      93.56219724
C      63.21037838      84.49533350      96.34576411
O      61.32821097      83.32559291      96.98260188
N      63.91902575      86.52489956      97.45692318
H      65.41757871      87.53023396      96.83898267
C      62.80219751      87.48299080      99.86254478
H      62.02174053      86.00333510     101.06252098
C      64.95459578      89.02878692     101.00393947
H      64.17791826      89.87160486     102.71414178
H      65.63867670      90.37994124      99.61121117
C      67.08620706      87.22220857     101.78439643
H      67.42824752      85.59704394     100.56363323
C      69.66568348      88.56391425     101.87888275
H      71.10187547      87.08992773     101.80707315
H      69.96426023      89.62216099     103.62121041
H      69.73938280      89.72420621     100.18190852
C      66.27929392      86.21687417     104.33363723
H      67.97626815      85.43452748     105.20102160
H      64.91680125      84.67485750     104.22403311
H      65.28718760      87.57747712     105.52227508
C      60.45515743      89.04768419      99.50349678
O      58.71849895      88.65840057     100.84520245
N      60.52318757      91.03000709      97.93880338
H      62.10299877      91.45141606      96.95047652
C      58.41047356      92.71753269      97.29818616
H      56.69649178      91.62527088      96.96370461
C      58.16291941      94.74898847      99.56018856