 %block lattice_cart
   135.996   0.000   0.000
   0.000 142.663   0.000
   0.000   0.000   160.158
 %endblock lattice_cart

 %block positions_abs
N      90.66810172      40.65651762      83.49657004
H      89.62875225      40.49778061      85.08960932
H      92.50491569      41.04580124      83.83483105
H      90.67377090      38.91230023      82.71989252
C      89.51914811      42.65206861      81.92998692
H      89.87819611      44.45864696      82.85217337
C      90.77392638      42.87127686      79.28625981
H      90.18811123      41.33681909      78.04281990
H      92.82805889      42.85426932      79.42609956
C      89.92354955      45.20697859      77.85384727
H      87.99602871      45.01233678      77.15464853
H      91.18966617      45.33736971      76.23435182
S      90.16165507      47.99810435      79.59995438
C      88.29271574      50.41128485      77.78959657
H      88.66688156      52.37471050      78.28848432
H      86.31795175      50.41695403      78.37730146
H      88.77270622      50.42262322      75.78648668
C      86.69022782      42.39884529      81.97723008
O      85.57717903      40.45998608      81.63141017
N      85.37308859      44.62494288      82.51391236
H      85.99858799      46.41640342      82.70666444
C      82.64999298      44.80257716      83.20366246
H      81.48970101      43.67819000      81.92431775
C      82.06039836      43.34181872      85.70943955
H      83.30950746      41.70531572      85.74912380
H      80.11020081      42.71065013      85.51857719
C      82.44401280      45.05202103      87.98089058
O      80.67711870      45.99877392      89.12039555
N      84.63609532      45.47531972      88.83126742
H      84.83073714      46.41073425      90.48477794
H      86.31606201      44.99343951      88.06214881
C      81.66922501      47.54645977      83.29247960
O      83.22446976      49.24532371      83.25468507
N      79.26360342      47.81102145      83.88774339
H      78.42834439      46.15184174      84.32993934
C      78.05039912      50.33569581      83.96522216
H      78.60975812      51.17851373      82.17187189
C      75.14588978      49.95208135      84.29025509
H      74.27472595      48.61226541      82.98823366
C      74.41834515      48.82769421      86.90752603
H      72.36043319      48.75777432      86.94154111
H      74.97203497      50.10325947      88.42497626
H      75.40856174      47.04946175      87.23822814
C      73.69457997      52.44274065      83.92742764
H      73.99126700      53.75232097      85.49212102
H      71.71981598      51.93251453      84.23545303
C      74.20858553      53.88649154      81.56149029
H      73.56985803      53.05312223      79.79081674
H      76.20224679      54.38915874      81.41976082
H      73.09553673      55.62126029      81.57660810
C      79.17478628      52.21219403      85.81715395
O      79.61698223      54.33435668      85.11039631
N      79.79839596      51.39583226      88.17931184
H      79.46391440      49.60059226      88.73678110
C      80.72247214      53.11548320      89.99533883
H      79.45446578      54.73686839      90.09171487
C      80.62420637      51.75299054      92.49733647
H      81.66355583      52.78856055      93.94108737
H      81.52182636      49.90672792      92.65229402
C      77.91055938      51.51110557      93.45731743
C      76.86743046      53.73153398      94.40784977
H      77.81607306      55.53811235      94.36627579
C      74.32952801      53.59547369      95.18263756
H      73.67001353      55.33591163      96.02356577
C      72.95380726      51.38638364      95.04279781
H      71.04140422      51.18229318      95.72498901
C      74.16512182      49.23776481      94.02801478
H      73.03317576      47.55401867      93.80880653
C      76.61231740      49.27933880      93.31747769
H      77.54773192      47.64472553      92.53513099
C      83.40966294      54.10758953      89.41330312
O      84.00303702      56.31290012      89.79691757
N      84.92522345      52.61092628      88.00356729
H      84.22413499      50.84403217      87.84294056
C      87.32139641      53.39138325      86.70343559
H      88.16799380      54.68206633      88.06592826
C      88.95978913      51.08591714      85.97589096
H      90.72101405      51.75676998      85.15008056
H      88.05272050      49.97286835      84.50001471
C      89.50592004      49.51366486      88.29836460
H      87.76926155      49.20563946      89.36039079
H      90.86085381      50.55112460      89.45298738
C      90.71156543      47.15528641      87.44987749
O      89.39064672      45.23721421      86.91697466
O      93.06049522      47.15528641      87.26846376
C      86.78660387      55.21874860      84.47922772
O      87.93366774      57.16894614      84.49245581
N      84.92144400      54.50443205      82.89941652
H      83.83296164      53.03611470      83.45121661
C      84.31862130      55.93873431      80.53914836
H      86.03260307      56.06534599      79.40342284
C      82.25881963      54.41750464      78.93288099
H      80.62609609      54.01121348      80.12151884
H      82.82573752      52.49376325      78.46233914
C      81.15144000      55.63826784      76.56694365
H      82.58574228      55.65149591      75.09106740
H      80.56562485      57.54689141      77.07339030
S      78.19590806      53.96963950      75.39342361
C      78.15433407      55.22819722      72.29616218
H      77.09230788      53.79767441      71.26437161
H      80.03272202      55.42472876      71.47413123
H      77.36442847      57.12926189      72.35852315
C      83.53627461      58.64482239      80.88685800
O      84.28460623      60.40037814      79.52814478
N      82.03205247      59.14748959      82.94854941
H      81.25915441      57.60358320      83.76113172
C      81.24214686      61.79877561      83.40208372
H      80.91333448      62.78710247      81.62385126
C      78.79495130      61.53988312      84.94221067
H      78.50582316      63.27276215      86.01557521
H      79.01793899      59.87503423      86.13651770
C      76.54428726      61.30366732      83.07516107
H      76.83908455      59.97707946      81.52558549
C      74.21614444      60.39281923      84.46977909
H      74.54306709      58.59568951      85.41842170
H      72.66845858      60.27376648      83.11484532
H      73.58497585      61.85546740      85.77557997
C      75.90367004      63.87936429      81.76369101
H      75.54651175      65.31744602      83.19610355
H      74.46369859      63.47307312      80.34828600
H      77.58174700      64.50108425      80.73945935
C      83.32084581      63.30299777      84.87607025
O      83.59863558      65.47996248      84.52836061
N      84.72113300      62.09924210      86.51635269
H      84.32806994      60.24920004      86.77146574
C      87.07006282      63.12347376      87.72766725
H      86.64865384      64.77131510      88.88606948
C      88.10374311      61.20540156      89.87061689
H      90.13897834      61.35468993      90.14084775
H      87.59540673      59.26654235      89.39629559
C      86.96045869      61.70995848      92.47843920
H      84.91388509      61.61925161      92.27245904
H      87.51981767      63.55244164      93.21354274
C      87.67666497      59.42527937      94.18108261
H      89.73268719      59.54622185      94.22643604
H      87.05116555      57.70184896      93.24188863
N      86.56928534      59.68039242      96.76244876
H      85.31639680      58.29900248      97.17251937
C      87.29305052      61.33012350      98.48587915
N      88.97301721      63.09323815      98.46887162
H      89.39631590      63.98329923     100.10537460
H      90.02937422      63.65448686      96.98354673
N      86.04961060      61.16193784     100.58158563
H      86.48235793      62.46962845     101.90250433
H      84.93845153      59.70306913     101.09937064
C      88.92010488      63.92849717      85.70377037
O      90.11063246      65.93916597      86.14218688
N      89.28671178      62.56033532      83.60806389
H      88.48168838      60.84068438      83.40964263
C      90.78526475      63.59590533      81.48779097
H      92.40664992      64.49541507      82.38730069
C      91.45044841      61.25075499      79.79648592
H      89.63631114      60.42305486      79.27681118
C      92.83183834      62.09168320      77.41921022
H      91.45422786      62.98363401      76.17199085
H      93.57261105      60.42116513      76.47245733
H      94.57983518      63.15748883      77.65164655
C      93.06805413      59.18339440      81.10417653
H      92.80160272      59.20418138      83.14886040
H      95.05415648      59.67661296      80.88496827
C      92.66554242      56.59257962      79.95333320
H      92.96600892      56.42817343      77.92187741
H      90.75502912      55.90660897      80.29537366
H      94.08850634      55.50787672      80.97378541
C      89.41710289      65.78420841      80.13474693
O      90.66621199      67.62291212      79.35240023
N      86.92833334      65.72940635      79.62830028
H      85.89276333      64.29321434      80.34639627
C      85.60930437      67.80810530      78.10896032
H      86.83195731      67.86857654      76.45167034
C      82.83518614      67.02197915      77.61763148
H      81.52560582      68.60745952      77.50802735
H      82.06984700      65.77853923      79.07083101
C      82.38354157      65.79176732      75.05516260
O      83.50414926      66.74418938      73.28259932
O      81.20246262      63.69795056      74.83028517
C      85.46946463      70.43860431      79.55460095
O      86.26503940      72.40014023      78.53036929
N      84.85152412      70.46695021      81.98100954
H      84.33940829      68.78320406      82.72556170
C      84.12397950      72.69304781      83.40775290
H      83.72713696      74.24829256      82.11895956
C      81.78827777      72.07132785      85.02157917
H      81.19679344      73.69082330      86.14785606
H      82.31929086      70.54064954      86.29336498
C      79.42800960      71.40047501      83.52113648
H      78.00315597      70.48584747      84.69087707
H      79.89099255      70.09467412      81.99990680
C      78.30740191      73.78530962      82.36273425
O      76.07563513      74.37301451      83.03736654
O      79.43367878      75.16858928      80.79048196
C      86.31417230      73.66058768      85.11795521
O      86.48991684      75.93959761      85.46377513
N      87.65965743      72.04676141      86.51824241
H      87.25336626      70.21183717      86.19698894
C      89.51347893      72.44171422      88.38718174
H      90.73424214      73.99884869      87.81081521
H      90.77014693      70.83355712      88.65930233
C      88.33428971      73.01241155      91.03279857
O      86.06283869      73.67570550      91.38806712
N      89.98213107      72.76863687      92.96598859
H      91.76792244      72.28486693      92.50300565
C      89.46056660      73.41492326      95.63239242
H      87.51792796      72.82910811      95.99333015
C      91.06683397      71.66881614      97.39361734
H      93.06805413      72.04865114      97.08748168
H      90.51125443      69.78664874      96.77000766
C      90.50180581      71.82377370     100.21875818
H      91.17832782      73.63791097     100.92173637
C      87.65398824      71.55732229     100.86882403
H      87.23068955      71.56677093     102.88516201
H      87.03604775      69.82066382      99.95041705
H      86.70912510      73.12579514      99.92585060
C      92.13263960      69.94349603     101.67195772
H      93.94299741      69.96239329     100.68930003
H      91.29360112      68.07077725     101.83636391
H      92.67121160      70.65781257     103.52577923
C      90.10874272      76.18526203      96.31458362
O      92.26303072      76.87879159      96.28434800
N      88.27192876      77.54964444      97.15551183
H      86.49369630      76.87312241      97.29913103
C      88.58373359      79.95337630      98.42162846
H      90.54337978      80.03652426      99.05468677
C      87.82217388      82.15679719      96.78323574
H      87.52548685      83.97849335      97.70164273
H      85.97780101      81.61255601      96.04246303
C      89.47757413      82.41568969      94.58737377
H      89.73835637      80.70737710      93.46487634
H      91.19155591      83.49472341      94.95776013
C      88.16610408      84.21848859      92.75622897
H      87.95634445      86.07042039      93.63873116
H      86.30094420      83.46637752      92.31214329
N      89.44355907      84.38100506      90.31281285
H      90.73802158      85.76617445      90.09927378
C      89.60607552      82.45537395      88.72544275
N      88.51003427      80.27085032      88.82937769
H      88.57995415      79.16536043      87.27413294
H      87.28738135      79.97227356      90.26556969
N      91.10084905      82.80875276      86.80926026
H      91.08195177      81.72027040      85.24456688
H      92.10429371      84.41879959      86.59761092
C      87.13809296      79.97416329     100.95386172
O      84.98947415      79.13890426     101.13905490
N      88.00547735      81.14390389     102.92862571
H      89.76859199      81.86955878     102.83035995
C      86.94345116      81.32153815     105.51944049
H      85.28238172      80.14234894     105.83313506
C      88.97868639      80.37667500     107.35247501
H      88.31161300      80.55619900     109.29322394
H      90.54337978      81.70326287     107.16728183
C      90.28448728      77.78963968     106.98964756
H      90.97990655      77.92381024     105.05456782
C      92.62018900      77.00729298     108.51465670
H      92.16098550      76.88446077     110.51965631
H      94.21322828      78.30553495     108.40883202
H      93.36474116      75.15536119     108.00254087
C      88.40798904      75.54464481     106.91027906
H      87.54060467      75.16858928     108.74142385
H      89.45300769      73.89491374     106.25454403
H      86.81683949      75.98117159     105.67817750
C      85.93622702      84.04085432     106.22808786
O      84.23925279      84.34887971     107.69262575
N      87.17210803      85.99294160     105.17362057
H      88.54971851      85.54885592     103.93018066
C      86.10819213      88.55918993     105.01488356
H      85.22568994      88.91634821     106.84224891
C      88.20956779      90.52450529     104.68985064
H      87.35541149      92.29895830     104.08702794
H      89.62875225      90.09742716     103.25932782
C      89.45111798      91.06118758     107.26932706
H      90.13330917      89.26405784     108.00443059
H      88.03004379      91.80196028     108.56378958
C      91.54304500      93.02461322     107.15783320
H      90.87030243      94.69513127     106.16005771
H      92.88853013      92.18179527     105.84447342
C      92.91120684      93.46869890     109.72219181
H      93.73512752      91.60164930     109.99620213
H      91.61485459      93.96947637     111.24342149
N      95.06549485      95.12598888     109.56156507
H      96.17476419      94.69324154     108.06868129
H      96.15208748      95.13732722     111.13192764
H      94.60440162      96.92878778     109.14771501
C      84.20901717      88.90689957     102.88327228
O      84.70979465      88.02061794     100.70441784
N      82.28527580      90.40167308     103.40294702
H      82.20401757      91.21614514     105.12637742
C      80.18578985      91.02339304     101.66628854
H      79.11620477      89.41901540     100.94252336
C      78.48692591      93.02083375     102.80012433
H      79.71524801      94.47592303     103.59002992
C      76.73514961      94.23592777     100.88394184
H      75.45769463      92.75438234     100.24332462
H      77.82174224      95.04473065      99.33247654
H      75.54462204      95.61731771     101.84581254
C      77.04128528      91.76416577     105.07535481
H      78.08441419      90.63788888     106.44918584
H      75.60887272      90.46214434     104.36670744
C      75.11187471      93.42145573     106.55878996
H      73.56229914      93.98081473     105.32290895
H      76.10776048      95.00126694     107.42617434
H      74.39188898      92.09297813     107.95907716
C      81.37631744      92.17990554      99.29279229
O      83.21691087      93.71247358      99.20586488
N      80.32940905      91.22181430      97.22921115
H      78.77794375      90.13522167      97.46920640
C      81.33096400      91.82274727      94.67241145
H      82.40432854      93.57830302      94.60249158
C      83.08651975      89.70814354      93.77101200
H      84.22791444      89.35476472      95.44908897
H      84.37531309      90.54718202      92.39907070
C      82.04717027      87.19480753      92.77323651
C      82.10197233      86.92079723      90.07092788
H      82.69345667      88.31163578      88.69898658
C      81.26860303      84.64934619      88.93142291
H      80.94923929      84.42257903      86.93020275
C      80.69412623      82.63111849      90.55469782
O      79.99870696      80.28596814      89.72510797
H      80.32373988      79.71338106      88.03380292
C      80.80939955      82.92213634      93.15307150
H      80.47869744      81.30642034      94.35493743
C      81.51048800      85.14067504      94.36627579
H      81.46891403      85.23138189      96.40529048
C      79.08218969      92.17612610      92.89228927
O      76.94112977      92.20069254      93.83337297
N      79.67556375      92.29895830      90.33171011
H      81.50670856      92.66745493      89.94053677
C      77.85197786      92.79595632      88.45143243
H      75.93957484      92.61454260      89.19220515
C      78.23181286      95.53605948      87.32893500
H      77.05640308      95.73637048      85.65085804
H      80.23303302      95.68534786      86.86028288
C      77.41167164      97.41822688      89.53235588
H      78.88187871      97.47680840      90.97232733
H      75.65044670      96.97036175      90.49989575
C      77.68190250     100.06762319      88.47032969
H      77.26238326     101.40176995      89.98589020
H      76.40066805     100.29250061      86.87351096
C      80.43523373     100.70068149      87.63318094
H      80.73381049      99.59897105      85.92108890
H      81.71835789     100.30194925      89.19598460
N      80.69979541     103.51637370      87.15885963
H      79.31840548     103.80172237      85.87384574
H      82.32118060     104.09085050      86.33115951
H      80.23114329     104.48202385      88.73489138
C      77.57229836      90.72670602      86.23667319
O      79.45635551      89.64767229      85.41464225
N      75.21769939      90.48104159      85.35417100
H      73.92323685      91.57519312      86.23478347
C      74.64322259      89.16201263      82.88240899
H      75.49170969      87.28551439      82.89374734
C      71.65367556      88.77083928      82.67264937
H      70.98093298      90.71914711      82.68776718
H      71.11132410      87.78440215      84.39796949
C      70.87321859      87.32708838      80.44088259
O      69.95670132      88.42690909      78.60784807
O      71.10943438      84.98949692      80.50324356
C      75.73170493      90.71536765      80.56749425
O      76.53672835      92.86587620      80.82827648
N      75.38966448      89.67223873      78.24691034
H      74.17457045      88.20581112      78.37730146
C      76.00382552      90.89678138      75.79971477
H      77.90300047      91.59786985      76.17766003
C      76.23437214      89.07508522      73.54149182
H      76.56696396      90.26750252      71.89554020
C      78.45291083      87.32708838      73.65298567
H      78.02394295      85.70192375      72.46245810
H      78.58897113      86.51261634      75.53893253
H      80.19145903      88.33242277      73.19378218
O      74.17646018      87.43858223      73.43377742
H      74.35220472      86.30852590      74.84351325
C      74.14244510      93.10209199      75.37263662
O      74.81518768      95.05795872      74.34840496
N      71.82375092      92.93957552      76.17010112
H      71.35131934      91.18024033      76.74079847
C      69.78851568      94.84819910      75.73168462
H      70.43102264      95.98959380      74.14242479
C      67.34887901      93.53861876      74.96823519
H      65.97504799      95.06929709      75.06272150
H      66.73660768      92.09675759      76.30238196
C      67.39801189      92.51249739      72.31505944
H      68.36744149      90.69836012      72.21301422
H      68.05563666      94.06018323      71.12453187
C      64.76751287      92.02494800      71.28704833
O      64.01918126      93.71436331      69.76392892
O      63.63178736      89.98026413      71.68389086
C      69.44080605      96.71335898      77.99557674
O      67.85721539      98.35742086      77.98990756
N      71.08297821      96.54895278      79.80971400
H      72.42090443      95.19590874      79.67554343
C      71.36076798      98.40088457      81.79581636
H      70.75605556     100.22447046      81.05126419
H      73.35820868      98.62576200      82.24935067
C      70.24582946      97.92089409      84.32049071
O      70.66345897      99.48369775      86.09683344
N      68.97782310      95.81384925      84.55859623
H      68.82475526      94.78583813      82.95610831
C      67.64745577      94.82552238      86.82248835
H      66.50606107      96.30139863      87.69743163
C      65.79930343      92.72981590      85.87951492
H      64.52184845      92.28006104      87.43098022
H      66.66668782      90.93646564      85.35228128
C      64.31208882      93.34208723      83.48334195
C      63.54863940      91.34653624      81.78825745
H      64.10421894      89.43035376      82.21533560
C      62.32787621      91.81707809      79.56215985
H      61.90646724      90.26183334      78.31116104
C      61.64001582      94.26238394      79.03681594
O      60.13390396      94.72725662      77.04882386
H      59.12101064      96.20880204      77.32472390
C      62.13890356      96.20313287      80.84339429
H      61.46238154      98.05695438      80.32371956
C      63.42958665      95.79873143      83.00713092
H      63.81320109      97.30673303      84.32993934
C      69.58064579      93.84097497      88.71599411
O      71.51950498      92.90556045      88.02624401
N      69.10821422      94.29072985      91.21988148
H      67.36777627      94.95213406      91.64129045
C      70.74471720      93.16256323      93.18897630
H      72.68924558      93.67278934      92.74867007
C      70.25716780      94.15655927      95.79868834
H      71.13589054      92.97359060      97.23677006
H      68.19925586      94.08097023      95.82703423
C      70.92613092      96.96280284      96.15395688
C      68.90223405      98.71268941      96.21253840
H      67.00683856      98.00026259      95.95553562
C      69.47104167     101.30917336      96.26734046
H      67.88178183     102.58851809      96.30135554
C      71.98248793     102.11419677      96.12561099
O      72.61932570     104.61430468      96.30702471
H      71.20014124     105.74247130      96.26167128
C      73.97236974     100.26037526      96.14639798
H      75.84130907     100.98791990      95.76089381
C      73.46403337      97.76026735      96.12183154
H      74.92290207      96.36942878      95.80057806
C      70.62188498      90.20703128      93.16818931
O      68.72648949      88.99004754      92.65796320
N      72.69113531      88.91256875      93.84660105
H      74.22748280      90.00294084      94.15273672
C      73.04829358      86.23104711      93.89384421
H      71.23037686      85.26161751      93.88061613
C      74.18212936      85.25594833      91.39751575
H      74.87376919      83.35677340      91.79057883
C      72.17524001      85.04807845      89.22999967
H      73.16167716      84.86288527      87.43286995
H      71.26250221      86.88867188      89.08260102
H      70.95636654      83.44748026      89.67219563
O      76.34964544      86.83009035      90.72666291
H      77.57796754      85.63200387      90.13517858
C      74.64322259      85.41090589      96.27111991
O      75.98870772      86.96426093      97.36338172
N      74.65267121      83.02418156      96.93252412
H      73.59064503      81.94892730      95.76467326
C      76.02650225      81.69759369      98.86949359
H      77.74048400      82.83898838      98.94697237
C      74.82085686      81.96404510     101.45463919
H      73.84386835      83.77440291     101.36015288
C      72.84231340      79.83999273     101.91006323
H      71.40801113      79.73605777     100.43418698
H      71.89367080      80.06109070     103.72231077
H      73.66623408      77.98806093     102.26533178
C      76.88254826      82.17002528     103.56735321
H      78.16756215      80.56375791     103.47286689
H      76.09453240      82.12656157     105.47030761
C      78.65700127      84.39990232     103.37838058
H      77.33041339      85.95136763     103.08736273
H      80.10642135      84.14856871     101.93840913
H      79.59052607      84.72871469     105.18684866
C      77.02427773      79.13512481      98.01911675
O      75.84697825      77.82176503      96.44875419
N      79.02927736      78.22805618      99.11704774
H      79.71335828      79.33543581     100.51355549
C      79.92878708      75.62212360      99.06413540
H      78.99526228      74.28797681     100.32836231
H      81.83930039      75.87723664      99.78412113
C      80.12909806      74.60545083      96.42796720
O      81.35930989      75.80353732      94.78957448
N      79.20880136      72.34722790      96.05569111
H      78.09764229      71.46283598      97.33125638
C      79.27305205      71.22850992      93.39495647
H      81.07396123      71.73117711      92.52946181
C      79.55840072      68.30510331      93.59715718
H      77.71402785      67.62291212      94.20375933
C      79.85886720      66.98796407      90.94398144
H      78.10520118      67.10323737      89.86683744
H      80.37665221      65.01320008      91.22933011
H      81.48214210      67.76464158      89.94431622
C      81.46324485      67.43771893      95.58514926
H      81.51426745      65.40059396      95.88561575
H      81.22513933      68.28620605      97.44652968
C      84.30350350      68.08589505      94.79335394
H      85.68300371      67.35646071      96.13505962
H      84.53593983      70.12490976      94.61571966
H      84.48680694      67.37346824      92.86772282
C      76.92412225      72.13179910      91.85671925
O      74.96825551      70.80143177      91.71876923
N      77.01104965      74.31254327      90.63217660
H      78.51905124      75.46527631      90.82303895
C      75.14400006      75.30653931      88.97866607
H      74.95502742      73.68137468      87.73144671
H      75.72792549      76.93170394      87.85805837
C      72.57586199      75.86589829      90.21076763
O      70.80140898      76.07376819      88.72733247
N      72.39255854      76.23628464      92.72788308
H      73.95158276      76.31376343      93.82581407
C      69.81308212      76.56131758      93.92785929
H      68.50539151      75.47094549      92.76756733
C      69.91512735      75.50874002      96.65473436
H      71.25305357      76.65013470      97.72809890
H      70.51039114      73.53964520      96.55268913
C      67.36966600      75.65046949      97.73754753
N      65.82386987      73.54720411      97.96620442
H      66.32086789      71.77086137      97.47487558
C      63.86422369      74.08766583      99.55924370
H      62.66046804      72.77997523     100.55890892
N      64.14579292      76.49895661     100.26222189
H      62.90046327      77.19815535     101.53022824
C      66.28496309      77.52507800      99.14728336
H      66.85943989      79.44126047      99.55168479
C      68.90979295      79.38645841      93.48755306
O      70.34031576      81.14579360      94.13572918
N      66.67046726      79.77763176      92.39529125
H      65.65001505      78.27529933      91.81325554
C      65.52907258      82.17758417      91.99277954
H      66.79140976      83.61755562      91.23310956
C      63.50517569      82.02262661      90.01234637
H      62.11433712      80.68281067      90.72288346
H      64.32153747      81.29130253      88.26812898
C      62.01985081      84.50005782      89.66841618
H      61.14112807      84.97626884      91.46932535
C      63.66580243      86.83764926      88.96543799
H      62.51306938      88.43068854      88.34560776
H      64.77696151      86.36143823      87.29680965
H      64.71271081      87.51417129      90.60572043
C      59.96193885      84.26573176      87.75223370
H      58.82243389      85.98160325      87.71821862
H      58.93770720      82.48560957      87.90341180
H      60.76129308      83.94636800      85.87762519
C      64.70137245      83.07142472      94.64973474
O      63.17636332      81.68814507      95.82514450
N      65.39490201      85.34476548      95.51900884
H      66.61566520      86.26695191      94.37950387
C      64.11366757      86.82253146      97.44275023
H      63.33887978      85.48649495      98.80524290
C      66.06008567      88.37588648      98.80713263
H      64.89790398      89.49838392     100.08458761
H      67.13911939      89.64011338      97.59203861
C      68.05563666      86.76772938     100.33025203
H      68.93246966      85.29185313      99.19074707
C      70.20236574      88.65556598     100.99921515
H      71.51383580      87.76928433     102.31446466
H      69.55985881      90.41301144     101.86282007
H      71.28328919      89.26783731      99.35326353
C      67.21470844      85.68680593     102.80390378
H      66.58542958      87.09654176     104.16828618
H      68.63767236      84.38100506     103.52011005
H      65.53852120      84.54919069     102.42406879
C      61.89323915      88.32108442      96.38261377
O      59.80131212      87.36299317      96.72276450
N      62.33543511      90.60954299      95.44908897
H      64.08721139      91.31630062      95.18074783
C      60.47216496      92.71280837      95.08626152
H      58.81865443      91.57519312      94.61382994
C      60.02429982      93.90711540      97.77345233