 %block lattice_cart
   135.996   0.000   0.000
   0.000 142.663   0.000
   0.000   0.000   160.158
 %endblock lattice_cart

 %block positions_abs
N      91.38619771      43.61582904      81.47739747
H      90.96289902      43.84826537      83.32366008
H      93.28537266      43.42118723      81.49251528
H      90.57928458      41.92452399      81.11268030
C      89.98780024      45.66051291      80.07711028
H      90.51881334      47.39339194      81.05409878
C      90.80416201      45.94964103      77.33322767
H      89.78182007      44.70242167      76.05199323
H      92.76380820      45.31658272      77.25952834
C      90.55660786      48.66706747      76.39214397
H      88.61963839      49.33225113      76.59623441
H      91.00825245      48.72375926      74.38147517
S      92.65231434      50.72119997      78.16470725
C      95.64942028      50.12404646      76.54710152
H      95.58139013      50.83647328      74.61580123
H      96.08027788      48.11148793      76.45639466
H      97.21978284      50.99143084      77.55999483
C      87.20423338      45.16729434      80.20750139
O      86.21401680      43.18308171      79.56121499
N      86.07228732      47.12883025      81.24496114
H      87.01715048      48.74643598      81.61534749
C      83.39265541      47.16284533      81.49818446
H      82.38921074      46.15940065      80.00530068
C      82.71046421      45.89861842      83.90191633
H      83.42856021      43.98054621      84.12868349
H      80.73381049      45.31469299      83.89057798
C      83.30950745      47.21197821      86.25840505
O      84.15610484      49.38138402      86.43981877
N      82.98258480      45.88916979      88.42214167
H      83.33029444      46.68663429      90.11911590
H      82.12086960      44.18841611      88.51473826
C      82.21535592      49.83869778      81.10323166
O      83.49470063      51.70574738      80.58544665
N      79.68690211      50.04467795      81.51519200
H      78.60408893      48.47620511      81.61534749
C      78.50015399      52.61281601      81.45472076
H      78.56062523      53.32146338      79.51964101
C      75.71658713      52.29534199      82.06699208
H      75.26872199      51.04056372      80.49662952
C      74.93613016      51.05946098      84.65024795
H      73.08986755      50.15617181      84.78063907
H      75.05896237      52.59580848      86.01652008
H      76.27027694      49.60815117      85.24551174
C      74.20669580      54.77277319      81.78164341
H      74.46369858      56.12959668      83.30854227
H      72.20925509      54.28900325      81.90825507
C      74.58275134      56.22408300      79.23807179
H      74.09898140      54.77844237      77.85290241
H      76.44224203      56.99131188      78.79776556
H      73.25049429      57.77554830      78.99429710
C      79.58485689      54.39860738      83.43704366
O      79.67934321      56.69084540      82.92303810
N      80.44846181      53.49531820      85.61589810
H      80.04595011      51.67173231      86.01274063
C      81.75804215      55.24331504      87.42058673
H      80.53727895      56.85525159      87.81364980
C      82.02260383      54.07357445      89.95281999
H      82.83140670      55.55511988      91.13389893
H      83.17911634      52.37471050      89.82242887
C      79.42045070      53.65783466      91.16413455
C      77.93134637      55.62126030      92.15057169
H      78.68534716      57.51665579      92.16568950
C      75.48415079      55.07890885      93.18047253
H      74.42023488      56.55667483      94.10076924
C      74.50149311      52.63360300      93.18047253
H      72.74404764      52.18573787      94.11399733
C      76.05484814      50.65505955      92.25261691
H      75.19124321      48.80690722      92.22994019
C      78.53605879      51.16339593      91.25862087
H      79.72469664      49.74232174      90.40257485
C      84.28838568      56.08235352      86.56454071
O      84.84018577      58.26876687      86.85744829
N      85.76993111      54.62915399      85.28330627
H      85.55072286      52.75454549      85.54975768
C      88.25303149      55.40016232      84.38379654
H      89.10151860      56.68139676      85.75384812
C      89.83473241      53.06257087      83.79042248
H      91.59217788      53.66350384      82.90036139
H      88.64609456      51.84558713      82.63202025
C      90.49235717      51.32024321      86.07510159
H      89.08073161      51.27111033      87.57365456
H      92.01736630      52.42006393      86.91602980
C      91.44855868      48.67084692      85.22661448
O      90.02370504      46.78867952      85.31732134
O      93.67087683      48.46486676      84.49906985
C      87.79949717      57.20863041      82.09722770
O      89.15821039      59.06434164      81.99518248
N      85.98158046      56.71541184      80.45505554
H      84.97435633      55.12993146      80.79331655
C      85.06884265      58.29711276      78.35934906
H      86.67133056      58.52576965      77.08756325
C      83.11864509      56.60202826      76.99307693
H      81.44245786      56.27321588      78.14580998
H      83.74036505      54.67450742      76.62080085
C      82.17945112      57.52799415      74.29832721
H      83.75548286      57.07257011      73.05299757
H      81.58229760      59.49141979      74.10935458
S      79.53005483      55.67039319      73.25330856
C      79.53383428      55.91794733      69.85747038
H      81.56906952      55.68173154      69.66471829
H      79.06329243      57.80578392      69.18094836
H      78.19023887      54.58946974      69.03543943
C      84.13909730      61.05422345      79.09256287
O      84.95167962      62.83056619      77.90959420
N      82.52338131      61.55311120      81.02953234
H      81.70890927      60.11502947      81.98384413
C      81.64654830      64.11558007      81.67014956
H      81.39332497      65.19650352      79.93349108
C      79.10297668      63.91526909      82.90225111
H      78.84975335      65.56500016      84.10600678
H      78.85920199      62.22963322      84.06065334
C      76.97703458      63.92093827      80.87079533
H      77.66678468      62.83434564      79.26263824
C      74.71692191      62.76820522      82.27297225
H      74.58842052      63.48441149      84.20049309
H      75.01927812      60.75753642      82.60367436
H      72.95380726      62.81922783      81.20716661
C      76.09453239      66.48907633      79.84278421
H      77.47214287      67.37913742      78.59745457
H      75.89233167      67.80054639      81.41881596
H      74.24260060      66.53442976      78.94138476
C      83.61564311      65.46295493      83.17626143
O      83.87075617      67.66259637      82.95327372
N      85.11419608      64.07967527      84.72583701
H      85.08585019      62.17483116      84.61056370
C      87.53304576      65.12469393      85.84455498
H      87.17399776      66.75741747      87.04453119
C      88.98246584      63.20473200      87.43570454
H      89.82906323      61.90649002      86.08077077
H      87.44233890      62.34868598      88.50339991
C      90.91943531      64.15148487      89.35755620
H      89.90654201      65.48752138      90.55564268
H      92.21011839      65.27776176      88.21427178
C      92.38964239      62.00853524      90.85988862
H      93.48379392      62.87591962      92.37355939
H      93.74457615      61.17894539      89.54841856
N      90.55849759      60.25675895      92.19592512
H      90.44133456      58.47474704      91.51940310
C      89.28860151      60.87847891      94.25005762
N      89.40387481      63.18394501      95.30263518
H      88.33428972      63.54488273      96.84087240
H      90.28070782      64.63525481      94.42580217
N      88.01492597      59.17016632      95.38578314
H      86.89998745      59.75031230      96.82197514
H      87.33273477      57.74720240      94.31430832
C      89.27159397      66.28309616      83.81309920
O      90.26936946      68.24652180      84.44426779
N      89.58339881      65.29287957      81.56621461
H      88.79349321      63.55811082      81.59456051
C      91.17265864      66.14325641      79.40436771
H      93.00569316      66.86702159      79.99774177
C      91.73768681      63.94928416      77.61101744
H      89.96890298      63.02331827      77.10457079
C      93.14553291      64.76186648      75.08256363
H      93.90331316      63.12725322      74.08478814
H      94.62140916      66.18294067      75.28476435
H      91.72634845      65.44594740      73.75408603
C      93.54048571      62.06333730      78.99429710
H      92.69955750      61.56822901      80.80843436
H      95.41320449      62.91938332      79.07366560
C      94.32850158      59.50842733      77.85857158
H      92.56349721      58.50309293      77.52409003
H      95.30360036      58.41427579      79.30610194
H      95.24501885      59.71629722      76.02553706
C      89.79504816      68.17282246      77.88313803
O      91.05549561      70.00207754      76.90425980
N      87.32517587      67.96684231      77.76030582
H      86.43322505      66.32278041      78.14014081
C      85.70379069      69.76208229      76.31088573
H      86.76203743      70.31010292      74.63091904
C      83.23202867      68.48084786      75.45294999
H      81.81473394      69.97562138      75.38303011
H      82.70101558      67.09378875      76.87969335
C      83.64020956      67.24307713      72.93394481
O      84.95545907      68.38636154      71.26153703
O      82.22669427      65.40248370      72.43694679
C      85.07451183      72.25274158      77.63369415
O      85.37308859      74.28986654      76.49607891
N      84.54916791      72.26785939      80.12246371
H      84.27704732      70.56899544      80.94638438
C      83.90288151      74.52230289      81.68904682
H      83.38509650      75.97928187      80.32844388
C      81.64843802      73.99506924      83.49562518
H      81.33474346      75.78464006      84.46694450
H      82.36086484      72.88013072      85.07354665
C      79.22769862      72.98217594      82.29753869
H      78.09008338      72.55887724      83.96427730
H      79.82674186      71.40614419      81.11457002
C      77.83308060      75.02685981      80.67237406
O      78.31118135      77.28319303      81.04276042
O      76.16445226      74.27474874      79.16059301
C      86.23669351      75.60133661      82.83989015
O      86.51070383      77.93703833      83.17248198
N      88.13586846      74.03853295      83.37279297
H      88.15854517      72.28108747      82.62824080
C      90.24669275      74.90213787      85.26818846
H      91.40131552      76.41769838      84.48584176
H      91.54871418      73.31665750      85.45149191
C      89.37174946      75.20638381      87.92325393
O      87.06061418      75.24795779      88.54686361
N      91.08951068      75.79597842      89.62022816
H      92.90742740      75.95849488      89.06275889
C      90.42243729      76.45927235      92.36789022
H      88.42310686      75.97550241      92.47182516
C      91.89264437      74.72261386      94.13667404
H      93.93165906      74.66403236      93.85888428
H      91.06305451      72.87446153      93.76439796
C      91.54115527      75.06276461      97.09220600
H      91.55438336      77.04508750      97.64778553
C      88.91632542      74.23317475      97.98982600
H      88.48924728      75.11567695      99.80018380
H      88.59129250      72.19982925      98.05029724
H      87.53304576      74.88135088      96.61032579
C      93.63686175      73.70783084      98.70036309
H      95.42454284      73.87034730      97.68935951
H      93.13797401      71.72172848      98.91957134
H      93.74835561      74.58088439     100.56174351
C      90.73235241      79.27496455      93.07275813
O      92.91687603      80.30297567      92.78551973
N      89.06372408      80.27462977      94.53729602
H      87.57461974      79.20126523      95.06075021
C      89.13742340      82.80875277      95.69947771
H      91.17076891      83.09599117      95.86955307
C      87.85996841      84.66257427      93.84187674
H      87.23446900      86.31608479      94.89634402
H      86.19889898      83.72904948      93.05953005
C      89.72701801      85.29941204      91.81042095
H      90.63597637      83.70637276      90.87122698
H      91.17643809      86.49182935      92.65512862
C      88.43444521      86.77150884      89.67314049
H      89.86874748      88.10187616      89.02874382
H      86.68266892      87.65023157      90.30808853
N      87.76359237      84.98949692      87.64924361
H      87.13809296      83.27740489      88.21238205
C      87.22124092      85.49027441      85.26251928
N      87.30816833      87.78251242      84.49529040
H      86.38220244      88.51194678      82.99673743
H      87.72768757      89.12232837      85.78975292
N      86.50125519      83.50039259      83.96616703
H      85.77182084      83.83865360      82.23517773
H      86.63353604      81.72027041      84.64457877
C      88.09618420      82.74450207      98.36966099
O      86.57873397      81.21571349      99.10287480
N      89.01081174      84.45092493     100.02128178
H      90.24480302      85.86632994      99.69057968
C      88.37208424      84.23738586     102.86531988
H      86.88675936      82.83709866     103.13933020
C      90.80794146      83.61188645     104.40733656
H      90.39598113      83.69881385     106.42367453
H      92.20444921      85.12555722     104.35631395
C      91.93043889      81.01162304     103.65522548
H      92.20255948      80.79052506     101.62565942
C      94.58361464      80.65068532     104.71914140
H      95.39619695      79.00851314     103.77238851
H      94.70266739      80.67714148     106.77516363
H      95.87807716      82.12089238     104.08608308
C      90.29771536      78.88757066     104.49993315
H      91.20478399      77.09799985     104.03128102
H      88.47790892      78.94048301     103.53617273
H      90.35251742      78.97260834     106.55784510
C      87.20990256      86.72993487     103.85364675
O      85.95512429      86.75261158     105.84730801
N      87.40643410      88.65367625     102.35887323
H      88.20956778      88.44958580     100.64300174
C      86.00992635      91.11409991     102.80862810
H      84.90632619      91.00260606     104.54339685
C      87.87319650      93.25893928     103.30940557
H      86.85652374      95.04851010     103.34720009
H      89.13742340      93.40444820     101.68991012
C      89.39064673      92.96981114     105.75849087
H      90.63408664      91.34464651     105.52038535
H      88.19256025      92.92823717     107.43278838
C      90.97423738      95.39810947     105.89077171
H      89.70245157      97.00626655     106.07785462
H      92.16665468      95.64188416     104.22781256
C      92.48601843      95.43212454     108.31529057
H      94.24157417      94.35875999     108.19434809
H      91.45422786      94.68379291     109.93100657
N      93.17954799      98.12876399     108.85008312
H      94.37952419      98.78071956     107.51593634
H      94.05071182      98.22702976     110.54705735
H      91.70934091      99.33818883     108.97291533
C      84.34129802      91.69235617     100.47670582
O      84.56239600      90.34120185      98.59831787
N      82.65377242      93.56129549     100.75260587
H      82.64054434      94.45513603     102.43824174
C      80.49570497      93.89955650      99.12366178
H      79.54895209      92.07408087      98.99327067
C      78.61164784      95.82707734     100.24804894
H      79.63210005      97.42389607     101.05685180
C      76.76727496      96.98547956      98.26950549
H      75.87343441      95.47558824      97.18858204
H      77.70646893      98.25159619      96.94858680
H      75.19502266      97.94168107      99.19547138
C      77.34364148      94.37576753     102.47225681
H      78.88943761      93.61420782     103.60231315
H      76.11153993      92.86587621     101.80896288
C      75.92067757      96.05762395     104.27127626
H      74.90589454      95.02961283     105.73959361
H      74.43724241      97.23681317     103.46625285
H      77.30584696      97.27460769     105.19346270
C      81.37253798      94.76127170      96.29852095
O      82.84463478      96.56407060      96.10954832
N      80.43145428      93.45547082      94.31619804
H      79.13888148      92.07219115      94.54674465
C      81.07585095      94.28317094      91.68947847
H      81.87898463      96.17856643      91.76128807
C      82.89943684      92.44824669      90.39501595
H      84.78349398      92.68068303      91.19059072
H      83.03360741      93.37421258      88.55820197
C      82.14354632      89.73459970      89.84132614
C      81.60119487      88.92201739      87.33365932
H      81.57473870      90.31852514      85.84455498
C      81.25915440      86.35576905      86.62312222
H      80.90766531      85.89656555      84.66536576
C      81.17600644      84.54541124      88.55442252
O      80.87365023      82.10388485      87.99884298
H      80.79239200      81.79774919      86.21305161
C      81.47080375      85.28807369      91.12822975
H      81.52560581      83.74038784      92.45481763
C      82.06984699      87.81463777      91.67436066
H      82.30795251      88.19636249      93.66613219
C      78.56440468      94.44001822      90.13234399
O      76.66522974      93.68790714      91.09799413
N      78.88187870      95.23937245      87.72294294
H      80.65633171      95.71369376      87.20893738
C      76.73514961      95.02772311      85.84266526
H      75.19880212      93.92601267      86.66658593
C      75.66178506      97.57885362      84.78063907
H      74.22559307      97.30673304      83.32932926
H      77.08852843      98.78071956      83.90380606
C      74.32385883      98.99236891      86.74595443
H      75.60698300      99.10953194      88.35411153
H      72.74404764      97.91711464      87.51129359
C      73.56985804     101.66822136      86.09588858
H      72.11665850     101.52460217      84.64457877
H      75.12132334     102.60930508      85.12078981
C      72.51917021     102.87386675      88.54119443
H      73.88166288     103.01937568      90.07754192
H      70.90156448     101.80050221      89.23472399
N      71.53273307     105.43444591      87.72294294
H      71.07730903     106.47001593      89.26118016
H      70.05874655     105.16232532      86.53997427
H      72.74971682     106.65142966      86.89713254
C      77.66111550      93.41956602      83.57310396
O      79.89288228      93.46302972      82.89091276
N      75.82052207      91.97770483      82.51485722
H      74.11409921      92.08163978      83.35956488
C      76.22303378      90.49804914      80.31899524
H      78.13165735      89.75349697      80.09789727
C      74.22181361      88.48738034      80.25852400
H      72.33964621      89.32452910      80.26986236
H      74.22181361      87.38944935      82.00274139
C      74.39755816      86.66946362      77.99274215
O      72.70625311      87.14189520      76.50174809
O      75.92634675      84.85154690      77.95494763
C      76.02461252      92.16100829      77.93227091
O      75.59564464      94.44379768      78.10234628
N      76.40633723      90.93835537      75.74207811
H      76.68790645      89.05051878      75.77042401
C      76.35909407      92.15155965      73.21551403
H      77.51938603      93.84853388      73.08323319
C      77.57796754      90.46214434      71.31633909
H      77.27372161      91.37299241      69.49275320
C      80.42578510      90.22970800      71.86058027
H      81.39332497      91.01961360      70.22218755
H      80.78483310      88.25305428      72.31033513
H      81.11175575      91.32952871      73.46117845
O      76.41200641      88.03762547      71.33334663
H      77.33608258      86.84142872      70.33179168
C      73.76449985      92.93201663      72.45962351
O      73.49048953      94.94079569      71.13870482
N      71.72737488      91.96258703      73.75030658
H      72.08831261      90.29395869      74.60257315
C      69.01561762      92.69013166      73.36669214
H      68.81341691      93.38177149      71.43917130
C      67.23927489      90.45458543      73.92416140
H      67.32620230      90.31474568      75.97640418
H      67.92146609      88.75761120      72.98118797
C      64.45570803      90.69836012      73.24197020
H      63.72816340      92.35942955      74.21895871
H      63.35210785      89.09587221      73.92605113
C      64.13067510      91.11787936      70.43761635
O      65.21348828      89.69302573      68.91449695
O      62.93258862      92.96036252      69.63448267
C      68.34287505      95.12220942      74.96540060
O      66.36622133      96.35809043      74.87847319
N      70.09654107      95.82707734      76.67371319
H      71.79540503      94.96158268      76.60001386
C      69.83386911      98.05506465      78.32155453
H      68.74727648      99.63865531      77.57889209
H      71.75761050      98.65977707      78.73729432
C      68.51672987      97.41444743      80.90103095
O      67.55296945      99.09630386      82.08588935
N      68.08209282      95.09953271      81.66448038
H      68.92869021      93.58586193      80.86701587
C      66.78574057      94.43434905      84.02096909
H      65.37033555      95.79873144      84.63324042
C      65.12467113      92.07786033      83.54853751
H      64.04563742      91.77928357      85.27763709
H      66.26417611      90.44702652      83.01185524
C      63.21982702      92.43312887      81.39613924
C      62.37700908      90.23159773      80.32466442
H      63.27840853      88.48360089      80.86890560
C      60.26996424      90.22970800      78.70894843
H      59.52730179      88.56296939      77.79054144
C      59.05675995      92.52572546      78.06833121
O      56.88735414      92.60320425      76.70016935
H      56.63602054      94.25293532      75.98774253
C      59.96193885      94.78961759      79.12279849
H      58.82054416      96.45257675      78.81477310
C      62.05953505      94.71591826      80.67993297
H      62.63401185      96.48659181      81.51519200
C      68.72271004      93.85042361      86.11289612
O      70.76550419      92.86587621      85.59889056
N      67.99327569      94.30395792      88.49962045
H      66.38889805      95.26015943      88.89835271
C      69.78095678      94.01671953      90.57453994
H      71.60643240      94.76127170      89.97927616
C      68.95514638      95.25826972      92.94803619
H      69.72426499      94.04695514      94.42769190
H      66.92747004      94.91433953      93.06330950
C      69.82819994      97.91900437      93.36944516
C      68.16902023      99.85408410      93.84376647
H      66.15835144      99.67644983      93.54707944
C      68.95703611     102.25592625      94.47493505
H      67.52273383     103.68455934      94.73571729
C      71.57808650     102.77371125      94.67524604
O      72.36421265     105.20200958      95.09476529
H      71.16045699     106.34907345      94.37477956
C      73.39033404     100.73280684      94.42013299
H      75.40478229     101.05972949      94.39556655
C      72.48326541      98.38576676      93.63022739
H      73.76638957      96.86831653      93.16157527
C      70.27417535      91.26338828      91.24728251
O      68.58287030      89.85554219      92.02018057
N      72.63822296      90.52261558      91.29263594
H      74.05362797      91.80385001      91.26429005
C      73.60954229      87.92424189      91.54585927
H      71.97870848      86.77717803      92.06364428
C      74.76794452      86.81497255      89.21393700
H      76.64444275      87.59920897      88.88890407
C      74.98904250      83.92180157      89.19503974
H      73.10498536      83.09788088      89.06842807
H      75.94335428      83.19425693      90.86933725
H      76.16823172      83.43047272      87.57932374
O      73.19380250      87.36677263      87.12389970
H      73.46592309      89.06941604      86.55698180
C      75.49737887      87.78629188      93.94770141
O      76.64633247      89.65712093      94.64690015
N      75.76760974      85.62066552      95.19681051
H      74.75093698      84.10699474      94.62800289
C      77.90489020      84.95170240      96.80307787
H      79.48848085      86.16301696      96.28718259
C      76.96569622      85.58287100      99.48648924
H      75.91689812      87.34787536      99.33342141
C      75.33108296      83.59109946     100.79229012
H      76.41956532      81.84310261     100.75638532
H      73.69835942      83.51173096      99.53940157
H      74.81518768      84.26573176     102.66878835
C      79.22013971      86.33687178     101.03417509
H      80.25193028      87.87510901     100.13088591
H      80.49570497      84.72115580     100.96047576
C      78.84975335      87.20047672     103.70057891
H      80.60908855      88.09431727     104.29017352
H      78.33574780      85.79829979     105.12165310
H      77.36064902      88.59887418     103.94813306
C      78.85731226      82.11144376      96.34198465
O      77.77638881      80.79619424      94.80374743
N      81.00782080      81.37256077      97.54763004
H      82.05850863      82.44970477      98.72303981
C      81.63709967      78.57954528      97.65534444
H      79.94768434      77.56287252      98.25060823
H      83.09029920      78.13545960      99.04429328
C      82.40999773      77.41736360      95.11933173
O      83.98036029      78.24506372      93.82864866
N      81.07396122      75.38590781      94.48627341
H      79.79083706      74.93426322      95.82230992
C      81.14388110      73.87034730      92.24316828
H      82.46479979      74.87379198      91.02051535
C      82.12086960      71.00552222      92.39434638
H      80.95868792      69.84334053      93.63400685
C      82.25126072      70.13435839      89.65235350
H      82.76904573      68.14258685      89.52007266
H      83.73658560      71.30976814      88.84355064
H      80.61853718      70.39325089      88.42403140
C      84.69089739      71.15292086      93.82486920
H      84.34129802      72.04109224      95.65034482
H      85.96268320      72.40391969      92.79307864
C      86.23669351      68.60934925      94.21982200
H      85.88709414      67.08056065      92.88756495
H      85.52237696      67.85723818      95.99805446
H      88.22090614      69.01186096      94.59209809
C      78.58141222      74.20104940      90.84099135
O      76.97703458      72.48328818      90.98839001
N      78.14299571      76.43470591      89.69392748
H      79.61320278      77.64979992      89.64479460
C      75.99248717      76.86934297      88.28230193
H      75.69013096      75.28197285      87.00484694
H      76.41011668      78.48694869      87.07665654
C      73.67379298      77.41547386      89.77707544
O      71.63288856      77.51940881      88.64323965
N      73.79662519      78.00695821      92.15624087
H      75.49359942      78.21104865      93.00472798
C      71.46281320      78.38868292      93.56597670
H      70.17590958      76.95438065      92.84221152
C      72.00705437      78.00884792      96.54796482
H      73.12955180      79.55464406      97.32086288
H      72.83664423      76.14557779      96.82386486
C      69.42190878      77.94081779      97.86510406
N      67.96115034      75.77141198      98.19580617
H      68.29941135      74.20104940      97.16401560
C      65.74450137      76.52163332      99.14633850
H      64.14390318      75.25740641      99.21625837
N      65.61977943      79.10677892      99.49215842
H      64.05130659      80.17069482      99.72081530
C      67.91768663      79.98172220      98.58320006
H      68.51106070      81.91302250      98.29596166
C      70.23071164      80.95871071      92.90646222
O      70.97148435      82.83331921      93.90612743
N      68.36744150      80.97382852      91.13200921
H      67.91012773      79.41480431      90.13234399
C      66.85943990      83.26795626      90.52540706
H      68.33531615      84.63233866      90.07376247
C      65.38545337      82.86544456      88.01962997
H      63.83587780      81.63145327      88.58465814
H      66.74983577      82.01506772      86.73461608
C      64.41980323      85.42602371      86.81587431
H      66.15457198      86.34065125      86.18470572
C      62.68692420      84.68147154      84.50851848
H      63.82453944      84.00305980      82.92870728
H      61.41324866      86.09498683      83.72050261
H      61.39246166      83.18858776      85.08677473
C      63.06864891      87.37244180      88.46938483
H      64.38578815      88.62722009      89.43503498
H      61.78174528      86.39167385      89.74306037
H      61.95748984      88.63855843      87.28641616
C      65.23994445      83.85377142      92.84599097
O      63.42958664      82.46482257      93.31653282
N      65.91079729      85.79263062      94.25761653
H      67.37911463      86.85276708      93.65479383
C      64.60310668      86.73371432      96.52150865
H      64.09099085      85.11421886      97.68746979
C      66.16968979      88.66501461      98.03895888
H      65.00372866      89.17902016      99.65845433
H      66.47393573      90.29017924      96.81063678
C      68.64712099      87.62755487      99.10098507
H      69.54663071      86.31419508      97.79329446
C      70.25149863      89.80451958      99.63010844
H      70.51039113      90.91945810      97.91801640
H      72.09587151      89.16012291     100.27828456
H      69.51828482      90.90434029     101.20991963
C      68.12744625      86.19703205     101.58030599
H      67.65312495      87.47259730     103.12988157
H      69.68647046      84.88367225     101.88644165
H      66.50795080      84.96115104     101.28550869
C      61.92725422      87.80518914      95.86955307
O      59.99595393      86.99071710      96.71615046
N      61.91213640      89.67601819      94.17257884
H      63.55241885      90.38466555      93.50361573
C      59.50273535      91.12921772      93.57164588
H      58.01363103      89.71192299      93.42235750
C      58.70149140      92.90745018      95.69002907