 %block lattice_cart
   135.996   0.000   0.000
   0.000 142.663   0.000
   0.000   0.000   160.158
 %endblock lattice_cart

 %block positions_abs
N      90.97423738      41.89239864      82.95421859
H      90.44133455      40.50722925      81.75235265
H      91.11218739      41.31225266      84.76835585
H      92.82238971      42.21932129      82.60839868
C      89.48513304      44.25833598      82.47989729
H      89.94433654      45.93452322      83.58349745
C      90.47345990      45.30524436      79.98545856
H      90.74747023      43.81802975      78.58895080
H      92.35184786      46.10459859      80.26324831
C      88.92010487      47.34236932      78.81382824
H      87.11730597      46.55813290      78.19399800
H      89.88764475      47.84881597      77.06583140
S      88.07161776      50.26766565      80.56182508
C      91.16887918      51.78700561      80.74134908
H      92.41420883      50.97631302      79.31271598
H      92.21767730      51.32780212      82.45155139
H      91.03092917      53.82979975      80.50891273
C      86.66566138      43.94275169      82.49501509
O      85.56773039      42.34215350      81.06449228
N      85.14254198      45.21642722      84.10128246
H      85.87764551      46.40128562      85.40330388
C      82.39865937      45.44319438      83.98978861
H      81.61631268      44.92351964      82.15675409
C      81.34608182      43.79346331      86.18187114
H      81.74481406      44.56069219      88.05081046
H      82.26070934      41.94909042      86.10250262
C      78.46991836      43.19442007      85.99667795
O      77.05640308      44.12227568      84.39419004
N      77.69891003      41.52012255      87.70310081
H      75.94902346      40.79446765      87.47066448
H      78.84597390      40.94186630      89.11472636
C      81.58229760      48.28534275      84.09939273
O      83.16966770      49.99932452      84.43198457
N      79.13699175      48.82202503      83.86317695
H      78.02016350      47.29701589      83.60050499
C      77.84252922      51.27111033      84.05214958
H      78.56440468      52.25565774      82.39296988
C      74.95691715      51.01977673      84.06348793
H      74.60731778      49.89161012      82.37596233
C      73.90056015      49.46453197      86.44454309
H      73.79284574      50.81190683      87.99789811
H      74.94935824      47.69952760      86.61461845
H      71.99382630      48.75588460      86.10439236
C      73.48104089      53.56712780      83.92742764
H      74.25204924      55.01654788      85.17086756
H      71.47415155      53.30256611      84.30726263
C      73.72859504      54.87670813      81.34606150
H      73.17112579      56.85525158      81.19677311
H      72.66656885      53.71074700      80.02514281
H      75.69580013      54.83891361      80.73756963
C      78.71558278      52.77344275      86.35194650
O      78.80628964      55.02032733      86.29336498
N      79.51682675      51.43929597      88.39474064
H      79.62265141      49.53445185      88.33237967
C      80.36153441      52.52588860      90.72477319
H      79.11431504      53.94129361      91.54680414
C      80.77538447      50.42073349      92.54268991
H      81.17222700      51.18607264      94.41540868
H      82.33818813      49.25288262      91.88128570
C      78.57385331      48.66706747      92.93197353
C      76.21358514      49.68562995      93.50834004
H      75.91878784      51.70385765      93.57825992
C      74.12354785      48.04345778      94.00155862
H      72.36421264      48.79934831      94.70831625
C      74.39188898      45.36760533      93.75967365
H      72.72515037      44.26022571      94.14895727
C      76.68601673      44.41896272      93.27779344
H      76.87876880      42.39128638      93.37605921
C      78.73636978      46.00066364      92.67497074
H      80.57318376      45.16729434      92.35560700
C      82.97313616      53.76554906      90.43375534
O      83.30761773      55.94440350      91.19531504
N      84.65121313      52.66572835      88.91630511
H      84.26003979      51.15961647      87.81459467
C      87.03037856      53.85436620      88.03758237
H      87.86374786      55.09213693      89.45865656
C      88.93144324      51.75299054      87.49523092
H      90.57928458      52.49376325      86.50501433
H      87.90532185      50.36971088      86.37084377
C      89.84985022      50.20719441      89.50778945
H      88.12264038      49.92562519      90.59816153
H      91.05738533      51.23520553      90.82114922
C      91.00258327      47.64850498      88.80103181
O      89.58906799      45.82869855      88.22844473
O      93.42143296      47.25544191      88.82748797
C      86.73936072      55.47575137      85.67920394
O      88.22657532      57.15949752      85.21811072
N      84.80239124      55.00520952      84.15797425
H      83.79138767      53.44618531      84.59261131
C      84.11264114      56.46596796      81.82038281
H      85.89465304      56.47541659      80.78670251
C      82.26259907      55.11859310      80.23301269
H      80.59775020      55.78188704      81.24401628
H      82.37598266      53.06257087      80.30293257
C      81.99803739      55.89527061      77.50802735
H      83.59485612      54.91261293      76.65009161
H      82.46102034      57.89649078      77.37952596
S      79.02360817      54.82190607      75.83184012
C      80.23681246      54.66316906      72.73268897
H      82.08118534      53.75232098      72.61930539
H      80.45035155      56.58502072      72.02404159
H      78.84786363      53.77688742      71.49680796
C      83.46257528      59.20418139      82.49312536
O      84.51326312      60.96540631      81.38952520
N      81.80906477      59.70117941      84.28458592
H      80.80939955      58.23286206      84.98378465
C      81.20057288      62.32034008      84.96488738
H      81.14577082      63.29543886      83.15075013
C      78.54361769      62.52820997      86.07415674
H      78.34141698      64.52187123      86.55036777
H      78.28661492      61.48130160      87.83349193
C      76.13043719      61.87247494      84.35639552
H      76.24193105      60.14148564      83.24712616
C      73.91567795      61.49641941      86.24423210
H      72.23949072      61.17894539      85.08960932
H      73.61143202      63.31811557      87.15885963
H      74.29929239      59.88070341      87.46121584
C      75.60131383      63.79810606      82.27958630
H      74.08764304      63.08945869      81.07583064
H      77.26805244      64.08345473      81.10417652
H      75.02872675      65.51964673      83.25279534
C      83.36619925      63.60535397      86.44454309
O      83.62698147      65.96751186      86.46910954
N      84.91199536      62.13514690      87.79758713
H      84.26192952      60.34935553      87.62751177
C      87.28360188      62.80788947      89.06370376
H      86.88864908      64.46706917      90.22021627
C      88.22468559      60.75753642      90.91941499
H      90.13897834      61.22240909      91.52034796
H      88.67066100      58.92072244      90.10494295
C      86.44645313      60.60257886      93.27023454
H      84.49625557      60.27376648      92.69197827
H      86.36330517      62.48096682      94.10927301
C      87.07384226      58.45773950      95.12594578
H      89.12041586      58.28388467      95.27145470
H      86.58062370      56.66249950      94.24344359
N      85.67355507      58.70340392      97.50322148
H      84.54916791      57.23697630      97.98132222
C      86.06283869      60.33234800      99.40617587
N      88.27192876      61.43783789      99.77656223
H      88.58373359      61.95751263     101.58692004
H      89.77048172      61.17516593      98.62382917
N      84.35452611      60.78777204     101.03700968
H      84.39987953      62.18994896     102.33336193
H      82.58763201      60.08668358     100.85370622
C      89.36041110      63.55244164      87.21555143
O      91.31060867      64.38014176      88.15474540
N      88.97490693      63.29165940      84.71544352
H      87.40076493      62.39025995      84.12017972
C      90.45834209      64.52187123      82.73123089
H      91.73957653      65.69917073      83.83672078
C      92.21011839      62.64348328      81.26669299
H      93.30615964      61.69862012      82.73123089
C      90.67944008      60.71596244      79.70766878
H      91.96445397      59.90338012      78.31871994
H      88.99191448      61.68350231      79.03114677
H      90.20511876      59.41394101      81.23078820
C      94.28125843      64.09668281      79.93632566
H      95.25635721      65.44027822      81.15519914
H      93.52347817      65.28154121      78.43021380
C      96.48278958      62.14459553      79.27681118
H      95.67020727      60.89926589      77.85006782
H      97.12340681      61.08634880      80.92276281
H      98.07771858      63.06111279      78.35084529
C      89.07128298      66.68371814      81.21189093
O      90.19567014      68.57533418      80.49001548
N      86.57306479      66.20561738      80.55237645
H      85.85307907      64.47084862      80.89630664
C      85.06506319      68.11802041      79.04815430
H      86.32362093      68.45628142      77.45322529
C      82.73692039      66.55710647      77.88408290
H      81.30828729      67.93093750      77.32094444
H      81.98291959      65.45728576      79.45444545
C      83.36430952      64.98485418      75.50680718
O      85.38064750      65.37980698      74.42021456
O      81.74859351      63.42582997      74.59973856
C      84.06350826      70.48395775      80.28592504
O      84.57373435      72.60423067      79.42043039
N      83.12242455      70.20994744      82.66698018
H      82.78227381      68.42793552      83.26224398
C      82.77471490      72.33211009      84.43576402
H      82.62164707      74.11034255      83.40964263
C      80.39932893      71.97117236      86.15163551
H      80.02327340      73.57555000      87.38562680
H      80.77538447      70.48773720      87.53113572
C      77.92000800      71.38724693      84.87984970
H      76.53483862      70.92993316      86.33304924
H      78.02583268      69.61846310      83.83105160
C      77.01860856      73.80987606      83.46633442
O      75.32352405      73.52074794      81.81849308
O      78.00504569      75.98306132      83.67798377
C      85.18789540      72.64769438      86.02124439
O      85.99858799      74.88890979      86.32171088
N      86.25559078      70.58411325      87.10972675
H      85.35797077      68.93249245      86.78280410
C      88.30216438      70.76363725      88.97677635
H      89.90087284      71.93337783      88.41174817
H      89.02781927      68.86446230      89.30936818
C      87.26281490      71.64991889      91.59404729
O      85.19734404      72.37935324      91.95498502
N      89.08640080      71.95038537      93.30991879
H      90.75313940      71.07166263      93.00945230
C      88.69711718      72.86690263      95.92907946
H      86.70912510      72.86501291      96.46387200
C      89.92165982      70.77875506      97.57881053
H      91.93043889      70.65214339      97.13850430
H      88.90498707      69.09311918      96.97409810
C      89.85740913      70.88835918     100.41340000
H      90.67755035      72.60045122     101.21464395
C      87.13242379      70.66537148     101.60959675
H      86.07795651      69.21406167     100.59859318
H      86.25181133      72.52297244     101.72298033
H      87.33084505      70.29498512     103.62593473
C      91.36352100      68.63958487     101.50377208
H      91.79815806      69.18571577     103.44074155
H      93.04726714      68.48273759     100.32836230
H      90.36385578      66.83867569     101.55290496
C      89.82339405      75.54464482      96.40529049
O      92.10051427      75.95282570      96.76622821
N      88.20767806      77.42303277      96.61316038
H      86.42188669      76.83910734      96.28245827
C      88.50436509      79.90046397      97.89817428
H      90.51881334      80.09699551      98.28367843
C      87.67666497      81.90168413      95.99333015
H      87.15132105      83.55708438      97.09882004
H      86.07606678      81.23461075      94.88217108
C      90.00102832      82.17569445      94.18486207
H      90.66243253      80.28974759      93.68975377
H      91.49391212      83.18480830      95.18263755
C      89.57395019      83.44181108      91.73010758
H      91.32383674      83.59487891      90.65485331
H      88.84262609      85.30130177      92.22899534
N      87.75792320      82.12089239      90.15596557
H      86.87164155      80.60533188      90.90996637
C      86.98313540      82.42324860      87.87317619
N      87.76926155      84.19392215      86.45777118
H      86.80739085      84.79863457      84.92142367
H      89.35663166      85.14634421      86.92264384
N      85.19923377      80.96815934      86.96421783
H      84.54349874      81.41791420      85.22755935
H      84.75514809      79.31842826      87.81081522
C      87.01337102      80.15557702     100.43229726
O      84.67766930      80.06487016     100.49465823
N      88.37586369      80.50706612     102.55823935
H      90.25803111      80.20282018     102.49776811
C      87.40643409      80.26329142     105.23220210
H      85.76615166      79.01796178     105.27566580
C      89.33206522      78.88379121     106.95563248
H      88.65365347      79.27874401     108.86047661
H      91.07628259      79.97416330     106.89327153
C      89.94811599      76.03030448     106.33958172
H      90.08795573      75.76763252     104.30056701
C      92.33106088      75.00985227     107.74364836
H      92.86963287      73.09933897     107.19562774
H      92.06271974      75.21205299     109.77699388
H      93.93165905      76.23817437     107.33168803
C      87.76170264      74.33333025     107.13704621
H      88.17555271      72.36045598     106.70807835
H      85.96646264      74.73773168     106.21297005
H      87.49714096      74.56009741     109.16850201
C      86.91699499      82.89379045     106.34714062
O      85.71134960      83.20748502     108.31434571
N      87.76737182      84.86288527     105.02244248
H      89.22435081      84.55108043     103.83002516
C      86.77337578      87.46692813     104.98653768
H      85.80583592      87.73715899     106.78366740
C      88.96356859      89.36988252     104.93551507
H      88.36830480      91.27661637     105.43440281
H      89.73835637      89.54562707     103.03256067
C      90.91565587      88.50249815     106.80256465
H      91.82272450      86.78095747     106.12415291
H      90.21456740      87.99038231     108.67150399
C      92.78459519      90.64166833     107.31657021
H      93.88630563      90.52639503     109.05322870
H      91.75091489      92.39722408     107.63215451
C      94.64786533      91.11598964     105.24543017
H      93.49891173      91.57897258     103.59947856
H      95.61918465      89.33964690     104.87126437
N      96.17476419      93.39310984     105.75376655
H      95.21856268      95.02016420     105.46841789
H      97.48245481      93.63688454     104.38371498
H      96.86640402      93.25138037     107.52632983
C      84.74003027      87.97526450     102.93807435
O      85.01026113      86.95670202     100.87827266
N      82.97502590      89.64578257     103.33113743
H      83.18667525      90.49615941     105.02622193
C      81.01726944      90.43568816     101.68140634
H      80.17256178      88.68202215     101.00299460
C      79.20124245      92.17612610     103.13082644
H      78.72314169      91.07441566     104.80323422
C      80.22358438      94.64788812     104.09269713
H      80.12153917      96.17478698     102.71319691
H      81.97914013      94.37765725     105.13393633
H      78.87054034      95.17323203     105.55534529
C      76.70302426      92.38777545     101.76644404
H      76.76349550      90.75883136     100.50977604
H      76.84286402      94.14333119     100.69685895
C      74.35598418      92.96225224     103.47286689
H      73.70780806      91.44102256     104.70307872
H      72.83664423      93.72003250     102.30879549
H      74.82841577      94.63654976     104.57268760
C      81.83363121      91.69802534      99.20208543
O      83.35297115      93.37232285      99.34003544
N      80.81128926      91.07441566      96.88150151
H      79.27305205      89.95002850      96.89661933
C      81.51615718      92.05518361      94.51556418
H      82.82006834      93.62743591      94.78957449
C      82.97502590      90.09553743      93.10393862
H      84.36397473      89.46247911      94.48532855
H      84.05028017      90.97426016      91.58081920
C      81.82985175      87.52173019      92.31214329
C      81.31584619      87.07953423      89.64384974
H      81.71646818      88.59131528      88.33237967
C      80.54294814      84.67013318      88.92764347
H      80.09697273      84.46037356      86.94721028
C      80.30673235      82.66891302      90.72477319
O      79.37698699      80.29352704      90.12950939
H      78.78361293      80.15368729      88.41930708
C      80.76404611      83.10732952      93.26078589
H      80.77160502      81.49539298      94.51178472
C      81.52182636      85.49594358      94.05258122
H      82.15866413      85.77562308      95.97065344
C      79.09163833      92.96225224      93.01134203
O      76.94301950      92.29706858      93.62739280
N      79.42423016      94.43623877      91.01390131
H      81.00971053      95.49826496      90.94965061
C      77.33230312      95.04095119      89.23377912
H      75.53895286      94.73292580      90.20320872
C      77.36820792      97.93223245      88.38907147
H      76.07185567      98.17789687      86.80548081
H      79.27494178      98.45946609      87.81837411
C      76.58775096      99.76715670      90.54335947
H      78.14677516      99.83707657      91.88884460
H      75.31407542      98.82796272      91.86049870
C      75.64099807     102.47135505      89.89140389
H      76.38177079     103.15354625      88.09427416
H      75.88855222     103.72235387      91.50900961
C      72.71948120     102.52993657      90.02368472
H      71.81052284     102.62253316      91.86994734
H      71.89367080     100.79327809      89.28669147
N      71.88800161     104.69178347      88.33615913
H      73.12955181     105.27003972      87.00957125
H      71.47793101     106.30938919      89.26401474
H      70.22882191     104.25714642      87.49712064
C      77.35875929      93.36098450      86.75067875
O      79.39021508      92.39722408      86.05714920
N      75.19880211      93.14366597      85.46377514
H      73.68702106      94.01671953      86.23289374
C      74.65456093      91.97581511      82.98256448
H      75.96036182      90.39978336      82.74256924
C      71.98815711      90.86465604      83.21878028
H      70.58975965      92.37454736      83.19043437
H      71.61777075      90.27695115      85.15574975
C      70.99038162      88.85587697      81.27236217
O      70.95636654      86.53529305      81.77691909
O      70.47448633      89.53428871      79.14453035
C      74.74904725      93.77861401      80.77158470
O      74.35220472      95.96691708      81.13441214
N      75.34998022      92.88855292      78.50202340
H      75.63532890      91.01583414      78.27714597
C      75.48793025      94.38521616      76.11718878
H      77.12065377      95.61731771      76.34395595
C      76.18712897      92.84319949      73.80794323
H      74.40133762      92.06652197      73.13709040
C      77.71591756      94.31529628      71.83128951
H      78.20157722      92.88099401      70.43478176
H      79.17100682      95.38110192      72.83095472
H      76.80506949      95.88943830      70.86374964
O      77.82174224      90.86465604      74.51470088
H      77.54206274      89.53617844      73.31283493
C      73.13144153      95.98581435      75.43310786
O      73.50749706      97.85286394      74.15187343
N      70.98093298      95.53605948      76.63308407
H      70.85054188      93.92790239      77.65353629
C      68.61310592      97.14988575      76.27592580
H      68.87766760      98.17222769      74.50714197
C      66.29441173      95.38110192      75.95089288
H      64.57854023      96.49793018      75.72034627
H      66.00717334      94.13955174      77.57038832
C      66.32086789      93.76349620      73.53204319
H      67.84965648      92.38210627      73.49424867
H      66.57031177      94.86898609      71.81428198
C      63.81320108      92.04195553      73.36385755
O      61.67214116      92.99059814      73.06906025
O      64.00028398      89.64200311      73.66432404
C      68.26161683      99.11709085      78.41131653
O      66.38511859     100.54194449      78.63430424
N      70.01717256      99.11331139      80.14797502
H      71.53651252      97.96246807      80.06860651
C      69.99638558     100.85563905      82.29281438
H      69.40301152     102.76048318      81.78825746
H      71.96737013     100.63643080      82.85028365
C      68.74727649      99.80873068      84.73623051
O      68.41846410     101.13909800      86.56926503
N      68.34098532      97.28972550      84.87607025
H      68.81530663      96.35242125      83.28303097
C      67.13911939      96.05006504      86.98878427
H      65.99016579      97.34830702      88.09994334
C      65.44214516      93.81451881      85.91919918
H      64.23272033      92.97925978      87.36106034
H      66.48527409      92.12888294      85.35795046
C      63.62611818      94.52316618      83.77435981
C      63.09699481      92.70335974      81.81849308
H      64.45948748      91.18401978      81.84683897
C      61.33765961      93.20602694      79.95522293
H      61.10711301      91.75282740      78.53981793
C      59.68414909      95.24126218      80.24624078
O      57.70560563      95.60786908      78.63619397
H      56.30909790      96.66611582      79.10106663
C      60.13390396      97.03650218      82.17376162
H      58.82999279      98.59174693      82.38919042
C      62.27496386      96.83241173      83.83861051
H      62.41291389      98.22325030      85.32771484
C      69.10443475      95.06740736      88.93709209
O      71.32675290      95.59275127      88.55536738
N      68.46003809      93.85231334      91.05358557
H      66.65912890      93.23815229      91.20476367
C      70.33275686      93.22114475      93.14551259
H      72.23193181      93.76727565      92.56914606
C      69.46726222      94.39655452      95.60404653
H      70.76550418      93.58019275      96.97976729
H      67.57564618      93.82963662      96.18797196
C      69.84331774      97.21602617      95.77034244
C      67.96115033      98.98103055      94.99177520
H      66.05063703      98.45946609      94.50422581
C      68.45247919     101.55294806      95.04468754
H      67.10888377     102.93433800      94.37572443
C      70.78251172     102.41655299      95.92341028
O      71.13400081     104.88264583      96.18419250
H      69.48993893     105.48357879      95.70231229
C      72.68357640     100.69879177      96.76811794
H      74.54117736     101.33185008      97.33314610
C      72.27350578      98.12498453      96.46387200
H      73.64355736      96.70202062      96.97598783
C      70.47070688      90.23159772      93.44030989
O      68.38066958      89.15256400      93.51400922
N      72.75727572      89.08264412      93.88817504
H      74.28606430      90.22403882      93.84282160
C      73.21458949      86.34821015      93.78424009
H      71.64044748      85.20114628      94.45131348
C      74.03473071      85.55263537      91.13862325
H      76.03595087      85.97782379      90.89673828
C      73.92701630      82.86166510      90.62272796
H      74.73203971      82.24183487      88.83126743
H      72.03351054      82.06986978      90.42808616
H      75.05707265      82.04908279      92.14206793
O      72.43224279      86.71859651      89.46243601
H      72.69491475      85.76239499      87.94309605
C      75.19502266      85.75105663      95.79112944
O      76.70680371      87.33086783      96.53379188
N      75.34809049      83.42291382      96.63583709
H      74.03095126      82.18703281      96.02734523
C      77.03372636      82.47049175      98.50477642
H      78.88754789      83.29819188      98.16273596
C      76.69924482      83.54574603     101.20897478
H      76.41578587      85.56964291     100.95764118
C      74.39944789      82.39490270     102.49965785
H      72.76294490      82.63867740     101.27322546
H      74.20669580      83.12433706     104.41395060
H      74.83975412      80.41257980     102.85114694
C      78.80062048      83.23016173     103.13082644
H      80.70546459      83.50228232     102.39761263
H      78.86865061      81.33287651     103.92829094
C      78.62109648      85.23894080     105.35314458
H      78.13543680      87.15890274     104.78433696
H      80.41066729      85.38256000     106.36225843
H      77.39844354      84.57186741     106.87059480
C      77.48348123      79.59432831      98.37627502
O      76.06807622      78.10333425      97.19141663
N      79.60942334      78.64001652      99.24176968
H      81.02860779      79.79274957      99.78979032
C      80.25948918      76.01707640      99.15673200
H      78.76093622      75.10055913     100.23009654
H      81.99614766      75.69393320     100.21119927
C      80.35586523      74.96827829      96.50355626
O      81.69568118      76.01707640      94.97098822
N      79.15966846      72.77241632      95.97065344
H      77.91811829      72.04676141      97.22732144
C      79.11053558      71.56866065      93.42141263
H      80.59397074      72.42281695      92.27812821
C      79.46013496      68.58478281      93.82014489
H      78.02394295      67.67582445      94.98421629
C      79.69635075      67.33000453      91.22555067
H      79.80028569      65.31744601      91.65451854
H      81.53316471      67.76653131      90.40540945
H      78.12031900      67.66070664      89.94242650
C      81.98858877      67.91015051      95.17507866
H      82.30795251      69.41248293      96.54701995
H      83.67611435      67.80243611      94.00155862
C      81.79016750      65.25130559      96.53757133
H      81.79583668      63.71684782      95.16374029
H      80.25193027      65.13981174      97.90195372
H      83.57784858      65.39681452      97.55046463
C      76.58208177      72.30376419      92.17797273
O      74.83030548      70.82221876      92.11183231
N      76.58397150      74.69426798      91.32381643
H      78.14488543      75.76385307      91.56759113
C      74.38244035      75.70527155      89.82148401
H      73.87599370      74.25585147      88.44765297
H      74.94557880      77.43626086      88.85394414
C      71.91634751      76.02085585      91.17452805
O      69.94914243      76.41391892      90.00856692
N      71.94280369      76.15313669      93.70676131
H      73.44891555      75.60511606      94.74611078
C      69.86032529      76.85989433      95.22610126
H      68.22949148      75.83755240      94.48910801
C      70.32708768      75.89991336      98.01344758
H      71.66690363      77.07532313      99.04901759
H      71.11321383      73.99317951      97.98888113
C      67.93658389      75.98306132      99.54979506
N      66.23205076      74.09333501      99.59703823
H      66.20181514      72.57966423      98.43485655
C      64.08154221      74.93615294     100.53434248
H      62.36945017      73.84389114     100.75166101
N      64.37444980      77.47027593     100.88394184
H      62.96660369      78.59088363     101.51888989
C      66.74227687      78.04475273     100.28867806
H      67.55296945      79.90802287     100.10159515
C      69.15356764      79.56976186      95.08248207
O      70.41401509      81.17413950      96.17663361
N      67.06730979      80.20848936      93.70676131
H      66.34921379      78.77229736      92.67686047
C      66.06764458      82.81820140      93.24944754
H      67.63611742      84.15045845      93.37039003
C      65.05475126      83.13189596      90.39785054
H      63.38423321      81.93003003      90.31848203
H      66.34354461      82.52907327      88.90874620
C      63.87367233      85.68113676      89.47944354
H      63.46927090      86.90001023      91.08949037
C      65.64623561      87.19291781      87.72955699
H      64.47460530      88.51194678      86.66942051
H      66.29063228      85.94758817      86.21966566
H      67.30352558      87.71259255      88.83693661
C      61.21860685      85.19736682      87.92986798
H      60.34933275      87.03229107      87.59538642
H      59.82209910      84.21659887      89.08449074
H      61.61733910      84.26006257      86.14029715
C      64.26673539      83.46259807      95.35649238
O      62.70960091      81.91491222      96.22387676
N      64.47082583      85.89656556      96.18986168
H      65.87111304      86.95670202      95.43964034
C      63.34454896      86.76394994      98.57091684
H      62.48850293      85.18980792      99.58569986
C      65.51206504      87.88455764     100.22064791
H      64.72215944      88.74060366     101.91951187
H      66.38322887      89.44736130      99.19830597
C      67.41312970      86.04207449     101.05401722
H      68.16902024      84.87422362      99.53278753
C      69.66757320      87.40078771     102.20863999
H      68.93435940      88.44013718     103.82813545
H      70.56708292      88.55352076     100.75544045
H      71.13211109      86.07608956     102.79445515
C      66.37189050      84.31486464     102.97019970
H      65.01695675      82.99961512     102.14627902
H      65.43458625      85.31641958     104.50843692
H      67.86099484      83.08087335     103.68073679
C      61.26207056      88.75761120      98.11171334
O      59.07376748      88.48549061      98.78634564
N      61.74206104      90.81174370      96.75300012
H      63.50517569      91.28984446      96.19931032
C      59.72383334      92.41990079      95.72120956
H      57.93426253      91.49015545      95.30924923
C      59.23817367      94.46647439      97.74132699