 %block lattice_cart
   135.996   0.000   0.000
   0.000 142.663   0.000
   0.000   0.000   160.158
 %endblock lattice_cart

 %block positions_abs
N      92.44538931      41.90846131      80.56843911
H      94.12535601      42.53018127      81.22795361
H      92.74963525      40.56297617      79.24941015
H      91.59123302      41.34721259      82.18037566
C      90.86179866      43.83598215      79.47995676
H      90.91093155      45.51216939      80.67804324
C      91.66304262      44.45770211      76.79843512
H      91.55721795      42.74749979      75.65704043
H      93.60001209      45.09831933      77.08567353
C      90.37613900      46.67057162      75.58334110
H      88.34846267      46.36065650      75.38491984
H      91.07155828      46.97670728      73.66715862
S      90.67093631      49.52594808      77.36157356
C      93.82677925      50.37632492      76.42804876
H      94.63747184      52.13754984      77.12346805
H      93.75307992      50.78261608      74.41171080
H      95.12124177      48.81730071      76.80599403
C      88.08390098      43.28040261      79.73506982
O      87.35446663      41.08832009      79.46672867
N      86.47385417      45.16068029      80.10545618
H      87.06533850      46.95403057      79.82199722
C      83.70918457      44.89800834      80.32088498
H      83.07423653      43.70748076      78.76186076
C      83.32368040      43.58275882      82.92681755
H      84.06256339      44.84320627      84.37812737
H      84.48208263      41.88200514      83.02130388
C      80.61381287      42.73994089      83.36712378
O      78.91683864      42.84198611      81.80432013
N      80.06957169      41.87633596      85.59889057
H      78.21575018      41.56453112      85.92959267
H      81.30734243      41.31319752      86.94059624
C      82.70385017      47.68535465      80.30009799
O      84.29877918      49.51083027      80.34167196
N      80.19996281      48.03495402      80.73662476
H      79.17384142      46.43813528      80.94449465
C      78.68062285      50.58608454      80.67804324
H      78.86959548      51.66889772      78.93571558
C      75.83469502      50.16089612      80.95394329
H      75.24699014      49.04406787      79.32499921
C      74.99565654      48.77194728      83.42948476
H      73.04356926      48.12188143      83.36145461
H      75.14872437      50.14388858      84.95827335
H      76.16161768      47.18079772      84.01718965
C      74.42117974      52.64021704      80.91047958
H      75.14683465      53.70980213      82.51485722
H      72.47476164      52.15455738      81.37913170
C      74.79723528      54.29372757      78.49162990
H      76.77010955      54.88710163      78.41604084
H      73.60103852      55.96613535      78.61824157
H      74.09236736      53.19201712      76.90048035
C      79.92595249      52.16022656      82.74351411
O      80.54389300      54.35041935      82.39958391
N      80.44940668      50.99804488      84.95827335
H      80.10736622      49.13477473      85.17559188
C      81.46796916      52.54384100      87.12767916
H      80.04122580      54.00837889      87.38090247
C      81.44340272      51.06796475      89.57487473
H      81.43584381      52.52683346      91.02807426
H      83.23864272      50.06452008      89.70337611
C      79.19651813      49.40689532      89.89801793
C      76.84947805      50.57285645      90.58209885
H      76.71908694      52.60620197      90.69548244
C      74.68007225      48.85698496      90.90335232
H      72.84514800      49.67523646      91.26051059
C      74.95408256      46.28884690      91.33987910
H      73.41773507      45.00194328      91.72160382
C      77.25010003      45.25327688      90.69548244
H      77.43529321      43.25205672      91.04697153
C      79.35336542      46.74238122      90.02840904
H      81.18073076      45.89200438      89.71282475
C      84.12492436      53.86853914      86.64201948
O      84.59168676      56.02471687      87.40735864
N      85.91071572      52.64777595      85.27007818
H      85.54977800      50.81474142      84.88268429
C      88.40515446      53.71358159      84.74662399
H      88.76231273      54.86442491      86.41714205
C      90.46684586      51.68779498      84.22316980
H      92.22051188      52.70068828      83.83955536
H      89.87914098      50.51994412      82.63202025
C      90.81644523      49.75460496      86.39257561
H      89.05144086      48.93635347      87.07098737
H      91.62713782      50.71836538      88.02340943
C      92.86112910      47.85543002      85.55920632
O      92.21862216      45.71248038      84.69182194
O      95.16470548      48.51305477      85.57810358
C      88.18027703      55.35764348      82.39958391
O      89.42182721      57.29839240      82.22950854
N      86.54188431      54.75860024      80.58166721
H      85.39671017      53.33752605      81.13724673
C      86.04677602      56.26282238      78.40848195
H      87.78721395      56.64832655      77.37291193
C      84.18539560      54.93434479      76.54332207
H      82.46385493      54.71702626      77.65448115
H      85.19261973      53.18256849      76.15025900
C      83.66194141      56.18912306      74.06967033
H      85.03766217      55.45401952      72.72418519
H      83.87737021      58.22813775      74.26809159
S      80.68751220      55.49559350      72.59568380
C      80.95207388      56.25715320      69.20929426
H      80.97664032      58.21301994      68.56300785
H      79.33068870      55.36331266      68.30411534
H      82.61314331      55.26693662      68.50064689
C      85.03010326      58.85552688      79.29854303
O      86.20362330      60.65265661      78.44627647
N      83.24053244      59.00481526      81.00874536
H      82.57345906      57.40799653      81.81754821
C      82.14827063      61.40287795      81.80243040
H      81.62103699      62.54994183      80.17726577
C      79.76721548      61.01359433      83.42759503
H      79.26076883      62.77859871      84.36111983
H      80.37381763      59.79661059      84.97528088
C      77.42962403      60.03282638      82.12179414
H      77.86426108      58.61364192      80.69316105
C      75.58903060      58.92544676      83.99073347
H      74.87282433      60.48069151      85.13401789
H      76.45641498      57.81995687      85.49684534
H      74.06402147      58.03916512      82.92492784
C      76.14838959      62.12664313      80.49851925
H      77.70363435      62.61041307      79.23618207
H      75.71942172      63.69511597      81.76463588
H      74.57235785      61.39531905      79.39302936
C      83.96429762      62.95623298      83.48617655
O      83.99453324      65.31272170      83.22539431
N      85.39859989      61.76381568      85.16236378
H      84.96396284      59.98747295      85.69904605
C      87.52265227      62.86741585      86.61556333
H      86.61747337      64.31872566      87.76073747
C      88.49964077      60.74147375      88.30497865
H      89.44828338      59.34496600      87.12578942
H      86.96707273      59.74369825      89.25362125
C      90.15693075      61.95656776      90.48383308
H      89.05333058      63.45512073      91.36444554
H      91.71595496      63.08284465      89.74683982
C      91.34934805      60.33140314      92.56442176
H      91.95406047      61.70145471      93.97982676
H      92.96695378      59.32606874      91.77640589
N      89.54087997      58.52104533      93.71526507
H      89.46340119      56.78060739      92.93669783
C      88.19350511      59.00292554      95.84876608
N      88.28043252      61.08918339      97.14700806
H      87.45651185      61.05516831      98.87043847
H      89.42749639      62.56505964      96.77095253
N      86.59857610      57.16233211      96.52717784
H      85.54221909      57.31539994      98.11076848
H      86.59290692      55.48047569      95.62766810
C      89.41804776      64.02014890      84.79197742
O      90.51597875      65.93066220      85.49117616
N      90.01898073      62.68600212      82.70382986
H      89.00419770      61.10808065      82.34856131
C      91.95028102      63.66865980      80.77252956
H      93.41292919      64.73068599      81.75896669
C      93.05199146      61.38020124      79.43082387
H      91.45139327      60.13298187      79.06421697
C      93.97228818      61.96790612      76.67938237
H      94.36535125      60.14998941      75.79876991
H      95.62390897      63.17922069      76.90237007
H      92.38302835      62.83529050      75.69861442
C      95.40092127      60.02337775      80.78386792
H      95.11557259      59.94967842      82.82288261
H      97.22639689      60.89832103      80.40781238
C      95.60501171      57.28894377      80.00152123
H      95.54076102      56.99603619      77.96439627
H      93.87780186      56.39321350      80.67237406
H      97.07143933      56.40266213      81.14669538
C      91.00730759      65.83050671      79.21728480
O      92.51908864      67.42921517      78.41604084
N      88.46751543      66.01758961      78.87146490
H      87.22785496      64.83273121      79.71050338
C      87.28265703      68.14542144      77.50330303
H      88.33523458      68.60084548      75.78932127
C      84.55011278      67.45378161      76.68505154
H      83.55044756      69.20177845      76.25608367
H      83.56556537      66.52403626      78.23840657
C      84.35358124      66.00814098      74.28698886
O      85.70662528      66.74891369      72.53332284
O      82.94762487      64.18833454      73.96006621
C      86.94628574      70.56238139      79.07366561
O      87.68138928      72.49368169      78.23462713
N      86.04677602      70.28081217      81.42070569
H      85.49497594      68.48746190      81.77786395
C      85.33812865      72.52391731      82.84933878
H      85.25876015      74.22278126      81.69093654
C      82.61692276      72.04959600      83.79042248
H      81.84402470      73.59539213      84.91291992
H      82.56590015      70.31293752      84.89969182
C      80.53633409      71.88330009      81.62857558
H      78.74865300      71.14063765      82.33344350
H      81.27710680      70.89497322      79.98262396
C      79.98264428      74.75379436      80.82922135
O      77.84914327      75.50968488      80.22828838
O      81.83457607      76.25801650      80.77819874
C      86.87069669      73.07571739      85.33243916
O      86.50220006      75.05237111      86.38123726
N      88.60735517      71.42220687      85.97872556
H      88.85301959      69.79893196      85.00362677
C      90.81644523      72.07416244      87.62089772
H      90.94683635      74.11128741      87.34121823
H      92.47940439      70.94788556      87.16547367
C      90.40070544      71.80582131      90.44603856
O      89.00041825      70.23167929      91.31342294
N      91.44761382      73.64452501      91.93514290
H      92.77798115      74.81237587      91.21704690
C      90.54432464      74.18687646      94.46170697
H      88.51853804      73.81271065      94.44847888
C      91.49863643      72.31037823      96.57631072
H      93.55087921      72.25746590      96.41001481
H      90.82400414      70.42065192      96.10954832
C      90.49708149      73.00957697      99.27672961
H      91.11691172      74.89930328      99.81719134
C      87.63981530      72.91320093      99.57341665
H      86.81778435      71.05371024      99.91734683
H      86.71573913      73.57838459      97.85565543
H      87.14470701      74.03380863     101.22692717
C      91.56288713      71.23890341     101.28928815
H      93.61701963      71.40708906     101.28550868
H      91.17360351      69.33216956     100.61276613
H      90.96951306      71.49023701     103.24704460
C      91.02620485      76.94587688      95.36310643
O      93.08789626      77.88507086      95.17980298
N      89.13458881      78.24222913      96.34954355
H      87.42438650      77.40508037      96.49316275
C      89.67882999      80.50045207      97.75361021
H      91.66304262      80.57793085      98.29974111
C      88.97585180      82.70765241      95.92624487
H      87.97051741      84.16085194      96.98449160
H      87.43383513      82.11994752      94.69225359
C      91.22651584      83.65629502      94.19714529
H      91.84823580      82.01601258      93.11811156
H      92.76097361      84.55958419      95.23271530
C      90.13047458      85.56680832      92.30741897
H      89.55788751      87.09559691      93.56030752
H      88.65270860      84.61816571      91.23027497
N      92.08634132      86.54001737      90.33454470
H      92.91026199      85.34004116      89.10055342
C      92.93671816      88.85682183      89.86778230
N      92.35657218      90.74087896      91.34554829
H      93.18805176      92.42462511      91.00161809
H      91.18683159      90.66528991      92.85354989
N      94.11590738      89.25177463      87.75317856
H      94.51841908      91.08669888      87.42058674
H      94.64125129      87.78912646      86.64579894
C      88.09145989      80.81414664     100.13844481
O      85.86536229      80.11494791     100.17623934
N      89.27253883      81.80814268     102.11887799
H      91.04888157      82.34482496     101.67101285
C      88.15193113      82.18797767     104.54528658
H      86.39637539      81.15429738     104.86276059
C      89.93205332      81.27523986     106.59186017
H      89.15537580      81.27146041     108.50048376
H      91.45895218      82.65096062     106.46902797
C      90.93738772      78.50868054     106.26871697
H      92.00319336      78.26679557     104.52072014
C      92.82144485      77.66775233     108.30962139
H      94.43338140      78.95087650     108.29639331
H      93.52253331      75.93676303     107.44034730
H      92.14870228      77.67720096     110.25603950
C      88.76798191      76.60572614     106.45202043
H      87.55288789      76.55848298     104.78906127
H      87.59068242      77.32760159     107.97891928
H      89.45584229      74.75946354     107.05484312
C      87.15604536      84.87327876     104.90055513
O      86.13559316      85.42885830     106.99248216
N      87.32801046      86.43986188     102.98626237
H      87.97996604      85.64995628     101.37621555
C      86.13181370      89.00044103     102.92957058
H      84.59735594      88.82847594     104.29206325
C      87.93083315      91.20764136     103.57585699
H      86.63826035      92.81012928     103.54940082
H      89.50308545      91.21708999     102.24171021
C      89.00986688      91.02055846     106.28194507
H      89.83000810      89.17051640     106.65989032
H      87.49241665      91.23409753     107.65955554
C      90.77109180      93.23153824     106.70524375
H      90.02464991      95.09858784     106.24981972
H      92.16759955      93.13327248     105.19724215
C      91.67249125      93.39972389     109.42267019
H      92.72695854      91.68952157     109.87620451
H      90.02087045      93.80412532     110.58296215
N      93.33356068      95.50109955     109.74014421
H      94.95494586      95.35748035     108.74425844
H      93.74741074      95.81101466     111.57695818
H      92.54365508      97.14705117     109.18645441
C      84.69751143      89.59003564     100.59953803
O      85.17561219      88.60170878      98.45469868
N      82.86069745      91.36448865     100.66189901
H      82.43550903      92.16951206     102.33997597
C      80.94829443      91.93707572      98.59453841
H      80.07146142      90.11348983      98.22226234
C      78.75243245      93.65294721      99.56963719
H      79.57068394      95.47275365     100.07797357
C      76.86270614      94.28789525      97.49282798
H      75.07313532      95.01921934      98.20336507
H      76.38649511      92.59092102      96.42702234
H      77.67339873      95.48787146      96.03206954
C      77.23309249      92.26966755     101.68802039
H      78.53700365      91.26622288     102.92579112
H      75.80634913      90.92985160     101.04173399
C      75.83091557      94.23120346     103.24326515
H      74.90305995      95.69385163     102.12832662
H      77.32190963      95.21197142     104.27316598
H      74.45708454      93.65483694     104.66811878
C      82.23330832      93.08413959      96.37411001
O      83.52777084      95.05512414      96.56497236
N      81.67205960      92.02967231      94.28029324
H      80.30956693      90.71631252      94.53351657
C      82.34102272      92.57958267      91.78396478
H      83.08557489      94.50143433      91.75561889
C      84.46885455      90.76166595      90.92980850
H      85.82567804      90.84481391      92.47938407
H      85.41560743      91.56857909      89.28952606
C      83.48619686      87.98187855      90.45548719
C      83.03455228      87.31291543      87.88734912
H      83.41627699      88.66595947      86.40769342
C      82.60558440      84.75044655      87.23728328
H      82.65471729      84.19108756      85.27574737
C      82.57534878      82.87772778      89.21771645
O      81.95740828      80.50801098      88.77174104
H      81.81567880      80.30958972      86.97461133
C      82.83802074      83.56747788      91.79908259
H      82.87581527      82.09349136      93.21070815
C      83.18573038      86.18474882      92.31686760
H      83.53532975      86.72710028      94.25383708
C      79.90894495      92.72509159      90.14557207
O      77.70741380      92.54934705      91.05075097
N      80.14138129      92.94996902      87.64546416
H      81.84402470      93.44885677      86.94815515
C      78.09480769      92.50966279      85.90502623
H      76.39216429      91.89361201      86.89146336
C      77.28789456      94.92473302      84.48206232
H      75.73642925      94.56757475      83.17248198
H      78.68062285      95.51432763      83.08177511
C      76.49987869      97.00154224      86.46249549
H      77.66395009      97.12626418      88.15569027
H      74.54779140      96.53666957      86.94059624
C      76.68318214      99.66038716      85.30409325
H      75.57958197     100.71674417      86.68548319
H      75.41517578      99.73975567      83.68270809
C      79.13604689     100.90382708      84.69371166
H      78.54456256     102.37592387      83.38224160
H      80.43617860      99.45629672      84.01341018
N      80.16405801     101.89782312      87.12012025
H      81.84591442     102.68394926      86.67036538
H      80.74231426     100.60525032      88.39757524
H      79.27777637     103.31700758      88.04230668
C      78.42928925      90.58214195      83.90002660
O      80.55145190      89.93585555      83.01941414
N      76.34303140      89.59948427      83.00429633
H      74.72920513      90.28167547      83.76396632
C      75.98398340      88.18218954      80.61001309
H      77.36915279      86.65718040      80.56465966
C      73.30624122      86.86316057      80.43804800
H      71.90406429      88.35604436      80.21128085
H      72.86782471      85.73121451      82.10100715
C      73.01900282      85.05469249      78.25541412
O      71.76422455      85.87105426      76.43749740
O      74.28511945      82.97977300      78.34990042
C      76.45452525      89.86971513      78.30265728
O      76.45641498      92.19785795      78.50863743
N      76.70963831      88.66973892      76.14836927
H      76.24665536      86.82158659      76.01419871
C      77.12915755      90.13805627      73.76542439
H      78.66739477      91.48354141      74.01297854
C      77.94362959      88.48265602      71.48641445
H      76.26177317      87.52834423      70.77398763
C      79.36470378      89.80168499      69.43417168
H      79.43840310      88.55635535      67.79766869
H      81.20907666      90.44797139      70.08423753
H      78.29511868      91.35881947      68.61969964
O      79.66517026      86.73087973      72.51064612
H      80.96530196      87.50566752      73.51031134
C      74.70463869      91.63471951      73.07378457
O      74.75188185      93.72664654      72.17616456
N      72.45019520      90.64450292      73.98085320
H      72.56735823      89.11949379      75.12224789
C      70.09181676      92.00699559      73.92605112
H      69.55513449      92.63627446      72.04010426
C      68.03012535      90.15695353      74.58367588
H      68.38728362      89.66184524      76.54899126
H      68.18130346      88.46186903      73.41960447
C      65.31269891      90.79001185      74.15848747
H      64.74578102      92.27344700      75.46995753
H      64.15051723      89.18185476      74.71028754
C      64.56625702      91.33803248      71.38625896
O      64.54547003      89.62594044      69.73463817
O      63.71210073      93.39594443      70.72296503
C      69.95008728      94.25388018      75.66837878
O      67.89973423      95.45007694      75.92727129
N      72.02500678      94.98520426      76.96851050
H      73.65395086      94.00632603      76.78898649
C      72.07602939      97.11681554      78.76375050
H      71.43352244      98.72875209      77.65259141
H      73.94874816      97.30578818      79.59900952
C      70.13339074      96.86926140      81.04276043
O      69.27923444      98.73820072      82.07455100
N      69.59859819      94.60158982      81.90258589
H      70.11449347      93.15783892      80.76308092
C      68.28523840      93.97231096      84.18726501
H      67.38761840      95.63904957      84.99984732
C      66.01945655      92.25077029      83.79798138
H      65.09160093      91.82180242      85.58755221
H      66.63928678      90.42907412      83.06854703
C      63.99178022      93.23342797      81.93660096
C      62.79747319      91.47598250      80.29253908
H      63.34549382      89.52389522      80.54387267
C      60.87184208      92.35848469      78.63146965
H      59.61328435      91.18685437      77.53353867
C      60.04981113      94.88315904      78.78453748
O      58.08638549      95.80534548      77.28409479
H      57.77269092      97.51932725      77.79432089
C      61.40096544      96.61225862      80.15836850
H      61.20632363      98.64182468      80.10545618
C      63.29636094      95.78644822      81.78542286
H      64.15051723      97.26988338      82.89658194
C      70.11638320      92.77800393      86.15635983
O      72.02500678      91.50999757      85.52330151
N      69.59670846      93.37704717      88.58465814
H      67.89595478      94.15750414      88.95126504
C      71.46375806      92.91784368      90.62367284
H      73.29301313      93.57546843      89.94526108
C      70.53590244      94.41450692      92.94425674
H      71.73209920      94.05167946      94.57887000
H      68.59326379      94.25199045      93.61321986
C      70.99132648      97.35870051      92.84410124
C      68.90695836      98.92339390      92.68914370
H      67.03423958      98.12403967      92.83276290
C      69.27356526     101.52554703      92.34332377
H      67.65406981     102.70851570      91.96537851
C      71.64139233     102.59513213      92.17135869
O      71.99855061     105.17460854      91.96726824
H      70.39606269     106.01931620      91.85766412
C      73.80701869     100.95673941      92.40190530
H      75.63438403     101.85246968      92.26773472
C      73.49332412      98.35080683      92.70804096
H      75.14872437      97.21886077      93.07653759
C      71.54879575      90.12860764      91.30208458
O      69.58914956      88.97965404      91.70648600
N      73.86748993      88.97209514      91.59310243
H      75.24887987      90.18529943      91.08287633
C      74.36637768      86.28490432      92.24883747
H      72.57869659      85.33248226      92.61922381
C      75.60225869      85.01689796      89.95848917
H      76.58491637      83.24055523      90.30808853
C      73.52733920      84.31203005      87.93648201
H      72.69208016      86.09026251      87.31287234
H      72.24421503      82.96276546      88.81520474
H      74.48732016      83.48621965      86.30942766
O      77.41450622      86.51923038      88.63190130
H      78.80912424      85.44208638      88.20104370
C      76.12571288      86.05813716      94.51272958
O      77.49009527      87.83825935      95.21570777
N      76.19941220      83.76211969      95.60499139
H      74.97297982      82.40718592      95.05130159
C      78.18173510      82.91363258      97.54196086
H      79.79178192      84.13250605      97.13944915
C      77.12537810      83.62039022     100.24804894
H      76.06902109      85.36649733      99.95703109
C      75.37738126      81.74767144     101.53306284
H      76.42428963      80.11872736     102.23037185
H      73.96008652      81.19587136     100.14411399
H      74.51377633      82.63017363     103.18279391
C      79.42895447      84.16652112     101.86376494
H      80.64593822      85.46665282     100.83197437
H      80.60058478      82.49222361     102.11509854
C      78.97353043      85.49688845     104.44513108
H      78.29133923      87.42251956     104.17867968
H      80.81979304      85.66885354     105.34086135
H      77.76977477      84.27234579     105.58274632
C      78.94329481      80.29258218      96.96559433
O      77.77544395      78.91875115      95.48215919
N      80.97097114      79.43653616      98.22415206
H      81.87803977      80.49667262      99.52428377
C      81.80245072      76.78525014      98.05218697
H      80.41728133      75.51346433      98.89122546
H      83.53532975      76.62462341      99.15200769
C      82.28244120      76.00857263      95.21948722
O      83.98319488      76.97044332      93.94959114
N      81.02199375      73.92420450      94.60721589
H      80.06957169      73.01902560      95.98860583
C      81.18639994      72.40864400      92.22616074
H      82.93817623      72.94910573      91.28696676
C      81.53033013      69.59862097      92.97449237
H      79.68406752      68.72556742      93.24472323
C      82.83046183      68.37218860      90.75217423
H      84.43106002      69.31894148      89.86211313
H      81.37915203      68.02258923      89.33298975
H      83.28399615      66.44466776      91.32287156
C      83.48241741      69.32839011      95.09476528
H      82.90605089      70.40931356      96.75016554
H      85.25120124      70.12207516      94.40123574
C      83.84713459      66.60529449      96.09820995
H      83.13659750      66.55049243      98.03139997
H      85.79544242      65.93633138      96.12277640
H      82.57345906      65.30138334      95.14389818
C      79.11148045      73.09461465      90.41013376
O      77.36159388      71.66409183      89.89234874
N      79.03022222      75.45110337      89.54463910
H      80.53066491      76.54903435      89.97171725
C      76.94585410      76.35061309      87.98750462
H      76.60381363      75.03158412      86.44548796
H      77.68662681      78.07782294      87.14468669
C      74.50999688      76.70588164      89.30275413
O      72.65050619      77.15185705      87.87979022
N      74.23787629      76.22589115      91.83498739
H      75.80067995      76.29770075      92.92724921
C      71.79634989      76.39407680      93.10488348
H      70.53968189      75.06370947      92.16379978
C      71.98154307      75.42464720      95.83742772
H      73.23632134      76.70777136      96.85221075
H      72.99254665      73.63885583      96.00561337
C      69.51167078      75.62117873      97.15267725
N      67.82036573      73.57838459      97.20747930
H      68.27578977      71.96077887      96.30230041
C      65.68497500      74.41553335      98.38099934
H      63.85383020      73.52169280      98.46603702
N      65.91363188      77.01957621      98.88366655
H      64.54547003      78.19498597      99.50538650
C      68.47988021      77.79814345      98.18068836
H      69.33025705      79.64818551      98.31485893
C      70.67763192      79.01134774      92.88000604
O      71.86438004      80.76123431      93.91179661
N      68.59515352      79.44787452      91.47215994
H      67.70698215      77.90396812      90.78618929
C      67.27234510      81.83648858      91.20759827
H      68.57247680      83.29346756      90.54619406
C      65.41096468      81.50767620      89.01740546
H      63.86705828      80.31147944      89.67691995
H      66.48054977      80.41730412      87.63412580
C      64.05792064      83.78479641      87.88734912
H      62.91085677      84.51612049      89.43503498
C      65.72654897      85.99766592      86.94059624
H      66.73755255      86.67607766      88.60166567
H      64.53035222      87.60960246      86.47950302
H      67.01912177      85.47421173      85.42503575
C      62.43653546      82.76245447      85.72928168
H      61.25923597      81.26768096      86.52296674
H      63.58548906      81.87995228      84.26474379
H      61.61639424      84.45375952      84.89213292
C      65.78135104      82.79457982      93.49983628
O      64.82892898      81.30925494      94.99083035
N      65.63395239      85.34004116      93.79841304
H      66.56936691      86.56647354      92.67402588
C      64.45854262      86.59670916      96.03584900
H      63.44375959      85.31925417      97.29251698
C      66.49188813      88.12360802      97.49471770
H      65.72276952      89.24799518      99.04051383
H      67.42730266      89.20453147      96.01317227
C      68.48932884      86.27167623      98.72681926
H      68.96553988      84.78068217      97.38889303
C      71.04612855      87.80802373      99.02161656
H      71.48076560      88.87004991      97.31141425
H      72.39539313      86.26033788      99.19736112
H      70.80991276      89.06091227     100.63922228
C      67.54068624      85.16240689     101.34220047
H      69.10915908      84.09660125     102.15289307
H      65.97221340      83.85849573     101.07763879
H      67.00022451      86.66662903     102.64044245
C      62.40629984      88.38061080      95.23271530
O      60.37862351      88.05935733      96.37222027
N      62.74645058      90.37049261      93.71148562
H      64.41318919      90.69552553      92.84032179
C      60.55058860      92.04667985      93.15590610
H      58.97077741      90.73520979      93.32787118
C      60.05548031      94.22742401      95.02106596