 %block lattice_cart
   135.996   0.000   0.000
   0.000 142.663   0.000
   0.000   0.000   160.158
 %endblock lattice_cart

 %block positions_abs
N      91.18305213      41.34532287      81.88935781
H      90.31566775      40.04708089      80.79142682
H      90.77487125      41.00517213      83.72050261
H      93.06144009      41.18847559      81.58700160
C      90.09834924      43.69047322      80.90103095
H      90.65392877      45.32508648      82.02541810
C      91.07911719      43.98338080      78.17793533
H      90.61802396      42.22593533      77.20661601
H      93.12947023      43.91535066      78.37068741
C      90.57267054      46.64978463      77.17449066
H      88.55066338      47.03717852      77.13480641
H      91.27753845      46.89355932      75.25263900
S      91.80099264      49.29162202      79.11901903
C      90.91849045      52.17156492      77.54109756
H      91.57044602      53.77783228      78.65225664
H      88.88703467      52.39077317      77.28787424
H      91.89736868      52.12432176      75.72885003
C      87.18061180      43.73393693      80.93882547
O      85.98063559      41.77807020      80.57410830
N      86.10157807      45.88822493      81.92526261
H      87.08612548      47.52283819      81.90636535
C      83.46540987      45.97137288      82.63957916
H      82.39582477      44.71092543      81.41125705
C      83.16872284      44.73927133      85.20015831
H      83.91138528      42.83631693      84.93181717
H      81.19962802      44.56163705      85.78219401
C      84.54633332      46.32664143      87.25995999
O      83.87170102      48.49226779      87.88356967
N      86.39637538      45.16445975      88.31820673
H      87.41115842      46.09987427      89.63534597
H      86.77810009      43.49394169      87.47349906
C      82.51487753      48.71525549      82.59233600
O      83.90382637      50.29506669      81.83077629
N      80.19807307      49.13288501      83.40491831
H      79.14549553      47.67590602      84.04175608
C      79.00187632      51.61031620      83.10067238
H      79.37226268      52.49470812      81.27519676
C      76.02933683      51.32496753      83.48050736
H      75.43785250      50.02483583      81.99518248
C      75.27344630      50.35175848      86.17714681
H      73.22120352      50.18735229      86.22816942
H      75.94807859      51.78417102      87.49428605
H      76.03689574      48.46014244      86.46060576
C      74.68574143      53.83641380      83.03264223
H      74.93140585      55.30851060      84.44993696
H      72.70719797      53.42634319      83.43137448
C      74.99943599      55.03639001      80.40025347
H      74.80479418      53.51893978      79.02075327
H      76.80601434      56.01904769      80.29442880
H      73.49710357      56.43289775      80.21695002
C      80.06012305      53.61153637      84.97528088
O      80.54578272      55.79228053      84.20994172
N      80.94073552      52.87832256      87.39224083
H      81.04844991      51.00371406      87.74184020
C      82.23519804      54.52049472      89.08354588
H      81.00309649      56.16077716      89.26495961
C      82.55456178      53.31484934      91.79152369
H      83.30100368      54.84174820      92.95748482
H      84.05689420      51.91078269      91.69514765
C      80.08657922      52.51927456      93.10110402
C      79.89760659      49.97381321      93.61888903
H      81.41127737      48.67557124      93.17858280
C      77.71497270      49.07619322      94.86610840
H      77.66772955      47.10142922      95.37255505
C      75.79501077      50.66923250      95.58231467
H      74.33614205      50.05507145      96.86921829
C      76.09358752      53.27705481      95.27806874
H      74.65739552      54.53561253      95.99427501
C      78.14583030      54.24081523      93.84565619
H      78.36125911      56.26471211      93.69447809
C      84.65215799      55.49181405      88.03663751
O      85.08679505      57.72925000      88.01962997
N      86.15826986      53.82318571      86.79319759
H      85.73308144      52.01471763      87.22972437
C      88.50342022      54.38632416      85.41936656
H      89.75630876      55.47102706      86.64201949
C      89.99441428      52.03172517      84.71071919
H      91.49296725      52.50415675      83.37657242
H      88.74341546      50.79017498      83.64302383
C      90.90148292      50.54262084      86.92358871
H      89.38214295      49.44846930      87.78341418
H      91.43816519      51.96747448      88.31064782
C      93.33734013      49.22170214      86.34911191
O      95.44816443      49.80940703      87.40168946
O      93.09356544      47.16190046      85.12267953
C      88.23885853      56.00204015      83.09500320
O      89.72040397      57.76704453      82.72272711
N      86.20362330      55.56551338      81.62857558
H      84.95262449      54.23703578      82.19549347
C      85.41749715      57.10753005      79.42515470
H      86.89904258      56.91666769      78.00408051
C      82.81156456      56.05873194      78.49918880
H      81.27332734      57.08296360      79.41192661
H      82.67361454      54.11231384      79.16059301
C      82.55456178      56.02471687      75.59278973
H      83.98130516      54.85875573      74.67249302
H      82.86258718      58.00137059      75.10524035
S      79.51966133      54.97024959      74.47596148
C      79.39871884      56.36675733      71.38247951
H      79.38927021      58.41333093      71.62625420
H      77.77544394      55.60519763      70.36391703
H      81.22419446      55.86975931      70.56989719
C      85.18506081      59.74180853      80.36056922
O      86.38881647      61.36886288      79.20972590
N      83.40304890      60.26148326      82.27108252
H      82.39771450      58.73458440      82.82099288
C      82.76999059      62.88631311      83.14224635
H      82.53944397      63.97101602      81.40558787
C      80.06012305      62.64442814      84.39702463
H      79.79745109      64.19778317      85.72361250
H      80.01665936      60.91343884      85.51385288
C      77.82646655      62.61797198      82.61501271
H      78.06646179      60.99091762      81.37346253
C      75.62115594      62.21168082      84.42159107
H      75.64572238      63.96534684      85.50062479
H      75.71942171      60.59785455      85.69904606
H      73.98087350      62.10585614      83.17815115
C      77.46363910      64.90076136      81.04276042
H      77.31435072      66.57694860      82.22950855
H      75.78178268      64.77792915      79.85790202
H      79.09069345      65.13886688      79.80121023
C      84.80900528      64.15242974      84.74473427
O      85.10002314      66.39175542      84.63513014
N      86.54566377      62.92788709      86.11100639
H      86.49464115      61.02871215      86.30942766
C      88.72073874      64.22801879      87.24295245
H      88.14248249      65.85696288      88.36167043
C      90.28543213      62.40443290      88.91347051
H      92.10145912      63.18300014      89.49739595
H      90.82211440      60.84540869      87.67569978
C      89.07600729      61.30272246      91.34743801
H      87.17494262      60.56194975      91.07531742
H      88.69050312      62.79560625      92.71371013
C      90.86179866      59.42622423      92.65890807
H      92.05421596      60.38242575      94.04029800
H      91.98807555      58.47380217      91.22082634
N      89.45017310      57.71602192      94.14045350
H      89.07411756      55.96046617      93.49605682
C      88.18783593      58.38120558      96.30985930
N      88.18594620      60.51659632      97.38133412
H      87.05400015      60.80194499      98.88933572
H      89.37269432      61.86586090      96.74071690
N      86.84424052      56.79572520      97.49849715
H      86.00331232      57.40232735      99.10098507
H      86.57778912      55.01371329      96.87110802
C      90.50275066      65.27303744      85.21905557
O      91.43627546      67.44622270      85.48361726
N      91.07155828      63.92188313      83.16303334
H      90.29488077      62.21735000      82.80776480
C      92.36035162      65.08217509      80.95394328
H      94.08756148      65.93633138      81.67770846
C      93.07844762      63.08095492      79.02453272
H      91.55532822      61.71846225      78.74863268
C      93.73607238      64.29793867      76.41293095
H      92.29043176      65.61507791      75.77420346
H      94.19338615      62.71056856      75.17893967
H      95.57855553      65.21823538      76.36001862
C      95.27430960      61.45012111      80.14136097
H      94.71117116      60.90776966      82.04620509
H      96.74640641      62.84662886      80.50229870
C      96.15870151      59.17867009      78.36123878
H      94.59400813      57.93711990      77.85479213
H      97.54765036      58.03538567      79.36468346
H      97.22828662      60.14998941      76.89292144
C      90.77487125      67.44055353      79.85979175
O      91.84823579      69.38697163      79.35523482
N      88.21429209      67.23457336      79.58011225
H      87.46218102      65.49791488      79.79932051
C      86.58156856      69.28870586      78.50296826
H      87.43194540      69.91987445      76.73607415
C      83.96618734      68.35707079      78.05699285
H      82.75676250      69.97278679      77.64692224
H      83.17250230      67.38386174      79.68971638
C      83.78666334      66.74513424      75.80443908
O      85.03766217      67.27425761      73.79754974
O      82.26921311      64.86485656      75.90459458
C      86.24141782      71.59606169      80.28309044
O      86.28677125      73.73334215      79.34578619
N      85.93906161      71.20110889      82.88524358
H      85.99953285      69.42287643      83.57688341
C      84.88081488      73.13240918      84.48962122
H      84.11925517      74.64607996      83.32177035
C      82.49409054      72.26691453      86.15635982
H      81.73820002      73.70310653      87.42625591
H      83.15549475      70.60395537      87.17681203
C      80.13004293      71.49968565      84.49151094
H      78.85636739      70.36773958      85.64802345
H      80.71018890      70.25246628      82.95894290
C      78.62393105      73.64830446      83.23295322
O      79.25320992      75.76101848      83.93971086
O      76.82491160      73.19288042      81.77219478
C      86.81400489      74.19443537      86.38690643
O      86.32834524      76.03691852      87.64924361
N      89.01364632      72.88863449      86.80453595
H      89.22529567      71.31827192      85.73873031
C      90.91471099      73.59728185      88.74150542
H      91.62902754      75.43031638      88.13301355
H      92.62869276      72.45210771      88.79819721
C      89.86969234      73.95821958      91.42113733
O      88.06878317      72.82249407      92.26017582
N      91.02242539      75.69676779      92.97449236
H      92.62680303      76.58871861      92.45481763
C      90.00386291      76.28447267      95.54074069
H      88.07067290      75.59661229      95.73160305
C      91.50619534      75.01835604      97.61943964
H      93.45072371      75.47000063      97.11110326
H      91.10746308      73.00012834      97.53251223
C      91.03565348      75.78936438     100.34442498
H      91.53076178      77.73389275     100.81496683
C      88.21240237      75.16008551     101.13622031
H      87.78343449      73.20043933     100.66378873
H      86.98030081      76.31092884      99.94758246
H      87.79099340      75.63251709     103.09775622
C      92.41515370      73.99412438     102.16801087
H      91.82177962      72.02691929     102.31163007
H      92.40759479      74.89741356     104.01805293
H      94.36157180      73.66531200     101.58597517
C      90.17960746      79.14551831      95.94892158
O      92.17704817      80.26801574      95.55774823
N      88.17082840      80.34171506      96.77284225
H      86.53621513      79.35716766      96.76717307
C      88.11602632      82.96087573      98.00305408
H      90.07000333      83.46165321      98.42068360
C      87.35635636      85.15862744      96.29096204
H      87.62469748      86.84426331      97.44369509
H      85.35513618      85.03579523      95.82230992
C      88.96262371      85.61783093      93.95337059
H      89.33301007      83.89440053      92.88945468
H      90.74085617      86.51356120      94.47871451
C      87.44895295      87.28645927      92.12600525
H      87.02376452      89.14972941      92.89323413
H      85.57623417      86.44553106      91.95026070
N      88.48641268      87.66818398      89.58432336
H      89.67882998      89.13083215      89.30086441
C      87.61713858      86.54946600      87.53774976
N      85.94284106      84.75422601      87.68703814
H      85.14915602      84.12872660      86.06754269
H      85.49308620      84.03424028      89.39535072
N      88.42783117      87.15984760      85.39291039
H      87.66060228      86.39450845      83.82254783
H      89.56733613      88.68485674      85.27007818
C      86.53432540      82.99300108     100.48804418
O      84.24964629      82.45631881     100.65245037
N      87.93650232      83.57503679     102.54973559
H      89.69772725      84.29502251     102.40611639
C      86.95762409      83.60338268     105.14055036
H      85.47229921      82.20120576     105.39566342
C      89.14214771      83.42952786     107.17956506
H      88.40137500      83.97943822     109.02204821
H      90.55755272      84.83548424     106.66366977
C      90.42905133      80.88595624     107.46113428
H      91.37769394      80.20565477     105.76227032
C      92.15626118      80.92564050     109.64943735
H      91.25297200      81.40941043     111.43711844
H      93.76063883      82.19364685     109.40377293
H      92.97262295      79.04914227     109.89888122
C      88.48074350      78.81670593     108.10364122
H      87.40359951      78.40852505     106.39721836
H      87.33367963      79.57637591     109.63998872
H      89.70717588      77.28980707     108.74425844
C      85.51009374      86.13561594     105.50904700
O      84.02665858      86.28112487     107.21924931
N      85.86158283      87.95542238     103.86309538
H      87.14470701      87.46409354     102.54028696
C      84.68239361      90.51033236     103.78750632
H      83.94729008      91.10370642     105.61865112
C      86.72707748      92.46241964     103.18468363
H      85.76709652      94.25576991     102.86531988
H      87.87036190      92.03345176     101.52550393
C      88.37869828      92.78556284     105.70746826
H      89.31600253      90.97331530     105.99281693
H      86.99541862      93.41862115     107.09263765
C      90.27598350      95.01543989     105.28416956
H      90.73707672      95.85825782     107.10586573
H      89.52765188      96.39494009     103.94813306
C      92.69483318      94.18207058     104.10498034
H      92.21106324      93.12760330     102.40044721
H      93.82866897      92.85737244     105.20480106
N      94.25007795      96.30234350     103.32830283
H      94.28976219      97.40972312     104.87976813
H      93.51119495      97.33035462     101.89966974
H      95.97917751      95.75243315     102.73870822
C      82.47141383      90.67284882     101.99604578
O      82.50542891      89.41240137      99.98159753
N      80.56845943      92.26588810     102.57808148
H      80.46074504      93.26744305     104.19946666
C      78.74865300      93.00855054     100.64111201
H      77.71497270      91.32480440     100.05340713
C      76.87026504      94.83024671     101.83163959
H      77.70363434      96.33824830     102.95980620
C      74.91439830      95.84880919      99.94380300
H      73.16829119      96.24565171     100.96047576
H      74.22275847      94.28600553      98.79673913
H      75.50021347      97.62515192      99.07830835
C      75.22998260      93.36570881     103.82908030
H      76.49798895      92.28100591     105.03472569
H      74.16039750      91.92573736     102.81429727
C      73.40639670      94.76221656     105.59408468
H      71.89083620      95.80534548     104.67000851
H      74.42684891      96.17006266     106.69768485
H      72.53712260      93.49043075     106.96224653
C      80.15838883      94.11970961      98.34698427
O      81.52466094      95.95274414      98.77217269
N      79.59714010      93.08602932      96.11332777
H      78.49542967      91.52889484      96.13411476
C      80.16783745      94.32757951      93.66235274
H      80.88215400      96.21352637      94.07809253
C      82.19173433      92.64572309      92.32442651
H      83.59202154      92.58714157      93.83242811
H      82.81534403      93.53767391      90.57265022
C      81.27899652      89.95853227      91.71404491
C      80.79333687      89.22342874      89.13267877
H      81.21285611      90.48576591      87.58688264
C      80.19618336      86.57214272      88.66969582
H      79.93729084      85.89562070      86.76296197
C      80.02610798      84.84304314      90.74461531
O      79.47619762      82.35616331      90.48572281
H      78.96030235      81.94798243      88.79441776
C      80.53066490      85.64617683      93.33731981
H      80.39838407      84.38950883      94.93791800
C      81.34702667      88.18029981      93.64534520
H      81.67205961      88.73398962      95.58231467
C      77.87937890      94.64883298      91.95592988
O      75.83658474      93.90994999      92.68914369
N      78.19496318      95.74298452      89.72227338
H      80.01287989      96.05478936      89.22716508
C      76.24098618      95.71085917      87.65680252
H      74.44952564      95.10236730      88.46749510
C      75.71186281      98.24120270      86.51540782
H      74.73676403      97.85569853      84.74284454
H      77.55434596      98.99898295      85.99006391
C      74.29834752     100.14982628      88.31064782
H      75.67973747     100.76776678      89.70904529
H      72.58625548      99.25220628      89.02118491
C      73.51033166     102.20206905      86.50973864
H      72.59570412     101.56334156      84.77685962
H      75.01077435     103.47952404      85.91447486
C      71.29935186     103.67416585      87.83254706
H      71.93241018     104.84579617      89.40479936
H      69.98221263     102.46096156      88.84921982
N      69.74788657     105.09712977      86.00518172
H      69.66284889     104.29210636      84.27797187
H      70.31291473     106.91882593      86.06943241
H      67.96965410     105.18405718      86.69493182
C      76.74176365      93.69263147      85.60833919
O      79.02266332      93.32224511      85.07165692
N      74.66873388      92.57013404      84.56521027
H      72.83191990      92.80823955      85.01874458
C      75.00132571      90.76922486      82.52052640
H      76.73609448      89.66751442      82.67737368
C      72.80357401      88.87760882      82.62068189
H      71.00266483      89.86782541      82.76241137
H      73.04167954      87.80046482      84.36300955
C      72.65428563      86.99922087      80.52308569
O      71.23132173      87.08614828      78.65036691
O      74.22275847      85.22665758      80.65158707
C      75.17518053      92.13549698      79.94860889
O      75.17140108      94.53544940      79.79365133
N      75.74776762      90.69741526      77.85101268
H      75.73831897      88.79635059      78.02297777
C      75.69674500      91.84825858      75.26964653
H      76.81546298      93.55657117      75.53042877
C      76.81546298      90.33458781      72.97173934
H      75.29801274      89.73554457      71.71696107
C      78.59180571      92.23565248      71.54877542
H      78.09669741      94.23309319      71.43539185
H      78.62015160      91.64416814      69.57590115
H      80.63837931      92.14116616      71.76798368
O      78.18362482      88.19163817      73.70306342
H      77.38049114      86.66473931      73.14748389
C      73.14750420      93.09358822      74.44572586
O      73.11159940      94.79812136      72.73930300
N      71.08581279      92.36793332      75.78743154
H      71.18785802      90.72387143      76.75497142
C      68.61216106      93.44318759      75.57200274
H      68.28901785      94.29167471      73.72385041
C      66.66952240      91.25488452      75.91215348
H      66.43897579      90.78623240      77.90581474
H      67.42541293      89.58058701      74.98240814
C      64.11461243      91.72164692      74.68194165
H      63.21321298      93.48854102      75.24130064
H      62.79369374      90.15317408      74.88225264
C      64.33571041      92.13549698      71.77365286
O      63.71021099      90.33269808      70.30911496
O      65.03679886      94.24065210      70.89115067
C      68.10760412      95.60881395      77.38425028
O      66.05725107      96.79178262      77.33511740
N      69.89528522      96.17762157      79.04720943
H      71.52422930      95.24409677      78.70138952
C      70.03701469      98.22041571      80.95772274
H      69.08081318      99.91550021      80.28875962
H      71.98721224      98.87804047      81.02008371
C      68.73499326      97.48720190      83.57688341
O      68.92585562      98.98764460      85.29842408
N      67.82036573      95.04378578      83.99640265
H      67.92808012      93.86270683      82.50162913
C      66.67141213      94.19340894      86.30753793
H      65.56781197      95.80156603      86.97461132
C      64.81003171      91.99565724      85.95226938
H      63.88784528      91.51566675      87.73050184
H      65.94197777      90.28545492      85.75384812
C      62.97510746      92.23754221      83.77341494
C      62.95054101      90.38372069      81.85534274
H      64.36783576      88.91540335      81.85723246
C      61.21955171      90.35726452      79.90325545
H      61.16474965      88.85115265      78.52753470
C      59.41486308      92.25832919      79.86924038
O      57.42687100      92.03912094      78.16848670
H      56.66720102      93.66428557      77.89636611
C      59.57360010      94.24065210      81.60967832
H      58.19221017      95.74298452      81.57377352
C      61.18175718      94.22175483      83.66948000
H      61.32537638      95.79967631      84.95260416
C      68.43263706      93.46775403      88.43159030
O      70.35070926      92.07313602      88.07443203
N      68.10193494      94.37860212      90.72949750
H      66.64684569      95.58046805      91.02240508
C      69.49466324      93.74554380      93.14267800
H      71.45997860      94.27088772      92.81764508
C      68.65940421      95.40661323      95.25728175
H      69.59481873      94.77544464      96.98071214
H      66.63361760      95.18929471      95.56530714
C      69.05057755      98.25254106      94.87933648
C      66.92274572      99.85313925      94.55052411
H      65.00089406      99.22952956      94.26517543
C      67.35360332     102.41371840      94.51461931
H      65.70387225     103.60802543      94.38422819
C      69.88772631     103.44739869      94.45036861
O      70.35070926     105.92482989      94.33509531
H      68.86916383     106.89614922      94.73004811
C      71.93429991     101.80711625      94.29163160
H      73.78434197     102.66505200      94.17635830
C      71.54123683      99.25409601      94.74894537
H      73.22498298      98.13537803      95.02484541
C      69.33025705      91.03945572      93.68502946
O      67.40462593      89.78467745      93.62644794
N      71.60170807      90.04923913      94.11210760
H      73.01522336      91.33425303      94.10076924
C      72.24232530      87.37716613      94.15557131
H      70.61716067      86.30947076      94.83020360
C      73.27789531      86.38317009      91.61010996
H      75.05801750      87.30724625      91.14145784
C      73.67095839      83.48055047      91.47782912
H      75.04856888      82.63962226      92.75717384
H      74.11504408      82.99111136      89.52763157
H      71.80390879      82.63206336      91.67814011
O      71.57525191      87.18063459      89.71849392
H      71.58848000      88.99477185      89.74306037
C      74.49298933      87.02567703      96.03017981
O      75.94618887      88.82091703      96.59331825
N      74.81613253      84.86760958      97.32275261
H      73.55757481      83.47677102      96.97693269
C      76.91561848      84.13628550      99.01027821
H      78.56723926      85.35704870      98.85343092
C      76.14838958      84.58793009     101.81841151
H      75.14683464      86.38883927     101.83352932
C      74.31157561      82.44687018     102.71036233
H      73.12860695      83.35393881     104.13143651
H      75.50021347      80.94453776     103.46814258
H      73.13616584      81.84404748     101.12677168
C      78.39338444      84.86383013     103.83663921
H      79.97886483      85.75956040     102.87476852
H      79.29856335      83.07047986     104.28639407
C      77.63938364      86.28679405     106.28194506
H      79.25320992      87.29023872     107.07751984
H      76.64349789      85.13595072     107.66900417
H      76.40539236      87.80802373     105.64132784
C      77.70741379      81.36027755      98.57186170
O      76.57357801      80.07148420      97.01094777
N      79.63115518      80.45698837      99.96270027
H      80.77254987      81.62861868     100.94346822
C      80.47019366      77.75090029     100.03450987
H      78.75621191      76.73422753     100.55985378
H      81.93473155      77.43720572     101.44991488
C      81.52655067      76.84950084      97.39456221
O      83.20651736      77.84349688      96.25505724
N      80.38893543      74.83505259      96.60087716
H      79.24943047      73.92042505      97.82541981
C      80.79900604      73.40641950      94.26895489
H      82.20496242      74.32671621      93.07464786
C      81.39615955      70.62285264      94.96626390
H      79.78989219      69.67987921      95.84309690
C      82.28244120      69.12429967      92.59465737
H      83.86792157      70.04081693      91.65546339
H      80.70640945      69.03737226      91.26806950
H      82.63015085      67.18544047      93.19748007
C      83.66950031      70.53025605      96.89567446
H      83.21407627      71.66220211      98.55485416
H      85.34568755      71.37496371      96.04907707
C      84.39515522      67.89030839      97.98415682
H      85.98252532      67.81471934      99.29373715
H      84.89782241      66.55616161      96.49883194
H      82.84180018      67.10418224      99.08586726
C      78.44629679      73.86940244      92.65512861
O      76.99498698      72.18943575      92.18647649
N      78.01354946      76.22967061      91.82742849
H      79.05478865      77.66208315      92.53985531
C      75.91406353      76.74367616      90.08321110
H      75.94429915      75.56826640      88.39190605
H      76.22964783      78.62584357      89.30275414
C      73.20608572      76.81548576      91.47971885
O      71.35982311      76.32793638      90.04352685
N      73.03978980      77.31437351      93.93258360
H      74.72164623      77.39374202      94.83209333
C      70.41118050      77.48444888      95.23082558
H      69.23388101      76.02558017      94.37666929
C      70.75889014      76.83060358      98.15990136
H      71.85304168      78.29325174      99.10854397
H      71.55068547      74.96733343      98.54162608
C      68.38161444      77.00445840      99.61499063
N      66.27267987      75.43409583      99.28239879
H      66.43519634      74.06782371      97.96148010
C      64.43775562      76.13140484     100.93968877
H      62.70298687      75.08071701     101.14944839
N      65.40907495      78.09672020     102.30407117
H      64.46799124      79.18142311     103.56262889
C      67.78824038      78.63907166     101.45180460
H      69.14695359      80.04691776     102.03195058
C      69.27734471      80.04313831      94.90201320
O      70.08803731      81.86672420      96.11899695
N      67.19108687      80.22077258      93.51684381
H      66.64684569      78.66363810      92.55686285
C      65.85505036      82.48655443      93.20692870
H      67.18163823      83.90384916      92.51717859
C      63.72721854      82.04813793      91.19625990
H      62.55369850      80.38706850      91.52885173
H      64.58326455      81.42263852      89.42936580
C      62.09827445      84.42730335      90.77485093
H      61.38395791      85.07925893      92.59276765
C      63.45509795      86.52678929      89.28952605
H      64.15240696      85.72743506      87.52452167
H      65.09349065      87.49621889      90.07754192
H      62.08882583      87.98943745      88.80008694
C      59.88351522      83.51078609      89.30464386
H      58.81393012      82.08782218      90.34210361
H      60.47310982      82.65851952      87.52263195
H      58.56070680      85.01311851      88.82654310
C      64.76845773      83.16685590      95.87711198
O      63.75367470      81.67208239      97.30385534
N      64.89506939      85.71609670      96.41190452
H      65.84182227      86.80268933      95.16090571
C      63.76690278      86.92174209      98.54729526
H      63.45509795      85.33815144      99.82286052
C      65.43553112      88.80013004      99.83797833
H      64.46232206      89.52389522     101.50282721
H      65.63206265      90.37805151      98.52461854
C      67.88461642      87.69841960     100.80173875
H      69.20931456      87.16929623      99.31641387
C      69.53056804      89.89239185     102.09431155
H      68.45909322      90.66717964     103.67223302
H      69.91796193      91.48165168     100.83953328
H      71.26911624      89.07603008     102.83886372
C      67.51989924      85.40807131     102.51383079
H      66.61661007      86.08270360     104.23537146
H      69.27923445      84.44620062     102.98059319
H      66.56747719      84.05313754     101.28928814
C      61.11372705      87.98754773      98.02951025
O      59.50745968      87.43952710      99.48082006
N      60.90018797      89.52011577      96.13600448
H      62.56692657      89.94530419      95.30830436
C      58.57204515      90.70497417      95.29885573
H      57.12073534      89.24421573      95.37066533
C      57.93142794      93.02366835      96.91457172