 %block lattice_cart
   135.996   0.000   0.000
   0.000 142.663   0.000
   0.000   0.000   160.158
 %endblock lattice_cart

 %block positions_abs
N      88.10563283      40.30408367      81.28181081
H      87.90154239      40.03952198      83.16208848
H      89.84040158      39.69181234      80.77536416
H      86.79794222      39.19103487      80.45222096
C      87.76359237      42.92891352      80.63363468
H      89.20734327      44.01361642      81.62763072
C      88.61396921      43.43724990      77.87463426
H      87.31761696      42.54529908      76.54615666
H      90.40542975      42.42813604      77.73290479
C      88.90309733      46.19814004      77.28126020
H      86.95101005      46.84064698      77.41732049
H      89.48513304      46.49671680      75.32917292
S      90.49613661      48.10298416      79.55082150
C      90.51314415      50.94513254      77.75180205
H      91.82272449      50.50860576      76.22301347
H      91.14242301      52.47770058      78.97445498
H      88.54593906      51.11520790      77.16409717
C      85.07262210      43.74338556      81.32149505
O      83.26604374      42.61332922      80.50891274
N      84.91199536      45.83153313      82.79548158
H      86.62408740      46.51750379      83.29058988
C      82.70479503      46.53640105      84.17498178
H      81.14766054      45.32886593      83.57026937
C      83.12809372      46.03940303      87.02657880
H      84.46224050      47.37921898      87.84483029
H      83.86319726      44.12133082      87.17019800
C      81.05884341      46.27183936      89.03724760
O      79.83430076      48.28817734      89.21866132
N      80.73947966      44.35376716      90.63595606
H      79.45446577      44.62399802      92.01923572
H      81.64654829      42.71159499      90.27690806
C      82.01693465      49.26138639      83.64963788
O      83.64965818      50.66356332      82.89374735
N      79.57351853      49.98704130      84.06159821
H      78.24882038      48.91934593      84.92331341
C      78.69668552      52.50793620      83.59861527
H      79.32596438      53.15233287      81.74668347
C      75.71091794      52.50793620      83.87073586
H      75.10242607      51.11520790      82.47989729
C      74.57897188      51.60275729      86.42564583
H      72.58531062      51.09631064      86.32926979
H      74.71692190      53.08241300      87.85049946
H      75.74115356      50.16089612      87.33271446
C      74.69802464      55.19134756      83.40586318
H      75.68068232      56.44612583      84.71166407
H      72.64956131      55.18000920      83.62129198
C      75.30840624      56.30061691      80.72245181
H      74.29173348      58.09018773      80.77725387
H      74.71125272      55.06095645      79.19177350
H      77.35309011      56.44045665      80.52592028
C      79.89477200      54.36553716      85.40141417
O      80.33129878      56.50848680      84.66253117
N      80.77538446      53.56996239      87.59538642
H      80.63932417      51.79361965      88.27568789
C      82.04906000      55.27449552      89.44353874
H      80.96057764      57.02249236      89.43975930
C      81.98669903      54.16711590      92.06269941
H      83.02793823      55.44079144      93.30235988
H      83.14321153      52.48336976      91.80002746
C      79.52816509      53.59452883      93.34582359
C      77.68379221      55.46346815      93.64817980
H      77.92000800      57.27571569      92.74300090
C      75.55596038      55.00615438      95.28846223
H      74.18968826      56.50092790      95.54168556
C      75.37643638      52.71013691      96.52623297
H      73.70591832      52.27549986      97.61849478
C      77.17923529      50.78072635      96.32970144
H      76.95246813      48.93824319      97.17629883
C      79.28439040      51.26638601      94.68186009
H      80.78861255      49.90389334      94.48154910
C      84.75514808      55.85275177      88.66119206
O      85.53560504      58.04294457      88.61394890
N      85.90410167      54.07640904      87.17586718
H      85.05561456      52.43045742      86.71666368
C      88.27759792      54.46758238      85.85116903
H      89.63253169      55.36709211      87.11539594
C      89.45300769      51.85409089      85.11984494
H      90.97045792      52.35297864      83.81971325
H      88.33617944      50.55017974      83.98033998
C      90.61140992      50.40656054      87.23255897
H      89.16198984      50.17412420      88.67819960
H      92.28948689      51.32685725      87.99222893
C      91.21423261      47.69480328      86.38029239
O      93.49135282      47.12032648      86.10628208
O      89.51158921      46.16412496      85.88707383
C      88.16610407      56.00959906      83.37562756
O      89.92354954      57.47224722      82.97122613
N      86.04961060      55.75826546      82.03581161
H      84.74758917      54.38821388      82.30415274
C      85.55828176      57.56106436      79.96089210
H      87.22691009      57.59885888      78.75335700
C      83.21124168      56.92611632      78.47934668
H      82.48558677      58.56828848      77.46645338
H      81.52938526      56.62376011      79.63207974
C      83.27360265      54.58852487      76.78804163
H      83.06384303      52.86131502      77.89353153
H      85.15577005      54.60931186      75.95278260
S      80.77538446      54.44112622      74.45989882
C      82.04339082      52.17156491      72.14498408
H      83.90288151      52.62320950      71.38531411
H      80.74325911      52.30762521      70.55005508
H      81.94701477      50.24215435      72.85930063
C      85.21813102      60.20101202      81.06260255
O      86.41621751      61.94522940      80.15931338
N      83.53438488      60.67155387      82.85217336
H      82.55361692      59.18055981      83.52869539
C      82.88242930      62.98457888      84.08238520
H      82.45535115      64.30171812      82.55926579
C      80.54294812      62.78048843      85.70188065
H      80.31807069      64.54738254      86.73556095
H      81.13821191      61.31028136      87.01524044
C      78.10520118      62.04349517      84.34883661
H      78.46613891      60.51848604      83.01280011
C      76.23626186      61.14587517      86.23667320
H      74.56007462      60.54116275      85.20677235
H      75.69957958      62.51781648      87.67475492
H      77.05451335      59.56795370      87.28169184
C      76.93357087      64.18266536      82.73123089
H      78.41511630      65.05004974      81.59550537
H      75.99815634      65.51303268      83.99356807
H      75.37454666      63.54015841      81.54826222
C      85.17088786      64.13731193      85.44865732
O      85.48269271      66.38230679      85.04236617
N      86.83573675      62.75214254      86.75067876
H      86.45779148      60.95501282      87.27224322
C      89.13364394      63.84062490      87.92986798
H      88.66121237      65.59996009      88.88984894
C      90.41865784      62.03404654      89.83849155
H      92.29515606      62.83718022      90.12195050
H      90.37519413      60.23502709      88.83315715
C      88.98624529      61.86397117      92.39907070
H      86.99636348      61.33295808      92.30836384
H      89.13931312      63.78015365      93.13606397
C      90.52070306      60.29360861      94.02612506
H      92.34428895      61.20256696      94.33037100
H      91.07439287      58.51537615      93.14740233
N      89.35663165      59.61897631      96.54701996
H      88.74247060      57.81428768      96.58103503
C      88.85018500      61.18933888      98.34414969
N      89.84229131      63.40787757      98.51044560
H      89.47379468      64.58706679      99.96553486
H      91.16132028      63.97668519      97.25377760
N      87.21935119      60.44667644     100.10537461
H      87.40454437      61.24981012     101.82691528
H      86.62597713      58.65332617      99.83514375
C      91.02525998      64.81383395      86.08360537
O      92.36885539      66.62797121      86.68453833
N      91.23879906      63.76125639      83.84616940
H      90.22212630      62.18522465      83.49279059
C      92.90175821      64.79682641      81.83739034
H      94.41542899      65.87586014      82.72745144
C      94.20566937      62.50647812      80.69977510
H      94.71022629      61.12697791      82.14352600
C      92.59940200      61.31406082      78.64753233
H      91.78870941      62.73702473      77.39653351
H      91.04226752      60.30305724      79.53759342
H      93.59906722      59.79661059      77.67810273
C      96.75679989      63.40976730      79.34106188
H      97.91898157      64.55683117      80.59772987
H      96.28625804      64.68155311      77.79148631
C      98.37440561      61.26492793      78.47178778
H      98.90352898      60.01014966      80.01380445
H     100.03547504      62.06050271      77.55149107
H      97.52024932      60.12542297      76.98268343
C      91.59217788      66.79615685      80.14041610
O      92.73168284      68.45155710      78.97067553
N      89.00703228      66.76214178      80.13096748
H      88.20200887      65.29382443      81.04559502
C      87.50847931      68.78225921      78.83461523
H      88.71790415      69.34917710      77.26614239
C      84.73814054      68.01503032      78.18454938
H      83.77060067      69.79704224      77.82739111
H      83.94445549      67.12685895      79.86451607
C      84.48680694      66.47112392      75.65798530
O      86.47857847      66.28404102      74.31061044
O      82.62164707      65.08973399      75.27437086
C      87.55005329      71.19921916      80.32560928
O      87.34407312      73.24390303      79.29759818
N      87.46879506      71.01969516      82.87673982
H      87.22313064      69.21311680      83.43798853
C      86.86975182      73.05870985      84.66064145
H      87.07762171      74.76135326      83.51924675
C      84.18067128      72.65430842      85.83416149
H      83.71390888      74.04325726      87.28358157
H      83.98225001      70.97812118      87.01524044
C      81.95079423      72.62596253      83.94443518
H      80.32185015      71.73968088      84.84205517
H      82.39487991      71.50913427      82.27202739
C      81.21380097      75.35094787      82.94854942
O      82.93912109      76.64541039      82.09817256
O      78.97447528      75.95755002      82.45155139
C      88.74247060      73.63507638      86.81492945
O      88.82939801      75.80826164      87.79380768
N      90.46401127      71.92676379      87.48578228
H      90.47912908      70.29592998      86.49367598
C      91.98524095      72.11384669      89.76101277
H      93.48946309      73.46878046      89.38495724
H      92.49735678      70.17120805      90.22210598
C      90.39598112      72.49368168      92.14206793
O      88.11130201      71.78881377      92.33482000
N      91.56572171      73.67098118      94.03746342
H      93.32505691      74.36262101      93.78801954
C      90.22401603      74.32671621      96.44308502
H      88.18311161      74.09239014      96.31080417
C      91.19533535      72.46344606      98.38005449
H      93.24001922      72.33305495      98.16651540
H      90.56038731      70.60017592      97.77912151
C      90.60007156      73.12674000     101.17873916
H      91.19911480      75.06748892     101.51888989
C      87.82217388      72.86973722     101.89494543
H      86.78093468      74.40797444     101.00488433
H      87.71445948      72.87918585     103.95096765
H      87.16265940      71.06504859     101.15228298
C      92.12697042      71.22378560     102.67729212
H      94.12063168      71.73779116     102.66217431
H      91.94177724      69.37563327     101.78534130
H      91.52036828      70.86284788     104.61237187
C      90.93266339      77.08949608      97.28023377
O      93.15120208      77.71877494      97.60526669
N      88.89364870      78.52568807      97.66951739
H      87.12108542      77.92097565      97.30291048
C      88.99569392      81.19587136      98.59548329
H      90.96478874      81.68153102      98.95831073
C      88.23224449      82.72088049      96.27867883
H      87.72201839      84.63895270      96.83236864
H      86.46912984      82.00845367      95.48499378
C      90.29393590      82.78891064      94.16407507
H      91.06494424      80.91430213      93.79179900
H      91.92476971      83.86983409      94.81225121
C      89.52292756      83.74511215      91.49389180
H      91.16321000      84.36116293      90.41296835
H      88.39665068      85.46476310      91.64506990
N      88.04138213      81.74767144      90.09171488
H      88.18311161      79.96754925      90.76823690
C      87.20801283      81.96498996      87.80136659
N      86.63542576      84.09471152      86.78091438
H      86.38976134      84.25911771      84.89685723
H      86.72802235      85.70097889      87.80703577
N      86.67133056      79.93920336      86.46721980
H      85.68867287      80.12628626      84.84205517
H      86.71479426      78.31403873      87.46310558
C      87.42533136      81.67397211     100.92740556
O      85.16710841      81.89129064     100.96331036
N      88.64798428      81.87239338     103.04011956
H      90.55093868      81.96876942     102.90594901
C      87.57084028      82.39773729     105.60447817
H      85.87575578      81.27146041     105.93140082
C      89.67032622      81.87995228     107.61136753
H      88.83506719      82.70765241     109.30078285
H      91.41832306      82.78324146     107.00854483
C      90.27503864      79.10205460     107.87403948
H      91.72634844      78.79213949     106.44540638
C      91.87374710      78.65229974     110.27210217
H      93.74457615      79.51023548     110.18895422
H      92.22523619      76.64352067     110.56689947
H      91.06116478      79.28913751     112.05600381
C      88.04894104      77.35783721     107.71719220
H      87.08140117      77.43909544     105.90116520
H      86.65621275      77.95121128     109.11369993
H      88.75569868      75.42275747     107.71530247
C      86.54660862      85.15106853     105.91250357
O      84.85908302      85.66885354     107.41672571
N      87.26281489      86.81024823     104.26466223
H      88.86152335      86.29057350     103.36137305
C      86.49936546      89.46909315     104.04545397
H      85.55828176      89.94152473     105.81612752
C      88.89742815      91.11693450     104.09458686
H      90.15598588      90.43852275     102.61304143
H      89.94433653      90.63316456     105.80100972
C      88.37208424      93.92884725     103.83002517
H      86.75447852      94.45041171     104.99220686
H      87.60674508      93.98175959     101.91762214
C      90.60952019      95.83369138     104.39316360
H      92.24602318      94.83402616     103.64105254
H      90.80416200      95.99809756     106.43784749
C      90.11819135      98.53411028     103.44452100
H      88.31350272      99.16716859     104.20986016
H      89.85740912      98.40749861     101.40361659
N      92.02681493     100.36147562     104.37993553
H      93.56316242      99.81156526     103.38782922
H      92.58050474     100.30856328     106.20541114
H      91.53359636     102.16049507     103.97931355
C      84.78727342      90.00010625     101.77400295
O      85.08585018      88.70375400      99.78223141
N      82.99770260      91.86526612     101.93273996
H      82.86731149      92.74965803     103.61837583
C      80.96435709      92.20163740     100.07891844
H      80.12909806      90.34025698      99.78412114
C      78.92723213      93.81546367     101.36960151
H      78.92345267      92.98209437     103.25365865
C      79.42234042      96.72942165     101.43763166
H      78.39432931      97.65160809     102.96453052
H      78.93668076      97.85569853      99.78412114
H      81.37442770      96.90516620     102.07068998
C      76.22114405      93.33169374     100.21686846
H      75.98681798      91.49676949      99.30979982
H      76.08130430      94.77355491      98.75233057
C      74.11409921      93.91750889     102.21619890
H      72.31319003      93.86270683     101.21842341
H      74.45613967      95.80534548     102.96642025
H      74.18779853      92.51722170     103.72609023
C      81.66544555      93.00288136      97.49377285
O      83.36430951      94.65639188      97.29913104
N      80.27271726      92.01644422      95.65506914
H      78.88565815      90.78434267      96.10482400
C      80.55050703      92.79501146      92.99244477
H      81.18356534      94.74331929      93.20787356
C      82.84652450      91.42495989      91.80569664
H      84.61530833      91.93140654      92.73166253
H      83.11864509      92.34147715      89.98022103
C      82.35708538      88.59414987      91.26901437
C      81.72591680      87.80424427      88.89173867
H      81.24592631      88.95508760      87.27413295
C      81.22513932      85.24933430      88.43820435
H      80.66767006      84.79957943      86.52580133
C      81.36497907      83.39740251      90.36761492
O      80.66200088      81.01067818      89.82715319
H      80.19712821      80.95020693      88.07537690
C      82.21535591      84.20809510      92.84504612
H      82.15299494      82.93252984      94.43430595
C      82.64243406      86.83103522      93.28157289
H      83.02604850      87.50377779      95.16940948
C      78.04284021      92.81390873      91.41830275
O      76.12287828      93.06713205      92.72221391
N      78.16567242      92.71942241      88.77457564
H      79.79839596      92.43218401      87.82782275
C      75.90744948      93.13516220      87.27980212
H      74.26527731      92.18651959      88.08482552
C      75.27817062      95.88282426      86.70154586
H      73.77394847      95.70707971      85.30503813
H      76.77294413      97.09035937      85.96077315
C      74.03662043      97.27933201      88.96921744
H      75.44824598      97.54956287      90.44509369
H      72.56074418      96.14171676      89.84982991
C      73.16167715      99.79077828      88.19820911
H      72.65712022     100.93595242      89.83471210
H      71.37588578      99.75865293      87.17019800
C      74.76983424     101.39326619      86.41430747
H      75.59375491     100.45407221      84.77780449
H      76.30429200     102.10002383      87.58971724
N      73.47537171     103.58156926      85.25401552
H      73.63032927     105.13114484      86.36139514
H      71.66123445     103.15071166      84.84772436
H      74.23882114     104.18628168      83.61184334
C      76.15122417      91.63849896      84.80237093
O      78.04472994      91.91250928      83.50790840
N      74.30874102      90.24577067      84.07671602
H      72.80073942      90.08703366      85.23511825
C      74.02339234      88.98343349      81.67109443
H      75.74115356      88.00644499      81.08905872
C      71.81430228      87.07292019      81.57471838
H      70.20614519      88.05746760      82.40430824
H      72.30185167      85.47043228      82.77280486
C      71.30974536      86.54757627      78.79304124
O      69.85654582      87.99699636      77.61007258
O      72.29618249      84.55202529      77.75558151
C      73.77016902      91.11315505      79.70766879
O      72.58153117      93.14272111      80.26135860
N      74.93990961      90.84670364      77.50424790
H      75.70713849      89.12516296      77.19622252
C      75.20069184      92.83658544      75.59940377
H      75.91500838      94.48442679      76.61229709
C      77.12254350      92.13927643      73.52259457
H      76.99404211      93.72853626      72.22246286
C      79.92689735      91.97109079      74.33328714
H      80.48436661      93.72664654      75.25547359
H      81.34419208      91.73676473      72.85552118
H      80.01004530      90.46497892      75.73924353
O      76.61798657      89.88294322      72.20167586
H      77.75371209      90.13805627      70.81272703
C      72.76672435      93.73420544      74.55249541
O      72.66278940      95.75243314      73.44511578
N      70.55952401      92.58714157      75.24791468
H      70.64267197      91.25866397      76.61796627
C      68.06319555      93.40161361      74.45800909
H      68.04996747      94.18962948      72.55505469
C      66.37755968      91.03189681      74.58084129
H      66.19236650      90.39883850      76.53103886
H      67.36588654      89.65050688      73.42054934
C      63.64690516      91.37960646      73.59629389
H      62.68503447      92.80823955      74.72635023
H      62.55653308      89.66562469      73.92888572
C      63.58454419      92.09392300      70.75981470
O      62.58865842      93.92506780      69.85841524
O      64.95270604      90.69552553      69.38787339
C      67.21092899      95.60692422      76.19655730
O      66.17157951      97.49098135      75.33484209
N      67.87422292      95.58802695      78.61918643
H      69.33498136      94.43529390      79.04248512
C      66.82731454      97.36059024      80.58072234
H      64.97349303      97.93128758      79.89097224
H      68.01217294      99.01976994      80.88118883
C      66.24149939      96.19462910      83.12807341
O      65.67458149      97.70263070      84.77213531
N      66.45692819      93.70585955      83.46444469
H      66.85188099      92.66273062      81.91486912
C      65.76339863      92.39438949      85.84172040
H      64.28374293      93.42429033      86.84138562
C      64.51617926      89.92640692      85.01402028
H      63.25573181      89.42562945      86.56548558
H      66.01473223      88.53367863      84.78158394
C      62.76062352      89.85459732      82.61406786
C      63.01006739      87.88172305      80.97567514
H      64.02485042      86.21498444      81.57471838
C      61.28285754      87.80235455      78.94043991
H      61.12412053      86.09026251      77.84439864
C      59.62745729      89.80924389      78.38108091
O      58.06654336      89.75066237      76.34962513
H      57.21238706      91.33047357      76.10018126
C      59.62745729      91.95219353      79.97600992
H      58.33110504      93.48665129      79.61129275
C      61.20537876      91.85959694      82.10006230
H      61.08632601      93.50365883      83.30192824
C      67.85721539      92.02211340      87.82404330
O      70.00961366      91.67440376      87.20232335
N      67.22604680      91.98998806      90.32415121
H      65.44214516      92.58147239      90.66052250
C      69.07797858      91.80101542      92.32726111
H      70.84109323      92.44541210      91.48066372
C      68.21248393      93.32035538      94.67808064
H      69.27262039      92.51533197      96.25033293
H      66.16213088      93.26555332      94.87083272
C      69.09687585      96.04534072      94.52312308
C      67.33754065      97.87648552      93.68597433
H      65.44781434      97.50042998      93.00945231
C      68.20114557     100.34068863      93.58203938
H      66.95392621     101.85057996      93.00756258
C      70.65778978     101.01532093      94.31336346
O      71.50816662     103.47763431      94.03935315
H      70.33086713     104.37714404      92.99433449
C      72.37744073      99.11614598      95.10137933
H      74.32007938      99.59424674      95.50200131
C      71.51383580      96.61792780      95.33948485
H      72.70436338      95.12504401      96.05947056
C      69.49560810      88.96642595      92.65796321
O      67.69091947      87.39228394      92.79780296
N      71.95414203      88.38439025      92.93764271
H      73.18624359      89.83947951      93.04346738
C      73.00671959      85.94853303      93.38361812
H      71.45525429      84.74099792      93.99966889
C      73.83819917      84.74477737      90.93075336
H      74.48826502      82.86260996      91.45231782
C      71.66501391      84.37817047      89.01268115
H      72.51161129      83.56747788      87.31759665
H      70.91101311      86.14506457      88.27190844
H      70.17968902      83.29535729      89.94242650
O      75.69957958      86.29435295      89.59849630
H      76.46680847      87.41496065      90.80225197
C      75.31785487      85.93152550      95.22988072
O      76.71814207      87.72487577      95.38294855
N      75.58430628      83.73755325      96.55457887
H      74.63755340      82.18230849      95.98577125
C      77.54773192      83.50133746      98.54446068
H      79.22391916      84.44809034      97.81691604
C      76.54050779      84.55391501     101.02756104
H      75.55407066      86.27167623     100.46253288
C      74.75282670      82.71143186     102.32580302
H      74.14622455      83.71487653     104.01899780
H      75.66934396      80.90674323     102.70563802
H      73.06152165      82.52623868     101.16740080
C      78.62109646      84.98666234     102.86437503
H      80.18578985      86.02412208     102.01777764
H      79.38454589      83.25567304     103.68262652
C      78.03528131      86.58159135     105.17928975
H      76.56696396      85.61027202     106.24887485
H      77.74237373      88.59414987     104.84858766
H      79.74737335      86.40206735     106.31123582
C      78.29606354      80.71021169      98.70508741
O      77.04695445      79.00378883      97.68274548
N      80.31240151      80.01857186     100.09025680
H      81.70890926      81.21854807     100.58725482
C      81.10797629      77.35405776     100.47576097
H      79.64154867      76.22967060     101.38660905
H      82.51582240      77.29358652     101.97809339
C      82.02449355      75.90085823      98.26100172
O      83.88020479      76.62084395      96.98543647
N      80.56562484      74.10750796      97.48621394
H      79.13510202      73.64263528      98.65973398
C      80.74892829      72.90942147      94.96909849
H      82.36275456      73.74090105      93.99966889
C      81.45190648      70.06160392      95.23932935
H      79.98925831      68.94666539      96.16340552
C      81.96780176      68.96745238      92.51245429
H      80.31051179      67.84117550      92.03246379
H      83.55895132      67.66543095      92.65418376
H      82.35708538      70.31104779      90.99878351
C      83.88398425      69.77625525      96.91362686
H      83.85185890      70.87796569      98.65406480
H      85.35608104      70.51135878      95.67774585
C      84.42822542      67.08906443      97.70164274
H      86.36708462      66.91709933      98.37816476
H      84.08618496      65.67554915      96.24277403
H      83.04494576      66.60529449      99.14539364
C      78.47558754      73.50846471      93.27023454
O      76.78617221      71.90030762      92.74678035
N      78.44346219      75.99912399      92.55024881
H      79.90422063      77.18965157      92.86583311
C      76.51216190      76.69454328      90.76445745
H      76.60853794      75.44543418      89.12984418
H      76.71625234      78.73166824      90.54524919
C      73.77016902      76.44131995      91.92285967
O      71.98626738      76.00101372      90.43942451
N      73.39411348      76.65863848      94.46643128
H      74.91156371      76.88540564      95.60026708
C      70.93368982      76.67753574      95.66640750
H      69.73938279      75.14874715      94.97665740
C      70.95636654      76.18053772      98.41029011
H      71.97681875      77.76979755      99.22854160
H      71.95036258      74.44576897      98.90728813
C      68.27673463      75.95755002      99.48554438
N      66.43047202      74.30403949      98.61815999
H      66.60054739      72.86217831      97.38038927
C      64.33854499      74.87851629      99.97687321
H      62.49417211      74.08672097      99.61026632
N      64.77696150      76.89296454     101.45463919
H      63.29163661      77.93987292     102.03856463
C      67.21281871      77.50523587     101.23165149
H      68.30697025      79.11339296     101.84770227
C      69.38789370      79.05670117      95.17507866
O      70.19669656      81.01445763      96.01033769
N      67.27140023      78.71844016      93.90140313
H      67.14289884      77.05926046      92.96598859
C      65.55552874      80.77257266      93.32503660
H      66.73282823      82.22388247      92.45765222
C      63.37478457      80.02802049      91.51278907
H      62.49606184      78.28947229      92.17986244
H      64.56531215      79.52535329      89.90841142
C      61.56253704      82.07270436      90.75311909
H      60.40602453      82.40340647      92.42741660
C      62.94959615      84.40084718      89.71943879
H      63.90579766      85.58192613      91.10838763
H      61.42080756      85.71798642      89.29802983
H      64.20437442      83.89251080      88.16608377
C      59.77485594      81.05792133      88.70276604
H      58.88101540      79.30614504      89.30936818
H      60.93136845      80.89351515      87.00579181
H      58.34622285      82.53757704      88.59316191
C      64.53696625      81.96687969      95.76467326
O      63.10644343      80.67052744      97.14039403
N      65.25128280      84.34604512      96.35237815
H      66.46070764      85.27768019      95.20531428
C      64.16280044      85.84648781      98.25533255
H      63.51651404      84.62761434      99.78223141
C      65.91646646      87.79668537      99.39861697
H      64.84688137      89.02878692     100.65717469
H      66.55141450      88.95130814      97.81691604
C      68.24460928      86.77056398     100.89905966
H      69.48049029      85.81625219      99.55735397
C      69.78284650      88.88894718     102.08769751
H      71.14344944      88.01967307     103.36704223
H      68.71515113      90.42151522     102.95130244
H      70.93746928      89.79601581     100.64016716
C      67.50383656      85.16618634     103.06846547
H      66.56464259      83.51078609     102.27667014
H      65.97693770      85.99955564     104.17206564
H      69.14033955      84.70320339     104.23064715
C      61.57387539      87.10504554      97.46164750
O      59.55942714      86.47576667      98.42162846
N      61.64757472      88.81713758      95.63239243
H      63.19904002      89.46720343      94.73288270
C      59.30053464      89.93585555      94.55713816
H      57.86245292      88.46753821      94.41162922
C      58.08733035      92.00888532      96.17663361