 %block lattice_cart
   135.996   0.000   0.000
   0.000 142.663   0.000
   0.000   0.000   160.158
 %endblock lattice_cart

 %block positions_abs
N      88.75853327      39.18820029      79.11334986
H      90.46117668      38.49845018      78.59556485
H      87.47351938      38.08648985      78.23084767
H      88.66593669      38.78946803      80.97850973
C      88.39003664      41.76767670      78.65414636
H      89.29899500      43.09048512      79.94293971
C      89.45206283      42.46309599      76.02364734
H      88.88703466      41.13272866      74.55532999
H      91.50619533      42.45364736      76.18049462
C      88.82845315      45.27500874      75.49263424
H      86.79321791      45.33170053      75.16760132
H      89.56733614      45.91751569      73.68038671
S      89.72040397      47.51622415      77.90203529
C      88.04421673      50.48876364      76.90425980
H      88.40326473      50.81379656      74.90303963
H      88.76042300      52.13282553      77.91715310
H      86.01465067      50.27522457      77.18771875
C      85.55922663      42.44797818      79.09445260
O      83.90193665      41.21776635      78.12124354
N      85.08490532      44.39817573      80.73473504
H      86.61558364      45.30524436      81.42448514
C      82.72085770      44.80068744      82.05376400
H      81.19773830      43.59126260      81.37535226
C      83.16494339      43.84070647      84.91291991
H      84.72396760      44.87249704      85.77463511
H      83.55611674      41.82247877      84.75418290
C      80.91427935      44.14684213      86.50217974
O      80.81034440      46.06680407      87.73806075
N      79.36470377      42.24577746      86.80453595
H      77.91528369      42.35160213      88.04230669
H      79.44596200      40.48077308      86.08455023
C      81.60780891      47.47465017      81.68337764
O      83.05344954      49.28311825      81.25063032
N      79.10770099      47.92440503      81.96494687
H      77.93985013      46.44852878      82.27675171
C      77.72253161      50.27711429      81.82510712
H      78.00599055      50.79300957      79.84845339
C      74.86337570      49.85003614      82.56587983
H      74.21142012      48.43085168      81.22417415
C      74.01677831      48.75399488      85.03197267
H      74.16228723      50.27900402      86.40769343
H      75.18462917      47.15717615      85.60455974
H      72.04390404      48.16440027      85.08299528
C      73.40072753      52.25376801      82.07455099
H      73.66528921      53.60303260      83.60711903
H      71.47320669      51.52622338      82.09344825
C      73.80323923      53.60303260      79.55365609
H      75.41706551      54.87670814      79.43460333
H      72.28389928      54.92584102      79.12468822
H      73.61237688      52.28778309      77.97951407
C      78.88660302      52.07802347      83.70538480
O      79.31935034      54.28522380      83.05342922
N      79.49887434      51.32024322      86.14313174
H      79.08880373      49.60059227      86.86311747
C      80.57412861      53.10792431      88.05742450
H      79.16061333      54.60458755      88.08199094
C      80.61192314      51.98353715      90.62934201
H      81.88559867      53.16839555      91.73483190
H      81.12025952      49.98798617      90.55753241
C      78.14583030      51.79645425      91.97482715
C      77.19907742      53.76932852      93.45259312
H      78.32724403      55.45118494      93.69447809
C      74.83880925      53.58791479      94.78862963
H      74.09992627      55.07323967      95.97726748
C      73.47442686      51.28244869      94.57131110
H      71.59036972      51.18796237      95.35365779
C      74.34559069      49.27933880      93.02173552
H      73.33647683      47.53512141      92.70615123
C      76.75310201      49.52878267      91.83498740
H      77.41261649      48.03211943      90.61611393
C      83.19139956      53.95074224      87.32232096
O      83.69217703      56.28833369      87.64357444
N      84.80333610      52.42951256      86.15069065
H      84.35169151      50.60025749      85.84455499
C      87.14470700      53.16839555      84.96961170
H      88.26531471      54.31923887      86.25651532
C      88.42594144      50.73253833      84.47450341
H      90.34590338      51.24276444      83.92837250
H      87.71540435      49.88594094      82.73406547
C      88.79821753      48.62549349      86.48706193
H      86.98219054      48.07747286      87.29397507
H      89.67316081      49.73098339      87.98750462
C      90.33645475      46.41262398      85.45338164
O      89.44072447      44.95186554      83.77341495
O      92.58711879      46.15940066      86.32643520
C      86.71951858      54.82568553      82.63390998
O      88.23696881      56.46974742      82.22194964
N      84.62759155      54.52143959      81.17126181
H      83.32368040      53.31390448      81.86668110
C      83.93595172      55.90660898      78.83556009
H      85.58190334      56.18628847      77.62802498
C      81.69284659      54.47986561      77.52220030
H      79.95618811      54.81056772      78.58233677
H      82.05189459      52.45218928      77.52220030
C      80.86514647      55.37181643      74.83311976
H      82.37125834      54.90694376      73.50842161
H      80.73853480      57.42972839      74.84634784
S      77.84725354      54.09814090      73.63503328
C      78.01165973      55.15827736      70.43572663
H      79.62737573      56.39226864      70.11636288
H      76.34303140      56.27132616      69.96329505
H      78.31779540      53.42917778      69.35858263
C      83.35580575      58.61836624      79.64058350
O      84.39893467      60.48541583      78.62580047
N      81.52277122      59.00576013      81.36212417
H      80.83869030      57.39571331      82.12746333
C      80.76688070      61.35657966      82.43548872
H      80.35303063      62.78899221      81.01630426
C      78.16283784      61.03154674      83.78286358
H      77.64694255      62.86269154      84.57087945
H      78.13638167      59.66716434      85.32865970
C      76.05390327      60.55155626      81.72306190
H      76.73987392      58.89615600      80.70449941
C      73.52733919      59.94684384      83.05909840
H      71.99666088      59.76920956      81.69282628
H      73.16829119      61.44917625      84.42159107
H      73.64450222      58.23475180      84.19860337
C      75.65139157      62.75875659      79.91270409
H      77.16317262      63.14237103      78.56532923
H      75.33958673      64.47651781      81.00874535
H      73.87315911      62.55088669      78.89603133
C      82.69062208      62.69072644      84.10222733
O      82.79455703      64.98485419      83.95860813
N      84.11358600      61.26587280      85.68014880
H      83.67327977      59.41016156      85.78597347
C      86.15071096      62.42049558      87.24106273
H      85.34757728      64.05321911      88.21049233
C      87.06911795      60.43439322      89.02685410
H      87.72674271      58.69962447      88.13301355
H      85.62347732      59.64070817      90.26273511
C      89.19128060      61.38114611      91.02051536
H      88.49019214      62.88347853      92.24316828
H      90.60479588      62.22018459      89.78085490
C      90.28543214      59.38181567      92.78551973
H      91.77264674      59.92794657      94.10076925
H      91.12825007      57.93617504      91.58554352
N      88.20673319      58.06089697      94.12911514
H      88.02154001      56.19573710      93.77195687
C      86.70440077      58.85269230      95.90923733
N      86.91227067      61.07878990      97.10543409
H      86.33779387      61.18839402      98.92146107
H      88.08201125      62.39592914      96.37033055
N      84.85435871      57.39004413      96.67646621
H      83.83201678      58.09680177      98.12399657
H      84.94884503      55.54945070      96.18135792
C      88.30310923      63.59023617      85.52330151
O      89.46340119      65.32689465      86.62879141
N      88.43161062      62.98174429      82.97217099
H      87.26942894      61.67405369      82.21061129
C      90.30810885      64.23085339      81.27519676
H      91.46840081      65.17949599      82.68871204
C      91.92382485      62.34679625      79.73318009
H      92.82333457      61.31311596      81.26952758
C      90.26842460      60.81989739      77.82266679
H      91.50241588      59.85613697      76.48474056
H      89.00230797      62.07845512      76.79276595
H      89.17616279      59.47441226      78.93760531
C      94.20661424      63.39370463      78.28376001
H      93.56221756      64.63525481      76.77197896
H      95.14580821      61.87247495      77.26141807
C      95.95461107      64.87336032      80.13191234
H      97.81977095      65.17382682      79.30988140
H      96.19649604      63.92849718      81.94793933
H      94.97195339      66.62891608      80.57977748
C      88.96073399      66.23396328      79.61790678
O      90.19283555      68.03676218      78.84122927
N      86.46062608      66.06577764      79.33444784
H      85.45529168      64.59557055      80.01852876
C      85.00553682      67.90826079      77.81321816
H      86.06000410      68.70572530      76.23340696
C      82.59424604      66.51742223      76.77575841
H      81.32434996      67.96873203      76.04821378
H      81.59836028      65.47429329      78.24785521
C      83.26698861      64.80910963      74.48541012
O      85.30789303      64.91304458      73.45739900
O      81.49253560      63.36724846      73.74652713
C      84.14571134      70.30632347      79.27208687
O      83.58824208      72.16770390      77.98518325
N      84.03421749      70.09089468      81.83644548
H      84.03232777      68.30888276      82.52241613
C      83.47107905      72.33966900      83.41247722
H      83.30478314      74.01585624      82.22572910
C      80.92939716      71.75763328      84.84111031
H      80.41161215      73.29776023      86.10533722
H      81.08435472      70.04743097      85.97872555
C      78.69196121      71.36079076      82.82288261
H      76.95908218      70.84678521      83.81120947
H      79.05478866      69.98884946      81.32999882
C      78.14394057      73.77964045      81.36779335
O      78.95652289      75.83377294      82.06888181
O      77.01199451      73.63035207      79.29287386
C      85.55544717      73.10878761      85.23228366
O      86.15071096      75.43126123      85.49495562
N      86.63448090      71.33244487      86.64201949
H      85.62347732      69.71861860      86.53808454
C      88.68294422      71.45527707      88.55820197
H      89.81111083      73.00485266      87.80231145
H      89.55221833      69.59200694      88.70371090
C      87.87225163      72.68737864      91.10555304
O      85.90315682      73.92892882      91.19248045
N      89.25931075      72.38313270      93.04441224
H      90.76164317      71.22662020      92.83276289
C      88.62814216      73.50940958      95.46704137
H      86.60424528      73.25240680      95.75805922
C      89.85646426      72.04487169      97.64400608
H      91.87280224      72.16014499      97.24149438
H      89.29899500      70.06254878      97.65912389
C      89.41426831      73.35067256     100.25182840
H      90.09268005      75.29520095     100.22348250
C      86.65337816      73.45271779     101.16456621
H      86.56645075      74.01963568     103.14310966
H      85.68394856      71.65936752     100.87165863
H      85.47040949      74.51285426      99.85498587
C      90.97140279      71.78597919     102.10376018
H      91.03187403      72.71572453     103.93868443
H      92.90270308      71.64424970     101.39889227
H      90.02276018      69.96428302     102.27383555
C      89.21584704      76.29486617      95.63711674
O      91.39281176      77.32287727      95.09665501
N      87.45462212      77.69515337      96.71426074
H      85.78221433      76.80887173      96.95803543
C      88.08012153      80.22549689      97.68935952
H      90.04354717      80.45037433      98.27706440
C      87.57745433      82.36466709      95.79585375
H      88.22940991      84.03329541      96.81063678
H      85.54788827      82.48560957      95.46515165
C      88.93616755      82.17569445      93.22393624
H      88.38436746      80.42958734      92.28096281
H      90.94494662      81.99806018      93.64723493
C      88.47696405      84.59643386      91.55530790
H      90.30054995      85.07642434      90.73138723
H      87.47351938      85.98727243      92.69292314
N      86.90660149      83.90101458      89.44448361
H      86.12425479      82.16246637      89.42936580
C      86.32456578      85.48649496      87.66814088
N      87.17116317      87.78629188      87.73617103
H      86.44739799      89.06185713      86.51351810
H      87.93272288      88.63477898      89.26684934
N      84.92427859      84.76839896      85.88045979
H      84.33468398      85.93436009      84.48584177
H      84.27610246      82.97882814      86.00896118
C      86.57211993      80.61100107     100.27072566
O      84.36491960      80.28596813     100.53150789
N      88.03476810      81.37445049     102.22281294
H      89.90181769      81.64090190     101.94124372
C      86.99730835      81.86766907     104.82118662
H      85.75953762      80.39179282     105.55062098
C      89.42749639      82.04908278     106.57485264
H      88.75664355      82.51962464     108.46457895
H      90.75975344      83.44370080     105.85486691
C      90.95061580      79.53007762     106.81862733
H      91.99752418      79.21638305     105.07440995
C      92.84790102      79.83432354     109.05606329
H      93.67749087      81.71271151     108.91244409
H      94.34834371      78.46049251     108.74236872
H      91.76508784      79.45070911     110.76626560
C      89.30277445      77.26618548     107.49892881
H      88.26720443      76.53486141     105.87565390
H      87.92327424      77.81798557     108.92567217
H      90.46684586      75.73739690     108.24159125
C      85.48363757      84.31108518     105.02905652
O      83.83579623      84.46226329     106.57485264
N      85.99008423      86.18002451     103.45113504
H      86.88959395      85.60365799     101.86943412
C      84.85813816      88.68958105     103.55506999
H      83.75642772      88.76139066     105.29361820
C      87.08045631      90.51505667     103.54562136
H      88.60546544      90.10876552     102.21903349
H      87.92138452      90.23348745     105.40322233
C      86.19417467      93.26649819     103.30184667
H      85.33056974      93.98081473     105.02905652
H      85.17372246      93.53861876     101.53306284
C      88.39570582      95.15433477     102.73303905
H      89.32923062      94.36631890     101.07385934
H      89.49930599      94.94079569     104.45835917
C      87.46218102      97.83018723     102.49682326
H      85.84268557      98.24781674     103.69868919
H      86.94250629      98.18167633     100.53528734
N      89.29143610      99.71046491     103.30751584
H      89.51820325      99.70479572     105.20291134
H      88.63948052     101.45657203     102.90122469
H      90.93549799      99.63865531     102.34186570
C      82.86258718      88.93902493     101.43668679
O      83.08179543      87.37055209      99.70002831
N      80.82546221      90.29584841     101.70880738
H      80.73664508      91.25960883     103.35475900
C      78.83369068      90.79473617     100.00616398
H      77.92284260      89.01461398      99.49971732
C      76.89672121      92.70902892     101.14566894
H      76.15594849      91.77172466     102.82185618
C      78.11181523      95.30173342     101.97714852
H      80.09602786      94.95591351     102.39855749
H      77.08002466      96.16155890     103.53806245
H      78.02677754      96.50359936     100.30663046
C      74.74432294      93.55751603      99.39578238
H      74.12827216      91.83219590      98.45658840
H      75.48698538      94.71213882      97.85754516
C      72.49365890      94.91622925     100.70725244
H      73.03978980      96.40911303     102.02061223
H      71.32013886      93.68790714     101.86943412
H      71.42029435      95.93290201      99.27295017
C      79.98264428      91.90400551      97.58353484
O      81.75709729      93.38177149      97.72148486
N      79.10581127      91.13488689      95.46515165
H      77.44663157      90.19380320      95.48404891
C      79.92595249      92.13644185      92.99905881
H      80.81979303      93.98648391      93.14834719
C      81.98008499      90.27884088      91.98427578
H      83.48430714      90.17490593      93.38645270
H      82.78699813      91.13110744      90.29108100
C      81.28655543      87.60298843      91.20003936
C      80.42295051      87.11732876      88.74717460
H      79.88437851      88.57619748      87.42814564
C      79.89004769      84.59832359      88.08010121
H      79.17006196      84.29407765      86.19415435
C      80.09413813      82.58954452      89.80353161
O      79.41950584      80.25951197      89.12700959
H      78.95463316      80.05164207      87.38468193
C      80.69129164      83.07520418      92.33387514
H      80.72908617      81.49728271      93.62833767
C      81.30923215      85.53751757      93.05008142
H      81.99898225      86.01939778      94.91146184
C      77.79245148      92.52572546      91.11689140
O      75.71186281      91.59598013      91.48160858
N      78.41984062      93.90144623      89.11756096
H      80.07146141      94.85764774      89.19126029
C      76.69829995      94.60820387      87.22594492
H      74.87093460      93.83908526      87.79286281
C      76.58869582      97.48247758      87.06909764
H      78.28755977      98.06262356      86.05431461
H      76.71341776      98.22325030      88.98716984
C      74.00166050      98.31017772      85.90880568
H      72.40673149      97.27649741      86.70627018
H      73.93929953      97.85853313      83.90191634
C      73.85048239     101.37720351      86.26974341
H      73.81457759     101.83262756      88.28041220
H      72.17618488     102.05561527      85.28330627
C      76.09925670     102.69623248      85.20015831
H      76.47531224     102.23135981      83.22917377
H      77.81701792     102.08774060      86.15635983
N      75.89894572     105.47224044      85.38346177
H      74.74243321     106.39442687      84.17781638
H      77.46174938     106.54938444      85.17937132
H      75.05045860     105.91821584      87.03319284
C      77.29356373      93.33263860      84.52363629
O      79.48375653      93.30996189      83.64680328
N      75.24321068      92.55218164      83.29153474
H      73.51978029      92.53139465      84.11356568
C      75.21864424      91.59220067      80.67615352
H      76.77766845      90.24482581      80.70449941
C      72.81302265      89.98971275      80.35490005
H      71.12738677      91.16512253      80.48907061
H      72.95664185      88.53084405      81.80243040
C      72.79034593      88.48171115      77.97195517
O      71.36738202      89.38122089      76.24474532
O      74.18874340      86.68836089      77.48440578
C      75.49454428      93.34586669      78.43115866
O      75.53044908      95.63243553      78.87902380
N      75.74398816      92.40289326      76.04632405
H      75.57391279      90.51694639      75.80632881
C      75.82902584      93.77861402      73.68038671
H      77.12537809      95.36787384      73.86746961
C      76.77388900      91.80573975      71.68861518
H      75.04856887      90.85331767      71.08579248
C      78.00599055      93.24193174      69.40015661
H      76.81735270      94.67812374      68.52899278
H      79.00187632      92.09486786      68.00742832
H      79.63493464      94.29261956      70.10313480
O      78.57101872      89.95947714      72.27443033
H      80.16972718      90.81552315      72.23852553
C      73.35159465      95.14677586      73.12102772
O      73.20608572      96.67934390      71.34846444
N      71.30502105      94.41545178      74.21139980
H      71.49399368      92.81674331      75.23941092
C      68.82192067      95.67778896      74.20762035
H      68.72365490      96.93634668      72.57867627
C      66.63928678      93.90522567      73.82400591
H      64.83081870      94.89544227      73.83156481
H      66.51645457      92.52005629      75.34523559
C      66.79991352      92.50115902      71.24830894
H      67.81091710      90.72103684      71.47696583
H      67.92241095      93.52350096      69.85558065
C      64.14295832      91.94935895      70.21273892
O      63.40218561      89.74026889      70.25431290
O      62.84282662      93.72192223      69.37559017
C      68.44775486      97.31618167      76.56977824
O      66.44275524      98.47836335      76.82678102
N      70.29779692      97.60719952      78.23462712
H      72.06658075      97.12153986      77.70172430
C      69.91985166      99.16244428      80.38702539
H      68.88239191     100.82729316      79.75774653
H      71.71320193      99.96179850      81.01819398
C      68.63483777      97.96435780      82.83233124
O      67.94319794      99.27582786      84.58788699
N      68.39484253      95.51527250      83.00618606
H      69.02412139      94.59119632      81.46038994
C      67.00589369      94.10175721      84.93181718
H      65.66985718      95.34519712      85.88801869
C      65.62828320      91.75849659      83.55798615
H      64.75900910      90.43379843      84.87323566
H      67.14573343      90.60954298      82.76619082
C      63.74422607      92.20825145      81.43393377
C      62.82392936      90.12766278      80.05821302
H      63.24911778      88.23037755      80.67993297
C      61.17230856      90.62466080      78.01730860
H      60.52980161      89.09209276      76.83433993
C      60.39374132      93.06807692      77.39747837
O      58.67975955      93.34775641      75.47184725
H      58.32449100      95.11842996      75.29799243
C      61.25734624      95.17701149      78.85445735
H      60.74334068      97.10075287      78.40470249
C      62.96943828      94.63654976      80.80843436
H      63.33793491      96.22391986      82.03486674
C      68.66507339      92.92067826      86.99539831
O      70.62849903      91.85109318      86.41336261
N      68.15295756      93.52539068      89.33865894
H      66.45976278      94.35687026      89.62022816
C      69.42852282      92.95091389      91.65357367
H      71.40706627      93.46491944      91.39846062
C      68.16807537      94.39844425      93.81353085
H      68.82570013      94.02805789      95.72971333
H      66.15929630      93.96002774      93.95715005
C      68.42696787      97.31996112      93.58865342
C      66.28023878      98.86386752      92.97827182
H      64.39807137      98.08907974      92.83843207
C      66.56180800     101.49814600      92.73827658
H      64.91207693     102.67922495      92.51528887
C      69.03168029     102.58662836      92.74961493
O      69.14506387     105.17555341      92.69481287
H      67.54068623     105.90120831      92.25072719
C      71.07636416     101.14098773      93.22771569
H      72.93585486     101.97624676      93.33165064
C      70.82503056      98.46324555      93.73038289
H      72.55413014      97.42011662      94.02706992
C      69.22821183      90.08797853      92.05797510
O      67.25911701      88.93524548      92.12789498
N      71.47320669      88.88233314      92.23938883
H      72.90183978      90.14656003      92.28474226
C      72.34814997      86.27640055      92.06931346
H      70.61338122      85.22571272      92.42269228
C      73.44041178      85.73215938      89.46149115
H      75.42273468      86.28395946      89.42558635
C      73.56513372      82.94670279      88.79063831
H      74.57613730      82.63111850      87.02374421
H      71.73587865      82.01317798      88.66024719
H      74.63093936      81.86388960      90.18336660
O      72.25555338      86.94914311      87.42247646
H      72.00799924      88.71414749      87.75317856
C      74.18307422      85.82475597      94.32942613
O      75.37927098      87.68235692      95.03429405
N      74.40984138      83.56653302      95.38011396
H      73.23065216      82.14545882      94.90012348
C      76.42428963      82.72938426      97.02228613
H      78.11181523      83.88211732      96.75394499
C      75.57958197      83.53818713      99.74160229
H      74.63282909      85.36744219      99.66790297
C      73.66150976      81.61066629     100.82063602
H      72.85837608      82.28151913     102.59697875
H      74.42684892      79.77763176     101.35920802
H      72.05335267      81.46137791      99.53940158
C      77.88126862      83.62511453     101.51605530
H      79.26643800      84.76839896     100.50883117
H      78.68251257      81.75806493     101.84675740
C      77.55245624      84.95737159     103.95569197
H      76.67373350      83.68936523     105.32196409
H      76.33169304      86.61277183     103.92356662
H      79.48564626      85.41846481     104.49237424
C      77.11970891      79.93636876      96.73882718
O      75.81390803      78.61545008      95.30830436
N      78.99431742      79.10110973      98.28651303
H      80.17161691      80.36155719      99.10287480
C      79.36470377      76.36856549      98.76083434
H      77.53355898      75.59566743      99.29751661
H      80.71963754      76.13045998     100.29340238
C      80.31523611      75.05709542      96.39867644
O      82.41283232      75.59944688      95.54640988
N      79.11714963      73.09555951      95.52184343
H      77.78867203      72.36990461      96.68213539
C      79.65761135      71.47039488      93.31653283
H      81.46607943      72.11290184      92.56631148
C      80.18862445      68.67171021      94.15557131
H      78.46708377      67.92148887      95.00405843
C      80.79711632      66.89347776      91.84821548
H      82.23330832      67.65314774      90.58398858
H      79.06423729      66.58734209      90.77674066
H      81.19206912      65.06800214      92.71748959
C      82.25409531      68.64714378      96.07742297
H      82.14638091      70.29687484      97.30574507
H      83.94729008      68.93816162      94.94169746
C      82.16716790      66.25852972      97.79896364
H      82.60180495      64.51053287      96.80496760
H      80.26799295      66.14136669      98.58886924
H      83.62981606      66.48340715      99.23326591
C      77.73575969      72.06376894      91.16413456
O      76.43184854      70.31577211      90.35155224
N      77.34458634      74.52797207      90.69548243
H      78.43306870      75.91503117      91.42491679
C      75.68540664      75.14213312      88.48072319
H      75.66272993      73.73428700      86.97650105
H      76.32035468      77.02619025      87.94215119
C      72.96231102      75.22717080      89.45393224
O      71.16896075      74.46939055      88.26718412
N      72.65239591      76.20415930      91.79719287
H      74.23598656      76.80320255      92.67402588
C      70.17874417      76.36478604      93.23527460
H      68.91262754      74.89457896      92.54363477
C      70.77022850      75.64480031      95.94325240
H      72.13461090      76.93548338      96.78796006
H      71.79068071      73.87412675      96.21726272
C      68.39484253      75.32543656      97.57030676
N      66.85660531      73.22028145      97.74605131
H      67.25155811      71.54787366      96.91646145
C      64.69286868      73.90058293      98.86854874
H      63.18297735      72.63257656      99.39389265
N      64.66830224      76.43092645      99.28050907
H      63.23966914      77.39279716     100.10631947
C      66.92085600      77.31342865      98.41123497
H      67.55202459      79.25417756      98.37155071
C      68.93341453      78.88379122      93.06708895
O      69.66662833      80.91713673      94.07809253
N      66.77534708      78.89135011      91.85199493
H      66.07992779      77.39090742      90.90146260
C      65.34860371      81.32531761      91.53830037
H      66.59015390      82.86166511      90.94492630
C      63.28691230      80.69414903      89.45393224
H      62.15874569      79.11244809      90.13612344
H      64.55491866      80.08943661      87.94782037
C      61.60694561      82.99961512      88.52040745
H      60.29547555      83.60999673      89.98872479
C      63.16785954      85.32586822      87.58499292
H      61.89418401      86.60521293      86.59288661
H      64.83837761      84.70603798      86.55131263
H      63.86138910      86.22726766      89.30275414
C      59.96288372      82.02640608      86.36045027
H      61.11561677      81.30831008      84.81087469
H      58.84983492      83.53629739      85.51007343
H      58.74589997      80.67903121      87.32987987
C      64.07492817      82.25884240      93.95715005
O      62.79180401      80.76973807      95.21570777
N      64.21854737      84.70414826      94.44658916
H      65.59426813      85.59987853      93.47149039
C      63.08471159      86.00805941      96.53473674
H      62.24000392      84.74761197      97.92935476
C      64.91207693      87.69747474      98.11265821
H      63.63273222      88.75383175      99.33153168
H      65.68686472      89.28295511      97.04685257
C      66.99266560      86.21026012      99.48459951
H      67.67296707      84.91957705      98.03139998
C      69.03545975      88.15100906     100.29529210
H      70.02945579      88.77650847      98.60398705
H      70.28834829      87.52928909     101.80707315
H      67.90540341      89.62499558     101.18535319
C      66.18197301      84.70792771     101.68802039
H      67.71643078      83.34921450     101.88455193
H      64.48121933      83.63834261     101.23448608
H      66.05914080      85.91357310     103.35286928
C      60.71310506      87.30630139      95.51806398
O      58.59850132      86.53529306      96.14356339
N      61.00412292      89.11665920      93.80975140
H      62.73889167      89.69680518      93.25795131
C      58.98022603      90.41490118      92.51528887
H      57.46655526      89.12799756      91.97482715
C      57.70277105      92.45391586      94.26706516