 %block lattice_cart
   135.996   0.000   0.000
   0.000 142.663   0.000
   0.000   0.000   160.158
 %endblock lattice_cart

 %block positions_abs
N      89.98685538      42.91663030      81.62101667
H      91.84634607      43.20197897      81.29976321
H      89.29332583      41.49744584      80.54954186
H      89.54843888      42.54246449      83.44082312
C      88.59412709      45.19375051      81.02575289
H      89.35946625      46.72253909      82.17470649
C      89.25931075      46.06113488      78.30454699
H      88.42405172      44.93485800      76.79465568
H      91.26242064      46.42018288      77.97951407
C      88.25208663      48.80312776      77.81888733
H      86.26031509      49.16406549      78.20250178
H      88.41271336      49.19808056      75.80443908
S      90.23063008      51.16906511      79.45916977
C      90.15315130      53.81846140      77.19338792
H      88.35224212      54.24364982      76.29009874
H      91.80288237      53.65027576      75.96884527
H      90.74274591      55.40016232      78.37446687
C      85.75008899      44.88950457      81.25063031
O      84.74097514      42.92985838      80.53442404
N      84.46696482      46.75844389      82.46383461
H      85.52143210      48.28912221      82.89469221
C      81.65505207      46.89072473      82.68682232
H      80.81979304      45.72287387      81.21094607
C      81.02388348      45.61326975      85.20771722
H      82.19929325      43.92385442      85.26062955
H      79.07557565      44.94619636      85.22472475
C      81.90827539      47.13260970      87.53397030
O      82.40527341      49.47209088      87.41680727
N      82.10669666      45.83247800      89.54463911
H      82.84935910      46.63372196      91.11122221
H      81.69662605      43.97676676      89.36322537
C      80.77254988      49.68751968      82.31076678
O      82.31645628      51.42228843      82.30698732
N      78.35370020      50.18640742      82.06510235
H      77.16884180      48.70864145      82.31454623
C      77.32379936      52.82446536      81.88746808
H      77.98142412      53.48397984      80.05254383
C      74.30023726      52.76210439      82.06132290
H      73.39883781      51.54701037      80.66481516
C      73.33836656      52.00621386      84.70693974
H      71.38249983      52.52588860      85.08866445
H      74.54968113      52.74698658      86.19793380
H      73.31946930      49.95397109      84.53875410
C      73.14183503      55.38315479      81.59078105
H      73.64261250      56.64360224      83.14224635
H      71.09526143      55.30567601      81.36968307
C      74.17929477      56.61525634      79.19271837
H      73.19852682      58.39915798      78.89036215
H      73.79379061      55.35858834      77.60723798
H      76.21641974      56.91005365      79.10957040
C      78.29322896      54.72553003      83.88868825
O      78.37448719      57.03288586      83.43704367
N      79.16817224      53.94885251      86.09210914
H      79.38360104      52.14227416      86.67225511
C      79.92595249      55.72897470      88.14246218
H      78.94518454      57.53933251      88.09521902
C      79.68028807      54.39104847      90.70682079
H      80.69507110      55.61748085      92.01262167
H      80.46641422      52.49376325      90.53296597
C      76.97419999      53.93562443      91.61766887
C      75.89138681      55.72141580      93.29385611
H      76.80412462      57.40516194      94.00061376
C      73.48954467      55.27733011      94.26706516
H      72.61460139      56.61903579      95.53129207
C      72.06469103      53.15327774      93.42802667
H      70.10882430      52.98887155      93.99116512
C      73.15695284      51.43551652      91.79719287
H      71.93996909      49.88216149      91.27562840
C      75.65895048      51.73409327      91.02429480
H      76.50176841      50.26955538      89.87723094
C      82.78699813      56.37715083      87.88545940
O      83.67894895      58.43506278      88.55631225
N      84.31389699      54.50443205      87.05020038
H      83.65627223      52.74131740      86.73083662
C      86.93494739      54.80300881      86.24517696
H      87.87603109      55.91227815      87.70215595
C      88.18972566      52.28400363      85.91636458
H      87.28832621      51.15016784      84.44993696
H      87.68705846      51.07835824      87.50940386
C      91.01864595      52.77344275      85.97116664
H      91.57422549      53.68996001      87.73050184
H      91.53643096      53.97341896      84.38001709
C      92.57011125      50.21286359      85.52519123
O      91.33045079      48.23243042      85.55542685
O      94.96250476      50.15617180      85.37401313
C      86.93872684      56.31667958      83.68270809
O      88.40137501      58.14026548      83.43515394
N      85.35891564      55.86314527      81.81754822
H      84.06067366      54.48175533      82.02919755
C      84.53499497      57.72641541      79.79743079
H      86.16582878      58.06845588      78.58989567
C      82.34291245      56.40360699      78.41037166
H      80.56467999      56.90249474      79.32310947
H      82.61881249      54.36837176      78.56721896
C      82.24086723      57.22563794      75.60223837
H      83.87548049      56.41494535      74.64792658
H      82.70573990      59.22307865      75.41326573
S      79.21919485      56.51321112      73.88636687
C      80.56845944      56.08424325      70.76453901
H      82.35614053      55.06379104      70.77398763
H      80.77443961      57.83035036      69.69306418
H      79.35903460      55.08079858      69.43228195
C      83.72808183      60.33045827      80.57977748
O      84.96018339      61.98774825      79.58767117
N      81.86859114      60.68383709      82.24462635
H      80.80656495      59.31756497      83.04964976
C      81.33379860      63.38614572      82.73595520
H      81.36781367      64.40281848      80.94449465
C      78.73353519      63.51275738      83.86979098
H      78.37826664      65.30421793      84.82410278
H      78.81290369      62.06711675      85.33432889
C      76.55279102      62.94394976      82.08777908
H      76.81735271      61.21485019      80.99929671
C      74.25488383      62.41482640      83.84900400
H      74.62715991      60.61013777      84.76930071
H      72.60137330      62.28821473      82.62824081
H      73.96575570      63.83401086      85.31354190
C      75.82902585      65.26642340      80.32844388
H      73.99221187      65.17004736      79.39680880
H      77.40505759      65.39870424      79.00941491
H      75.66839911      67.11268601      81.22606387
C      83.42572562      64.60312947      84.37812736
O      83.57123455      66.94639009      84.27986159
N      85.13781766      63.25953406      85.74250976
H      84.89404297      61.37169747      85.90124678
C      87.20517825      64.33667806      87.22594491
H      86.58912747      66.10357216      88.08577039
C      88.47507433      62.55277642      89.21204728
H      90.47251504      63.00820046      89.41235826
H      88.14815168      60.61958640      88.57898895
C      86.89337341      62.78899221      91.80097233
H      84.89215324      62.57545313      91.36633527
H      87.16927345      64.69383633      92.53607585
C      88.06122427      60.82745629      93.53007189
H      90.05488553      61.33768240      93.49794655
H      87.80044204      58.96418615      92.69103341
N      87.03132343      60.99942139      96.10198941
H      85.51954238      59.92038766      96.54040591
C      87.91949480      62.39781886      97.96336983
N      89.88481016      63.81322387      97.91423694
H      90.28543214      64.99997199      99.35231867
H      91.02620485      63.84912867      96.38733808
N      86.79321791      62.22396404     100.15545235
H      86.60991446      63.74141427     101.29873677
H      85.42694579      60.89359671     100.15167290
C      89.29143610      65.42138096      85.45716110
O      90.32700612      67.36779906      86.21872079
N      89.86591290      64.45573081      83.23862239
H      89.15159635      62.77009494      82.69816067
C      91.47595972      65.78987759      81.40369814
H      92.91782089      66.79710172      82.47328325
C      92.99529967      63.73007591      79.84278421
H      94.03464914      62.47529764      81.10512139
C      91.59690220      61.91404892      78.16092779
H      90.71817947      62.96473675      76.62269057
H      90.10212869      61.05800290      79.28909441
H      92.81766540      60.38337061      77.52597975
C      95.04376300      64.84501443      78.01730860
H      94.14047382      65.86168719      76.46962274
H      96.00185424      63.42016079      76.87969336
C      97.02230645      66.64403388      79.13602658
H      98.18826758      67.27331275      77.55999483
H      98.13346552      65.63869949      80.54954186
H      96.03775904      68.30510331      79.85034312
C      89.99630401      67.73818542      79.61601706
O      90.92415963      69.82822272      79.13791629
N      87.61146941      67.18449561      78.90925941
H      86.71384941      65.54043372      79.27397659
C      86.09212945      68.95705889      77.47306742
H      87.31667210      69.24240756      75.84034388
C      83.64871333      68.00274710      76.29576792
H      82.34669190      69.58255830      76.06711105
H      82.61692276      66.55710647      77.34078657
C      83.78288390      67.05221477      73.60668739
O      85.33434920      68.05754917      72.17994402
O      82.27110285      65.34390218      73.01709277
C      85.63481568      71.43449009      78.74485322
O      86.42283156      73.19193556      77.67715786
N      84.34791206      71.52330722      80.92937684
H      83.85658322      69.77908984      81.53030981
C      83.75642773      73.70594112      82.41470173
H      83.47485851      75.24417833      81.07299604
C      81.08057527      73.26185543      83.65058274
H      80.82357249      74.49584671      85.27952681
H      80.79711632      71.33055514      84.31009721
C      78.92817700      73.86656785      81.82132766
H      77.11970892      73.23917872      82.57910791
H      79.19084896      72.80643139      80.07333082
C      78.52755502      76.62934772      81.18826934
O      80.45318613      78.12034178      81.09189330
O      76.24665536      77.41925332      81.02953233
C      85.93906162      74.62245838      84.14947048
O      86.35480141      76.91280667      84.49340068
N      87.48863720      72.92926360      85.26818846
H      87.44139404      71.13969278      84.61056371
C      89.45017311      73.49618150      87.07476682
H      90.82967332      74.87379198      86.41714205
H      90.52920683      71.75385383      87.27885725
C      88.46751543      74.26718983      89.74872955
O      86.13937261      74.35222751      90.21171250
N      90.06433416      74.73773168      91.61577915
H      91.89736868      74.59411248      91.10177359
C      89.23663404      75.23095025      94.29163160
H      87.17872208      75.26118587      94.36911038
C      90.19283555      73.11823623      95.99238528
H      92.13358447      72.84422592      95.36121669
H      89.17994225      71.42882091      95.39523177
C      89.98118620      73.52074794      98.80240831
H      91.20383913      75.00796255      99.53940157
C      87.27320840      73.86467813      99.70947694
H      86.28299181      72.13935800     100.24237976
H      86.15260069      74.86812280      98.30352056
H      87.33556937      75.28386259     101.19858127
C      90.87313702      71.08300099     100.08175302
H      92.85545993      70.71639409      99.65656460
H      89.69205808      69.42949047      99.74538175
H      90.67093631      71.31543733     102.11698827
C      89.97551702      77.92758970      95.34609889
O      92.22996052      78.54364048      95.21948722
N      88.22563046      79.22394195      96.50639084
H      86.40204457      78.66647269      96.42135315
C      88.71884903      81.76940329      97.61943964
H      90.73518700      81.95270675      97.98982600
C      87.63414612      83.74227756      95.84120719
H      87.15604537      85.44681070      96.89378473
H      85.97496642      83.06575554      94.83020360
C      89.54087997      84.52084481      93.69447809
H      90.51219930      82.87867264      92.91591084
H      90.95817471      85.57720181      94.75461456
C      88.54121475      86.22348821      91.57042571
H      90.28165269      87.01150409      90.79941738
H      87.48863720      87.74660762      92.47560461
N      87.28265703      84.80430375      89.46716032
H      87.06911796      82.92591580      89.72038365
C      86.40393429      85.72271074      87.30153397
N      86.40771375      87.93746998      86.46249549
H      85.74253008      88.10187617      84.68237330
H      87.23730360      89.38500033      87.38846138
N      85.56867526      84.06353104      85.61589810
H      84.50286962      84.53974207      84.10600677
H      85.93150271      82.24939378      86.08455023
C      87.41871732      81.87900742     100.25938731
O      85.22852453      81.31775870     100.55796405
N      88.92293947      82.34576982     102.17368005
H      90.60479589      83.14890350     101.75983000
C      87.84768520      82.67458220     104.80795853
H      86.50220006      81.17036005     105.21613942
C      90.15693075      82.44025613     106.54083757
H      89.38214296      82.86733428     108.40221798
H      91.53076178      83.93125020     106.16667175
C      91.36824532      79.82298519     106.65422114
H      92.52475782      79.73794751     104.95157774
C      93.07088873      79.73227833     108.90677490
H      94.00441352      77.91436161     109.16755713
H      91.91248650      80.12912085     110.56217515
H      94.29732110      81.35177378     108.55339609
C      89.36324570      77.78208077     106.77327390
H      90.54999382      76.10211408     106.89421638
H      88.19539484      77.70460199     105.07818939
H      88.04232701      78.19971029     108.29828303
C      86.56645076      85.28996341     105.30495656
O      85.80111160      85.58287099     107.37420687
N      86.46629526      87.03229108     103.58719534
H      87.21084743      86.56930813     101.89400056
C      85.27198823      89.57775242     104.00860430
H      84.37058878      89.46625857     105.85675663
C      87.52076254      91.45991983     104.52072014
H      88.91916002      91.16890197     103.03539525
H      88.34846267      91.01016496     106.35186493
C      86.63637063      94.34931136     104.36009339
H      85.29844440      94.87465527     105.83596964
H      85.80867050      94.64032921     102.49682325
C      88.97774153      95.90644584     104.52260986
H      90.28354241      95.23181355     103.08074869
H      89.93016359      95.56629510     106.31784985
C      88.19917429      98.65032845     103.89333100
H      86.53243568      99.16622373     104.98937227
H      87.89303863      98.79394765     101.86187521
N      90.30054995     100.23958828     104.66055988
H      91.87091252      99.81817931     103.65711522
H      90.73329728     100.25092663     106.52005057
H      89.86402317     102.06884335     104.32985777
C      83.53344002      90.35631966     101.84864712
O      83.97185653      89.60231886      99.77561737
N      81.41883628      91.47881709     102.47603627
H      81.18073076      91.55440614     104.36765230
C      79.39115995      92.54462273     100.89622506
H      78.12126386      91.05173894     100.26127702
C      77.57324323      94.36064972     102.32485816
H      76.96853081      93.10776117     103.84230838
C      78.96219207      96.76249186     103.55695972
H      77.90772479      97.40121935     105.20669078
H      78.95652289      98.21758112     102.09809101
H      80.85758756      96.33730344     104.24859955
C      75.35281481      95.19212929     100.55229488
H      74.74621267      93.51594206      99.52050431
H      75.93862997      96.60375485      99.16901522
C      73.19663709      96.27305275     102.15478280
H      73.88449747      98.03805712     102.96169593
H      72.57302741      94.82741212     103.48137067
H      71.69619440      96.87776517     100.87921753
C      80.35303064      93.86743115      98.47737539
O      82.10291720      95.40566837      98.58320006
N      79.53099969      93.12854816      96.27584423
H      78.27622142      91.69235616      96.20214490
C      80.57979780      94.06585241      93.75494933
H      80.84813893      96.06518285      94.18013776
C      82.71329880      92.32541448      92.62489299
H      83.83768596      92.36509873      94.35021312
H      83.49186604      93.11909953      90.89201397
C      81.82701716      89.68735654      91.81042095
C      80.67806356      89.36988252      89.49550622
H      80.19807308      90.81174370      88.13301354
C      80.43617860      86.86410543      88.45993620
H      79.47241818      86.66001499      86.67225511
C      80.99364786      84.81375238      90.09265973
O      80.78955742      82.39679243      89.13834794
H      80.35114091      82.14734856      87.39413056
C      81.87048087      85.18224901      92.65134916
H      82.06701240      83.50984123      93.80597194
C      82.42795013      87.60298842      93.40157052
H      83.21218655      88.17368577      95.19681051
C      78.43684816      94.26994285      91.88789974
O      76.17295603      93.75404757      92.44725872
N      78.83369068      95.24882108      89.51440349
H      80.63837931      95.70613485      89.09110479
C      76.88349313      95.69668622      87.65680251
H      75.00699490      95.34708685      88.42781086
C      76.95719245      98.39899485      86.83855103
H      76.19941220      98.29317017      84.92614799
H      78.76566054      99.31740184      87.19759903
C      75.34147646     100.08841017      88.49962045
H      76.18429439     100.21691156      90.37422895
H      73.38560972      99.44023405      88.55253280
C      75.57391279     102.87953594      87.39224083
H      75.28478467     102.73402701      85.35889532
H      77.57702268     103.33118052      87.55286757
C      73.78812143     104.75792389      88.49584101
H      73.97142488     104.68611429      90.54619406
H      71.98910198     104.26848478      87.62089771
N      74.28322972     107.42054827      87.65869224
H      72.79601511     108.36163197      88.39757524
H      73.92607145     107.30905441      85.78597346
H      75.96319641     108.18399770      88.14057245
C      77.42206513      93.94113048      85.43259464
O      79.60847847      93.84097498      84.58032809
N      75.45297031      93.02650294      84.24395680
H      73.75410635      93.47625780      84.98661923
C      75.49832374      91.75471713      81.77597423
H      76.96853081      90.31852513      81.90258590
C      72.76766922      90.52828475      81.71739272
H      71.31069023      91.98337402      81.76274614
H      72.47854109      89.31508046      83.35767515
C      72.79979457      88.83320025      79.48373621
O      74.62904964      87.37622126      79.20783617
O      70.98754703      88.57808720      77.98329352
C      75.77422378      93.78617292      79.57255335
O      75.69863473      96.09352875      80.09222809
N      76.30334715      92.71847755      77.35212493
H      76.87593422      90.92512728      77.03843036
C      76.20697111      94.32474492      75.05799719
H      77.56568433      95.85920268      75.26775681
C      77.02711233      92.83375086      72.67127285
H      75.61170732      91.35976433      72.42749817
C      77.05545822      94.34553191      70.14659851
H      78.40094336      95.89699721      69.96140533
H      75.14872437      95.06929708      69.86313956
H      77.43529321      92.94902416      68.68206061
O      79.42706475      91.79818084      73.14748388
H      79.37793186      90.30718678      72.11758305
C      73.64639195      95.84030542      74.77453825
O      73.61048715      98.05317493      73.98463265
N      71.50533204      94.81040458      75.71184249
H      71.38627928      92.98114951      76.25230421
C      69.02412139      95.96313763      75.44350135
H      69.01656249      97.02705354      73.67849698
C      67.02668068      93.96002774      75.15437323
H      65.16152081      94.77638951      74.82934031
H      67.18352796      92.94902416      76.94394406
C      67.61816502      92.47659258      72.62591942
H      66.68841967      90.67001423      72.96418044
H      69.66284889      92.26494324      72.48607967
C      66.43897580      93.85420307      70.32612251
O      67.94886712      95.29417452      69.18472780
O      64.28279807      93.37610231      69.79132995
C      68.51767474      97.70735502      77.67904758
O      66.38228401      98.59552638      77.96061681
N      70.08047840      98.23458866      79.46483896
H      71.72831975      97.28405632      79.60845815
C      70.07858867     100.20368348      81.37535225
H      69.18852758     101.94790086      80.73662477
H      71.93241019     100.82162398      82.02541810
C      68.70475765      99.35141691      83.79231221
O      68.56491790     100.65154861      85.75195840
N      67.71454106      97.01760491      83.64869300
H      67.82792464      96.26738357      81.89691672
C      66.67519159      95.62109717      85.75573784
H      65.19553588      96.75304323      86.63257085
C      65.28813247      93.19090913      84.80898496
H      64.41129946      92.16100829      86.36233999
H      66.72810392      91.99660210      83.94915950
C      63.49100275      93.66712016      82.59800517
C      63.16219037      91.52417052      81.02386316
H      64.12784052      89.72893052      81.11457002
C      61.48222368      91.87754934      78.95839231
H      61.11372705      90.20514155      77.84534351
C      60.05548031      94.17923599      78.65603610
O      58.31693210      94.41356205      76.89670089
H      57.47222444      96.01416024      76.75497141
C      60.34082898      96.10675683      80.36623841
H      59.19376511      97.79050298      80.24907538
C      62.08882582      95.84219515      82.27675170
H      62.03024431      97.52027211      83.43515394
C      68.57625626      95.05228955      87.67569978
O      70.76266960      94.41167233      87.10689217
N      67.64273146      95.10142243      90.00951177
H      66.10260451      96.21636096      90.17391797
C      69.35671322      94.54395317      92.09576963
H      71.32013886      94.91244980      91.59121271
C      68.72743436      96.11242601      94.49761177
H      69.46442762      95.14299641      96.15679147
H      66.69975803      96.11242601      94.85854949
C      69.70064341      98.77316066      94.31430831
C      68.04335344     100.75737329      94.80374743
H      66.05347163     100.32273623      94.93602827
C      68.84459739     103.30661408      94.83398306
H      67.48966363     104.78438006      95.21003860
C      71.42029436     103.76203812      94.62233371
O      72.24043558     106.22813096      94.68280495
H      70.77400796     107.29204688      94.57320083
C      73.07380488     101.76837686      94.37666928
H      75.08258395     102.11986596      94.40123574
C      72.30090682      99.28905594      94.33887476
H      73.62749469      97.74703927      94.17446857
C      69.49844270      91.67912808      92.40001557
O      67.54446569      90.27695115      92.02773948
N      71.81902661      90.71914711      92.98205126
H      73.25521861      91.88888770      93.44503421
C      72.48610000      87.98282341      92.92158002
H      70.68708055      87.06819588      93.33543008
C      73.26466724      87.35921373      90.22305085
H      75.00888463      88.34565086      89.74872955
C      73.79945979      84.55674961      89.82431859
H      75.19029835      83.97093445      91.22460580
H      74.69141060      84.16179681      88.01018133
H      72.06469103      83.47582615      90.09454947
O      71.59414918      87.98849259      88.26718411
H      70.84014838      89.61743667      88.52607663
C      74.41929002      87.31763975      95.00594815
O      75.88949709      88.96737082      95.88845034
N      74.92195722      84.91390788      95.70136743
H      73.78245225      83.57409192      94.96248445
C      76.63026980      84.14100982      97.69880815
H      78.35936938      85.26161752      97.67991088
C      75.47186757      84.55674961     100.38032979
H      74.40417221      86.31608480     100.47292638
C      73.70119402      82.41191024     101.17779429
H      74.79912500      80.71871546     101.58975462
H      72.38216505      81.93380948      99.66979269
H      72.45208492      82.65946439     102.79728973
C      77.67906791      85.12744695     102.28139445
H      78.85258795      86.60710265     101.45747379
H      78.77510917      83.38889874     102.38343967
C      76.79278626      85.71893129     104.76071538
H      75.90839435      84.14478927     105.75282169
H      75.25643877      87.09087259     104.77583318
H      78.22141936      86.54852114     105.99092720
C      77.67339873      81.49161353      97.09598546
O      76.36003894      80.05920098      95.79396402
N      79.82012782      80.69225930      98.35265345
H      80.79522660      82.00183963      99.34287004
C      80.55523135      78.05231164      98.49249319
H      79.08502428      76.97516764      99.45247416
H      82.11425556      77.85011092      99.82663997
C      81.18451022      76.97705736      95.92624487
O      82.88526390      77.91058216      94.68091522
N      79.91839359      74.89646869      95.28184819
H      78.79778588      74.01585623      96.55174428
C      79.84847371      73.81554524      92.64190054
H      81.36025476      74.86434335      91.71782436
C      80.48342175      70.93182289      92.38111831
H      78.93384618      70.03042344      93.39401161
C      80.60058479      69.72050832      89.72227338
H      79.03400167      70.17782209      88.46560539
H      80.67428411      67.66448609      89.81675970
H      82.26732339      70.40458925      88.72827734
C      82.87203581      70.36679472      93.86077400
H      84.29877918      71.84645042      93.70770617
H      83.79611198      68.82666778      92.85166016
C      82.29188984      69.50885897      96.64623058
H      84.05500449      68.75296845      97.39456220
H      80.96719169      67.93093750      96.59520797
H      81.65316234      70.92615371      97.99738491
C      77.41639595      74.51663370      91.37389418
O      75.57580252      73.07477253      91.59688189
N      77.40316786      76.61989909      89.94148164
H      78.93195645      77.75373488      90.07754192
C      75.30935111      77.37389989      88.33521427
H      74.83691953      75.97928187      86.89524282
H      75.86493065      79.13890427      87.42814563
C      72.59759385      77.86900818      89.60322062
O      70.78912577      77.59877732      88.24639713
N      72.32925271      78.15057740      92.10521825
H      73.92796117      78.44726444      93.10110402
C      69.99166126      78.13734932      93.49416709
H      68.79357478      76.74840048      92.55497313
C      70.45275448      77.31720810      96.23804970
H      71.97965335      78.39246237      97.10165464
H      70.88361208      75.30653930      96.34387437
C      68.07547878      77.52885745      97.87077324
N      66.28023879      75.65424894      97.90856777
H      66.47677032      73.80609661      97.47771017
C      64.41885837      76.59722237      99.39011319
H      62.65385399      75.66558730      99.81719134
N      64.87995159      79.02363096     100.08364275
H      63.78202060      80.29919622     100.97937303
C      67.15707179      79.62267420      99.19358166
H      68.15106784      81.39901694      99.33342140
C      68.99955495      80.85477576      93.36944517
O      69.92930030      82.55930889      94.72059948
N      67.27423483      81.23083129      91.56097709
H      66.55991828      79.77196258      90.56131186
C      65.56214279      83.47960561      91.40601953
H      66.70920666      85.01406337      90.65390845
C      63.38895753      82.93158498      89.60322062
H      62.49322725      81.14957306      90.11722617
H      63.90296308      82.76717879      87.61522854
C      61.33482502      84.85343664      89.60133090
H      60.72822288      85.08965243      91.55719763
C      61.94709635      87.53873773      88.73961569
H      62.37606422      87.66723912      86.72894689
H      63.50234111      88.31541524      89.84321587
H      60.43342557      88.84264888      89.24417263
C      59.07849181      83.96904472      88.00073271
H      57.67631488      85.47137714      87.84199569
H      58.15252591      82.32876228      88.82843284
H      59.75879328      83.35677340      86.15447011
C      64.51523441      84.14100982      94.13856377
O      63.50612056      82.51773491      95.29129683
N      64.62105908      86.64300745      94.85477004
H      65.44497976      87.83542476      93.61699932
C      63.61383496      87.62944459      97.21125876
H      63.34171437      85.99105188      98.43013222
C      65.60182704      89.32263937      98.37344043
H      64.97065845      90.21647991     100.11954755
H      66.12339150      90.66245532      96.89756418
C      68.18130346      88.04896383      98.99705013
H      69.09215154      87.11354931      97.40401085
C      70.12205238      90.02183810      99.68868996
H      72.00799924      89.27917566     100.05907631
H      69.40206665      90.88922248     101.41212035
H      70.22031815      91.53361915      98.29218221
C      67.67674653      86.30852590     101.33653130
H      66.86038476      87.46503840     102.83319454
H      69.42474337      85.47515659     102.03384030
H      66.36338674      84.72682497     101.18535320
C      61.13829349      89.04295987      96.82575458
O      59.21077265      88.40234265      98.11076848
N      61.17230856      90.80040534      95.09665501
H      62.78802456      91.21803486      94.16879939
C      59.05770482      92.20258227      93.91179662
H      57.61962309      90.75316219      93.63022739
C      57.73678612      93.95057911      95.73916196