 %block lattice_cart
   135.996   0.000   0.000
   0.000 142.663   0.000
   0.000   0.000   160.158
 %endblock lattice_cart

 %block positions_abs
N      91.37769395      41.46721022      79.30326734
H      90.78620961      40.90218205      81.02858747
H      93.26553053      41.43130542      79.01602894
H      90.54432464      40.02534904      78.37163227
C      90.00386292      43.77645577      78.71178302
H      90.65203904      45.36004642      79.86073662
C      90.52542738      44.57581000      76.04726891
H      89.43127584      43.13961800      75.05705233
H      92.51719891      44.39250655      75.55405035
C      89.83567728      47.35370768      75.17799480
H      87.84768519      47.74866048      75.55405035
H      90.04354717      47.45008372      73.13142121
S      91.46840081      49.82735943      76.75969574
C      89.92071496      52.66950780      75.97734904
H      88.16326949      52.24242965      74.99091190
H      91.22462612      53.83735866      74.89453586
H      89.42749639      53.65216548      77.71967670
C      87.26942894      43.30780365      78.97067552
O      86.40582402      41.34626773      78.17888020
N      85.96362806      45.19186078      80.13096748
H      86.98030082      46.74710554      80.56560452
C      83.25565025      44.92729910      80.75646689
H      82.28433093      44.06369417      79.15775842
C      83.03833173      43.13961800      83.04114599
H      83.93217227      41.34248828      82.57627332
H      81.08435472      42.66151725      83.48145222
C      84.03988667      44.18652638      85.52613609
O      83.93784145      46.38049863      86.19320949
N      85.25876015      42.55002339      87.04169660
H      86.13559315      43.49299682      88.44954270
H      85.09435396      40.67352517      86.72422259
C      82.15960899      47.62015909      81.20622174
O      83.56745510      49.40406073      81.33661287
N      79.62170655      47.87338242      81.23834709
H      78.59936462      46.26333560      81.18543475
C      78.33480293      50.37349033      81.72967593
H      78.71085847      51.48275968      80.03648115
C      75.45863949      49.80468271      81.85439787
H      74.81802227      48.47242566      80.42198533
C      74.86904488      48.27589412      84.36017496
H      73.01900282      47.38205358      84.19009959
H      74.97675928      49.33225113      86.12328962
H      76.36570812      46.87182747      84.50946335
C      73.72765018      52.11959744      81.72778621
H      73.78812143      53.24209487      83.45310634
H      71.84737250      51.35803774      81.36684848
C      74.28889890      53.83735866      79.46200436
H      74.71597705      52.73942767      77.77258904
H      75.94240942      54.88615677      80.10262158
H      72.65239591      55.05434241      79.16720706
C      79.12470853      51.99487551      84.01624477
O      78.88093384      54.30412106      83.83483104
N      80.26232377      50.87237808      85.91919917
H      79.95807784      48.99210040      86.04959028
C      81.51143287      52.29156254      87.85049947
H      80.29066967      53.77310797      88.59505164
C      81.60213973      50.59080886      90.25045188
H      81.97063636      51.90794810      91.79057883
H      83.15549476      49.24910317      90.08037652
C      79.13604689      49.11115315      90.80792114
C      77.16884180      50.34325471      92.21576724
H      77.24254113      52.34825433      92.58993305
C      75.09581203      48.82958393      93.04346738
H      73.82024677      49.74610119      94.34737853
C      74.94463393      46.18963627      92.29513575
H      73.54812618      44.90084293      93.04157764
C      76.83624997      45.02367514      90.92319445
H      76.82869106      43.01111661      90.58304372
C      78.97164070      46.49010276      90.20698817
H      80.47964230      45.42996630      89.33015517
C      83.95295926      53.64082713      87.23255896
O      84.16271888      55.97085967      87.59349668
N      85.72363282      52.04211866      86.18187112
H      85.15671492      50.22609168      86.02691358
C      88.08390098      52.78856056      85.07260178
H      89.18183197      53.76365934      86.51824242
C      89.54654915      50.50199172      84.00301669
H      91.16226515      51.15583702      82.90130625
H      88.24641745      49.72720393      82.60650895
C      90.36480064      48.58769896      86.13273825
H      88.72073875      47.73732212      87.03413769
H      91.62146864      49.41728882      87.54058434
C      91.81233100      46.38616781      84.95165930
O      94.20283478      46.54112537      84.79859146
O      90.62180342      44.77423126      83.82916187
C      87.79099340      54.83513416      82.87862953
O      89.39537104      56.61714607      82.71989253
N      85.78221433      54.62537453      81.45566561
H      84.73719568      53.05312224      81.73723484
C      84.94695530      56.34502548      79.54704205
H      86.52109732      56.91572283      78.34706583
C      82.90983034      55.11859310      77.85762672
H      81.04656019      54.99765062      78.72312138
H      83.38793110      53.27610995      77.06772112
C      82.68117345      56.80044952      75.52192500
H      84.53688469      56.97241462      74.64887144
H      82.31834600      58.78655188      75.93199560
S      80.44184777      55.81968156      73.16732601
C      82.05945350      53.20052089      71.66310387
H      81.92339320      51.66606313      73.02937599
H      84.04366613      53.66917302      71.37019628
H      81.23742255      52.61659546      69.86786387
C      84.10224764      58.73930872      80.78859224
O      85.10002313      60.63659394      79.96467155
N      82.49787000      58.67316830      82.67453910
H      81.66828015      57.12170299      83.41153235
C      81.77410482      61.10902551      83.85372832
H      81.31112188      62.32978871      82.25879930
C      79.27588664      60.88792754      85.43353950
H      78.86770575      62.78143330      86.13462798
H      79.66517026      59.44228691      86.84894451
C      77.09703220      60.16605208      83.72711664
H      77.78678230      58.44829087      82.82382748
C      74.70085923      59.45740472      85.22566961
H      74.38527494      60.82745629      86.72989176
H      74.69330033      57.58279621      86.07604646
H      73.23821107      59.25520400      83.78947762
C      76.35248003      62.22018459      81.78069855
H      74.71408732      61.62114135      80.68654702
H      77.98520357      63.00064155      80.79615114
H      75.64572239      63.93038690      82.68776718
C      83.95484899      62.46962846      85.46377513
O      84.00776133      64.78265347      85.82093341
N      85.78788351      60.96918577      86.28202662
H      85.34190810      59.15315878      86.65997189
C      88.21240237      62.13325718      86.98689454
H      87.84012629      63.76787044      88.18309129
C      89.71473479      60.38903979      88.81048043
H      91.31533298      61.40760227      89.61172439
H      90.29866022      58.77143407      87.67664465
C      88.19161538      59.53110404      91.11027735
H      86.69117269      58.14782438      90.83437732
H      87.46596048      61.17327621      92.11939120
C      89.87158208      58.16672164      92.89228926
H      91.71973441      59.03788548      93.14929205
H      90.39125681      56.37715083      92.01545626
N      88.52042776      57.44295647      95.23743963
H      87.16360427      56.11825832      95.01634165
C      89.08923538      58.21207508      97.53156737
N      90.73518700      59.99408699      97.81124686
H      91.30588435      60.65360147      99.50822109
H      91.77642620      60.51565145      96.29757609
N      87.95350987      57.31634480      99.62727384
H      88.39759555      58.32734838     101.18251861
H      87.08423576      55.61748085      99.67451701
C      89.96039921      63.23118816      85.00835108
O      91.49674670      64.93950075      85.62629159
N      90.07567252      62.30900172      82.60650895
H      89.12325046      60.74430834      82.06982668
C      91.53832068      63.54488273      80.57316343
H      93.02553529      64.74296921      81.34606149
C      92.99152022      61.67594341      78.96122689
H      94.07811285      60.49675419      80.25379968
C      91.38336313      59.78432737      77.42487940
H      92.48696329      58.32923811      76.46678815
H      90.40448490      60.84446383      75.95845177
H      90.06244443      58.70718337      78.58328163
C      94.88124653      62.86458126      76.97134507
H      93.77008746      64.01542458      75.67310310
H      95.79587407      61.37358720      75.88097300
C      96.80498792      64.67304934      78.10329114
H      97.82732985      63.81700332      79.67176399
H      95.74107200      66.39270029      78.50202340
H      98.12212716      65.29098984      76.64631216
C      89.97929648      65.55177208      78.97067552
O      91.01486649      67.59078677      78.57572272
N      87.63792557      64.93383157      78.26580760
H      86.95195492      63.23118816      78.78926179
C      85.93339244      66.40025919      76.66331969
H      86.85557888      66.83678597      74.87374887
C      83.85280377      64.76564593      75.80160449
H      82.59424604      64.38581094      77.39086432
H      84.80711556      63.08945869      75.08728794
C      82.34102272      66.04877010      73.66054457
O      83.41627699      66.16782285      71.54594084
O      80.12626348      66.82922706      74.01203367
C      85.20017863      68.92304382      77.81038356
O      84.90538132      70.58222352      76.19844701
N      85.18884027      69.23106921      80.34450655
H      85.53466019      67.56811005      81.21378065
C      84.66916554      71.50818941      81.83928006
H      85.09813341      73.17681775      80.70733399
C      81.85725278      71.70472095      82.52525071
H      81.60969863      72.80643139      84.24868112
H      81.05978828      69.81688436      82.75579733
C      80.28689022      72.94438141      80.42387505
H      78.27811115      72.68737863      80.79615114
H      80.47019367      71.93904701      78.63430424
C      81.04656019      75.77708116      80.07427569
O      80.38515598      77.46271703      81.56715948
O      81.96685691      76.40258057      78.06738634
C      86.47952334      71.73306685      84.06726739
O      87.73052216      73.66436714      84.26757837
N      86.73463640      69.71483914      85.51668746
H      85.57056499      68.20872727      85.36550937
C      88.15382086      69.70161106      87.91475016
H      90.08323142      70.34411801      87.58404806
H      88.35980102      67.76275186      88.57615437
C      86.92360903      71.16425923      90.15974501
O      84.99230874      72.47194983      89.83282236
N      88.18027703      71.23417910      92.32159191
H      89.82055946      70.26285977      92.40285016
C      87.43383513      72.36990461      94.65918336
H      85.42505606      72.76674714      94.42863675
C      87.87036191      70.57277489      96.86449397
H      89.85268481      70.04176180      96.67741108
H      86.86313778      68.81910887      96.47332062
C      87.47918856      71.44015927      99.57436151
H      88.80577643      72.79131358     100.38883355
C      84.86758680      72.35100735      99.95797595
H      83.51076331      70.87513110      99.47987520
H      84.66349636      74.07821720      98.85626551
H      84.55011278      72.69304781     101.96486530
C      88.03665783      69.06288357     101.29779190
H      89.56166696      69.40492403     102.63760787
H      88.44105926      67.36779906     100.19986091
H      86.35669113      68.59045199     102.39572290
C      88.63759079      74.97961665      95.15807112
O      90.89203428      75.30653930      94.84437654
N      86.97463164      76.77107720      95.77601161
H      85.10947177      76.35911686      95.79490889
C      87.82122903      79.32598717      96.97976729
H      89.80166220      79.34677416      97.54857491
C      87.46218103      81.54452586      95.11838686
H      87.34123854      83.46259807      95.85726985
H      85.69717665      81.35744296      94.07147849
C      89.54087997      81.61444574      93.11527698
H      89.37269433      79.97227357      91.88317542
H      91.35690696      81.46137791      94.07336821
C      89.31978199      83.78952072      91.31247806
H      87.39982006      83.98605226      90.59249235
H      90.41771298      83.46070834      89.60038603
N      90.11157732      86.13278135      92.56158716
H      90.64259041      86.12900190      94.39273195
C      90.01331155      88.35698922      91.49956098
N      88.97207235      88.68958105      89.29614009
H      89.41237858      90.26561280      88.31537213
H      88.10090852      87.26283769      88.37395366
N      90.99974868      90.33742240      92.52001319
H      90.99030005      92.06463225      91.70743086
H      91.91248649      90.11443469      94.18108262
C      86.40771374      79.68503517      99.44397040
O      84.08901956      79.27874401      99.37027106
N      87.64548448      80.47872022     101.57558167
H      89.54465942      80.51651475     101.39038849
C      86.36236031      80.34643938     103.98309299
H      84.51042853      79.47338582     103.74309776
C      88.10279825      78.93292410     105.90116521
H      87.49619610      79.33732553     107.82868605
H      89.94528140      79.85322081     105.95029808
C      88.39948528      75.95282570     105.68951585
H      88.74530519      75.61834415     103.68640597
C      90.52164793      75.01930090     107.36759283
H      90.58589862      72.96894785     107.56790381
H      90.57456026      75.88479556     109.23653215
H      92.29421121      75.67881539     106.55878996
C      86.00898149      74.63757619     106.51532625
H      85.96551779      72.62501767     106.08257893
H      84.54255387      75.47661467     105.33991649
H      85.62536705      75.23472970     108.44662654
C      85.92205408      82.92591580     105.22275346
O      84.27043328      83.40590628     106.87059480
N      86.84990970      84.94414350     104.08702794
H      87.71540435      84.63422838     102.41273043
C      86.06756301      87.63133432     104.50087801
H      84.78632857      87.82030695     106.10147620
C      88.39192637      89.41145650     104.90527944
H      89.90181770      88.87855368     103.60892718
H      89.03065387      89.03918042     106.82902082
C      87.71162490      92.16667747     104.79378558
H      86.07890137      92.50493848     106.00132070
H      86.89904258      92.71658783     102.98153805
C      89.66938136      93.98081473     105.58180146
H      91.39470148      93.80695991     104.47253212
H      90.29866022      93.63310509     107.51121202
C      88.74530519      96.75115350     105.62148572
H      87.00486726      96.71524870     106.72130642
H      88.42027227      97.45413169     103.71286213
N      90.56889108      98.24403729     107.00854483
H      90.19094582     100.11297661     106.94618385
H      92.24318860      97.88309957     106.16950635
H      90.64825959      97.86987148     108.87748415
C      84.25720520      88.22848783     102.26722151
O      84.63892991      87.37811099     100.10159515
N      82.35614053      89.96892577     102.68107156
H      81.98008499      90.50182859     104.47631157
C      80.57412862      90.64922724     100.76110963
H      79.52722024      88.94091465     100.27922943
C      78.59936462      92.76383098     101.84581253
H      79.42895447      94.20569216     103.06279628
C      77.25765894      94.09797776      99.68774508
H      78.49353994      95.45669098      98.75611001
H      75.72698062      95.28472588     100.38883355
H      76.68885132      92.76572071      98.22320719
C      76.73609447      91.16134307     103.33869633
H      77.65828091      90.29206897     104.96386096
H      75.93485052      89.70436408     102.12549204
C      74.61015237      92.59753507     104.78622667
H      73.29112341      93.56507494     103.53333814
H      75.61170732      93.85042361     106.07879948
H      73.68418648      91.20291705     105.98620289
C      81.80245072      91.77928357      98.28178872
O      83.41816672      93.54995713      98.49343806
N      80.92750744      91.00638551      96.07269866
H      79.59525039      89.64578257      95.95553562
C      81.88181922      92.13266239      93.70487159
H      82.50542891      94.04128597      94.16218535
C      83.86036267      90.33175322      92.74300088
H      85.17372246      90.03128673      94.30202510
H      84.73152650      91.59220067      91.36539040
C      82.96274267      88.01494876      91.30869861
C      82.53755425      88.01494876      88.69520712
H      82.85880773      89.71570244      87.61239395
C      81.37915202      85.93058064      87.56137133
H      80.77632933      86.14600944      85.62251213
C      81.11270061      83.61566590      88.92764346
O      79.85981207      81.61633546      87.85805837
H      79.55556613      82.00939854      86.11384098
C      81.43584381      83.59676864      91.58081921
H      81.13915678      81.91869167      92.70520637
C      82.46574465      85.82664569      92.66552211
H      82.57156933      85.90601419      94.70264707
C      79.73131068      92.67879330      91.78679937
O      77.53733843      91.42968421      91.83593225
N      80.14516074      94.47403330      90.12006077
H      81.81189935      95.40377864      90.06525870
C      78.41228171      94.89922172      87.91475016
H      76.59625473      94.15844900      88.54969819
C      78.36125910      97.59208171      86.91886439
H      76.87215477      97.62609679      85.49401076
H      80.02988744      98.12498453      85.83416149
C      77.90772479      99.34952718      89.05992431
H      79.34958596      99.23425388      90.52446220
H      76.21830946      98.95079493      90.17297311
C      77.96063712     102.08207143      88.21521664
H      76.68507186     102.43733998      86.63729517
H      79.90327577     102.44867834      87.63507067
C      77.42206513     103.78660457      90.39596080
H      78.68251258     103.26692983      91.93986721
H      75.48887511     103.56361686      91.07248283
N      77.66772955     106.46623648      89.69487234
H      76.50176841     107.03315437      88.29458514
H      79.39871885     106.87819682      89.00512224
H      77.49198500     107.61707980      91.20854313
C      78.88093384      93.05862829      85.67542447
O      81.03522184      92.72792618      84.96677711
N      76.85703696      92.05329389      84.69654625
H      75.25454904      92.40667271      85.67164503
C      76.70585885      90.65111697      82.27202739
H      77.75465696      88.89556122      82.51958153
C      73.82780568      90.06530181      81.81660335
H      72.54090206      91.67534863      81.77502936
H      73.25521861      88.93524547      83.43987824
C      73.47253713      88.32108442      79.55838041
O      74.70652841      86.28206973      79.44499683
O      72.26311229      89.20736606      77.72912533
C      77.65261174      92.23470762      80.08372432
O      78.01543919      94.48915111      80.30482230
N      77.67906790      91.26338829      77.78581711
H      77.15372399      89.43791267      77.61196230
C      77.99087275      92.63155014      75.47090238
H      79.69540588      93.78806264      75.46145376
C      78.29700841      90.93646564      73.10685477
H      77.74142887      91.94935894      71.40043191
C      80.82924167      90.01805865      72.29994164
H      81.85914251      91.61298766      71.49869767
H      80.42484024      88.64800707      70.81461676
H      81.78355346      89.19035853      73.92699598
O      76.56412938      88.98059890      73.29204795
H      75.14116547      89.22626333      72.19411695
C      75.87059982      94.44757713      74.97768382
O      76.46397388      96.37131851      73.92699598
N      73.37994054      94.09419831      75.44822568
H      72.80168429      92.36320900      76.00569494
C      71.32580804      96.01038079      75.29704756
H      71.73965810      97.60342007      74.05927683
C      68.94853234      94.75371279      74.21045494
H      67.30824990      95.97825544      74.45045017
H      68.72365491      93.00382623      75.27437084
C      69.01845221      94.22458942      71.37586547
H      70.65873465      93.00760568      71.11319350
H      69.25655773      95.88754858      70.18155843
C      66.60149226      92.87154538      70.48769409
O      64.77601664      94.29828875      69.90565839
O      66.32748194      90.54718202      70.61619548
C      71.02534156      97.38043237      77.91431851
O      68.95987070      98.30072908      78.48123641
N      73.01711309      97.59208171      79.35051050
H      74.58180648      96.59619595      78.89697620
C      73.32702820      99.46669022      81.39897383
H      72.67318290     101.27137884      80.65442167
H      75.36226344      99.58952243      81.68432251
C      72.24988421      98.60875447      83.99167833
O      72.01555814     100.00526221      85.80203614
N      71.18029911      96.29950891      83.91042010
H      71.18029911      95.37543275      82.24179176
C      69.37750021      95.24315191      85.77180051
H      68.25689251      96.69635144      86.70910477
C      67.46320746      93.58019275      84.31671126
H      66.24055453      92.91122964      85.83416149
H      68.48743912      92.03439663      83.42287071
C      65.78890994      94.98236967      82.31171163
C      64.99900434      93.75971675      80.11584967
H      65.71710034      91.90589524      79.64908726
C      63.31336847      94.91622925      78.31494048
H      62.60850056      94.15277982      76.55938474
C      62.54236014      97.39366045      78.76469535
O      60.91719551      98.63710036      77.22267867
H      60.56570641     100.33974377      77.73290478
C      63.14896228      98.62765173      81.00402103
H      62.36283614     100.47769379      81.34606149
C      64.77979609      97.43901388      82.82571720
H      65.26356603      98.37442841      84.57371403
C      70.74188261      93.80129073      87.90152208
O      72.44830547      92.24226652      87.23822813
N      69.96331537      94.22080997      90.24667242
H      68.64239668      95.52661085      90.69075811
C      71.40517654      93.27594681      92.39718097
H      73.35915355      93.47058862      91.77357129
C      70.89117099      94.74426416      94.83303818
H      71.95697663      94.06018323      96.45631310
H      68.88806110      94.71780799      95.31113895
C      71.56202383      97.59208171      94.68186009
C      69.64017217      99.53472036      94.55524843
H      67.66729790      99.07551687      94.30013536
C      70.30913528     102.15766049      94.78579504
H      68.88806110     103.56739631      95.18452729
C      72.83758909     103.00614760      94.91807587
O      73.38560972     105.41932810      94.94642176
H      71.82658551     106.34718372      94.93697313
C      74.56668867     101.05972950      95.12783549
H      76.53578348     101.58507341      95.26200607
C      74.02622694      98.45757636      94.96720876
H      75.54934635      97.10264260      95.04846699
C      71.04612855      90.44891625      92.65796320
O      68.97876796      89.26783730      92.68630910
N      73.14750421      89.18279962      93.04913655
H      74.78400719      90.16356758      93.03401873
C      73.53300837      86.43891701      92.85449474
H      71.68485604      85.76806417      93.47054551
C      74.24165574      85.84743268      90.10116350
H      76.14461014      86.58820539      89.83093264
C      74.02244749      83.05630691      89.44353875
H      72.09681638      82.43080750      89.81581482
H      75.25832850      81.89601496      90.61516905
H      74.03945502      82.73694317      87.40830350
O      72.63538837      87.16079247      88.46466051
H      73.09270214      88.90878930      88.61961808
C      75.49076483      85.49216413      94.88972997
O      77.21986441      86.83386981      95.58703898
N      75.17707027      83.12244733      95.66451776
H      74.06213174      81.99050127      94.60627103
C      76.79656572      81.92058140      97.55991325
H      78.65605641      82.75017125      97.25566732
C      75.90272517      82.39301298     100.33025204
H      75.40005797      84.38667424     100.47009178
C      73.69552484      80.87178330     101.21086450
H      73.13805557      81.07587374     103.18373876
H      74.21708930      78.88946039     100.99354597
H      72.10626501      81.28941281      99.96931431
C      78.29322896      82.12278211     102.15950710
H      79.96185729      82.18136363     100.95575145
H      78.29133923      80.28596814     103.08925246
C      78.35370020      84.08431803     104.35914854
H      79.74642849      83.70070359     105.82557615
H      76.50176841      83.87266868     105.23598154
H      78.64660778      85.95892653     103.55412513
C      77.09325275      78.87812204      97.04212824
O      75.41895523      77.70082254      95.90640274
N      78.93573590      77.64791021      98.21375857
H      80.41539161      78.68725968      98.82791961
C      78.96219207      74.89835842      98.50666614
H      77.12348837      74.03475350      98.84870660
H      80.18862445      74.40136040     100.08458762
C      79.99398264      73.74751510      96.00844796
O      81.62103699      74.82276937      94.71776489
N      79.06234756      71.70850040      95.16751974
H      78.14583030      70.55387763      96.38072403
C      78.95274344      70.90158727      92.52190290
H      80.61948205      71.59133737      91.52601714
C      79.00943523      67.87235599      92.71465499
H      77.54678706      67.39236550      94.08470657
C      78.67306394      66.26608862      90.32604094
H      78.22330908      64.32156025      90.83059786
H      80.26799295      66.43994344      89.03346813
H      76.94396437      66.84245515      89.36794969
C      81.68150823      67.21284151      93.60471609
H      82.35614053      68.29754441      95.22043208
H      83.02321392      67.90826079      92.20253916
C      82.26543367      64.51431233      94.29068674
H      80.77632933      63.84534922      95.54735473
H      84.07957093      64.23841229      95.22421153
H      82.20307270      63.22362926      92.68819883
C      76.53578348      72.11479156      91.46932535
O      74.45141536      70.99985304      91.53924523
N      76.82869106      74.38813232      90.51312383
H      78.40661253      75.38779754      90.90429718
C      74.97297982      75.57677017      88.72733247
H      74.76888938      74.32010217      87.11161648
H      75.72131144      77.23972932      87.76735150
C      72.23854585      76.34588878      89.59093739
O      70.77778741      77.18870671      88.03380291
N      71.78879099      76.33644014      92.12317065
H      73.25710833      75.84133185      93.23621945
C      69.26789608      76.90335804      93.13039478
H      67.96776438      75.75629417      92.01923570
C      69.04679811      75.60889551      95.78357052
H      70.15228800      76.66147307      97.16496045
H      69.80457836      73.70027194      95.59648762
C      66.39551209      75.27819341      96.80213301
N      65.00845298      73.05587527      97.00811318
H      65.37694961      71.33811405      96.25600210
C      62.95621020      73.68326440      98.35170859
H      61.71654974      72.25463131      99.12082720
N      63.03368898      76.14746751      99.08492240
H      62.02268540      76.89579913     100.52300411
C      65.17852834      77.15847109      98.01344757
H      65.72654897      79.11811728      98.17218458
C      68.75955971      79.70771189      93.25511671
O      70.21653869      81.20626485      94.34170934
N      66.66385323      80.48249968      92.05325078
H      65.77190241      79.04063850      91.17641778
C      65.97032367      83.12055761      91.62050346
H      67.66729790      84.18825297      91.14996160
C      64.19587066      83.11110898      89.33771408
H      62.71432523      81.70515260      89.60038603
H      65.31647836      82.63489795      87.67475491
C      62.74456085      85.58476072      89.03157841
H      61.89040456      86.01939777      90.85516430
C      64.52846249      87.84298366      88.61583862
H      65.99677984      87.58598089      87.19476443
H      65.54135580      88.31730497      90.34493819
H      63.48155411      89.57964215      88.25490089
C      60.89829824      85.23516135      86.85650342
H      59.74367547      86.93213558      86.69020750
H      59.64163025      83.68747550      87.37617815
H      62.02457513      84.89501062      85.16519837
C      64.66830224      84.02384679      94.16218535
O      62.88818005      82.76906851      94.91807587
N      65.49600236      86.24805466      95.24688825
H      67.12872590      87.06819588      94.69319845
C      64.31114397      87.32519865      97.62794340
H      63.35494245      85.84932240      98.69941822
C      66.38984291      88.63099954      99.17373954
H      65.63395238      89.84420383     100.65717469
H      67.51989925      89.64578257      97.78479069
C      68.40240143      86.78284720     100.19608146
H      69.00522413      85.48082577      98.72020521
C      70.62849903      88.21148030     101.32613781
H      69.87071878      89.49649419     102.74910171
H      71.39950737      89.16957154      99.67640672
H      71.96642526      86.93780476     102.23698588
C      67.13439508      85.04618872     102.11604339
H      66.06480998      86.16868615     103.47286690
H      68.51011583      84.09376666     103.31601961
H      65.93441887      83.71771112     101.09748092
C      62.21165803      89.23004278      96.98732619
O      60.34082898      89.46247911      98.35359831
N      62.56314713      90.78150808      94.97476767
H      64.19398093      90.48482105      94.02801478
C      60.83782700      92.88099401      94.25100248
H      58.96321850      92.17801583      93.76723255
C      60.35216734      94.83308130      96.47521036