 %block lattice_cart
   135.996   0.000   0.000
   0.000 142.663   0.000
   0.000   0.000   160.158
 %endblock lattice_cart

 %block positions_abs
N      90.60857534      41.47287939      81.72778622
H      89.85646426      40.22188057      80.50135384
H      90.12291567      41.05336015      83.52680567
H      92.50586055      41.26689922      81.67865332
C      89.58623340      43.66685164      80.65631139
H      90.15315129      45.36004642      81.68432251
C      89.99630401      43.83881673      77.83872945
H      88.82845315      42.42908090      76.89764576
H      91.97673719      43.52890162      77.36440816
C      89.13647854      46.46553631      76.93544028
H      87.10313302      46.76789252      77.05827250
H      89.37836351      46.73576717      74.90776394
S      90.77676098      49.12816068      78.42832406
C      89.06466894      51.72086518      77.07528003
H      89.98307593      53.49342847      77.57605750
H      87.20139879      51.62448914      77.94833359
H      88.59979626      51.64527613      75.07028042
C      86.80833572      43.61204958      81.17031694
O      85.77087597      41.61838832      80.86607101
N      85.53088073      45.61138001      82.00368625
H      86.66660625      47.13071997      82.20588696
C      82.88337417      45.87594170      82.76524596
H      81.74764865      44.82903332      81.40275328
C      82.37125834      45.21264776      85.62818133
H      83.02699337      43.32292145      86.11573071
H      80.37759708      45.12949981      86.14218687
C      83.94917981      46.94552679      87.49145147
O      83.60524962      49.22453673      87.61239395
N      85.61024924      45.80602183      88.97299689
H      86.40393429      46.90584254      90.31659231
H      86.00709176      43.94653113      88.81992906
C      82.13693227      48.73698734      82.06604723
O      83.59391126      50.32246771      81.27047244
N      79.64438327      49.19241138      82.60839867
H      78.71652765      47.57669538      83.01846929
C      78.38771527      51.56779735      82.40619796
H      78.71841737      52.18951731      80.47111821
C      75.53233881      51.25788224      82.79359185
H      75.10148121      49.72720392      81.48401151
C      74.47976125      50.46230746      85.38440662
H      75.25265932      48.66517774      86.03447248
H      72.42373903      50.56435268      85.32960457
H      74.91628803      51.93440426      86.75634794
C      73.88638719      53.52555381      81.96967118
H      73.91851254      54.92206156      83.48523169
H      71.92674101      52.89438523      81.97534036
C      74.62527018      54.79356017      79.45066600
H      76.37137729      55.83479937      79.78325784
H      73.22876243      56.26754669      79.10106663
H      74.75377157      53.55767916      77.80849384
C      79.41383666      53.74287234      83.98411942
O      79.47619763      55.88771171      83.29625906
N      80.25665459      53.27988939      86.23856292
H      80.51554710      51.47709049      86.80170137
C      81.13159788      55.16205680      87.95254468
H      79.94673948      56.81367760      87.61428367
C      81.11836979      54.24176009      90.70398619
H      81.95362882      55.72141579      91.86616789
H      82.20307270      52.52588859      91.05547530
C      78.53133447      53.74476207      91.80002745
C      77.44852129      55.77999731      93.13039478
H      78.17984537      57.68295170      93.03401874
C      75.00510517      55.21307941      94.22832578
H      73.90339473      56.70218375      95.09004097
C      73.72387073      52.94918729      93.83148324
H      71.85115195      52.51643996      94.51934363
C      75.01833325      50.98765138      92.39907071
H      74.06969064      49.25666207      91.88884459
C      77.40505759      51.41661925      91.38617740
H      78.12504331      49.99176561      90.11250187
C      83.84524486      55.95952130      87.41586241
O      84.29499972      58.23097233      87.36483981
N      85.51576292      54.11136897      86.82248835
H      84.82223337      52.33313651      86.80926027
C      87.79288313      54.66505878      85.26157442
H      89.32167172      55.57779659      86.29903416
C      88.99663879      52.20841457      84.58694213
H      90.23440953      52.63549272      82.99768230
H      87.58312351      50.86670889      83.92175847
C      90.58778835      51.08780687      86.64296436
H      89.52387243      50.71364106      88.36450502
H      92.00508308      52.51643996      87.07760140
C      91.89925841      48.73509761      85.85872793
O      90.69928220      46.69041374      85.38440662
O      94.25196767      48.66328801      85.68676283
C      87.43761458      56.36014328      82.91453434
O      88.69428258      58.25742850      82.67453910
N      85.57245471      55.64015756      81.43865809
H      84.52176688      54.19640665      82.11140066
C      84.82223337      56.96863516      79.13508171
H      86.37936785      56.73808855      77.80660411
C      82.57534878      55.65905482      77.79526576
H      80.79900604      55.89338088      78.81193852
H      83.03077282      53.67862165      77.44944584
C      82.18984461      56.71919128      75.08350849
H      83.85847295      56.17117065      74.00258504
H      82.05756377      58.76198543      75.30838593
S      79.34769624      55.52488425      73.65865486
C      79.89193741      56.18250901      70.52548863
H      81.45852053      55.24898421      69.56361793
H      80.28311076      58.15349355      70.07195431
H      78.38015636      55.23386640      69.49558778
C      84.20618259      59.73330475      79.66609481
O      85.42127661      61.44161734      78.61540698
N      82.35425080      60.14337536      81.37251767
H      81.50198423      58.60891760      82.12462873
C      81.70607467      62.75875658      81.94132529
H      81.31868078      63.84156976      80.23301270
C      79.22864348      62.57356340      83.35862002
H      79.20218731      64.31022188      84.46410991
H      79.30612226      61.07501043      84.77213531
C      76.75877119      62.35246542      81.87329514
H      76.95152327      60.64415283      80.73756962
C      74.59503456      62.03499140      83.72711666
H      75.05045860      60.32856854      84.78725311
H      72.87916307      61.88759275      82.59706031
H      74.65361607      63.57133889      85.09905796
C      76.29767797      64.52187123      80.09884213
H      77.75465695      64.73730003      78.65887068
H      76.27689098      66.39270028      80.96433679
H      74.54779140      64.22518420      79.05571320
C      83.82067842      64.16093350      83.35673030
O      84.07390175      66.47206878      83.15641931
N      85.38159235      62.96662647      84.87040107
H      85.30222385      61.06178235      84.99323329
C      87.01809534      64.31211161      86.59761091
H      86.10724726      65.95617350      87.44231859
C      87.94406123      62.43183393      88.65741260
H      89.02876414      60.85769191      87.89207344
H      86.21307193      61.64570778      89.44731820
C      89.58245395      63.61858205      90.85138485
H      88.27476334      64.74107948      91.98144118
H      91.10935281      64.71273359      90.00856691
C      90.73329727      61.72696601      92.68819883
H      92.03342898      62.48474626      94.09604493
H      91.98618582      60.66305010      91.44664864
N      88.68105450      60.17361098      93.94486682
H      88.29366060      58.55789499      93.00567284
C      87.53210090      60.56478433      96.11994182
N      87.49808582      62.49986407      97.56369272
H      86.53999458      62.59624012      99.21153405
H      88.32578595      64.18172049      97.19897553
N      86.22630002      58.65805048      96.95142139
H      85.31545193      59.01709848      98.58792438
H      86.14693151      56.91572282      96.17474387
C      89.25931075      65.55366180      85.10472713
O      89.94528140      67.71361897      85.70754983
N      90.12669513      64.39148011      83.00524119
H      89.47096010      62.65671136      82.55926579
C      92.08634131      65.73696525      81.30448752
H      93.27875862      66.63647497      82.71989253
C      93.70583676      63.86424647      79.85317771
H      94.38424851      62.55655586      81.29503888
C      92.17704818      62.20506677      78.11085005
H      93.42048809      60.68572681      77.49101981
H      91.53265150      63.12725321      76.38552993
H      90.58211917      61.40949199      79.14453034
C      95.99618505      64.98863363      78.35462474
H      95.47840004      66.08845434      76.69166559
H      97.02608589      63.34835119      77.65920546
C      97.82166067      66.56844483      79.77002975
H      98.72117040      67.80054638      78.38297063
H      99.57343696      65.65381729      80.34828601
H      97.05065234      67.80432583      81.22511901
C      90.92226990      67.80054638      79.58861602
O      92.15815091      69.56744048      78.78359262
N      88.36735993      67.76464158      79.20311186
H      87.45462212      66.12246942      79.53948314
C      87.15793509      69.67137543      77.69699998
H      88.44861816      70.45183240      76.29482307
C      84.77876966      68.63202596      76.28537442
H      83.57879345      70.21372688      75.73168463
H      83.77343526      67.50007990      77.67999245
C      85.58379307      66.88780857      74.14809396
O      87.78154477      66.84245514      73.05016299
O      83.72241265      65.53665426      73.38842400
C      86.24330755      71.99006962      79.22956802
O      86.77243092      74.11412199      78.46989805
N      85.11892040      71.63102162      81.52747522
H      84.67294499      69.85089943      82.05470887
C      84.25720520      73.71161029      83.15075013
H      83.78099417      75.30653930      81.93943555
C      81.84780415      72.99162456      84.52269143
H      81.49631505      74.40325012      85.98156015
H      82.22952886      71.13402360      85.32393538
C      79.54044832      72.95760949      82.94476995
H      77.97008575      72.32455118      84.11828999
H      80.00910045      71.84645042      81.27614163
C      78.72219683      75.53330645      81.71077868
O      77.10837056      75.57488043      80.00624555
O      79.55178668      77.68759445      82.38163152
C      86.10913698      74.68103989      85.12362440
O      86.29433016      76.96004982      85.59794571
N      87.72107353      72.86879235      86.04770057
H      87.41871732      71.01308111      85.72644708
C      89.61268957      73.50374039      87.94876523
H      90.90526237      74.97772692      87.31759665
H      90.79187879      71.83322233      88.18876048
C      88.71317984      74.33899943      90.69453756
O      86.66282679      75.17236873      91.06870338
N      90.55566300      74.01774595      92.51434400
H      92.27153449      73.27319378      92.13261930
C      90.00386292      74.78308511      95.07303344
H      88.04421673      74.38624258      95.57192119
C      91.64036590      73.26752461      96.86260426
H      93.61701963      73.72672810      96.51300488
H      91.26431037      71.26819417      96.53757132
C      90.91849045      73.84578086      99.62916358
H      90.40826435      75.83755239      99.78034167
C      88.63948052      72.35478680     100.50788630
H      86.84990970      72.76863686      99.57436151
H      88.29744005      72.68737863     102.51288593
H      89.00230797      70.34033855     100.28489860
C      93.27308944      73.19571501     101.22976177
H      93.77764636      71.21528183     100.97275899
H      92.99907912      73.65113905     103.21964357
H      94.78864994      74.41458848     100.54757057
C      90.51219929      77.59688759      95.34137458
O      92.57011125      78.47183087      95.98955069
N      88.32200650      79.10299946      95.27901360
H      86.66660625      78.27907879      94.80469229
C      88.18594620      81.74483685      96.18419250
H      90.10590814      82.47994038      96.31080417
C      86.91793985      83.19803638      93.94108737
H      86.38692675      85.08209351      94.58737378
H      85.30978275      82.14167937      93.20598384
C      88.73585656      83.61755562      91.63751100
H      89.49552654      81.78830055      91.07437255
H      90.23440953      84.98571747      91.99277954
C      87.19572961      84.81564210      89.52479697
H      88.60735517      85.75483608      88.35127693
H      85.99764313      86.32175398      90.26556970
N      85.67072048      82.94103360      87.81081521
H      85.47040949      81.10799908      88.29836460
C      84.89782242      83.26984598      85.46755458
N      85.24175261      85.52617920      84.37529277
H      84.38948604      85.79641006      82.69154664
H      85.95984861      86.95670202      85.41464225
N      83.74508937      81.73538821      84.09183383
H      82.80967484      82.76339933      82.78414323
H      83.26509888      80.07431879      84.89685723
C      86.84801997      81.83176426      98.75422030
O      84.56901004      81.27618472      98.79579427
N      88.28232224      82.15868691     100.89528021
H      90.18338692      82.29852666     100.86126513
C      87.17116317      82.30419583     103.45774908
H      85.48363757      81.13634497     103.64294226
C      89.19694978      81.66924779     105.54211721
H      88.42972090      81.90168413     107.43940242
H      90.70684110      83.02229183     105.17362058
C      90.54999382      79.02363096     105.42117473
H      90.90715209      78.84032750     103.40105729
C      93.00663803      78.77040763     106.79122631
H      94.03842859      80.52785310     106.50398791
H      93.98929571      77.09044094     106.11470428
H      92.75908388      78.64379597     108.83213072
C      88.51286885      77.00729298     106.08257893
H      89.26120047      75.14591256     106.54556188
H      87.35824608      76.90902721     104.37804579
H      87.46029130      77.55342388     107.76443535
C      85.96929724      84.89312088     104.02844644
O      84.14004217      84.96682021     105.45518979
N      86.97652136      86.94725339     102.99854559
H      88.41838254      86.83198008     101.75321596
C      85.97874587      89.47759692     103.24609974
H      85.14537656      89.62310584     105.12070823
C      88.18027702      91.40322803     103.16862095
H      89.04577167      91.23126294     101.30724055
H      89.44828338      91.03662113     104.74843215
C      87.06344877      94.13577228     103.42184428
H      85.81056023      93.88632841     105.03756029
H      86.08268082      94.74237443     101.71542142
C      89.02309496      96.08219038     103.97175465
H      90.66904658      96.04817531     102.73209418
H      89.60513066      95.99526297     105.94651863
C      88.16515921      98.93567712     103.72042104
H      86.19795412      98.84874970     103.11570862
H      89.45962174      99.66889092     102.29745712
N      88.39759555     100.29439033     106.13549127
H      87.69839681      99.17567236     107.51688121
H      87.20895770     101.77782549     106.29611801
H      90.23063007     100.72524793     106.44351665
C      83.86036267      90.00294083     101.35259397
O      83.98697433      89.16579208      99.22665187
N      81.78355345      91.35409515     102.09525641
H      81.63426508      91.68479725     103.96986491
C      79.53855859      91.83030618     100.35292875
H      78.80156533      90.05585317      99.61215603
C      77.36537333      92.98492896     101.90439406
H      77.07246576      91.46558900     103.26310728
C      78.04945426      95.39433000     103.44074155
H      79.46107982      95.03906146     104.89961027
H      76.50176841      96.32596508     104.43284787
H      78.69574066      96.79839666     102.07635914
C      75.01077435      93.68223797     100.35103903
H      75.04856887      92.91500908      98.44052572
H      75.21486479      95.71936293     100.13561022
C      72.53523288      93.17957077     101.88171733
H      72.48987945      91.14244580     102.18596328
H      70.88172235      93.63121535     100.73654319
H      72.46720273      94.17923599     103.68073678
C      80.22830870      93.42523519      98.04368319
O      81.94606992      94.94457514      98.45186409
N      79.10203182      92.96414197      95.87427740
H      77.56568432      91.83786508      95.95553563
C      79.84847371      94.01294007      93.42519208
H      80.20185253      95.99148352      93.87494696
C      82.07646103      92.52761519      92.17230355
H      83.61091880      92.34620146      93.53479622
H      82.70007072      93.36665367      90.39785054
C      81.37159312      89.74782778      91.37861850
C      80.65916630      88.98248862      88.81614962
H      80.86892592      90.25049498      87.22877951
C      79.96563674      86.45403482      88.21521664
H      79.44974146      85.93813953      86.30848280
C      80.18484499      84.59454413      90.06903815
O      79.28155582      82.11333348      89.70621070
H      78.62015161      81.57476148      88.10183306
C      80.92183826      85.20114627      92.53891044
H      80.89160263      83.84810223      94.06769904
C      81.50765341      87.71637199      93.21921192
H      82.22008023      88.20392138      95.06925398
C      77.48064664      93.97892500      91.68475416
O      75.33202782      93.66145098      92.56725635
N      77.83024601      94.44190794      89.19976406
H      79.56690449      95.03906146      88.67819959
C      75.76855460      94.67434428      87.27035348
H      74.16984614      93.72570167      88.15663513
C      75.16195245      97.39366044      86.53524996
H      74.30779616      97.57318444      84.66820036
H      76.85514723      98.48781198      86.11384098
C      73.72576046      98.98481000      88.52702149
H      74.69707978      98.64654899      90.31092312
H      71.79446016      98.31584688      88.78024482
C      73.75977553     101.79105357      87.62940148
H      73.41017616     101.85908372      85.59983543
H      75.58336142     102.66788658      88.00923647
C      71.81524715     103.33684970      89.06559348
H      72.67318290     103.90565732      90.84949513
H      70.23921541     102.03860772      89.35094216
N      70.73810315     105.62530826      87.79002823
H      69.53434749     106.57206115      88.92764346
H      69.78757082     105.25114245      86.17620196
H      72.25555338     106.77048241      87.61617341
C      76.78333763      93.25327009      84.98378465
O      78.93006672      93.47058862      84.04648040
N      75.09581203      91.80762946      83.73278583
H      73.33080766      91.82085755      84.46033045
C      75.51722100      90.42057035      81.46700398
H      77.51844117      90.07097098      81.11929434
C      74.28133999      87.83731448      81.99801708
H      72.24988420      87.96959532      81.68810196
H      74.64794690      87.15512328      83.90664065
C      75.12604765      85.81908678      80.15931338
O      76.62082117      84.15612762      80.71489290
O      74.08669818      85.74160800      77.90864934
C      74.46086399      91.92290277      79.16531733
O      73.83914403      94.14900036      79.28437009
N      74.49109961      90.82308205      76.97323481
H      75.38305043      89.14500509      77.14142044
C      74.54212222      92.00983018      74.51659061
H      76.32602386      93.04351047      74.55816458
C      74.80857363      89.96892576      72.48135537
H      74.72542567      90.73426492      70.57084206
C      77.36348361      88.66312488      72.83473419
H      77.70363434      87.39889797      71.24358463
H      77.47308773      87.76550488      74.68666597
H      78.90739001      90.01994837      72.73835815
O      72.86782471      88.07730972      72.56072386
H      72.95475212      87.30819111      74.20289604
C      72.35192943      93.71436331      73.97423915
O      72.78656648      95.70613485      72.81205747
N      70.18630307      93.21736529      75.03815507
H      70.18252362      91.74526849      76.25513881
C      67.77123284      94.61009358      74.97579409
H      67.61060611      95.55117729      73.15031848
C      65.44120030      92.85453784      75.46523321
H      63.70832127      93.96380719      75.41799005
H      65.66607773      92.02494799      77.33606226
C      64.91396666      90.89678138      73.46590277
H      63.90674253      89.26972702      74.22935220
H      66.74322173      90.25616416      72.76103485
C      63.37950889      92.15911856      71.27193052
O      61.08916060      92.36698845      71.40043192
O      64.44720426      93.13799679      69.39543230
C      67.80146846      96.75493295      77.02614715
O      66.10260451      98.32340579      76.86741014
N      69.59481873      96.89099324      78.73634946
H      70.92329633      95.52094167      78.80437961
C      69.90095440      98.83363189      80.66009085
H      69.18285840     100.61186435      79.90609005
H      71.90595402      99.18323126      80.98323404
C      68.50633638      98.15144070      83.22067000
O      68.47799048      99.59141215      84.99890246
N      67.65218009      95.77794445      83.50601868
H      67.39139785      94.80851485      81.88274376
C      66.23110590      94.82363266      85.65652722
H      65.38828796      96.52816579      86.44832254
C      64.11839188      92.86020702      84.87040107
H      62.92975403      92.41234188      86.49178625
H      64.84404678      91.00071633      84.35828524
C      62.16441487      93.70869413      82.88618844
C      61.39718599      91.98337401      81.12685325
H      62.01701622      90.08797852      81.56526974
C      59.59438709      92.59753506      79.30704680
H      58.94810069      91.15378416      78.01636373
C      58.71944380      95.14677586      79.12185362
O      57.05648465      95.78550335      77.44566639
H      56.51602292      97.49570566      77.70644861
C      59.64351997      97.01949463      80.77536414
H      58.94999041      98.92811821      80.57127371
C      61.41986270      96.21069177      82.59895005
H      62.15685597      97.62609678      83.87073585
C      67.82792463      93.81073935      87.77113096
O      69.82158589      92.69202138      87.35917062
N      66.92652518      94.15277982      90.10872241
H      65.06514476      94.55340180      90.24478271
C      68.38350417      93.54806740      92.29891521
H      70.30157638      94.21892024      91.96632338
C      67.63517255      94.95780323      94.60816077
H      68.60082269      94.08285994      96.20308976
H      65.67174691      94.50237918      95.02768001
C      68.09248632      97.77727489      94.61382994
C      66.15362712      99.56873543      94.34548881
H      64.21854737      98.95079493      94.14328808
C      66.76211899     102.14443239      94.22832578
H      65.29569137     103.56172713      94.32470181
C      69.21498375     102.93433799      94.55146898
O      69.67229751     105.45901235      94.10171411
H      68.25311305     106.49836182      93.65951816
C      71.14628404     101.28838637      94.92563478
H      73.10404050     101.85719400      94.93130397
C      70.55290998      98.69757160      94.87461218
H      72.06847048      97.36720428      95.18830673
C      68.73310354      90.72103683      92.78079542
O      67.13439508      89.13555646      93.02079066
N      71.20297583      90.19380319      93.01890094
H      72.47665136      91.56196504      92.63150703
C      72.24421503      87.60676787      93.02834957
H      70.84014838      86.14411970      93.38361811
C      73.40639671      86.97370955      90.46399096
H      75.21675452      87.90723435      90.15596557
C      73.70308374      84.26762147      89.88195526
H      74.66684416      83.21126446      91.36539040
H      74.96164146      84.00872897      88.27001871
H      71.95130745      83.30386105      89.38684696
O      71.98910197      87.91290353      88.44009407
H      71.78501153      89.71381271      88.47410914
C      74.21708930      87.19858699      95.12594577
O      75.53233881      88.92012766      95.82514450
N      74.51377633      84.75328114      96.00088905
H      73.26655696      83.38889874      95.52845748
C      76.68507186      83.87077895      97.56558244
H      78.31968512      85.07075516      97.21031390
C      76.14083068      84.20903996     100.39072327
H      75.61548677      86.19892177     100.37938493
C      73.95441734      82.42891777     101.27511520
H      74.53834277      80.46549213     101.49810289
H      72.41051094      82.44781503      99.91262252
H      73.09459187      83.37378093     102.89083120
C      78.65794613      84.18825297     102.01399818
H      80.10736621      85.18035928     100.93685418
H      79.39304967      82.30041638     102.38627426
C      78.03433645      85.59609907     104.44229649
H      77.66017064      87.58409115     104.04167452
H      79.74264904      85.62255524     105.59125009
H      76.48476087      84.66446400     105.42684390
C      77.24632058      81.07398400      97.25188787
O      75.96319641      79.78897011      95.83837260
N      79.28155582      80.06487015      98.29123735
H      80.38515598      81.33476624      99.19074707
C      80.03177716      77.40791496      98.48398943
H      78.32535430      76.39313193      99.03578952
H      81.35080613      77.12634574     100.04112392
C      80.99175813      76.32132233      96.02356577
O      82.62637139      77.47972456      94.83114847
N      80.20941144      73.98184115      95.49444241
H      79.09069346      72.94060195      96.63772682
C      80.58924642      72.93871223      92.96598859
H      82.36369943      73.60200616      92.15529600
C      81.14482596      69.94349602      93.17574821
H      79.54989695      68.79076297      93.78801954
C      81.69851577      68.96650752      90.57926427
H      82.02165897      66.93316200      90.58115399
H      83.45974069      69.73751585      89.84416072
H      80.13949156      69.42193156      89.31125790
C      83.41816671      69.34823223      94.86516353
H      84.97530120      70.65025366      94.50422582
H      84.12870381      67.53598470      94.19620043
C      82.94006596      69.37279867      97.74321671
H      81.61914726      67.96306285      98.46509216
H      82.59235632      71.19638457      98.63327781
H      84.75609294      69.04587602      98.65973397
C      78.23086799      73.56799109      91.35594177
O      76.57924719      71.96739290      91.09893899
N      78.11748441      75.85267020      90.28635668
H      79.52533051      77.07343340      90.70398619
C      76.23342727      76.85044570      88.57993383
H      76.22208891      75.78464005      86.81681918
H      76.82680133      78.72883365      87.97144195
C      73.61048715      77.16602999      89.66085728
O      71.72076084      77.32854645      88.35694611
N      73.27600559      77.08288203      92.19309054
H      74.86904487      77.35878207      93.20976329
C      70.77778741      77.30020056      93.45353798
H      69.59859819      75.98495104      92.39151180
C      71.06124635      76.26085109      96.07836783
H      72.58814521      77.07721285      97.19330636
H      71.75288618      74.32955079      95.90073355
C      68.79168505      76.23817437      97.62416396
N      66.85093613      74.52419260      97.27645431
H      66.77534708      72.94438141      96.20686922
C      65.06892422      75.16669955      98.92051621
H      63.27368422      74.20104940      99.02445116
N      65.80591748      77.07343340     100.36237739
H      64.72499403      77.89357462     101.70408306
C      68.08681714      77.85578009      99.42507313
H      69.11104880      79.52440843     100.00521911
C      69.66095916      80.09888523      93.35716195
O      70.43196749      81.82798480      94.67808063
N      67.54446569      80.20659963      91.93230830
H      67.48210472      78.82520969      90.61516907
C      65.89284489      82.34199036      91.89451378
H      67.07770329      83.98227280      91.50523015
C      64.18831175      81.88845605      89.56070178
H      63.34360409      80.03463453      89.87061690
H      65.08971120      81.76373411      87.71443917
C      62.10961281      84.00494952      89.13173391
H      61.51245929      84.62477975      91.00256296
C      63.04880679      86.64111772      88.19442965
H      63.36628081      86.72804513      86.15919442
H      64.73255293      87.17213082      89.25456611
H      61.66552713      88.16423713      88.28891597
C      60.02713441      83.01662265      87.41208296
H      60.51090435      83.33598640      85.43731897
H      58.26213004      84.03140568      87.72955698
H      59.74934464      81.00217440      87.73900561
C      64.45287344      82.80686303      94.42674704
O      63.39651643      81.03241003      95.44908896
N      64.14673777      85.02918118      95.26011633
H      64.63995634      86.35954850      93.98077162
C      62.98644582      85.94947789      97.59959751
H      62.30803407      84.22226804      98.49532779
C      64.86294405      87.19480753      99.31357927
H      63.85571992      88.32108442     100.71575620
H      65.97221339      88.57619747      98.26289145
C      66.82636969      85.49405385     100.68174114
H      67.68241571      84.04841322      99.48932383
C      68.92585562      87.16079246     101.81368719
H      70.35259899      86.28773890     103.01555312
H      68.11894248      88.92201738     102.51288593
H      70.05402223      87.86377065     100.23954517
C      65.74355651      84.12211255     102.84925721
H      65.34293453      85.54318673     104.28544920
H      67.14384371      82.73505343     103.45207991
H      63.98989049      83.33409668     102.11415368
C      60.62428793      87.56897334      97.28023376
O      58.69865681      87.08898286      98.54635039
N      60.86239344      89.63633393      95.73254791
H      62.56503685      89.66090037      94.87272244
C      58.84038629      91.33708761      95.03145946
H      57.20010385      90.10120660      94.87839163
C      58.24701223      93.33074887      97.00055428