 %block lattice_cart
   135.996   0.000   0.000
   0.000 142.663   0.000
   0.000   0.000   160.158
 %endblock lattice_cart

 %block positions_abs
N      89.38875701      41.38311739      79.45728005
H      88.61207949      40.28518640      78.10234628
H      88.88042062      40.71604400      81.17126182
H      91.28604222      41.44169891      79.27586632
C      88.22468559      43.76606227      79.07177587
H      89.20545355      45.05485562      80.34167196
C      88.80672129      44.49738635      76.32033437
H      87.55194302      43.59409718      74.95784169
H      90.69833733      43.96070408      75.70995276
C      88.42310685      47.25827650      75.64948152
H      86.39732025      47.62866285      75.63058427
H      89.05238572      47.36221144      73.69172506
S      89.91032147      49.50327136      77.63180443
C      88.95411996      52.55139990      76.41860013
H      89.23001999      52.51549510      74.37769571
H      90.17677287      54.01404807      77.19716737
H      87.03037857      52.97658832      77.02331255
C      85.47135435      43.78118008      79.72562118
O      84.22980416      41.93680720      79.01697382
N      84.44523297      45.81074614      81.05787824
H      85.67355507      47.17890799      81.56810433
C      81.86764627      46.21325785      81.91203452
H      80.49381525      45.26272551      80.70449941
C      81.51237774      44.91690560      84.52363629
H      82.40243882      43.06119436      84.54631301
H      79.52249592      44.48415827      84.82788222
C      82.42133609      46.54962913      86.69304210
O      82.24181208      48.78328563      86.82532295
N      83.25659512      45.26839469      88.62056294
H      83.80083629      46.16412496      90.21360222
H      83.38509651      43.36355057      88.55253279
C      80.90766532      48.96469936      81.82510712
O      82.33251895      50.85631540      81.64369339
N      78.40755739      49.34453435      81.95360851
H      77.30206750      47.79684850      82.11234551
C      77.26805243      51.94101831      81.98573386
H      77.66300523      52.64588622      80.09222808
C      74.36732255      51.62543401      82.13502224
H      74.01394372      50.10798378      80.78764738
C      73.38844431      50.46892150      84.63701986
H      73.72103614      51.74259704      86.22250024
H      74.47314721      48.73415275      84.88646374
H      71.37021660      50.05318171      84.64835823
C      72.74404763      53.93656929      81.39047006
H      72.60042843      55.24237017      82.97595044
H      70.82030625      53.22603219      81.20338716
C      73.43379774      55.24992908      78.93949503
H      75.03439593      56.51982517      79.19271836
H      71.79351530      56.40833131      78.47840182
H      73.98937728      53.79483981      77.59400991
C      78.32251971      54.09152685      83.76018687
O      78.46235946      56.24203539      83.02319360
N      79.17478628      53.44524045      86.06754269
H      79.39777398      51.63866209      86.64201948
C      80.35775495      55.31229004      87.70404568
H      79.24092670      57.03572044      87.88923886
C      80.63365500      54.15199809      90.39123649
H      81.61253322      55.35575375      91.74617026
H      81.68623256      52.38132453      90.37611868
C      78.18267997      53.45846853      91.64223531
C      76.72570099      55.33496676      92.68536424
H      77.26049352      57.29461295      92.47182517
C      74.44291159      54.60742214      93.93258360
H      73.14844906      55.99826070      94.67146659
C      73.63788819      52.02038681      93.86455345
H      71.85398654      51.63488264      94.77918099
C      75.05140346      50.17223447      92.64190053
H      74.46180885      48.23715473      92.35844159
C      77.40600245      50.93001472      91.76884698
H      78.55684577      49.42201314      91.01106673
C      83.02415878      56.04361413      86.83477157
O      83.68178353      58.29049871      87.01618529
N      84.48302749      54.34663990      85.87668034
H      83.77060067      52.57596634      85.91636458
C      87.06817309      54.83607901      84.75040344
H      88.31161300      55.89432575      86.00329200
C      88.53460071      52.33597110      84.21561091
H      90.42054758      52.94446297      83.65058274
H      87.83729170      51.43268192      82.50162914
C      88.80105212      50.50482630      86.50973864
H      86.89809772      49.97948239      87.09555381
H      89.58150908      51.42890247      88.17458752
C      90.10685301      47.92534989      85.85589334
O      90.16921397      47.06552441      83.69782589
O      91.39375663      46.88222096      87.50184497
C      86.99447377      56.33463198      82.11801469
O      88.91821515      57.16422183      81.21094607
N      84.77971453      56.73903341      81.11645974
H      83.31895608      55.91700246      82.02730783
C      84.12020004      58.00515004      78.79776556
H      85.87953524      58.24514528      77.75652636
C      82.26259907      56.31573472      77.31433040
H      80.79617146      56.06062166      78.73918405
H      83.09785811      54.56773788      76.61324194
C      81.08529959      57.40610681      75.02587185
H      82.17756139      57.38909926      73.27976473
H      80.65633171      59.40354751      75.29610271
S      78.14488544      55.56929282      74.31344502
C      77.47781205      56.20802032      71.04610823
H      76.15500363      57.77460343      70.83067942
H      76.54806670      54.63009884      70.10313479
H      79.00093147      56.76737930      69.77810188
C      82.98447452      60.68667169      79.41759580
O      84.20145827      62.46868359      78.64091827
N      81.30072838      60.91721829      81.21661524
H      80.42767482      59.43189341      82.03864619
C      80.46357962      63.46834881      82.10856606
H      80.07996518      64.57194899      80.41348157
C      77.93512583      62.99213778      83.37090324
H      77.49859904      64.43399897      84.77308017
H      78.09953200      61.32728890      84.57087945
C      75.76383028      62.70489938      81.51897145
H      76.38555024      61.32539917      80.12246371
C      73.56418885      61.63720401      82.79831616
H      72.08642288      61.52193071      81.36590362
H      73.07663948      62.72946582      84.47261368
H      73.91567796      59.69834482      83.39924913
C      75.07408018      65.27114771      80.30198770
H      73.55096077      65.11807989      78.92059778
H      76.52727971      65.96845672      79.02075326
H      74.89644591      66.69600135      81.77786395
C      82.27015798      64.88942300      83.73184097
O      82.46291006      67.20433773      83.61845738
N      83.87264590      63.57039403      85.16047406
H      83.96524249      61.66554991      85.06220830
C      85.86252770      64.72690653      86.65335784
H      84.90443647      66.29348966      87.58499291
C      87.05305528      62.83151104      88.58654787
H      88.02815405      61.31406081      87.59255182
H      85.65465780      61.73169033      89.62400761
C      88.54215962      64.07873041      90.74083587
H      87.16832858      64.80249559      92.09387990
H      89.80638651      65.49413542      89.93581245
C      90.09551465      61.99247256      91.72727299
H      91.40887444      62.63120005      93.18047254
H      91.23690934      61.21390532      90.19848440
N      88.73302197      59.85519210      92.98205126
H      88.65554320      58.23380692      91.97671686
C      87.71068003      59.83818456      95.27995846
N      87.96390336      61.81483829      96.73504772
H      87.26659435      61.70901361      98.50950073
H      88.63286647      63.43622346      95.98671610
N      86.63542577      57.83696440      96.33820520
H      85.85118934      57.96546580      98.07297396
H      86.21779625      56.30817581      95.27428929
C      87.91288076      66.17443689      85.10945144
O      88.79727267      68.16998788      85.96927693
N      88.39854041      65.26169909      82.79831616
H      87.44989781      63.67432898      82.32210513
C      90.08039683      66.45978557      81.03520152
H      91.23124015      67.65976177      82.25029553
C      91.72067928      64.38864552      79.74640817
H      92.59751228      63.39842894      81.32432965
C      90.03126395      62.51214730      78.10234628
H      88.79349321      61.35563480      79.27208687
H      91.30682921      61.10619092      77.30299204
H      88.96356858      63.40220839      76.57733715
C      93.93921796      65.57350392      78.16848670
H      94.77825644      67.19110965      79.12657795
H      93.33828500      66.04593550      76.25419394
C      96.10862377      63.67432898      77.79621062
H      97.10073009      63.36441386      79.57633280
H      97.35017396      64.35274073      76.29765765
H      95.56060314      61.78082321      77.20283656
C      88.64609456      68.22856939      79.26074851
O      89.54182483      70.28648136      78.67304362
N      86.43133532      67.43488435      78.29131892
H      85.88520442      65.62452654      78.54454223
C      84.77215562      69.13185857      76.61324194
H      85.94000648      69.60429016      74.98240813
C      82.53471966      67.44433297      75.66081988
H      81.02671806      68.82950236      75.43783218
H      81.70135036      66.27270266      77.13669613
C      83.16399852      65.94578001      73.22118321
O      85.12742417      66.31805610      72.01931727
O      81.49725993      64.38297635      72.47852077
C      83.77438012      71.63574594      77.93227092
O      84.08996443      73.58783322      76.68127209
N      83.08274030      71.56393635      80.34923087
H      82.75770737      69.94066144      81.30354266
C      82.58952172      74.02435999      81.70227490
H      81.86197709      75.18843140      80.16781714
C      80.35964469      73.63885583      83.59767039
H      79.92122818      75.44354447      84.48395203
H      81.24403659      72.39541592      84.98095005
C      77.98992788      72.20833301      82.69816067
H      76.62932493      71.83605693      84.19860336
H      78.61920674      70.32616560      82.14447086
C      76.72003180      73.56704623      80.42481992
O      77.57607782      75.59094311      79.74073899
O      74.76605480      72.86784750      79.38547045
C      84.88553920      75.28480745      82.93437646
O      85.27482283      77.62239890      82.87390522
N      86.53904972      73.65964282      84.02096909
H      86.14976610      71.80204185      83.84333481
C      88.30405411      74.36829019      85.87479060
H      89.17332820      76.11817676      85.22283502
H      89.86118859      73.01713588      85.85022416
C      87.19667448      74.62907243      88.55064307
O      84.95356935      75.21866703      88.83221228
N      88.76325759      74.30403949      90.45926664
H      90.53204142      73.76357777      89.97738643
C      88.24169313      75.13551907      93.05008141
H      86.24236269      74.71788955      93.33165063
C      89.85173995      73.57271542      94.91524129
H      91.83784231      73.65775310      94.37666928
H      89.41143371      71.56015688      94.87366730
C      89.64009060      74.35695183      97.64022662
H      90.42054758      76.24100896      97.93502394
C      86.84329566      74.31348812      98.64178158
H      86.38976134      74.92953890     100.55418460
H      86.17433254      72.37084947      98.48304457
H      85.57339957      75.33583007      97.38511357
C      91.25958605      72.80926598      99.45058443
H      93.18332745      73.52925171      99.28617825
H      90.90809695      70.78536909      99.30885496
H      90.66999144      73.30815373     101.35920802
C      88.74247060      77.92664483      93.41857805
O      90.88353051      78.75434497      93.16157527
N      86.72235317      79.23622517      94.36155147
H      85.03104812      78.35939217      94.47115561
C      86.95478951      81.83270913      95.50672563
H      88.97679666      82.12372698      95.76750785
C      85.80772565      83.89817998      93.66613219
H      85.13498308      85.47610145      94.80752688
H      84.22791444      83.01000862      92.68725396
C      87.81839443      84.84115342      91.80097233
H      89.19789464      83.37094634      91.37578390
H      89.07128298      86.09026250      92.85543960
C      86.65432302      86.19797690      89.48227814
H      88.03949241      87.06347156      88.23127931
H      85.38820639      87.66440453      90.19281524
N      85.42600092      84.35549375      87.80987035
H      85.20301323      82.59237910      88.50339991
C      84.60396997      84.87327877      85.47227890
N      84.69467685      87.14284007      84.54253356
H      84.53216037      87.32992297      82.65091752
H      84.82884741      88.68296700      85.65936181
N      84.00114729      83.11394356      83.99640264
H      83.50792871      83.39362306      82.17470649
H      84.02949319      81.30169603      84.59922535
C      86.17055310      82.01790231      98.33564591
O      84.23169390      81.07303914      99.02728575
N      87.48580261      83.42763813      99.93246465
H      89.03537818      84.38572938      99.36743648
C      86.76014771      83.72243543     102.62343491
H      85.29749953      82.38261948     103.18279391
C      89.22435082      83.11772301     104.28072489
H      88.78026514      83.30102647     106.28383479
H      90.67755034      84.50856158     103.83852893
C      90.34495852      80.42486303     103.95002278
H      91.17076891      80.42675274     102.06407592
C      92.32728142      79.98455680     105.92289705
H      93.56694189      81.62861868     105.92856624
H      93.20600415      78.17608870     105.48448056
H      91.47690457      79.80692251     107.79183639
C      88.33051026      78.37262025     104.16734131
H      87.25525599      78.72788879     105.88888199
H      89.23757889      76.52446792     104.20135638
H      87.13242378      78.50868055     102.49682326
C      85.68300371      86.39072899     103.40578161
O      84.84774468      86.58159134     105.64132783
N      85.66788589      88.32580874     101.67101285
H      86.34062847      87.90817922      99.93435437
C      84.43578433      90.75788650     101.79762451
H      83.33785334      90.58403168     103.53239328
C      86.55794699      92.96319711     102.03195059
H      87.66910605      93.13894165     100.30663046
H      87.74091566      92.54745732     103.67034330
C      85.19167487      95.46330503     102.32674789
H      83.67044519      95.30456802     103.70624810
H      84.48113776      96.07179690     100.48993390
C      86.99447377      97.60247520     103.30562611
H      88.39854041      97.90861086     101.82786014
H      88.01303624      96.99020388     104.98748253
C      85.46001599     100.13848791     103.51916518
H      83.81217466      99.74731457     104.69079551
H      84.65499259     100.81689966     101.75038137
N      87.07762173     102.21151768     104.73614893
H      87.97146226     101.42350182     106.23092245
H      86.16299419     103.74408572     105.41267096
H      88.44389384     102.78599449     103.53239328
C      82.54983748      90.96575639      99.60743172
O      83.06384303      90.09648229      97.48526907
N      80.44090292      92.11470999     100.30285101
H      80.22169465      92.42840456     102.17368006
C      78.22425394      92.62493610      98.71170144
H      77.43245863      90.73520978      98.49438292
C      76.27216666      94.05923838     100.41245513
H      75.86209605      92.86115188     102.03573004
C      77.22269901      96.67272987     101.34597992
H      77.34553121      98.04089171      99.81152216
H      79.10675613      96.53666956     102.17368006
H      75.83752961      97.48909162     102.63288354
C      73.85898617      94.52600076      98.94791724
H      73.23726620      93.00477108      97.70447732
H      74.03851016      95.94518523      97.46448208
C      71.59698377      95.31023719     100.70914217
H      71.98437766      97.02421896     101.78628617
H      71.02817615      93.79656642     101.98470743
H      69.95670132      95.69007217      99.52239403
C      79.05195407      93.82491230      96.12655585
O      80.76404611      95.49165092      95.99805446
N      77.83686005      93.04445534      94.12533569
H      76.32129954      91.88983257      94.25194735
C      78.38677040      93.92695753      91.55719762
H      79.08785887      95.81101466      91.99939359
C      80.51460223      92.20541686      90.45170773
H      81.90733053      92.02589285      91.95970933
H      81.20057288      93.18429509      88.77363077
C      79.66800484      89.54846166      89.57109528
C      79.07463078      89.11571434      87.08610518
H      79.26549314      90.53867824      85.63479537
C      78.56062524      86.69308520      86.24895642
H      78.03717105      86.46253859      84.29119995
C      78.58519168      84.74099792      88.05553478
O      78.09575255      82.47899552      87.12012025
H      77.40411273      82.39962701      85.44393300
C      78.91589378      85.30224663      90.56698105
H      79.06518216      83.80936285      91.95026071
C      79.26171369      87.69841960      91.47404968
H      79.59430553      88.34092655      93.38267325
C      76.04728923      94.30301306      89.91502546
O      73.95725193      93.54901226      90.59910638
N      76.22114405      95.43684885      87.69270732
H      77.92189773      96.07179690      87.09366407
C      74.36732255      95.34425226      85.57621385
H      72.61743598      94.88693850      86.56265099
C      74.21425472      97.98231019      84.18159582
H      73.36387787      97.97664101      82.30698732
H      76.11153992      98.78544387      84.14002185
C      72.71003257      99.98919954      85.75006866
H      73.88355261     100.55989689      87.34499768
H      70.94124873      99.18795558      86.43603931
C      72.28106469     102.49308690      84.17781637
H      71.20014124     101.93939710      82.51296749
H      74.11976839     103.27921305      83.68459781
C      71.01305833     104.43194611      85.86345224
H      72.43602225     105.22563116      87.12200997
H      69.52395401     103.49464185      86.93492707
N      69.68647046     106.44828408      84.37245818
H      68.24460928     105.58467916      83.46916900
H      70.87132887     107.25141776      83.10823128
H      68.76239430     107.65770892      85.52141178
C      74.96447606      93.21831016      83.71861288
O      77.02049829      93.30712729      82.63390997
N      73.16356688      91.64605786      83.13846691
H      71.73682351      91.53834346      84.40269381
C      73.21269976      90.02845214      81.02575289
H      74.86621028      88.80957867      81.16937208
C      70.85999050      88.38439025      81.15425427
H      69.12900121      89.49365959      81.01630425
H      70.92991037      87.49054971      83.00996552
C      70.94691792      86.48332558      79.01130463
O      72.77617298      84.98855206      78.95650258
O      69.44836495      86.90662427      77.16693176
C      73.42623883      91.51944621      78.38958468
O      72.94813808      93.88916301      78.41982031
N      74.04039988      90.30057274      76.12947200
H      74.45424995      88.43730258      76.08222886
C      73.69646970      91.71786746      73.75030659
H      74.99282195      93.31090675      73.90715386
C      75.00038086      90.41017686      71.50909118
H      73.80607382      88.76989442      71.15382263
C      75.20636103      91.95975243      69.09591067
H      76.63688384      93.41295197      69.37181072
H      73.30907580      92.67028953      68.72552432
H      75.82619125      90.64261319      67.63893168
O      77.40222300      89.57869729      72.00230974
H      77.09041816      88.08959294      72.99252633
C      70.97715353      92.77989365      73.44039147
O      70.67101787      94.96441727      72.67316259
N      69.11010393      91.52322566      74.36068818
H      69.38789370      89.96987062      75.43216299
C      66.42669258      92.48698608      74.34179091
H      66.26606584      93.34681155      72.47663105
C      64.63334230      90.22876314      74.70083891
H      62.66424748      90.70497417      75.06555610
H      65.05853072      89.40484247      76.53954261
C      64.94325742      88.31447037      72.50497695
H      64.08154222      86.54757627      73.12669690
H      66.90290361      88.14628473      71.89081588
C      63.37100512      89.20642119      70.26187180
O      63.99650453      91.25677425      69.22630179
O      61.57954458      87.82503127      69.57590115
C      65.89756920      94.56946447      76.36190834
O      63.92658466      95.94140577      76.34112136
N      67.75705989      95.25165567      77.91904282
H      69.45214440      94.41450692      77.65070170
C      67.75139071      97.51743752      79.51397184
H      66.57598096      99.11614599      78.95272313
H      69.65434511      98.22986435      79.84467395
C      66.58165013      96.86926139      82.04620510
O      66.80463783      98.34702738      83.82254782
N      65.41568899      94.60536927      82.33911267
H      64.86388891      93.79467668      80.70071996
C      64.30641965      93.84758902      84.72583700
H      63.16880441      95.42740022      85.39102066
C      62.63590159      91.42873934      84.51229793
H      61.64946445      91.42495990      86.32076602
H      63.65824352      89.65806578      84.25529515
C      60.75373418      91.72164692      82.36367911
C      60.49484167      89.62594044      80.72528640
H      61.32254180      87.78156756      81.01441453
C      58.62401262      89.63538908      78.82989090
H      58.52007768      88.03857034      77.56377428
C      57.40891860      91.96164217      78.18549423
O      55.70060602      92.03912095      76.30143710
H      54.81432438      93.61137324      76.49796864
C      57.96449814      94.14805551      79.60845815
H      57.11412130      95.91872907      79.05287861
C      59.50840454      93.97798013      81.75896669
H      59.68414908      95.61826257      82.96083264
C      66.39078777      93.24854579      86.73839552
O      68.46003809      92.16195315      86.17525708
N      66.01095279      94.09136371      89.11567124
H      64.34232445      94.83402616      89.66558159
C      67.80808250      93.61893213      91.10177358
H      69.66001429      93.89861164      90.24383785
C      67.14856803      95.35559062      93.39023216
H      68.02729077      94.50899323      95.04941185
H      65.10766360      95.10425703      93.51306436
C      67.96870924      98.00498691      93.07464785
C      66.11299800      99.83424199      93.64156575
H      64.14957236      99.32590561      93.87022264
C      66.91424197     102.42127730      93.40157050
H      65.32687186     103.70062201      93.51684381
C      69.36143753     103.10157878      92.65701835
O      70.14567396     105.52798737      91.97293741
H      68.74349703     106.66749233      91.80853122
C      71.19825152     101.19673466      92.21482238
H      73.09175728     101.89593339      91.90301755
C      70.48960414      98.59080206      92.46237654
H      71.86721463      97.13760253      92.06931345
C      67.77595716      90.93741051      91.83876685
O      65.72749383      89.74310347      92.20348402
N      70.01717257      89.97176035      92.42269228
H      71.49493854      91.15850847      92.65134916
C      70.75794529      87.32992297      92.29986006
H      69.19514162      86.29624268      93.15779581
C      71.38911387      86.54001737      89.53896993
H      73.01238878      87.59070521      88.82465337
C      71.80107420      83.65629501      89.19126028
H      73.61521146      83.19331207      90.05108576
H      71.75761051      83.09504631      87.21082710
H      70.07575408      82.99111135      90.10021865
O      69.31608410      87.08803800      87.82687788
H      69.21214915      88.86249101      87.46405043
C      73.26750182      86.83481467      93.94392196
O      74.49582394      88.68674646      94.56186246
N      73.93646494      84.48210542      94.58831864
H      72.83853396      82.98166273      94.15935076
C      75.93012620      83.88873136      96.45914769
H      77.59308535      85.03957467      96.06608461
C      75.11376444      84.63517325      99.30129605
H      73.79662519      86.21687417      99.21058920
C      73.43379774      82.70198322     100.42379349
H      72.00894410      82.09538108      99.06696999
H      72.47003732      83.62983884     101.99037660
H      74.49771365      80.98800146     100.84331274
C      77.43245863      85.57814667     100.96236548
H      78.48125673      87.07292019     100.00805370
H      78.67778827      83.97376904     101.29495732
C      76.55751534      86.57592217     103.49459874
H      75.75816110      88.46186904     103.26027268
H      78.13732653      86.82536605     104.78906127
H      75.43123845      85.22854731     104.56985302
C      76.74270852      81.14106929      96.19080654
O      75.39533366      79.64062660      95.05886048
N      78.78739239      80.44942947      97.50794579
H      80.04028093      81.61350087      98.35454318
C      79.49226031      77.80759208      97.65723417
H      78.04095050      76.74367617      98.65500965
H      81.26671332      77.70743659      98.69658363
C      80.02894258      76.56037271      95.15712626
O      81.09474822      77.70743659      93.45070340
N      79.48659112      74.10939769      94.82642415
H      78.65889100      73.33838934      96.36277165
C      79.42989933      72.69588240      92.52662722
H      80.96624682      73.50846472      91.42113733
C      79.88721311      69.91042581      92.81197589
H      78.25637929      69.15642501      93.81920002
C      80.02327339      68.78036948      90.08510083
H      80.29161454      66.74702396      90.26651455
H      81.59363597      69.67798948      89.10055342
H      78.37354232      69.05437979      88.88323489
C      82.56873475      69.64964359      94.00817266
H      82.73881010      70.88552459      95.64845510
H      83.85185891      70.06538338      92.44914844
C      82.84841424      66.93599660      94.99460980
H      84.70790493      66.95489387      95.88089143
H      82.90510603      65.59996010      93.42802668
H      81.39710443      66.48246228      96.38544835
C      76.89010716      73.40452977      91.28507704
O      75.10809525      71.90975625      91.39657089
N      76.57263314      75.67976025      90.22872004
H      78.19779777      76.68320492      90.22494058
C      74.45236023      76.51879873      88.53741497
H      74.48637529      75.64196573      86.67414483
H      74.92479180      78.48222437      88.13112383
C      71.90689889      76.51501928      89.84510558
O      70.04173901      76.26746514      88.49395128
N      71.75950022      76.72288918      92.36411076
H      73.43568747      76.91564125      93.25606158
C      69.45592386      76.95154605      93.88345072
H      68.29752163      75.43976500      93.09921429
C      69.92835543      76.43187133      96.57820044
H      71.29273783      77.72255440      97.42101837
H      70.72770966      74.53458610      96.51017029
C      67.64934550      76.37328980      98.25249795
N      66.38700832      74.15853057      98.88933572
H      66.78574058      72.54092485      97.96148010
C      64.12311619      74.73678681      99.92490574
H      62.32220702      73.77680585      99.88900094
N      64.08910112      77.28035844     100.25938730
H      62.48661321      78.13262500     100.84709219
C      66.17913842      78.38395861      99.09342617
H      66.59109876      80.37006095      98.88555626
C      68.28618327      79.56881700      93.61321986
O      69.38411425      81.46421249      94.52406794
N      66.37000079      79.72377456      92.04663675
H      65.70481713      78.10049965      91.29452567
C      64.75428478      82.05569683      91.77640589
H      65.73127329      83.78857586      91.24161334
C      62.67180639      81.63995704      89.74306036
H      61.71749460      79.94487254      90.41391321
H      63.51273459      81.08815695      87.94404091
C      60.71027047      83.78479641      89.17425274
H      59.68603881      84.24777936      90.90146259
C      61.92158504      85.98821728      87.78152446
H      63.35777704      86.89150646      88.94937531
H      60.50051085      87.42818873      87.39224083
H      62.71149064      85.28523910      86.01463036
C      58.71660921      82.63584281      87.40924838
H      57.77552551      81.13917957      88.46749511
H      59.68036963      81.85727557      85.76518648
H      57.19915898      83.94920260      86.94437569
C      63.52407295      82.94575793      94.27462407
O      62.74928516      81.39996179      95.83931745
N      63.57509556      85.38539460      94.84721114
H      64.31964773      86.61371669      93.58865342
C      62.55653308      86.60237833      97.06763955
H      61.94048230      85.14161989      98.38288908
C      64.57476078      88.31447037      98.27895413
H      63.65824352      89.31413560      99.82852970
H      65.36088693      89.69586032      96.97126352
C      66.84621182      87.01433868      99.42223854
H      67.74383181      85.55358023      98.28084384
C      68.84365253      88.86249101     100.44647020
H      68.20114559      90.13049736     101.93746426
H      69.36143753      89.87916376      98.72870898
H      70.55763429      87.92329703     101.09275661
C      66.04685758      85.33626170     101.67668203
H      67.53785164      84.36116294     102.71225205
H      64.88089645      83.79235532     100.96614494
H      64.82609439      86.30380159     103.02216716
C      60.10177860      87.99888609      96.59898743
O      58.27630298      87.49432916      97.90856776
N      59.85611418      89.48232125      94.50517067
H      61.31309317      89.93396583      93.35999653
C      57.32577065      90.33836726      93.57542534
H      56.29020063      88.55824508      93.60566095
C      55.77619507      92.10904081      95.45570302