 %block lattice_cart
   135.996   0.000   0.000
   0.000 142.663   0.000
   0.000   0.000   160.158
 %endblock lattice_cart

 %block positions_abs
N      89.06466894      41.82342362      77.64314278
H      89.18372170      41.01084131      75.92160211
H      88.01020166      40.90879609      78.94327448
H      90.74463563      41.88767432      78.54643196
C      88.21429210      44.49738636      77.26519752
H      88.83979151      45.74082627      78.78453747
C      89.31033336      45.56886118      74.78776632
H      88.53365585      44.60321103      73.14370443
H      91.37013504      45.54618446      74.81044303
C      88.55255311      48.40156092      74.64225740
H      86.54566376      48.39589174      75.10524034
H      88.95128536      49.20469460      72.78843588
S      90.15315130      50.11932214      76.95906186
C      89.00041825      53.28839316      76.25797339
H      89.10057374      53.38476921      74.20195116
H      90.28543214      54.60175295      77.18582901
H      87.01431589      53.55106512      76.74174333
C      85.43639442      44.50872471      77.37480164
O      84.25531547      43.22371082      75.89892539
N      84.34602234      45.97137288      79.15114438
H      85.34946701      46.94080248      80.45505553
C      81.66072125      45.97893179      79.55554582
H      80.52688546      45.28540223      77.98140379
C      81.12403897      44.31975208      82.04809481
H      82.45062684      42.75505870      82.23895717
H      79.27966609      43.42969099      81.82510711
C      80.97475059      45.67846530      84.47450340
O      79.06423729      45.93357835      85.70093578
N      82.98352966      46.99938399      85.22283502
H      83.10258242      47.59275806      87.03319283
H      84.54255387      46.36632568      84.32143557
C      80.57223889      48.64911507      79.89947600
O      81.90449594      50.52750302      79.67459856
N      78.02488782      48.77194728      80.06955136
H      76.90239039      47.24504842      80.29442880
C      76.89672121      51.31551889      80.14514042
H      77.33891717      52.26038205      78.37068741
C      73.97142488      51.13221544      80.05065410
H      73.58214126      50.06640980      78.33289288
C      72.75633086      49.72625906      82.39391473
H      73.43852206      47.81196631      82.74162438
H      70.77400796      49.43902067      81.91014479
H      72.99443637      50.89033047      84.07388142
C      72.75633086      53.68901514      79.64247322
H      72.86404526      54.81151257      81.36590361
H      70.78156686      53.33185687      79.17949027
C      73.80701869      55.25748798      77.40314754
H      74.21142012      54.16333645      75.70806303
H      75.57391279      56.18345388      77.91715309
H      72.27256092      56.54439160      76.91937760
C      77.82457683      53.08430272      82.26163389
O      78.38960500      55.31040032      81.71361326
N      78.13449195      51.99959982      84.46883422
H      77.69607544      50.16467557      84.76363154
C      79.17573114      53.35831304      86.71571882
H      77.96252685      54.98158794      87.08043600
C      78.91683864      51.91645186      89.12511987
H      79.89004769      52.91611708      90.64068036
H      79.91083468      50.13066050      88.87378626
C      76.32224441      51.55551414      90.17769741
C      75.19596753      53.47925552      91.53263118
H      76.33358277      55.11953796      91.96159905
C      72.57113768      53.41878428      92.30174979
H      71.90406429      55.03639000      93.35432735
C      71.04612855      51.44779974      91.54396954
H      69.17907895      51.40622576      92.36411076
C      72.02878623      49.54862479      89.88667956
H      70.65495520      48.31274378      89.01929518
C      74.71030787      49.54106589      89.36511511
H      75.64761212      48.35242804      87.99506352
C      81.79678154      54.49214883      86.27919203
O      82.30889737      56.35919842      87.50373468
N      83.29533451      53.30540070      84.58221780
H      82.38070697      51.89188542      83.68459780
C      85.83701640      54.25593304      83.90380605
H      86.84424052      55.16111194      85.45338163
C      87.38470225      52.08085805      82.81532370
H      88.88325521      52.82352049      81.61534749
H      86.20362330      50.85631540      81.65314202
C      88.43161063      50.40467081      85.00740622
H      86.91982957      50.10042487      86.37556807
H      89.83756700      51.45913809      86.08077077
C      89.39159159      47.94802660      83.81309919
O      87.82689821      46.30774416      82.98917852
O      91.72162414      47.57197107      83.93404167
C      85.61969787      56.34786007      81.87612972
O      86.97652136      58.19790213      81.75518725
N      84.01343051      55.91133329      79.96750615
H      83.19517901      54.18979262      79.88624791
C      83.67894895      57.46468832      77.75085719
H      85.40615880      57.53649792      76.63213921
C      81.46985889      56.33841143      76.33734191
H      79.74075931      56.67478272      77.40503726
H      81.71174386      54.29939674      76.17482544
C      81.06734718      57.41744516      73.58590039
H      82.46952411      56.70879779      72.25175361
H      81.00498622      59.47724684      73.62558464
S      78.08346934      56.37053678      72.25742279
C      78.44062761      57.10753004      68.79355445
H      78.10614605      59.10497076      68.41371947
H      76.98175889      55.97558398      67.88270637
H      80.16027855      56.62753956      67.76365361
C      83.12147969      60.26526271      78.35934905
O      84.17405724      61.96223694      77.16693175
N      81.16750268      60.74903265      79.91270409
H      80.04311552      59.29016393      80.41159183
C      80.34358201      63.15843370      80.69505077
H      80.21508062      64.59084624      79.22106426
C      77.61670694      63.09607273      81.71928244
H      77.16317262      64.93099698      82.53942365
H      77.39938841      61.71846225      83.23673266
C      75.72131144      62.25892397      79.67081912
H      76.47720197      60.65076688      78.62957991
C      73.26466724      61.50303345      80.92748711
H      73.52733919      59.91188389      82.21061128
H      72.01555814      60.75092237      79.47239785
H      72.45964383      63.19433850      81.78353313
C      75.32068947      64.46045513      77.74329828
H      73.47064741      64.30360784      76.84756800
H      76.68129241      64.15620919      76.22962750
H      75.52855936      66.35774035      78.51619633
C      82.31834600      64.47746266      82.45060652
O      82.52054672      66.72434725      82.34100239
N      83.89815720      63.02048368      83.96805675
H      83.57312427      61.14209572      84.03986636
C      86.17716713      63.95211875      85.32488024
H      85.67638966      65.43366418      86.66091674
C      87.41682760      61.74869787      86.83099212
H      89.28387719      62.10018696      87.62656689
H      87.50375501      60.18211475      85.49684533
C      85.73686090      60.79060663      88.93425750
H      83.95862844      60.18400448      88.08766011
H      85.31545194      62.22679863      90.34777278
C      87.16360427      58.70056933      90.27407345
H      88.81333534      59.58307151      91.13956811
H      87.87792082      57.24736979      89.00228765
N      85.54788827      57.48169585      92.20159429
H      84.27799219      56.28738882      91.42869623
C      84.99419846      57.98247333      94.54863437
N      85.68394857      60.02715720      95.53507151
H      85.58568280      60.22179901      97.43235673
H      87.00108781      61.08540393      94.65067959
N      83.43328453      56.60108339      95.88467088
H      83.21596600      57.27949514      97.65534443
H      83.11392078      54.72647489      95.72593387
C      88.25586608      65.11430043      83.55609641
O      89.38214296      67.07205689      84.10978622
N      88.72073875      64.03715643      81.21850496
H      87.75319888      62.49325004      80.64591789
C      90.44605888      65.07083673      79.47617730
H      91.92193513      65.92121357      80.63457954
C      91.67249125      62.89198229      78.10045655
H      92.26586531      61.52571016      79.52342047
C      89.93772250      61.29516355      76.46584328
H      88.63192161      62.41010208      75.32633832
H      88.78120999      60.14432023      77.72251128
H      90.98274115      59.89298663      75.37736093
C      94.08378203      63.71023378      76.49418918
H      93.29009698      64.66832502      74.85201702
H      94.99651984      61.93767050      75.98396308
C      96.12657617      65.44500254      77.68093731
H      97.70260792      66.07050195      76.50930699
H      97.09411604      64.51903664      79.24374097
H      95.11557259      67.12874868      78.30076753
C      89.40104022      67.22134527      77.80565925
O      90.85612948      68.70289070      76.76819950
N      86.96140355      67.17032266      77.45228042
H      85.87481092      65.75869710      78.14014081
C      85.69717665      69.21311680      76.00475006
H      86.87069669      69.78381415      74.41360051
C      83.19706874      68.19644405      75.11846842
H      81.86481169      69.64397440      74.51186628
H      82.40527341      66.98135003      76.58111659
C      83.43517425      66.30482801      72.87914274
O      85.13403821      66.69978081      71.27098565
O      81.56245548      64.87619492      72.56544818
C      85.13403821      71.65275347      77.53920783
O      85.76142735      73.81460038      76.69827962
N      84.14571135      71.66220211      79.78042324
H      83.57879345      69.93121280      80.34734113
C      83.72430238      73.85617436      81.32621937
H      83.44273316      75.50968488      80.13002262
C      81.11270062      73.64074556      82.66603532
H      81.07868554      74.91820054      84.28175133
H      81.48119725      71.82282884      83.55798615
C      78.61637216      73.60673048      81.17693098
H      76.98931780      73.15319617      82.35612020
H      78.66928449      72.16675903      79.70483419
C      78.08535906      76.11061785      79.68782665
O      79.30801199      78.09294075      80.03742603
O      76.40728210      76.02369044      78.11557437
C      85.81811913      74.58371899      83.13279772
O      86.07323219      76.74178644      83.76207659
N      87.17116317      72.70911048      84.25718487
H      87.01242616      70.90064240      83.66947999
C      89.05899976      73.21366741      86.27919203
H      90.46117669      74.60639570      85.70282550
H      90.06811361      71.43921440      86.55509207
C      88.09523934      74.06593398      88.82276365
O      85.76142735      74.02247027      89.31598221
N      89.80355193      74.97867179      90.54241459
H      91.65926317      75.10150400      90.11533644
C      89.18939088      75.93109385      93.05953005
H      87.36958444      75.11473208      93.57353560
C      90.81644523      74.62718269      95.03807349
H      92.84412157      74.80670669      94.73382755
H      90.37613900      72.62974198      94.79051934
C      90.07189307      75.34338896      97.91423694
H      90.02842936      77.37673448      98.24493904
C      87.59635159      74.30214977      98.58131033
H      86.04110684      75.27346909      97.64778553
H      87.20895770      74.58938816     100.58253050
H      87.41304814      72.28392206      98.20336506
C      92.04098788      74.32104703      99.87766258
H      93.83622788      75.14307797      99.28995769
H      92.12413584      72.26691453      99.99293588
H      91.69894742      75.18087250     101.71825601
C      89.47851900      78.80158812      93.30519446
O      91.67060153      79.69731839      92.81008617
N      87.51320364      80.28124382      94.17257884
H      85.89748764      79.26835052      94.09321033
C      87.61713858      82.82859489      95.25350229
H      89.58434368      83.16685590      95.76750785
C      86.60991446      84.77501299      93.29763555
H      86.15638014      86.49277421      94.34076448
H      84.88648406      84.21187455      92.32064705
C      88.68672368      85.17374524      91.28129758
H      89.31411281      83.34449017      90.57453994
H      90.36480064      86.16963101      91.93703261
C      87.67005092      86.63450368      88.85299928
H      89.32923062      87.10504554      87.72861211
H      86.81211518      88.42218478      89.41046853
N      85.92016436      85.01311851      87.42058672
H      85.31923139      83.44653539      88.32954508
C      85.41371770      85.03390550      85.07732609
N      86.24519728      86.81969686      83.56743477
H      85.85024448      86.78001261      81.70227490
H      87.30155429      88.10471076      84.50662875
N      83.97374625      83.25378331      84.13813212
H      83.21974545      83.30102647      82.38635582
H      83.63737497      81.65507485      85.12267952
C      86.03165821      83.24244495      97.68369033
O      83.77532499      82.72277022      97.81597118
N      87.26942894      84.35171430      99.56585775
H      89.10057374      84.82414588      99.31452414
C      86.56645075      84.30636087     102.25493828
H      85.10002314      82.88717641     102.53839723
C      88.77743054      83.48621965     103.97269950
H      88.11980578      83.53535253     105.92289705
H      90.39692599      84.70320339     103.60231314
C      89.73930123      80.69887333     103.58719533
H      90.85423976      80.79524938     101.85998548
C      91.59123302      80.13762462     105.76416004
H      90.54621437      80.01668214     107.53294388
H      93.18994148      81.40752070     106.04572926
H      92.49452220      78.28758256     105.81896210
C      87.67760983      78.78647031     103.61365150
H      86.50220006      78.72599906     101.92423617
H      86.50975897      79.36472656     105.21047024
H      88.45617707      76.93453852     104.06151663
C      85.23608343      86.59292970     103.15822746
O      84.25531547      86.65907013     105.16511680
N      85.16238410      88.59226014     101.54629092
H      85.92772326      88.48076629      99.80207352
C      83.95673872      91.01866873     101.97525878
H      82.59235632      90.90906460     103.51538573
C      85.99197396      93.07280123     102.57241231
H      87.44706322      93.21642043     101.12299222
H      86.90471176      92.26966755     104.23726118
C      84.94506558      95.73353588     103.45869394
H      83.68272840      95.51621735     105.07063048
H      83.89437775      96.49320586     101.85998548
C      87.15604536      97.40027449     104.04261938
H      88.63948052      97.70452043     102.64800135
H      88.15949004      96.58769217     105.64699701
C      86.45873635     100.04778105     105.08574830
H      84.85057926      99.89849267     106.36320328
H      86.12992398     100.89248872     103.23570623
N      88.72640793     101.27988261     106.31029095
H      89.37836351     100.14037764     107.69735006
H      88.66215724     102.99197465     107.14743970
H      90.11724650     101.49531141     105.01960787
C      82.38259670      91.64416814      99.68113105
O      83.04022145      91.09803724      97.57408621
N      80.17350664      92.75721694     100.20647496
H      79.85036344      92.99154300     102.07163483
C      78.15716866      93.37704717      98.45658839
H      77.25765894      91.66873458      97.73282321
C      76.16350740      94.81890835      99.91734683
H      75.78178269      93.78333833     101.65778477
C      76.61893144      97.53633478     100.76772367
H      75.02022298      98.14482666     101.91856699
H      76.74554311      98.66261167      99.04996245
H      78.32535430      97.74798413     101.89966973
C      73.74087827      94.79056245      98.31107946
H      73.56891317      93.01988890      97.26795054
H      73.96764543      96.18329074      96.81063677
C      71.30691078      95.14394127      99.84742696
H      71.25588817      97.08280047     100.54284624
H      71.00833402      93.73987462     101.32519293
H      69.77812219      94.93985083      98.48304457
C      79.00754550      94.93607138      96.16624010
O      80.40027380      96.80879015      96.26639559
N      77.95496795      94.25010073      93.95715004
H      76.86270614      92.69107652      93.85321509
C      78.46519405      95.11559538      91.39657089
H      79.36659350      96.96563744      91.46838048
C      80.61570259      93.54712254      90.11722617
H      82.41472204      93.83814039      91.07909686
H      80.92372798      94.46363980      88.29930946
C      80.25098542      90.78812212      89.65991241
C      79.25132020      89.72987538      87.38657165
H      78.92439754      90.85615227      85.71416386
C      78.89794138      87.14284006      87.14846613
H      78.43684816      86.39072899      85.30787270
C      79.67650862      85.45342474      89.06464861
O      79.14360580      83.01189834      88.99661847
H      78.62582079      82.44498045      87.35255657
C      80.78577796      86.35293446      91.20381880
H      81.09191363      85.18508360      92.84977043
C      80.90294099      88.93996979      91.47782912
H      81.78355346      89.60515345      93.19748006
C      76.18240466      95.44818721      89.65613295
O      74.27378109      94.08002536      90.02085013
N      76.38460538      97.04122649      87.66814087
H      77.95496795      98.09569377      87.41113809
C      74.44763591      97.08280047      85.56109603
H      72.59003494      96.50265449      86.23194888
C      74.20197149      99.70574059      84.46505477
H      73.26466724      99.50165015      82.64335860
H      76.02177793     100.62981676      84.20994172
C      72.44830547     101.28366206      86.16769818
H      73.12860694     101.78821899      88.04608613
H      70.62094013     100.33690918      86.24895641
C      71.66784850     103.53999528      84.48206230
H      71.47887587     103.02976918      82.49595995
H      73.16073229     104.95351056      84.37056845
C      69.32269815     104.65493380      85.71227414
H      69.58159065     105.25586677      87.66625114
H      67.94886712     103.15071166      85.41747684
N      68.53468228     106.86780332      84.20427254
H      66.80936215     107.35535271      84.85811784
H      68.01122809     106.25553199      82.47517296
H      69.93874893     108.16226584      84.22505953
C      75.18084972      95.11370565      83.55042724
O      77.34836580      95.10425702      82.76052163
N      73.41395562      93.51688692      82.76430109
H      71.69997385      93.43940814      83.60144984
C      73.65962004      91.83692022      80.66292543
H      75.46430867      90.97709475      81.16748235
C      71.50344231      89.92640692      80.51552677
H      69.59103928      90.69552553      80.52119595
H      71.52800876      88.99666158      82.35234076
C      72.03256568      87.97809909      78.42171002
O      74.09047764      86.76867425      78.44816619
O      70.85337646      88.02345252      76.47907137
C      73.91095364      93.45452595      78.24974493
O      73.22498298      95.73353588      78.31210590
N      74.39472357      92.45675045      76.01608842
H      74.81235309      90.59537004      76.09167747
C      74.20386121      93.58869652      73.49330379
H      75.55501553      95.14016182      73.58967984
C      74.83691953      91.62905033      71.46940691
H      73.20419600      90.37049260      71.50531171
C      75.04289970      92.85359298      68.78977500
H      75.59847923      91.51566675      67.32712684
H      76.47342252      94.27844662      69.19984562
H      73.21175490      93.70208009      68.37970439
O      77.20096715      90.37049260      72.06089126
H      76.57924719      89.01177939      73.09268182
C      71.49966286      94.49954460      72.85457630
O      71.25777789      96.52911066      71.72451997
N      69.51922968      93.06902178      73.81644699
H      69.95008728      91.41929071      74.67249302
C      66.83959777      93.89672190      73.73140931
H      66.61661007      95.04567550      72.03632482
C      65.11427765      91.60637361      73.85424152
H      63.15274174      92.21864494      73.70684287
H      65.52812771      90.66340018      75.63625344
C      65.58104005      89.91506856      71.39003841
H      64.71176594      88.05557787      71.56200350
H      67.57281158      89.44452671      71.15193290
C      64.61916936      91.09047833      68.86725379
O      65.90985243      92.71942241      67.55956317
O      62.50078616      90.25332957      68.14726806
C      66.16118603      95.70141053      75.88758703
O      63.89540418      96.08691470      76.52442480
N      68.00177946      96.91650455      77.00630501
H      69.82914480      96.43651407      76.74552278
C      67.54257596      98.94796034      78.93382585
H      66.23299563     100.37659343      78.23651684
H      69.31513924      99.89471322      79.39302935
C      66.65818405      98.03711226      81.59645022
O      66.59582308      99.51487823      83.38791077
N      65.71899007      95.63715984      81.81376875
H      65.09160093      94.82457752      80.20750139
C      64.68342005      94.48064734      84.00018209
H      63.16974927      95.66739546      84.73906508
C      63.20565407      92.06557711      83.54664778
H      62.12662035      91.78211816      85.27952681
H      64.54547003      90.53489879      83.21594568
C      61.50112094      91.81235378      81.18260016
C      61.78457989      89.81113362      79.51964101
H      63.30203012      88.47509711      79.79932050
C      60.04414195      89.57491783      77.44661124
H      60.23311458      88.05935732      76.08978775
C      58.20543825      91.47976195      76.98551802
O      56.54814827      91.11126532      74.93894443
H      55.40486385      92.47186826      74.58556560
C      58.17142318      93.56035062      78.64280800
H      56.74656954      95.02110906      78.54454223
C      59.85138987      93.78333833      80.68371242
H      59.92319947      95.51432763      81.76085641
C      66.87550257      94.12537879      85.97305637
O      68.90695836      93.08413959      85.35322613
N      66.39929154      94.93796110      88.31253754
H      64.76845773      95.83558110      88.72260815
C      68.15106783      94.49387542      90.42525156
H      70.01244825      95.24409677      89.96982752
C      67.46887664      95.92061879      92.84599097
H      68.72554463      95.09480839      94.25194734
H      65.55080443      95.46519474      93.43936503
C      67.94508767      98.75520826      92.83087316
C      65.95709558     100.52399208      92.20348402
H      64.02012611      99.90038240      92.03718810
C      66.51078539     103.06756370      91.83687711
H      65.08782148     104.43572555      91.31909211
C      68.98821659     103.88770492      92.21104293
O      69.53056804     106.35379776      92.08821072
H      68.13783975     107.51597944      92.11466688
C      71.02534156     102.20584850      92.68536423
H      72.99254665     102.74819995      92.71748958
C      70.50566682      99.66416661      92.98016153
H      72.10626501      98.55111781      93.58298423
C      68.28712813      91.60448389      91.07531742
O      66.24622371      90.22876313      91.19437017
N      70.63605794      90.60292894      91.34365855
H      72.01933760      91.92006818      91.29641539
C      71.27100598      87.95920183      91.45326267
H      69.75166602      86.60426806      91.77262642
C      72.47665136      87.33748187      88.77552049
H      74.31346534      88.26155804      88.63946019
C      72.73932332      84.44998007      88.03096832
H      73.73331936      83.44275594      89.52574183
H      73.79190088      84.19108756      86.27919203
H      70.87416345      83.62605939      87.75506828
O      70.72298535      88.12738747      86.87634554
H      70.76833878      89.92829665      86.64768866
C      73.36293301      87.67385316      93.42613694
O      74.75566130      89.48610069      94.02518019
N      73.75410635      85.42885830      94.47304533
H      72.37460614      84.14006495      94.18769665
C      75.80256968      84.67107804      96.13789420
H      77.45041102      85.75200150      95.53507151
C      75.16951136      85.16807606      98.85532064
H      74.19630231      86.95197770      99.18413302
C      73.39883781      83.09882575     100.06474548
H      74.36070850      81.28279877     100.19702632
H      71.56958273      82.90796339      99.13500014
H      73.13616585      83.76589914     101.99793551
C      77.59214049      85.68586107     100.33686607
H      78.98297906      86.53812764      99.07830835
H      78.44818651      83.88873135     100.86787916
C      77.51088226      87.41496065     102.68768560
H      79.36659350      87.25811337     103.56829808
H      75.96886559      86.78190234     103.89522073
H      77.23120277      89.38216574     102.14722389
C      76.54523212      81.96121051      95.63333728
O      75.13549629      80.61761510      94.45225833
N      78.76188108      81.18264327      96.30985930
H      80.04500525      82.41852428      96.99205050
C      79.42139556      78.51623944      96.64056140
H      77.83213574      77.57326601      97.55140950
H      81.02388348      78.34427435      97.92179584
C      80.23964706      77.22744610      94.07620280
O      81.87992950      78.01168252      92.62300326
N      78.89038247      75.11662181      93.38456297
H      77.94362959      74.34750320      94.85099058
C      79.09258319      73.46878046      91.09988386
H      80.84435948      73.96577848      90.13612344
C      79.29289418      70.59828619      91.85955383
H      77.40694732      69.91798472      92.33954431
C      80.37948681      69.19988872      89.50684458
H      81.17317186      67.37441310      90.03974739
H      81.89126786      70.32427588      88.67347528
H      78.81479342      69.21689626      88.16702863
C      81.01443485      69.67421002      94.05163635
H      81.12403897      67.62196725      93.96659868
H      80.24531624      70.40553411      95.81664073
C      83.68272840      70.65875743      94.10265896
H      83.64493387      72.69021322      94.43336107
H      84.75420322      70.07483200      92.44347926
H      84.65215800      70.04648611      95.81286128
C      76.98931780      74.22656071      89.25362125
O      75.54556690      72.60139608      88.37111907
N      76.67562323      76.73800698      88.80386638
H      77.86615081      77.88507085      89.75628844
C      74.51188660      77.49578723      87.12200996
H      74.40606193      76.31281856      85.44015355
H      74.69330033      79.42519780      86.42281123
C      72.01366842      77.22933582      88.31064781
O      70.04268387      76.86650837      86.96894213
N      71.90406429      77.62050917      90.82209408
H      73.62938442      77.90018867      91.58743324
C      69.49277352      77.79247427      92.32442650
H      68.19642127      76.35250281      91.61955860
C      69.73276876      77.30114542      95.18547214
H      71.10282034      78.46332711      96.19458599
H      70.25055377      75.30748416      95.21948722
C      67.18352796      77.42397763      96.52528811
N      65.39584687      75.45866227      96.58009017
H      65.39962632      73.74279078      95.74105169
C      63.42108287      76.30903911      97.84431706
H      61.70899083      75.25835128      98.20903424
N      63.77824115      78.74300660      98.59831786
H      62.42330738      79.97321843      99.14066931
C      66.13095041      79.33260121      97.74605130
H      66.85660531      81.22043780      98.02384106
C      68.17374455      80.41352466      91.81986958
O      68.94475289      82.41663455      92.65323888
N      66.09504561      80.42864247      90.49895089
H      65.56025306      78.75434496      89.75628844
C      64.42641727      82.64151198      90.08510082
H      65.56214279      84.28368415      89.58243362
C      62.67842043      82.19364685      87.90246693
H      61.71843946      80.37384041      88.00640189
H      64.03146447      82.24277973      86.35100163
C      60.68853862      84.30825059      87.48294769
H      59.36006103      84.38006019      89.05708971
C      61.78080043      86.98221333      87.20326821
H      60.23500431      88.34092654      87.25051136
H      62.93353348      87.16929623      85.50629397
H      62.90518759      87.47732162      88.85488899
C      59.14652195      83.79046558      85.19637885
H      60.09516456      84.08337316      83.39169022
H      57.66875598      85.22287813      85.27952681
H      58.20354852      82.01034340      85.62156727
C      62.90896704      83.38228470      92.59087791
O      61.54269492      81.78168651      93.47149038
N      63.32470683      85.62161038      93.49227738
H      64.32437205      86.84048385      92.41891282
C      62.20220940      86.62505505      95.76750785
H      62.12662035      85.05658221      97.10165462
C      63.99933912      88.53745808      97.04307311
H      63.08849104      89.54090275      98.59453842
H      64.74200157      89.92640692      95.71459551
C      66.45409361      87.22031884      98.15990136
H      67.22510194      85.82759055      96.85221076
C      68.36460691      89.33492259      98.59831786
H      69.95953592      88.58281151      99.66223378
H      67.56714240      90.92796187      99.63388788
H      68.86160493      89.96609117      96.70103264
C      65.90229352      86.01278373     100.68457571
H      65.26734548      87.42629901     102.04139921
H      67.52745815      84.94319863     101.35731828
H      64.50011660      84.52367939     100.44458047
C      59.58871791      87.82314153      95.17035433
O      57.83883134      87.32047434      96.62733332
N      59.43753980      89.49365960      93.34298899
H      61.04380717      90.13427682      92.53418612
C      57.04703602      90.60103921      92.61733408
H      55.67887417      89.08169926      92.37166966
C      56.18154137      92.56824431      94.47115560