 %block lattice_cart
   135.996   0.000   0.000
   0.000 142.663   0.000
   0.000   0.000   160.158
 %endblock lattice_cart

 %block positions_abs
N      88.10279824      37.70759972      80.39174970
H      87.56800570      36.94226056      82.05470886
H      90.00008346      37.76996069      80.19332845
H      87.55666734      36.47360844      79.04059539
C      87.01620561      40.22471516      79.89664142
H      87.35635635      41.29052080      81.62574100
C      88.29366060      41.65712772      77.73479452
H      87.73052216      40.78974333      75.95089287
H      90.28732186      41.29241054      78.09951170
C      87.85713382      44.47848910      77.74613288
H      86.03165821      45.17768784      77.09606702
H      88.99285934      45.20036454      76.19088811
S      88.40893391      46.33231061      80.62607578
C      90.42149243      48.78328563      79.26925227
H      91.55721794      48.02361566      77.72723561
H      91.66115289      49.49949191      80.75079770
H      89.24986212      50.33475094      78.58706109
C      84.14949080      40.24928160      79.82294208
O      83.01187556      38.44270325      79.14264062
N      82.92305842      42.34309837      80.58828125
H      83.95673871      43.93046847      80.80559978
C      80.19240390      42.75883815      80.47300794
H      79.64438327      41.98216063      78.64564259
C      78.87526466      41.01462077      82.45722057
H      79.21163594      42.00105790      84.23356331
H      79.94484975      39.25906502      82.58950142
C      76.04067519      40.44959259      82.16053353
O      74.83691953      41.13178380      80.34261682
N      74.74054348      39.32142599      83.95955299
H      72.85459662      39.10599718      83.77435981
H      75.55501553      38.92269373      85.64140941
C      79.38171131      45.54618446      80.87174020
O      80.90861017      47.14867238      81.52747523
N      77.03845068      46.08286673      80.59772987
H      75.88949708      44.82430901      79.73790440
C      75.84603338      48.73982193      80.97756487
H      76.72475611      49.61287549      79.32972353
C      72.91317814      48.42801710      80.46544904
H      73.07758433      46.98426618      79.00658033
C      71.41084572      47.08820113      82.62162675
H      71.37305120      48.39022257      84.21844549
H      72.30468627      45.45169814      83.49468031
H      69.50033242      46.51372433      82.11140065
C      71.49777313      50.85820512      79.61507219
H      71.05557717      52.01660736      81.26102382
H      69.71009204      50.09286597      78.93666045
C      72.88483225      52.37376563      77.59117532
H      73.29868231      51.34386480      75.85640655
H      74.76510993      52.96147052      78.19021856
H      71.74154783      53.94979738      76.91654302
C      76.58869582      50.21947764      83.28303096
O      77.18206988      52.44746496      83.15075013
N      76.81168352      48.84375689      85.42031142
H      76.39594374      46.98426618      85.32771483
C      77.57891241      49.81507620      87.90530152
H      76.29767797      51.39110795      88.25301117
C      77.08191439      47.74015671      89.80825592
H      77.66395009      48.30140542      91.70365141
H      78.31968512      46.14900715      89.39251613
C      74.39661330      46.85576479      90.01801554
C      72.66184454      47.93101907      91.77546102
H      73.46308850      49.45413847      92.87339200
C      70.13150101      47.31496829      91.66963635
H      68.72176518      48.28250816      92.78079542
C      69.45119953      44.94525149      90.40162998
H      67.56525267      44.19691987      90.62461769
C      71.26722652      43.73015747      88.93520238
H      70.71731616      42.12955929      87.79569740
C      73.65584058      44.79596311      88.57426464
H      74.94085447      43.72637803      87.40263434
C      80.36436899      50.71647565      88.14151732
O      80.97664032      51.87487789      90.05392034
N      81.90827539      50.07396871      86.22533483
H      81.36025476      48.58675410      85.16330865
C      84.51420798      50.99615515      86.13084853
H      84.90349160      52.20935945      87.74845425
C      86.40771374      48.71525549      86.12139989
H      88.23885854      49.30296037      85.38440662
H      85.56489581      47.24504841      84.94787985
C      86.80455627      47.96692387      88.84827495
H      84.92238886      47.48315394      89.53424562
H      87.27698785      49.59208850      90.02179501
C      88.66593669      45.77484134      88.90685647
O      87.86847218      43.67157597      88.31348241
O      90.93549799      46.21514758      89.15252089
C      85.09246423      52.67234240      83.83294132
O      86.91038094      54.06318095      83.78947761
N      83.45785097      52.63832731      81.88463350
H      81.69284659      52.01093819      82.24557122
C      83.76209690      54.11798301      79.47901189
H      85.58379307      53.59452883      78.67020903
C      81.81945825      53.06162602      77.69888971
H      80.03744634      53.67956652      78.53036929
H      81.86103223      51.00371406      77.72723561
C      81.51332259      54.05373232      74.99091191
H      82.88715362      53.13910479      73.75692062
H      81.38104175      56.09274702      74.73012968
S      78.65038723      52.82163076      73.75314117
C      79.00187632      52.48525949      70.37808997
H      80.51176764      53.70224323      69.68456041
H      77.12537809      52.94257325      69.66188370
H      79.55556613      50.51616467      70.12864611
C      83.48997631      56.95068276      79.75302222
O      85.12836903      58.35474942      79.16531733
N      81.30545270      57.77271371      80.65442167
H      79.87492988      56.56517859      81.02102858
C      80.60247451      60.32195450      81.15708887
H      80.32468474      61.24414094      79.33728242
C      78.13827140      60.13676132      82.69343636
H      77.43907266      62.06050271      82.93910077
H      78.49731940      59.06150705      84.41308731
C      76.05579300      58.58529603      81.27047244
H      76.80223489      56.79005602      80.59017097
C      73.93929953      57.92389182      83.25090563
H      74.82369144      56.69745943      84.64930309
H      72.41995957      56.92233686      82.28903492
H      73.37049191      59.69456537      84.13907699
C      74.86337570      60.01959829      79.09917692
H      73.57836180      58.65710562      78.23935144
H      76.13138205      60.38053602      77.51558626
H      73.75977553      61.65988074      79.68310234
C      82.66605564      61.77704377      82.68776718
O      83.30100368      63.89164752      82.04337050
N      84.07768120      60.43533808      84.44899211
H      83.81122979      58.54750149      84.35450579
C      86.19984385      61.34996562      85.98533959
H      85.38726153      62.75025281      87.25901513
C      87.22218578      59.38465025      87.72010835
H      88.46940515      60.33329287      89.05614485
H      88.20673319      57.76515480      86.91319522
C      85.14915602      58.07695965      89.43220039
H      83.81878869      57.10941977      88.19442965
H      84.09090928      59.53771808      90.43186561
C      86.26976372      56.00959905      91.11027735
H      88.00264275      56.65588546      92.01923571
H      86.98408027      54.49214883      89.91786006
N      84.62570183      54.83985847      92.95465024
H      83.57123455      53.46602744      92.15340629
C      84.19673396      55.49748322      95.30735950
N      84.96774229      57.63476368      96.21064868
H      84.30633808      58.06940074      97.94730716
H      85.95795888      58.89710086      95.17696838
N      82.90605088      53.97058436      96.82103027
H      82.40149396      54.67167283      98.52367369
H      82.27866175      52.23581561      96.33726033
C      88.44105925      62.35907948      84.50946335
O      89.78843412      63.93511121      85.43731897
N      88.64703942      61.67310881      82.18509998
H      87.44706321      60.24069628      81.79014718
C      90.54621437      62.34207193      80.45977985
H      92.01453171      63.13575699      81.66731497
C      91.61390973      59.85519211      79.13319198
H      89.92638414      58.87631387      78.46611859
C      93.34867849      60.47313261      76.86552040
H      92.36980026      61.57295333      75.42554895
H      94.15748135      58.82340154      75.93388533
H      94.75841432      61.76948486      77.61952120
C      92.77042224      57.84452330      80.80559978
H      91.97862691      57.96924524      82.70288498
H      94.82833419      57.91066373      80.82449703
C      92.07311323      55.21024483      79.54515233
H      90.08890060      54.71324680      79.79270646
H      92.91593116      53.68523570      80.64686276
H      92.61924413      55.07607427      77.56660888
C      89.84323618      64.51525720      78.72501110
O      91.44761382      65.99113345      77.81983220
N      87.36202553      64.69478120      78.20911582
H      86.25842536      63.79338175      79.47712218
C      86.24519728      66.61852258      76.64253270
H      87.57178515      67.02103428      75.11941330
C      83.90004692      65.56594503      75.65609557
H      82.71329880      67.13819731      75.05516260
H      82.75109333      64.94800451      77.24913485
C      84.04555585      63.86141188      73.22401781
O      86.03165821      63.55905567      71.98246762
O      82.11803501      62.53293430      72.71379169
C      85.97118696      69.14886611      78.12596785
O      86.96896246      71.16898354      77.44188693
N      84.81656419      68.95989348      80.42387505
H      84.09846819      67.32716994      81.10039708
C      84.65404772      71.02725406      82.13974654
H      84.22130040      72.80548652      81.19299367
C      82.61692276      70.37151903      84.17876125
H      82.57156933      71.80771103      85.65274777
H      83.16305366      68.45911600      84.71922297
C      79.93351139      70.51324852      83.00146175
H      78.76377081      70.14853134      84.65686199
H      79.63682436      68.92965786      81.71455812
C      79.29289417      72.90942147      81.60873345
O      77.78678230      72.70911048      79.91931813
O      80.05445388      75.03536357      82.30037328
C      87.17116317      71.48267811      83.62696116
O      87.70028654      73.71822433      83.87451531
N      88.54121475      69.62129769      84.43009484
H      88.62247298      67.86196250      83.70066049
C      90.54810409      69.84050594      86.25179101
H      91.86524333      71.19543971      85.42787033
H      91.63469672      68.09250910      86.27257800
C      89.62969710      70.60584511      88.83126742
O      87.50753446      69.81593950      89.41897230
N      90.87313702      72.21589192      90.39218136
H      92.64381057      72.67509542      89.84794018
C      90.00386291      72.99256943      92.99811395
H      87.94595096      73.05493040      92.91496598
C      90.80321715      71.01591571      95.00500329
H      92.79120923      70.68710333      94.58737378
H      89.73363205      69.26224969      94.84248682
C      90.61424451      71.64519457      97.79045987
H      91.54398986      73.41775785      98.27045035
C      87.82878793      71.79259322      98.58792438
H      87.20328852      69.91231554      98.02478593
H      86.84235079      73.03981260      97.28212349
H      87.64737420      72.18565630     100.60237263
C      91.61390973      69.43988396      99.43830121
H      93.62268880      69.23768325      99.02634088
H      90.42716161      67.78826316      99.11515802
H      91.31911243      70.06727310     101.37716042
C      90.89581373      75.71188559      93.61416472
O      93.13135996      76.19376580      93.74833528
N      89.14592717      77.43909544      94.15462645
H      87.33745909      76.84761111      94.31525319
C      89.60702039      79.98077733      95.13350467
H      91.58745357      80.19620613      95.65884859
C      88.55822229      82.15774205      93.46109689
H      88.12169551      83.94164369      94.39651141
H      86.74219530      81.58515497      92.67497074
C      90.68038494      82.54891539      91.49956097
H      91.22084666      80.83682335      90.48855740
H      92.17515845      83.37850525      92.64473512
C      89.97362729      84.51423076      89.49267163
H      91.68193988      85.09059729      88.49678586
H      89.18561142      86.07325497      90.58304372
N      88.02154001      83.45220457      87.72010835
H      87.28076730      81.77601733      88.25490090
C      87.19761934      84.36494238      85.63385050
N      87.99886330      86.71765164      84.94410039
H      87.29210566      87.52456478      83.36239948
H      89.01364633      87.73810385      86.19509921
N      85.77087597      83.07425931      84.19954823
H      85.43261496      83.84904710      82.48745619
H      85.15482520      81.31114467      84.59639076
C      88.28232224      80.22266231      97.57125163
O      85.84835475      79.99778487      97.66573793
N      89.70528616      80.59682811      99.61971494
H      91.51186451      81.05414188      99.20964433
C      89.07789702      80.68375552     102.36359755
H      87.76264751      79.15118748     102.76610926
C      91.34934805      80.21888285     104.04167451
H      90.68983357      80.26801573     105.99376179
H      92.49830165      81.91396735     103.82624571
C      92.96128459      77.78869481     103.45585936
H      93.65859360      77.77546673     101.51700016
C      95.17982329      77.96065991     105.17740004
H      94.44471975      78.14018391     107.09169278
H      96.46672691      79.45732315     104.57835678
H      96.20027550      76.19376580     104.89205135
C      91.75185975      75.29047663     103.84514298
H      92.93860788      73.68987844     103.32168880
H      89.97173757      74.95032589     102.86248529
H      91.07533773      75.26968964     105.78967135
C      87.85335437      83.21409906     103.03067094
O      86.31511715      83.35204908     104.87882328
N      88.90593193      85.19453223     101.79478993
H      90.23251980      84.80146917     100.47954042
C      87.82878793      87.78345728     101.73620841
H      86.77998982      87.89306141     103.50499224
C      89.97740675      89.81491307     101.62660428
H      90.86179866      89.90750966      99.76711359
H      91.42493710      89.18374448     102.94941271
C      89.04199222      92.49643471     102.20863999
H      88.46373597      92.50399361     104.18529372
H      87.46596048      92.98965327     100.97842816
C      91.16226514      94.47308843     102.07824887
H      91.70083714      94.45041172     100.09025680
H      92.65136948      93.72475681     103.28956344
C      90.10401841      97.10736692     102.82469077
H      90.39692599      97.52688615     104.82024175
H      88.07445235      97.06012375     102.47509141
N      91.38714258      99.14071242     101.43574193
H      92.92537979      99.83613171     102.32580302
H      90.10023896     100.55233798     101.42440357
H      91.80099264      98.50198493      99.68585536
C      85.81811913      88.09904158      99.71987044
O      85.96173833      87.07669964      97.71298110
N      83.88681884      89.53145412     100.46253287
H      83.88114966      90.25143986     102.22942699
C      81.73064112      90.05679804      98.66918261
H      80.90483072      88.20108680      98.32336270
C      79.65761135      91.58369690     100.13938968
H      79.37037295      90.56891387     101.90817350
C      80.52688546      94.23498291     101.11070901
H      79.41194693      94.81134944     102.74154282
H      80.44184777      95.67873382      99.64428138
H      82.48653164      94.29734388     101.74187760
C      77.18773906      91.54401264      98.52556340
H      76.92695683      89.56924865      97.99832976
H      77.32757881      92.45675045      96.68496998
C      74.89928050      92.49643471     100.02789583
H      74.60448319      91.23409753     101.63038375
H      73.15506311      92.50021416      98.93563402
H      75.19407780      94.32380005     100.93496445
C      82.44495766      91.13772149      96.12750071
O      84.14004217      92.72887104      95.96120480
N      81.18451021      90.46497892      94.02423534
H      79.82012781      89.14217050      94.18864152
C      81.51710204      91.48732085      91.48444317
H      82.49409055      93.30145811      91.53924523
C      83.59769071      89.72042675      90.19564983
H      85.22852452      89.79790553      91.45231782
H      84.19484423      90.48576591      88.37773311
C      82.76810086      86.99355168      89.59093741
C      81.78544318      86.37939063      87.22311034
H      81.50765341      87.73243467      85.72077791
C      80.84813893      83.85849573      86.80359108
H      79.84469426      83.36905661      85.09338877
C      80.91994853      82.12183725      88.80292153
O      80.08091005      79.71054648      88.48355779
H      79.62926546      79.53102248      86.73556095
C      81.86103223      82.65662980      91.17641778
H      81.57379383      81.41507961      92.77323651
C      82.62637139      85.23421648      91.50145070
H      83.19328928      86.07892415      93.27023454
C      78.89794137      91.60259416      90.03313336
O      76.92317738      91.30779685      91.16696914
N      78.81101396      92.60603883      87.67286519
H      80.32468474      93.55846089      87.00768154
C      76.53767321      92.34714633      86.04959030
H      74.94841338      91.62716061      87.14185210
C      75.75721624      95.02299879      85.21433126
H      74.23220711      94.97953508      83.82916187
H      77.33513771      95.96975167      84.29025509
C      74.87849351      96.47052915      87.51979737
H      76.29767797      96.41572709      89.01079142
H      73.00010555      95.86770645      88.11128170
C      74.55912976      99.24086792      86.77902464
H      73.54812618     100.26698930      88.25301117
H      73.39316862      99.37692821      85.08394014
C      77.02522260     100.61658867      86.53524995
H      78.32535430      99.72652758      85.20866209
H      77.82079738     100.83579692      88.42308653
N      76.54712184     103.05244589      85.36928882
H      78.11559468     104.12581044      85.22000044
H      75.64005321     104.20328921      86.59194174
H      75.80823885     102.87292189      83.61751252
C      76.98364862      90.57836251      83.81026461
O      78.85069822      90.83347555      82.58761168
N      75.06935586      89.19130338      82.88240898
H      73.48954467      88.75288688      83.85939749
C      75.05423805      87.77022920      80.37852163
H      76.69263077      86.54001737      80.16876201
C      72.57680686      86.20742554      80.38985999
H      70.89872989      87.31291543      80.83394567
H      72.89428088      84.87138903      81.92809721
C      72.02311705      84.56714310      78.14297539
O      70.68897027      85.46098364      76.38175048
O      73.34592547      82.61127636      78.03715073
C      75.00510517      89.71853703      78.05226853
O      74.80479418      92.01077504      78.45855970
N      75.38494016      88.80201976      75.66932365
H      75.64194294      86.94063935      75.35373936
C      75.25643877      90.46686865      73.38275481
H      76.34870058      92.17329151      73.75881035
C      76.43562799      89.25933353      71.09996542
H      75.81579776      90.15884327      69.35385831
C      79.23809211      89.36704793      71.37586547
H      79.67839834      91.29267904      71.95601145
H      79.70107506      89.00988966      69.39921175
H      79.98453400      87.76833947      72.43978139
O      75.64761212      86.60237834      71.04516336
H      76.38082592      85.92585632      69.52960287
C      72.58814521      91.33425302      72.69300470
O      72.38972395      93.40539306      71.45145453
N      70.53779216      90.10782065      73.37141646
H      70.62471958      88.42407450      74.26336727
C      68.12839112      91.25299479      73.41488016
H      67.61438556      92.08825382      71.60263262
C      66.07614834      89.31980477      74.03471040
H      66.25378261      88.72076153      76.00002575
H      66.38795318      87.62472028      72.90843351
C      63.32848628      90.05301858      73.36574728
H      62.67464098      91.70274965      74.41265565
H      62.13606898      88.47887656      73.95345217
C      62.88062114      90.24388095      70.44423040
O      62.54802931      88.25021968      69.12520143
O      62.75778893      92.37927167      69.31039460
C      68.04902261      93.51499719      75.44255650
O      66.45598333      95.25543512      75.20634071
N      69.89150577      93.92317807      77.06961085
H      71.11226896      92.46052991      77.13575128
C      69.98032290      95.79211740      79.13886116
H      69.38505911      97.59113685      78.33194803
H      71.93807936      96.08880444      79.70766878
C      68.37594526      95.08158030      81.44999644
O      67.74477667      96.71808329      82.92965215
N      68.05469179      92.58147239      81.80715471
H      68.57247680      91.58936608      80.25946887
C      66.85849503      91.60070443      84.13718726
H      65.46387701      92.93107176      84.86662161
C      65.27301466      89.07980953      83.44743716
H      64.47366043      88.32769846      85.19165455
H      66.62038952      87.66062507      82.80870966
C      63.16785954      89.19319311      81.32149505
C      62.02646485      86.91229345      80.47489767
H      62.78991428      85.23421648      81.34606150
C      59.87784603      87.11449417      78.87240975
H      59.14274250      85.39673295      78.05037880
C      59.09549934      89.52767468      78.05982744
O      57.25112646      89.57491783      76.30049225
H      56.45366195      91.20386191      76.24569017
C      60.17453306      91.83880995      78.89130701
H      59.58682818      93.53767390      77.92187741
C      62.19465049      91.58936608      80.66387029
H      63.04502733      93.27689168      81.43487864
C      68.73121381      91.14528040      86.35572595
O      70.73810315      89.92640692      85.88329438
N      68.05469179      91.68007294      88.73111192
H      66.20464973      91.91061955      89.13362363
C      69.82725507      91.48354140      90.79091361
H      71.60926698      92.34336688      90.22021627
C      69.03923920      93.01232999      93.16818931
H      69.14506387      91.89928120      94.89917861
H      67.04557794      93.52444583      93.06047492
C      70.53968189      95.52188653      93.17196877
C      69.36427212      97.85569853      92.82803857
H      67.35549305      97.93506703      92.46899057
C      70.86093536      99.98164063      92.84315639
H      69.95197701     101.76176282      92.42930632
C      73.43852206      99.99864817      93.43653045
O      74.92762639     102.20584850      93.34015440
H      74.11882353     103.55700282      92.43686523
C      74.57424757      97.68184371      94.18108261
H      76.48854032      97.50420945      94.86327381
C      73.15884256      95.41984131      94.01667642
H      73.85237212      93.59814515      94.62705802
C      70.17118526      88.70753345      91.53735550
O      68.23043634      87.50377779      91.96821311
N      72.48609999      87.94597374      92.04380215
H      73.78434197      89.34059176      91.90963158
C      73.19852681      85.25311376      91.93419803
H      71.63005397      84.06258617      92.54080018
C      74.14338997      84.41218554      89.19220515
H      75.96130668      85.31358499      88.84449550
C      74.61582155      81.70798718      88.88417976
H      75.59092033      81.15996655      87.15508019
H      72.69019044      80.97666311      88.87662085
H      75.53422854      81.20909944      90.65863276
O      72.57680686      85.13784044      87.22688978
H      72.48987945      86.90473455      86.82248836
C      75.36793262      84.86194040      93.92030039
O      76.99876643      86.41907489      94.10738328
N      75.53422854      82.78891065      95.16751976
H      74.15283860      81.48122003      95.01445191
C      77.60536858      81.95932078      96.89472960
H      79.36470377      82.90607367      96.39206241
C      76.92506710      82.69442432      99.64806083
H      76.17673548      84.60682735      99.79734921
C      74.65361607      81.16563573     100.43040754
H      73.21931380      81.12973093      98.95264155
H      73.95630706      81.93286462     102.21052971
H      75.29612302      79.25890189     100.86882404
C      79.46674899      82.76623392     101.08614257
H      80.85569783      83.86416491     100.03545474
H      79.92406276      80.84060281     101.66061937
C      79.11714963      84.30069169     103.58058130
H      78.75243245      86.25844815     103.05145792
H      80.84435948      84.15140331     104.69551983
H      77.67150900      83.50322719     104.81268286
C      78.43117897      79.19465119      96.41662885
O      76.86459586      77.72444412      95.51522940
N      80.64404849      78.31970791      97.34826392
H      82.16527817      79.37795464      97.80179823
C      81.34513695      75.61173010      97.22165225
H      79.58013257      74.72544846      97.79990851
H      82.99108857      75.11851153      98.35737776
C      81.73442057      74.61395461      94.58170460
O      83.42005644      75.52102324      93.41574345
N      80.48153202      72.43510017      94.08470657
H      79.26643800      71.79448295      95.40751499
C      80.57601834      71.00835680      91.66774661
H      82.17094735      71.57716442      90.49233686
C      80.79711632      68.06038375      92.25734123
H      79.13037771      67.27047815      93.17196877
C      81.18073076      66.48624173      89.84605045
H      79.58202230      66.81316440      88.58749273
H      81.02577320      64.45478595      90.14273748
H      82.85313855      66.90954043      88.71977358
C      83.02132419      67.56905491      94.09604493
H      82.79833648      68.50446944      95.91585138
H      84.76365185      68.44021874      93.42897154
C      83.63359551      64.72501682      94.69319844
H      82.03110760      63.72724132      95.51711911
H      85.13025875      64.81005450      96.10671373
H      84.34224288      63.57606322      93.13606397
C      78.29511868      71.59417197      90.20698817
O      76.66617460      69.99357378      89.48889218
N      78.09291796      74.06215452      89.36983942
H      79.65194217      75.12229098      89.66652645
C      76.10681561      75.03347385      87.70121108
H      75.90650462      73.72578324      86.12139989
H      76.56601910      76.82304467      86.79036301
C      73.54434673      75.27913827      88.98244553
O      71.53745738      74.96544370      87.73711588
N      73.48009603      75.72511368      91.54680414
H      75.10148121      76.05581578      92.49355701
C      71.04612854      75.65141436      92.98866532
H      69.92174139      74.06782370      92.30080494
C      71.63005397      75.35094787      95.77601162
H      72.64861646      76.91753098      96.64150627
H      72.75255140      73.63318665      95.95364589
C      69.11293852      74.99378959      97.16685019
N      67.64273145      72.86406804      97.18574745
H      68.09626577      71.21055752      96.35237815
C      65.42230304      73.38752223      98.28934761
H      63.93508843      72.05715490      98.72020521
N      65.44686948      75.86117397      99.19074708
H      64.03335420      76.76635288     100.09781571
C      67.68430543      76.97611250      98.25533255
H      68.39106307      78.85639018      98.61249082
C      69.71954067      78.16664007      92.69575774
O      70.54913052      80.08849173      93.67841542
N      67.48588417      78.26868529      91.66207744
H      66.47866004      76.69643300      91.26334519
C      65.89095516      80.54958496      91.22933011
H      66.96242998      82.15396259      90.50934439
C      63.69509319      79.90140883      89.61172439
H      62.29102653      78.67308673      90.48288822
H      64.46232207      78.97166348      87.94120632
C      62.05859020      82.24466947      88.84260579
H      61.11183732      82.94764765      90.53013137
C      63.42108287      84.25533825      87.58593778
H      64.90640775      85.19642196      88.65741261
H      61.93008881      85.55924941      87.01524043
H      64.19209121      83.37661552      85.88896356
C      60.04225222      81.12595149      87.01713016
H      59.21644182      79.33638066      87.60861449
H      61.04002772      80.82359527      85.24267715
H      58.43976431      82.41474483      86.89240822
C      64.74767074      81.43397687      93.79746818
O      63.52879727      79.97888761      95.20531427
N      64.97632763      83.96243069      94.31336346
H      66.21031891      84.92619111      93.21921192
C      64.00689803      85.22287813      96.56402750
H      63.32659655      83.89062108      97.98132223
C      65.97032367      87.01433867      97.70353246
H      65.21065369      88.16140255      99.23421077
H      66.50889567      88.39572861      96.27300965
C      68.39673225      85.69153025      98.77500729
H      69.19419676      84.62572461      97.20086527
C      70.20709006      87.61905109      99.65184029
H      72.04768349      86.72710027      99.88238691
H      69.33214678      88.40517724     101.34314534
H      70.46220311      89.00988966      98.15517705
C      67.47265609      83.72054572     100.85181649
H      66.31614358      82.21632356     100.04679309
H      66.37094564      84.62383490     102.33525165
H      69.16963031      83.07614904     101.82691528
C      61.68064494      86.83292495      95.83459314
O      59.73800629      86.71576192      97.11015840
N      61.89607374      88.29557311      93.81069625
H      63.61950413      88.47320739      93.01134203
C      59.62084325      89.79790553      92.91685571
H      58.16953345      88.33903682      92.97921668
C      58.91597534      92.07502574      94.57981487