 %block lattice_cart
   135.996   0.000   0.000
   0.000 142.663   0.000
   0.000   0.000   160.158
 %endblock lattice_cart

 %block positions_abs
N      87.94122665      40.40045971      84.45655100
H      87.21746146      40.09810350      86.19698895
H      89.84607077      40.41368779      84.56048595
H      87.51225878      38.83198687      83.45688578
C      86.78282442      42.64545457      83.30948713
H      87.38186766      44.33864935      84.32049071
C      87.63698070      42.93647242      80.54670726
H      86.80172168      41.42469137      79.42420983
H      89.64953924      42.59254223      80.26324831
C      86.76770661      45.48193376      79.53759341
H      84.71168438      45.52728720      79.46389408
H      87.61241426      45.96192425      77.72156642
S      87.83162252      48.22014719      81.45188617
C      86.42188669      50.65978386      79.56215985
H      84.40176926      50.29695641      79.40720229
H      87.34407313      50.47459068      77.72912533
H      86.81683949      52.55139990      80.27647640
C      83.90855070      42.46971002      83.29436932
O      82.88242931      40.60643988      82.26446848
N      82.64999297      44.22904522      84.64930309
H      83.65910682      45.54051528      85.59605597
C      79.92689736      44.45014320      84.87984970
H      78.99337256      43.60165608      83.25090563
C      79.01415954      43.20859301      87.33082473
H      79.82296240      41.31319752      87.28925075
H      76.98081403      43.03851764      87.03980687
C      79.49226030      44.78084530      89.76668194
O      79.70201993      47.05040660      89.57581959
N      78.87809925      43.59976636      91.87750623
H      78.48692591      44.71848433      93.37605920
H      78.44724165      41.74405512      91.99844872
C      78.91400404      47.05796551      84.43009483
O      80.34830632      48.76627810      83.95577353
N      76.38366052      47.39622652      84.36773387
H      75.27439116      45.90712219      84.80426064
C      75.13077197      49.94168786      84.21088658
H      75.65611589      50.72025510      82.37785206
C      72.25082907      49.48059464      84.05781875
H      71.98248794      48.13699923      82.52147126
C      70.99983024      48.42234791      86.46344035
H      68.97971283      48.05385128      86.29147525
H      71.07541931      49.57886041      88.16419403
H      71.71414680      46.52695242      86.83382670
C      70.64645143      51.83141418      83.24334672
H      70.46503771      53.24870891      84.72678188
H      68.72082031      51.20591477      82.87673981
C      71.74060297      53.04272874      80.89252718
H      70.50472196      54.60553240      80.37285244
H      71.83130983      51.81440664      79.24090638
H      73.58497585      53.91389257      81.18354503
C      76.05106869      51.88810597      86.07982592
O      76.63310439      53.93467956      85.15763947
N      76.33263790      51.31173944      88.45332216
H      75.72981522      49.59019877      89.01268114
C      77.51560658      52.99359586      90.38462245
H      76.29484337      54.65088584      90.44887314
C      77.72536620      51.74826622      92.94142215
H      78.53794852      53.13910478      94.22265659
H      78.82518692      50.00971801      92.81858994
C      75.20636103      50.89788938      94.26989975
C      74.38621981      52.49848756      96.20686922
H      75.25171445      54.29183784      96.64717545
C      72.14122495      51.88621624      97.48621393
H      71.53840225      53.09186163      99.01878197
C      71.05463232      49.47303574      97.06858442
H      69.52962317      48.77194728      98.23076611
C      71.77839748      48.03684374      94.93886286
H      70.74093775      46.34175924      94.47587991
C      73.86276562      48.75682947      93.52345785
H      74.72448082      47.36599090      92.30458438
C      80.12909807      53.81940626      89.57581959
O      80.69790569      56.07384975      89.87250662
N      81.72402708      52.19991081      88.59883109
H      80.88687832      50.55773864      88.10561251
C      84.25437061      52.86320474      87.72388780
H      85.09718855      54.03483506      89.19409487
C      86.00614691      50.51238521      87.45554666
H      87.88264513      51.13977435      86.88106987
H      85.14443171      49.33130626      86.00801631
C      86.14409692      48.69068904      89.85171963
H      84.23925279      48.31085406      90.53202110
H      87.11163680      49.80373784      91.29169108
C      87.61808345      46.20002976      89.31692708
O      86.53716000      44.06463903      89.28291201
O      89.93299818      46.38333322      88.94654072
C      84.24303226      54.19168234      85.20110318
O      85.87197633      55.70535312      84.81748873
N      82.57818337      53.62098499      83.44365770
H      81.39143525      52.18857245      83.86695639
C      82.04528055      55.31040032      81.21189092
H      83.70257052      55.15922221      79.99679690
C      79.62265142      54.25215358      80.00624554
H      77.96536144      55.33496676      80.56938399
H      79.30706713      52.23770533      80.28592503
C      80.02327340      54.93434478      77.13386154
H      81.71835790      54.07640904      76.33828676
H      80.55050704      56.92233686      77.07528002
S      77.34364149      53.97814327      75.19311262
C      78.48881563      53.88176723      71.87097376
H      80.00437614      52.48903893      71.80483334
H      79.32407466      55.74125792      71.58184563
H      76.96380650      53.25437809      70.63509275
C      81.51993664      58.15443842      82.03959105
O      82.41188745      59.95534760      80.87929909
N      80.28216590      58.45301518      84.12395917
H      79.77760898      56.85052726      85.02724835
C      79.22580889      60.84918814      84.95732848
H      78.78550266      62.18144519      83.44932688
C      76.59153041      60.35596957      86.30281361
H      76.01894334      62.12097395      87.19476443
H      76.77483387      58.99158718      87.83349192
C      74.31629993      59.60196878      84.56237568
H      74.80195959      58.00515004      83.35673029
C      71.94658313      59.17489063      86.10061290
H      71.33809126      60.76981964      87.25334596
H      72.09776124      57.47791640      87.26090485
H      70.53684731      58.42277956      84.80048119
C      73.91567794      61.56917387      82.64808292
H      75.53139395      61.54460743      81.37251766
H      73.78339711      63.46456936      83.44554743
H      72.13177632      61.22335395      81.67865332
C      80.99270300      62.36474865      86.63162599
O      81.11553521      64.59840515      86.35383622
N      82.31551142      61.17800052      88.46277079
H      81.78638805      59.37709134      88.80292152
C      83.95390413      62.48380140      90.14084775
H      82.98069507      63.96723656      91.18775614
C      84.98380497      60.60163400      92.02112543
H      86.28582640      59.29394339      91.10460817
H      83.48336228      59.60952768      93.02645983
C      86.63353604      61.90365542      94.04313259
H      85.43922901      62.98079942      95.33003621
H      87.78626909      63.27370700      93.02268039
C      88.31539246      60.07817981      95.44530951
H      89.39442618      61.31217109      96.69252889
H      89.48891250      59.09174267      94.06769903
N      86.79794222      58.19223295      96.83236863
H      86.22157569      56.67100326      95.83081368
C      85.79449756      58.26026309      99.07925321
N      85.90788114      60.35596957     100.48898904
H      85.16899815      60.46935315     102.24643451
H      87.46690535      61.44067248     100.31324451
N      84.38287200      56.50092790      99.96364513
H      83.64398901      56.81273274     101.69652416
H      84.41310762      54.83796874      99.02634088
C      86.15921474      63.75936666      88.45332216
O      87.26848408      65.75113820      89.09960855
N      86.98880459      62.58773635      86.36517458
H      86.14598665      60.96068199      85.82660258
C      89.04104736      63.52504060      84.63796473
H      90.49802634      64.72690654      85.45810595
C      90.33739961      61.26114848      83.35673029
H      90.51314416      59.76826469      84.76457639
C      88.85396446      60.14998941      81.16086831
H      86.87542101      59.77960305      81.58983619
H      89.62497279      58.38309530      80.43521341
H      89.03726791      61.54838688      79.65853589
C      92.91498630      62.10396641      82.31171164
H      93.96756386      62.75025281      83.96144271
H      92.67121161      63.45323100      80.77158470
C      94.37196529      59.86653046      81.08338953
H      93.38174869      59.25425913      79.38263585
H      94.56849683      58.25270419      82.34761644
H      96.31271421      60.31250587      80.55048671
C      87.75414373      65.24280182      82.59139113
O      89.17332821      66.82261302      81.51424713
N      85.38253721      65.02548329      81.86573623
H      84.16177402      63.79149201      82.65753155
C      84.18823019      67.07961580      80.27080722
H      85.53371533      67.94888990      78.97823442
C      81.82985174      66.02514851      78.82327686
H      80.73381049      67.54826792      77.97290003
H      80.83585571      64.90265108      80.23679215
C      82.73692038      64.50013938      76.44411144
O      84.78727343      64.91209971      75.33862154
O      81.11175575      63.03938094      75.44444622
C      83.59674586      69.39830998      81.98667871
O      84.07106716      71.41842741      81.03425665
N      82.78416354      69.11485104      84.30159345
H      82.03583192      67.44622270      84.84772435
C      82.22480454      71.46756029      85.76613134
H      81.76938051      72.97178244      84.43198456
C      79.91555899      70.88174514      87.31192746
H      79.63776922      72.62218307      88.37584338
H      80.41444675      69.33972847      88.58749272
C      77.48159150      70.28081217      85.73400599
H      76.02839196      69.64775386      87.04736578
H      77.73670456      68.69344207      84.44521265
C      76.59719958      72.63352143      84.20143795
O      77.56851891      74.79725806      84.62851610
O      74.96447606      72.38407756      82.42509522
C      84.45090215      72.54848375      87.32326582
O      85.28994062      74.68765393      87.06248359
N      85.39198585      70.87040678      88.88229003
H      85.07451183      69.09973322      88.24923171
C      87.59162728      71.23890341      90.57548480
H      89.12041586      71.97211722      89.40763395
H      88.07350749      69.40208943      91.37294931
C      86.98691486      72.93965709      92.99244476
O      84.80995015      73.44043457      93.38550783
N      88.93333295      73.12296054      94.66107309
H      90.66999145      72.63352143      94.03557368
C      88.49680619      73.82026955      97.32369747
H      86.57873398      73.24201330      97.80368796
C      90.34873796      72.26124535      98.91106757
H      92.25925127      72.83005297      98.40273120
H      90.18433178      70.27892244      98.37249557
C      90.05583039      72.29148097     101.84203308
H      90.43566537      74.12073604     102.70941747
C      87.35919095      71.39386097     102.48642976
H      87.13998269      71.08394585     104.51221637
H      86.98880459      69.47578876     101.83258445
H      86.00236745      72.86028859     101.98943174
C      91.86618820      70.31293752     102.86059557
H      93.82772411      70.75324375     102.41650988
H      91.52036829      68.39108586     102.20486053
H      91.87941629      70.50191015     104.91472807
C      88.65932265      76.68509464      97.52778791
O      90.73235241      77.67909069      98.10793389
N      86.54471890      78.10049965      97.07236387
H      84.87987002      77.35405776      96.51489461
C      86.40487916      80.80658773      97.43330159
H      88.31539246      81.57381662      97.35771254
C      85.10285773      82.13128588      95.25633688
H      84.60585971      84.08715261      95.66451777
H      83.29627937      81.20343026      94.91807587
C      86.77526551      82.06703518      92.74300089
H      87.20234366      80.10738900      92.27812821
H      88.18500134      83.45220457      93.33259551
C      85.34474270      83.22543741      90.43753478
H      86.80361140      83.76589914      89.08827021
H      84.24870143      84.88272739      90.97421706
N      83.61375339      81.37161590      89.33015516
H      83.34541225      79.77290744      90.33926902
C      82.26637853      81.29413712      87.20799252
N      82.19456892      83.18764289      85.58093816
H      81.39710443      82.98922163      83.85750776
H      82.82006834      84.96020617      85.91352999
N      80.90955504      79.17953338      86.90185685
H      80.02705285      78.80914702      85.25212578
H      81.07774068      77.81326125      88.22466527
C      85.25970501      81.52279401     100.07891843
O      83.02604851      81.96121051     100.49087877
N      86.88297990      81.56814744     101.95163721
H      88.74247061      81.39996180     101.54912550
C      86.25181133      81.93286462     104.56134925
H      84.69467684      80.72343978     105.15661305
C      88.57806442      81.32248302     106.07313030
H      88.11319174      81.98199750     107.96852579
H      90.13897834      82.52812840     105.48164596
C      89.30749877      78.50301136     106.32257417
H      89.84229132      78.00412361     104.39883278
C      91.48068403      77.96821881     108.09513745
H      90.57172568      78.16286062     109.93384116
H      93.01703153      79.31181422     107.83435522
H      92.17043414      76.05014660     107.78711206
C      87.18533611      76.78147069     107.17484074
H      87.65020879      74.78969915     107.42239489
H      85.65465780      76.76257342     105.79723026
H      86.42188669      77.28791734     109.02110335
C      85.17844677      84.58793009     105.16606167
O      83.74792396      84.68052668     106.93673522
N      85.61875301      86.48710503     103.64483199
H      86.94345116      86.29624267     102.28422904
C      84.40743844      89.00988966     103.87348887
H      83.71201916      89.15161913     105.80667889
C      86.39920998      90.91284406     103.22909221
H      86.85274428      90.82024747     101.22220285
H      88.19067052      90.45553029     104.13427110
C      85.67544480      93.53389445     104.13049166
H      84.66633094      93.28634030     105.91061383
H      84.42444597      94.45797062     102.77933733
C      87.86752732      95.09669811     104.89583080
H      89.11474669      95.42362076     103.28956344
H      88.97679667      94.09514317     106.31501527
C      86.93211280      97.68184371     106.11092482
H      86.07984622      97.15083061     107.90994428
H      85.77560029      98.57568425     104.66339447
N      89.11285695      99.38259739     106.40194268
H      88.55538770     101.00587229     107.23153253
H      89.86307831      99.75865293     104.68607118
H      90.50936471      98.71552400     107.52066066
C      82.19456892      89.24799517     102.15005847
O      82.20401756      88.35604435     100.00143965
N      80.45413099      90.72198170     102.95508188
H      80.59397073      91.61393252     104.63882803
C      78.19401833      91.59125580     101.31668917
H      77.10742570      89.87916376     100.95575144
C      76.74270852      93.62838077     102.89461065
H      76.56318452      92.90083614     104.81268285
C      78.14677517      96.03400236     103.37460112
H      79.99681723      95.57290914     104.15883754
H      77.55907029      97.26988337     104.91472807
H      78.48314645      96.99209360     101.58314058
C      74.13866566      94.00821576     101.66061936
H      73.49615870      92.11848944     101.15039325
H      74.38621981      95.25543512     100.04112392
C      72.14500440      95.35748034     103.32924769
H      70.51228086      95.97731057     102.23509617
H      73.10687508      96.98453470     104.14749919
H      71.56674815      94.13860687     104.88638217
C      78.93668077      92.55690595      98.64083671
O      80.68467761      94.02711302      98.46887161
N      77.72725593      91.50999757      96.74166176
H      76.22303378      90.37049260      97.01945154
C      77.97858953      92.22998330      94.08281684
H      79.00660063      94.01577466      94.02990450
C      79.79650624      90.42151521      92.73733171
H      81.54450308      90.64450292      93.80313735
H      80.05161929      91.11315504      90.81359032
C      79.08218969      87.69841960      92.38962207
C      77.94835391      86.58348107      90.24667243
H      77.54584220      87.75511139      88.62339753
C      77.24159626      84.03235055      90.10683269
H      76.25137968      83.28212920      88.48922697
C      77.82552170      82.50545169      92.15718573
O      77.32852367      80.04502803      91.91719049
H      76.48759546      79.40063136      90.44320396
C      78.98770338      83.61850049      94.28123810
H      79.16911710      82.31836878      95.84404177
C      79.48092195      86.15640293      94.46454156
H      80.04406039      86.95764688      96.25411238
C      75.39722338      92.66462035      92.93197352
O      73.50938679      92.40005866      94.23210522
N      75.33675213      93.11059576      90.41296834
H      76.91278389      93.72475681      89.52857643
C      72.91223328      92.83658544      88.93142291
H      71.59887348      92.09014355      90.33171011
C      71.92390642      95.28567074      87.96199332
H      69.95481160      94.87182068      87.52168708
H      73.19380249      95.79967630      86.42375610
C      71.85965573      97.46074573      89.89518333
H      73.80418410      97.44751765      90.57926426
H      70.35165413      96.98453470      91.21232258
C      70.95825627      99.88148514      88.62717698
H      68.97782310      99.88148514      88.06214882
H      72.08264343     100.07801667      86.91130548
C      71.50249745     102.32679099      89.93297786
H      70.89589531     102.10380328      91.88884459
H      70.36866167     103.87069738      89.17141815
N      74.17834991     102.84079654      89.74211551
H      74.34464583     104.46974062      90.72477318
H      74.89455618     102.87670134      87.97333167
H      75.36509804     101.67483541      90.67564031
C      72.99727096      90.91662351      86.79036300
O      74.94935824      90.64450292      85.63385050
N      70.88077750      89.62405071      86.38218212
H      69.38222452      90.11160010      87.45743639
C      70.45369935      88.00455526      84.19198932
H      72.07319480      86.73654890      84.10695164
C      67.78729552      86.77434343      84.34316742
H      66.42669258      88.28423475      84.00868587
H      67.30730503      86.04112962      86.20643757
C      67.30352559      84.65784996      82.32682945
O      67.16368584      82.36939139      83.15263985
O      66.91802141      85.21153977      80.13474693
C      70.56897265      89.57302810      81.75424238
O      70.42535344      91.95030380      81.58227728
N      71.27384057      88.35793408      79.70010987
H      71.47982074      86.47576667      79.93443594
C      71.42123921      89.55980002      77.11118482
H      72.85554149      91.03756599      77.06961085
C      72.00894410      87.80991345      74.84729271
H      70.19480684      87.37527640      73.97234942
C      73.52072516      89.14028077      72.69300470
H      74.20291635      87.78723673      71.30027641
H      75.17612541      90.05679804      73.50936647
H      72.24893935      90.34781589      71.61019153
O      73.30151690      85.61972065      75.69766954
H      72.12421741      84.51045131      76.52159021
C      68.93624912      90.85993172      76.45544979
O      68.87955733      92.55501622      74.81705708
N      66.73282823      90.02656241      77.45889447
H      66.67424671      88.47887656      78.57194327
C      64.15146209      90.96953584      77.13575127
H      64.11555730      91.88605311      75.29137839
C      62.17291864      88.85493210      77.26425267
H      60.29264095      89.69397058      77.31905473
H      62.45259814      87.99510663      79.11618445
C      62.08599123      86.88205783      75.09484686
H      60.80664651      85.30980554      75.46145375
H      63.91524630      85.94853303      74.95311738
C      61.66647199      88.13872583      72.48135536
O      62.09543987      90.43096385      71.96168062
O      60.90302256      86.74221808      70.69178454
C      63.72816339      93.39783416      78.89508646
O      61.80442201      94.76788573      78.76280562
N      65.58009519      93.99876712      80.49190520
H      67.22982626      93.05012452      80.31427093
C      65.60844108      96.30801268      82.03014242
H      64.39523678      97.71963823      81.14764023
H      67.52840302      97.04500594      82.10951092
C      64.94325742      95.89038316      84.85906271
O      64.25728677      97.72341769      86.07604645
N      64.86955808      93.50932801      85.86061765
H      65.37789446      92.10337163      84.67197980
C      63.66580242      92.81201900      88.30403379
H      62.58298926      94.48253706      88.82559824
C      61.53797060      90.83536528      87.95065496
H      60.40035536      90.53678852      89.64196001
H      62.58298926      89.14217050      87.42153159
C      59.72572306      91.42307016      85.75101353
C      59.09644420      89.69775004      83.87262558
H      59.75595868      87.77400865      84.03892149
C      57.27663777      90.27789601      81.99045816
H      57.07443704      88.85493210      80.54292781
C      56.15225061      92.68729706      81.89219240
O      54.51763734      93.35814990      80.10640103
H      54.45716610      95.17039744      80.08372431
C      56.75885276      94.41639664      83.88207420
H      55.67226012      96.13793731      84.03325231
C      58.49362151      93.78144860      85.84172039
H      58.88101540      95.14961045      87.30814802
C      65.42513763      91.99943669      90.51501356
O      67.25250297      90.42718439      90.20509845
N      65.35899720      93.34870127      92.69575774
H      64.11933674      94.79245218      92.82992830
C      67.02006664      92.78745256      94.93319368
H      69.03829434      93.12571357      94.68563955
C      66.51361999      94.59025146      97.07803305
H      67.30163586      93.88349382      98.84492715
H      64.47649501      94.76788573      97.33503583
C      67.36588655      97.33035461      96.51300489
C      65.54985957      99.32212615      96.56213776
H      63.55052912      98.97819596      96.77756657
C      66.46637682     101.82034433      96.61882955
H      65.27206980     103.47385486      96.66229326
C      69.11766284     102.24553275      96.31458362
O      69.95481160     104.61524955      95.76656300
H      68.77184293     105.90026344      96.25411238
C      70.92802065     100.16305436      96.19742059
H      72.89333602     100.54666880      95.79490888
C      69.94725270      97.65160809      96.35048842
H      71.44580566      96.26643870      96.29190690
C      67.04274335      89.93774528      95.99333015
O      65.09443552      88.77556360      96.38261376
N      69.27639986      88.81335812      96.12750071
H      70.79385009      89.89239185      95.70420203
C      69.82253076      86.09026250      96.03490412
H      68.26917573      85.27579046      97.11393785
C      70.19669657      85.14539935      93.24944754
H      71.63477829      86.32458857      92.36127618
C      70.92991038      82.26545645      92.88850981
H      72.77428326      81.85349611      93.71054076
H      71.18880288      82.11049889      90.85138485
H      69.40679096      81.05414188      93.56314211
O      67.74194209      85.39673295      91.93230830
H      67.37155573      87.14284006      91.59215756
C      72.43980169      85.70475834      97.28590294
O      74.06685606      87.41874010      97.30857966
N      72.84609286      83.63550802      98.54068121
H      71.43446730      82.36750167      98.33092159
C      74.98904250      83.07992849     100.16017666
H      76.61420713      84.12872659      99.45341902
C      74.52794927      84.03235055     102.80201406
H      73.28828882      85.67263299     102.88894146
C      72.84987231      82.18608794     104.26844167
H      71.07163985      81.69664883     103.35192441
H      72.56641337      82.97977299     106.14682962
H      73.87410398      80.40029658     104.25143413
C      77.03750582      84.76367463     104.28922866
H      78.23748203      85.82948027     102.99854559
H      78.05417858      82.98544217     104.49898828
C      76.85798182      86.12994676     106.89705097
H      75.91500839      84.87516849     108.23308747
H      75.79217618      87.88361278     106.73075505
H      78.70235471      86.64584204     107.65105177
C      75.81674263      80.21510340      99.96742458
O      74.39566844      78.64285111      98.97720800
N      78.07496556      79.70298757     100.91228775
H      79.17289656      81.07303914     101.66439881
C      79.16722738      77.08382690     101.17684943
H      77.83119088      75.92542467     102.23320643
H      80.92278312      77.28035843     102.23509617
C      79.51115757      75.91597604      98.54824012
O      80.36531386      77.07626799      96.74922067
N      78.71936224      73.53870033      98.20808938
H      77.82174224      72.60517554      99.61215603
C      78.41889576      72.08361107      95.76467326
H      79.80784460      72.92453928      94.49477718
C      79.27305205      69.34161819      96.38639322
H      77.81040388      68.27959200      97.37660981
C      80.05350902      68.15864952      93.93352846
H      80.28405563      66.11207592      93.92407984
H      81.85441820      68.69155234      93.09071053
H      78.53416906      68.42321120      92.56536661
C      81.51237773      68.98257019      98.31958324
H      81.28183112      70.31671697      99.87293826
H      83.16777798      69.53437028      97.22732143
C      81.91488944      66.36718898      99.45341902
H      83.53249516      66.39175542     100.73087401
H      82.44401280      64.94611479      98.05880100
H      80.29917344      65.58673201     100.46442260
C      75.79406591      72.38029810      94.58359431
O      74.58842052      70.60017592      93.60282636
N      74.90400482      74.76513271      94.31336346
H      75.83563989      76.22400142      95.12216632
C      72.88010793      75.43598555      92.64284539
H      72.72704010      74.25490661      90.96098897
H      72.87254902      77.37106530      91.93608775
C      70.31196988      75.17331359      93.96754354
O      68.50161207      74.10183878      92.93386324
N      70.43669181      76.06337469      96.32592198
H      72.11098933      76.46210694      97.14984266
C      68.23894010      76.26179595      97.96998387
H      66.80085838      74.86150875      97.50889065
C      69.05341215      75.54369995     100.55512946
H      70.19291712      77.09138580     101.29212273
H      70.19858629      73.83916682     100.39261301
C      66.93502894      74.97111288     102.34281056
N      65.42324790      72.76580227     102.55257018
H      65.66135342      71.26724931     101.39416796
C      63.32943115      73.22311604     103.93584984
H      61.79119393      71.91164598     104.21363961
N      63.33699005      75.71188559     104.51599582
H      61.97071793      76.64730012     105.46274870
C      65.54985957      76.78902959     103.55034567
H      66.08654184      78.75812441     103.52577924
C      67.16368584      78.90552306      97.77345234
O      68.40145657      80.66674799      98.51611477
N      64.82420466      79.23811489      96.93441385
H      63.86422370      77.67342151      96.41284939
C      63.54108050      81.55113990      96.36182678
H      64.84499165      82.87394832      95.46798623
C      61.18648151      81.23933506      94.64406556
H      59.98839503      79.83526841      95.56058282
H      61.90268778      80.46454727      92.87339200
C      59.63501620      83.50700663      94.05258122
H      59.31943191      84.67107804      95.72309928
C      61.01829586      85.31925417      92.24222341
H      61.45104319      84.40651636      90.45076287
H      62.82865367      85.88428234      93.04913655
H      59.70493608      86.80646878      91.68664388
C      57.05176033      82.78324146      93.04724682
H      55.90847591      82.16908041      94.64595528
H      57.14624665      81.14673847      91.80002746
H      56.06910265      84.33848621      92.11939120
C      62.75873379      82.64718116      98.94886210
O      62.28252276      81.10516449     100.62126988
N      62.40913443      85.06414112      99.12082719
H      62.98550096      86.10349059      97.62794340
C      61.41513839      86.42663379     101.42440357
H      60.86333830      84.86949931     102.65461541
C      63.50706541      88.02534225     102.60737224
H      62.79274888      88.74343825     104.40072251
H      63.97949700      89.60515345     101.37527068
C      65.87111304      86.64206259     103.41617510
H      66.49283300      85.51578571     101.80801802
C      67.87422292      88.55824507     104.14371973
H      69.58442525      87.58881547     104.76166025
H      67.41879889      89.91317884     105.62715489
H      68.22760175      89.77333909     102.51666538
C      65.37222528      84.85627122     105.52321994
H      63.54108050      83.92274642     105.41739527
H      65.40057119      85.93341522     107.27877569
H      66.86510908      83.44275594     105.38904937
C      59.23439423      88.13494638     100.89339047
O      57.45238231      88.26155804     102.28800849
N      59.42147712      89.47287261      98.89594976
H      60.90113283      89.00799993      97.78668043
C      57.17270281      90.90150570      97.86982837
H      55.60989915      89.57680755      98.09659553
C      56.66058698      93.35626018      99.59892795