 %block lattice_cart
   135.996   0.000   0.000
   0.000 142.663   0.000
   0.000   0.000   160.158
 %endblock lattice_cart

 %block positions_abs
N      86.75920283      40.83509676      83.64396869
H      85.97496641      40.60266043      85.36739909
H      88.65081887      40.57620426      83.64018923
H      85.93906161      39.44425820      82.62351648
C      86.04866574      43.20292383      82.50635345
H      86.76676174      44.58620349      83.85183858
C      87.48107828      43.59976636      80.04404007
H      86.77432064      42.34876754      78.56627409
H      89.45962173      43.13867314      80.37852163
C      87.02754397      46.29073663      79.11051527
H      85.13025875      46.32853115      78.30927130
H      88.34279348      46.72915313      77.58739585
S      87.02565424      49.11209801      81.19866285
C      90.06433415      49.14800281      82.28903492
H      91.25108228      49.34075490      80.61851687
H      90.64448013      47.46992585      83.33216384
H      90.06622388      50.99615515      83.19988301
C      83.19328928      43.35410194      82.16431298
O      81.82701715      41.76106266      81.14952996
N      82.14638090      45.27784332      83.30192822
H      83.31045231      46.74427094      83.67231458
C      79.53099968      45.89956328      82.96744668
H      79.01699413      45.43847006      81.02669775
C      77.96441657      44.07030821      84.69087706
H      77.97575493      44.76572749      86.63162599
H      79.04911947      42.32420110      84.80426064
C      75.22053396      43.73204720      83.78947761
O      73.53867755      45.21359263      84.46599964
N      74.72353594      41.86121815      82.22667395
H      73.11915830      41.93869693      81.19677311
H      76.07469026      40.75572826      81.45566562
C      78.85258794      48.72281439      83.48901113
O      80.69129164      50.15144749      83.67420431
N      76.41295127      49.42390285      83.44932689
H      74.98809763      48.15400677      83.41342208
C      75.50021346      52.05629161      83.77247008
H      76.08602862      53.04272874      82.06226777
C      72.54279178      52.12999093      83.80648516
H      71.90595401      51.20591477      82.07927530
C      71.66784850      50.72781401      86.23289374
H      71.74343755      51.84275254      87.96388305
H      72.79979456      49.04784732      86.60894928
H      69.74410711      50.06074062      85.92864780
C      71.41273544      54.79450504      83.63640978
H      72.47098218      56.08707783      84.84205517
H      69.45875844      54.94190369      84.27135782
C      71.68863549      55.71480175      81.03803611
H      70.61149149      54.39577278      79.88152360
H      73.53867755      55.83196478      80.13852639
H      70.95353195      57.63287396      80.86607102
C      76.58680609      53.19012740      86.04203139
O      77.22553358      55.35386402      86.18754030
N      77.11215000      51.80684774      88.16797349
H      76.53956293      49.98515157      88.15096594
C      77.73386996      52.78572597      90.61705878
H      76.37893619      54.18601316      91.28413217
C      77.31624045      50.70702702      92.48221865
H      77.63749392      51.30607026      94.42674704
H      78.89605164      49.43146176      92.13450902
C      74.93140584      49.06863431      92.28001794
C      72.48232054      50.12499132      92.59749197
H      72.31791435      52.10731422      93.05102627
C      70.34126062      48.65667397      92.21009806
H      68.53279254      49.59964740      92.28568712
C      70.56802778      46.05263111      91.63373155
H      68.85593574      44.94336177      91.57326031
C      72.93774458      45.04162753      91.35783150
H      72.81113292      43.02717929      91.05925475
C      75.12226820      46.53073187      91.58459865
H      76.90616984      45.55752282      91.39940547
C      80.32468474      54.06318095      90.69642730
O      80.95774305      55.48614487      92.45576248
N      82.00276170      53.28272399      89.03724759
H      81.36214448      52.11676285      87.66908573
C      84.47452372      54.20868988      88.55347765
H      85.15104574      55.66377914      89.84794018
C      86.47952334      52.12621148      88.50056532
H      88.36547020      52.88399173      88.17364267
H      85.91449517      50.88844075      86.95287946
C      86.54755348      50.34230984      90.83248758
H      84.74097513      49.36910079      90.99311432
H      86.81211517      51.51771961      92.50300565
C      88.54688392      48.30329515      90.81359033
O      88.05177563      46.15278661      90.35816628
O      90.70117192      49.03272951      91.53735550
C      84.51231825      55.72802983      86.04392110
O      85.52332182      57.82751577      85.99667795
N      83.19895846      55.01749274      83.96144272
H      82.00465143      53.52838841      83.97089134
C      82.98352966      56.32707308      81.52558550
H      84.76743130      56.16644634      80.50702302
C      80.64215876      55.21969346      80.21789489
H      78.91305918      55.53149830      81.29314915
H      80.85569783      53.17123013      80.18954899
C      80.31145665      56.11164428      77.43621776
H      82.07268158      55.60141817      76.49891351
H      80.11492512      58.16199733      77.44566638
S      77.45041101      54.86820436      76.09262234
C      78.02488781      55.55417501      72.87441843
H      79.88626823      55.04961809      72.15254298
H      78.18551455      57.60641779      72.94055886
H      76.48476087      54.98347767      71.63097851
C      82.51865699      59.14654474      81.76936018
O      83.66194140      60.63564907      80.52592028
N      80.88971290      60.02148802      83.49090086
H      79.80878945      58.60041383      84.16553316
C      80.34547173      62.73702473      84.10884137
H      80.11870457      63.87652970      82.40619795
C      77.91150423      62.75403227      85.73211627
H      77.62993501      64.73446544      86.22533483
H      78.34425156      61.73546978      87.46877475
C      75.67406828      61.62586566      84.35072634
H      76.05201354      59.77960305      83.52302620
C      73.58781043      61.26870738      86.29147525
H      74.26433245      60.08384899      87.83538166
H      72.02878622      60.18400448      85.49779021
H      73.02467199      63.03182203      87.19287470
C      74.66873388      63.20000768      82.19643833
H      72.99254664      62.32128494      81.38574574
H      76.04634436      63.37386250      80.67898811
H      74.19441258      65.10863125      82.81248912
C      82.69062208      64.02581808      85.40330388
O      83.24809134      66.11396565      84.99134356
N      84.11547572      62.64820759      87.09838840
H      83.78666334      60.77548882      87.28169184
C      86.40771374      63.45701045      88.12450978
H      85.96362805      65.17855113      89.16385926
C      87.57934405      61.56539442      90.14273748
H      89.09868401      62.49513976      91.17641778
H      88.27287361      60.00825993      88.98622497
C      85.68961774      60.62053126      92.08537614
H      83.94917980      59.91944280      91.23310957
H      85.14726629      62.35152056      93.06236463
C      86.88014532      58.87253442      93.98455107
H      88.48830241      59.81172840      94.86705326
H      87.70217626      57.26437733      92.99244477
N      84.86380734      57.96168634      95.65695886
H      83.49753522      56.74281286      95.11649714
C      84.37625795      58.57584739      97.97565305
N      85.81056022      60.18967366      99.24743885
H      85.49875538      60.57517783     101.09181173
H      87.44139403      60.65832579      98.37249558
N      82.52999534      57.51382120      99.17562926
H      82.37881724      57.97869387     101.02000213
H      81.46041025      56.13432099      98.40462093
C      88.55822228      64.32439483      86.35383622
O      89.61079984      66.36151980      86.73178148
N      88.86435794      63.09040355      84.24301193
H      88.05366536      61.37075261      84.08805437
C      90.30810885      63.85385298      81.91864856
H      92.16948927      64.45100650      82.56871442
C      90.72762809      61.58240195      80.13096748
H      88.83790178      61.01359433      79.53948313
C      92.02964952      62.34585138      77.57983696
H      91.36068640      64.12975302      76.79560054
H      91.94272211      60.92288747      76.09262234
H      94.01386215      62.70867884      77.99746647
C      92.11846666      59.16355227      81.20811147
H      93.87402240      59.87030991      82.02069379
H      92.43594068      57.91066373      79.60373383
C      90.64825958      57.52515956      83.13374258
H      88.94939563      56.57840668      82.45344112
H      90.22118144      58.71946659      84.75512776
H      91.85957415      55.96424562      83.71766802
C      89.08923538      66.14042182      80.54481754
O      90.50275066      67.87897003      79.89097224
N      86.52865622      66.17821635      80.00246608
H      85.32868001      64.78737778      80.52781001
C      85.39859989      68.17565706      78.41698571
H      86.67794460      68.47423382      76.82772587
C      82.98730911      67.34417748      77.09228757
H      81.94606991      68.93721676      76.30427169
H      81.63237534      66.85095891      78.56438436
C      83.24053244      65.16721277      75.12508247
O      85.29277521      65.05193946      73.94211381
O      81.39238010      63.80660982      74.81894680
C      85.22096561      70.64363962      79.84750852
O      85.30978275      72.64485979      78.64753232
N      85.07545669      70.72111840      82.37974178
H      84.99986763      69.04682089      83.29436933
C      84.75798267      73.06437903      83.94443517
H      84.56523058      74.68198475      82.68209800
C      82.29377955      72.81871461      85.47889294
H      81.88181922      74.22467099      86.92642330
H      82.42606040      71.15575545      86.69020751
C      79.92973194      72.62407280      83.98222970
H      78.55779063      71.75857815      85.25023606
H      80.42861968      71.52425209      82.31360136
C      78.87148520      75.27346909      83.16397821
O      76.64727733      75.26591018      82.34572671
O      80.29633884      77.13484951      83.19988301
C      87.09368439      73.46500101      85.72644709
O      87.75508860      75.66464244      86.29336498
N      88.24641744      71.63385621      87.11350620
H      87.51887281      69.88207992      86.89996713
C      89.98874510      72.09494943      89.19031542
H      91.56666657      73.20988796      88.47221943
H      90.78431988      70.32238615      89.87628607
C      88.66026750      73.46689073      91.42775137
O      86.35480140      72.99634888      92.13261929
N      90.06433415      75.12607044      92.80347214
H      91.88414059      75.30559444      92.24789259
C      89.38592241      76.21455279      95.17696838
H      87.38848169      76.13707402      95.67396639
C      90.53676573      74.30214977      97.08559195
H      92.58144960      74.52135802      96.96464948
H      90.26464514      72.31037823      96.63016792
C      90.17393828      74.64041078      99.98632185
H      91.13769870      76.30148020     100.73087401
C      87.32990018      75.29803553     100.30190615
H      85.95417942      74.20766345      99.22476214
H      87.02187479      77.24634336      99.70853207
H      86.84613024      75.27535882     102.30501603
C      91.08100691      72.32171659     101.35070425
H      89.69205807      70.90820131     100.78756580
H      91.26620009      72.58249882     103.38593948
H      92.98396131      71.81149048     100.74221237
C      90.24952733      79.01890664      95.74577600
O      92.47940438      79.60472180      95.69475338
N      88.48074350      80.67430689      96.24277401
H      86.61369391      80.30769999      96.09915482
C      88.94561618      83.16307645      97.44841940
H      90.94683634      83.32748264      97.90573317
C      88.31444759      85.28145964      95.52845747
H      88.17460784      87.18819349      96.28812745
H      86.51353841      85.03201577      94.56280732
C      90.45172805      85.25878293      93.44597907
H      90.92038017      83.35393880      92.81481048
H      92.24696804      86.00333510      94.12628055
C      89.92638413      87.05402293      91.18586640
H      91.61957891      87.27512090      90.03502309
H      89.12702990      88.83225539      91.84916035
N      88.13303386      85.82192137      89.49834080
H      88.08768043      83.91518752      89.41897230
C      86.42661100      87.02000785      88.12450978
N      86.38692675      89.42940890      87.93175770
H      84.74286486      90.08325421      87.21177196
H      87.43950430      90.64828237      88.95409964
N      84.50664907      85.95609194      87.04547605
H      83.14982557      86.90662427      86.09872318
H      84.68617307      84.05502727      87.01713016
C      87.44706321      83.13284083      99.88616636
O      85.14915601      83.27457030      99.82380539
N      88.80199698      83.48810937     101.99321120
H      90.69928219      83.41063059     101.79667966
C      87.86847218      83.79046558     104.68229174
H      86.24897673      82.57537156     105.06401644
C      90.04921634      83.09693603     106.48698036
H      89.53143133      83.74133270     108.37292722
H      91.77831592      84.07770398     105.93895973
C      90.87880619      80.31525889     106.36603788
H      91.32667133      79.87873211     104.40450196
C      93.00663802      79.63117797     108.28599981
H      92.40003588      80.04124858     110.21163092
H      94.69416362      80.73855759     107.88348810
H      93.53198194      77.63751671     108.29922790
C      88.72829765      78.47844492     107.22397362
H      89.21206759      76.56415216     106.63626874
H      86.89526313      79.03969363     106.46430365
H      88.67916477      78.55592370     109.27999585
C      86.88959395      86.50222284     105.18306920
O      85.02821353      86.83103522     106.52477488
N      87.80044203      88.43919231     103.77711283
H      89.21584704      88.06124705     102.55068046
C      86.62503226      90.96386667     103.61648609
H      85.67638965      91.36259892     105.40227746
C      88.81522506      92.87815942     103.22153330
H      89.90559714      92.40194839     101.53967687
H      90.04165744      92.81201900     104.87315410
C      87.68894818      95.51999681     103.06468600
H      86.20929247      95.74298451     104.48198075
H      87.10880220      95.87148590     101.12015763
C      89.74308068      97.33224434     103.93584983
H      91.28509735      97.08091074     102.59414415
H      90.34968283      96.81634906     105.83313505
C      88.86624767     100.05156051     103.74309775
H      86.93116793      99.78699882     104.39694307
H      88.84168123     100.67894964     101.78156184
N      90.17582801     101.70129158     105.70463367
H      90.10968758     100.98130585     107.47152777
H      89.16860388     103.32267675     105.72731038
H      91.98618581     102.17750261     105.33991649
C      84.47263399      91.08858860     101.58880975
O      84.79577719      90.29490355      99.46097794
N      82.29566928      91.95786271     102.39761262
H      82.26165421      92.46052991     104.23631633
C      80.00154154      92.65706144     101.01055351
H      79.16817223      90.83725500     100.52300412
C      78.06079261      94.18773976     102.63571814
H      78.20252209      93.01799917     104.32513346
C      79.20596676      96.80501070     103.26688673
H      78.05701316      97.47019436     104.84291848
H      78.87904411      98.30545339     101.89494543
H      81.21285610      96.93162236     103.71475186
C      75.33391754      94.12726851     101.53589743
H      75.11092984      92.09203328     101.31290972
H      75.21486479      95.08535976      99.71798071
C      73.40261725      94.97953508     103.38782921
H      71.50533203      94.67150969     102.64894623
H      73.54623645      96.99209361     103.80923818
H      73.61426660      93.99876713     105.18873838
C      80.59680532      93.93073698      98.48776888
O      82.33346381      95.53322489      98.51611478
N      79.24376128      93.34303210      96.40906994
H      77.80756929      92.09959218      96.57914530
C      79.79367164      94.19907811      93.84660105
H      80.62326149      96.07935580      93.99210998
C      81.81756852      92.24510111      92.84504610
H      83.23864271      92.06935656      94.32470181
H      82.72274743      92.75532721      91.06492393
C      81.01065539      89.59570482      92.32348165
C      79.71241341      88.89839581      90.07470733
H      79.39493939      90.28923437      88.61583862
C      79.12659825      86.44175160      89.57581959
H      78.10614604      85.88806179      87.89585290
C      79.61981682      84.67107804      91.36161096
O      79.22864347      82.22388247      90.85516431
H      79.11525990      82.09916053      89.04858594
C      80.80089577      85.22854731      93.58392910
H      81.20151774      83.67330255      94.84248682
C      81.63237534      87.66818398      94.14706754
H      82.56023096      88.16896145      95.89317465
C      77.21608495      94.33702814      92.32537138
O      75.27533603      93.52822527      93.27212425
N      77.32001990      95.06835222      89.85549909
H      79.01510440      95.74487424      89.29425036
C      75.28478466      94.97575563      87.99222893
H      73.58781043      94.31624115      88.95598935
C      74.57991674      97.50798889      86.97366646
H      73.21175489      97.21697104      85.46377514
H      76.23153754      98.24120270      85.98344986
C      73.42151451      99.30322889      89.04669621
H      74.64794689      99.11614598      90.68697866
H      71.55446492      98.69662674      89.67408536
C      73.46119877     101.98286080      88.33426940
H      72.31413489     102.96362875      89.73644633
H      72.72609523     102.16427452      86.41808692
C      76.13138205     103.00898219      88.25868035
H      77.38427059     101.71640939      87.26090486
H      76.78333763     103.25275688      90.19753954
N      76.21830946     105.40893460      86.80548081
H      75.12793738     106.55032930      87.87695564
H      75.63060457     105.10846812      85.01779973
H      77.93607068     106.21773747      86.59761092
C      75.67973746      93.07280123      85.78502860
O      77.74898777      92.93107176      84.67953872
N      73.76166525      91.55157155      85.37684771
H      72.22153831      92.02211340      86.40296910
C      73.48198576      90.37427206      82.93532133
H      74.90494967      88.92296225      82.60839868
C      71.10282033      88.78879168      83.16397821
H      69.39261802      89.90561993      83.44554743
H      71.20486555      87.38661476      84.67009008
C      70.67952163      87.18441404      80.80371005
O      69.38127966      88.10660048      79.05382348
O      71.83036496      85.07925893      80.68465729
C      73.50277275      92.20919631      80.69977510
O      72.97931856      94.43340418      80.95677788
N      74.19063312      91.35504001      78.39052955
H      75.04856887      89.68452195      78.05415826
C      74.14338997      92.92162313      76.08884289
H      75.14683464      94.70552477      76.32316895
C      75.69296554      91.69330102      73.95723161
H      75.47564702      92.68540734      72.16577107
C      78.44818651      91.52700511      74.54871594
H      79.13604688      93.32980401      75.26870168
H      79.51021269      90.79190157      72.94433831
H      78.51243720      90.13238709      76.06238672
O      74.83125034      89.24610545      73.44133632
H      76.08413889      88.63761358      72.27726492
C      71.60737725      93.70774927      74.85485160
O      71.75099645      95.12504401      73.05016299
N      69.55135503      92.78934229      75.90364972
H      69.83670370      91.47409277      77.25669376
C      66.97943751      94.04601028      75.65987501
H      67.02668067      94.39183020      73.63030896
C      65.03112968      92.15817370      76.51403131
H      65.22388177      92.29423399      78.56060491
H      65.41663385      90.27033711      75.78081751
C      62.30992379      92.92540258      75.79593531
H      61.79591824      94.68851723      76.72757039
H      61.17230855      91.42118043      76.62174572
C      61.91119154      93.08413959      73.04638352
O      62.46677108      91.23598726      71.78593607
O      61.32159693      94.91717411      71.71601621
C      66.86983339      96.44218325      77.26803211
O      65.36561124      98.11081158      76.78237244
N      68.34948909      96.44974215      79.29381872
H      69.71954067      95.12126456      79.32594407
C      68.68397065      98.65694249      81.07583064
H      67.67107734     100.35202699      80.49001548
H      70.67952163      99.04811583      81.40275329
C      67.58792939      97.81601428      83.67231458
O      67.96587465      99.20685284      85.46944430
N      66.37094564      95.59180641      83.80459543
H      66.06858943      94.61292818      82.19643833
C      65.21821259      94.57891310      86.11195125
H      63.81414594      95.89605234      86.83949589
C      63.79713840      92.09959218      85.58849706
H      62.68975878      91.53078456      87.23066923
H      65.11049819      90.53300907      85.32582511
C      61.98111142      91.99754696      83.38129674
C      61.12884485      89.70908840      82.19643833
H      62.25512173      88.01778335      82.38163151
C      59.03502809      89.52200549      80.67142920
H      58.39630060      87.75322166      79.88530305
C      57.65930734      91.75566199      80.27836613
O      55.61273374      91.64227841      78.73634945
H      54.89841719      93.29389921      78.51903094
C      58.52669172      94.12726851      81.08716899
H      57.46277580      95.78644822      80.56182508
C      60.62806738      94.18962948      82.73501033
H      61.12128594      95.94329550      83.65341733
C      67.20620467      93.97986986      88.23033446
O      69.32458787      93.26933277      87.71632890
N      66.42574770      94.14427605      90.61516905
H      64.57381592      94.50143432      90.90429719
C      68.14728837      94.03089247      92.89417900
H      69.98221262      94.76032683      92.31025356
C      67.18919713      95.70141053      95.07492315
H      67.26100673      94.80001108      96.92496522
H      65.18041806      96.04912018      94.77067723
C      68.67263229      98.16372392      95.39617664
C      67.46320745     100.45218248      94.92752450
H      65.44497975     100.57879415      94.64595528
C      68.81247204     102.77276640      95.21098346
H      67.99422054     104.56422694      94.68374981
C      71.45430942     102.81811983      95.59648762
O      72.68830070     105.11980648      95.53034720
H      71.51289094     106.49174778      95.34893347
C      72.76577948     100.50131537      95.97821233
H      74.78400719     100.41438796      96.28623773
C      71.35037448      98.19584927      95.86671849
H      72.29712736      96.40627845      96.10671373
C      68.50822610      91.40039345      93.79368872
O      66.73377309      89.90750966      94.42674704
N      70.85715591      90.71442279      94.14328808
H      72.30846572      91.93518599      93.93163874
C      71.62060534      88.11037993      94.18297234
H      70.23165650      86.76867425      94.89728888
C      72.38216504      87.23921610      91.48633288
H      74.10559544      88.27100667      91.02146022
C      73.01333363      84.47454651      91.07437255
H      74.12638243      84.17785948      89.36794969
H      71.36927174      83.23299632      91.03468831
H      74.20008176      83.78479640      92.61260977
O      70.29968665      87.72487577      89.92163951
H      69.94252837      89.50310823      89.98966966
C      73.88638719      87.71731686      96.12750071
O      75.24699013      89.42751917      96.85504534
N      74.27756053      85.49310899      97.14228375
H      73.04167953      84.12305741      96.64717545
C      76.66617459      84.77123354      98.51611478
H      77.99276247      86.13750566      97.72620917
C      76.05390327      85.38539459     101.27889464
H      75.08258394      87.19953185     101.15984189
C      74.07347009      83.42007923     102.25399343
H      72.65995481      83.30480592     100.75921990
H      73.26466723      84.08526289     104.02844642
H      74.85392706      81.58515498     102.76421953
C      78.31779539      85.58003640     103.08358327
H      79.84091480      86.58537080     102.12549203
H      78.94707425      83.62983885     103.28767371
C      77.68095762      86.93874962     105.54400693
H      76.87971367      88.80579922     105.20196646
H      79.43084419      87.21275994     106.59658448
H      76.50365813      85.62350011     106.60981258
C      77.63182474      82.06514546      98.07580855
O      76.26177316      80.36250205      97.45786804
N      79.88815796      81.41507961      98.92807511
H      80.98041977      82.81347708      99.62916358
C      80.84435947      78.70710180      99.13405527
H      79.68784697      77.51846395     100.35859792
H      82.51865699      78.85827991     100.32458286
C      81.27332734      77.40319064      96.60749119
O      82.28433092      78.43687094      94.74611078
N      80.45885530      74.92198000      96.52812269
H      79.42895446      74.29459086      98.00966813
C      80.42484023      73.31760236      94.23966413
H      81.81378907      73.89963806      92.83559748
C      81.12403897      70.57560948      94.83492791
H      79.46107981      69.71389428      95.69475338
C      81.60213972      68.94099622      92.47654947
H      79.93351139      69.16965310      91.28980135
H      81.74575892      66.94355550      92.95653997
H      83.25565025      69.52492165      91.39562602
C      83.31801122      70.14097242      96.77189739
H      82.83613101      71.17276299      98.48776888
H      85.13214848      70.77969992      96.03301439
C      83.92461336      67.32716994      97.33881528
H      85.02821353      66.45978557      95.83081368
H      82.16527816      66.26514376      97.47487557
H      84.90916077      67.29882405      99.14539364
C      77.93229122      73.64641473      92.85260501
O      76.55468074      71.73401171      92.42174741
N      77.43151375      75.94621166      91.99277955
H      78.52188583      77.44098517      92.45576248
C      75.19596752      76.59627751      90.55658754
H      75.13549628      75.06748892      89.17519760
H      75.57580251      78.27435448      89.42275175
C      72.67885207      76.70966109      91.92663912
O      70.88928125      75.93109385      90.76445743
N      72.45019519      77.59405300      94.34737852
H      74.10181599      78.09105102      95.16563002
C      70.05402222      77.87184277      95.63239243
H      68.81436176      76.36573090      94.97476767
C      70.44519557      77.41830846      98.58981411
H      71.64517178      78.90930252      99.35515326
H      71.36738201      75.58338421      98.73721276
C      68.02256644      77.62995780      99.99766021
N      66.00622846      76.02369044      99.74632660
H      66.14039903      74.26624497      99.01878197
C      64.00311857      76.95532551     100.95764118
H      62.30425461      75.90652741     101.38282960
N      64.59271318      79.26079161     101.69085499
H      63.41352396      80.45131919     102.60548252
C      67.18919713      79.73133346     101.12015763
H      68.20775962      81.49633784     100.99165625
C      68.83514875      80.36817123      95.11460741
O      70.02378660      82.30325097      95.65317941
N      66.44653469      80.35494315      94.22832578
H      65.78513048      78.61639494      93.79935789
C      64.99900434      82.69064487      93.94108737
H      66.52779292      83.98132794      93.45353798
C      62.94865129      82.17663931      91.81892473
H      61.81670523      80.50801098      92.24033368
H      63.87650691      81.69286938      90.04447172
C      61.20632363      84.45753897      91.07626228
H      59.97044262      85.13028154      92.58048442
C      62.91652594      86.74788726      90.33359984
H      64.13161996      87.29212844      91.90396241
H      61.63529150      88.19163817      89.61361412
H      64.29791588      86.31136048      88.86906194
C      59.75879327      83.62983885      88.73111192
H      58.94054178      81.76467898      89.04102705
H      60.98144620      83.27646003      87.10972675
H      58.38874169      85.06414112      88.18309129
C      63.74611579      83.66763337      96.33159115
O      62.28346763      82.36750167      97.51644955
N      64.24122409      86.02979126      97.03267962
H      65.18608724      87.26000309      95.91963082
C      62.95998965      87.32992297      99.10948883
H      62.41385874      85.92207686     100.50977604
C      64.91963583      89.00422048     100.38883356
H      63.96532404      90.06246722     101.87415843
H      65.67741608      90.34403644      99.01878197
C      67.31769852      87.69652987     101.59069949
H      68.31169456      86.58915025     100.16584585
C      69.07892345      89.76389046     102.65272567
H      70.82503056      89.11004515     103.53144841
H      68.20964934      90.92796187     104.11159439
H      69.63072353      91.07347079     101.16362134
C      66.36149701      85.95798166     103.71286213
H      68.01122808      85.16429661     104.65205611
H      65.12939545      84.44431089     103.05523738
H      65.38261878      87.14472979     105.08480343
C      60.63184683      88.79635059      98.33848051
O      58.49834582      88.42029505      99.32302791
N      60.80570165      90.54245770      96.53001242
H      62.50834506      91.18118519      95.94797671
C      58.56826569      91.95219353      95.54924447
H      56.90530654      90.74465841      95.42452253
C      57.65741761      94.01766439      97.47487557