 %block lattice_cart
   135.996   0.000   0.000
   0.000 142.663   0.000
   0.000   0.000   160.158
 %endblock lattice_cart

 %block positions_abs
N      89.35757651      41.81586472      81.17315154
H      89.04577167      40.32676039      80.02041849
H      88.63948051      41.41335301      82.89469221
H      91.24163364      42.11444148      81.15425427
C      88.29177087      44.10999247      80.08655891
H      88.93427782      45.68224475      81.25063032
C      89.03821276      44.75627886      77.35968384
H      87.55855706      44.26306030      76.01608843
H      90.61235478      43.55063347      76.79843512
C      89.84701563      47.48693339      77.04032009
H      90.31377803      47.76472315      75.05421774
H      91.72729331      47.52661763      77.88313803
S      87.65871256      49.87554744      78.20061205
C      89.74686013      52.35675810      77.19527765
H      90.15315130      52.40400125      75.17704995
H      91.67816042      52.06007107      77.85101268
H      89.24419294      54.29372756      77.68660649
C      85.43828414      43.87188694      80.22450893
O      84.48208262      41.82342363      79.68593693
N      84.15138052      45.84098176      81.04087070
H      84.96585256      47.51527927      81.46605912
C      81.36592393      45.66523722      81.78731259
H      80.36814844      44.70336653      80.26230345
C      81.30167324      44.32353154      84.42348080
H      82.24086722      42.49427646      84.32899448
H      79.30234280      43.93235818      84.72394728
C      82.06890212      45.92979890      86.66658593
O      83.61469825      47.62677312      86.44359822
N      81.50576368      45.23626934      88.88134517
H      82.22008023      46.19814003      90.36667005
H      80.77443960      43.50905950      89.23094454
C      80.31145666      48.35242804      82.00463112
O      81.60591917      50.20247009      81.74951806
N      77.76221585      48.70202740      82.22572909
H      76.59625472      47.19213608      82.21817019
C      76.49043005      51.27583465      81.84967356
H      77.28033564      52.06574024      80.12057398
C      73.64639194      50.80151333      81.57188379
H      73.42907342      49.47870491      80.00908013
C      72.33492188      49.68657482      83.93404168
H      70.41873940      49.08942129      83.47672791
H      72.36515750      51.11898736      85.41558711
H      73.17962955      47.91968071      84.56710000
C      72.05146294      53.08052326      80.77252956
H      71.95130744      54.31640427      82.41659145
H      70.18819279      52.34164028      80.29253908
C      72.72420551      54.53939198      78.54643196
H      74.34748041      55.76771408      78.85823680
H      71.07069498      55.67511749      78.08155929
H      73.00010555      53.43201237      76.83056047
C      77.06679657      53.30918016      83.81309920
O      76.89105202      55.61275652      83.35767516
N      77.90394533      52.34164028      86.02407898
H      78.10236659      50.44435506      85.97305637
C      78.94329480      53.79672955      88.12734437
H      77.90016587      55.49181404      88.65646774
C      79.32879897      52.14699848      90.54241460
H      80.10925593      53.11075890      92.18836622
H      80.62893067      50.57663591      90.25328647
C      76.80979379      50.79206471      91.43625514
C      75.37927097      51.91645186      93.41668832
H      76.04445464      53.70413296      94.14801240
C      73.24765969      50.65978386      94.39556655
H      71.90406428      51.56496277      95.63711674
C      72.75255140      48.21825747      93.64534520
H      71.27478542      47.14489293      94.55241383
C      74.37960576      46.90300796      91.82553876
H      74.16228723      44.96603848      91.22271607
C      76.27500125      48.39778146      90.70871051
H      77.33513771      47.69480327      89.11189178
C      81.55867602      54.99670576      87.53963949
O      81.89882675      57.23603144      87.76262719
N      83.32179067      53.45468908      86.65335785
H      82.86825635      51.61031619      86.47194412
C      85.88614927      54.36175771      85.87479060
H      86.60424527      55.58630036      87.36956412
C      87.70217626      52.00526899      85.59133166
H      87.25809058      50.91111747      83.90191633
H      87.88925917      50.67301194      87.15224559
C      90.60101642      52.65344513      85.41180766
H      91.06588910      53.63988226      87.15791477
H      90.79943769      54.06696041      83.92837250
C      92.31310846      50.40656053      85.18504050
O      92.72506880      49.51083026      83.07043676
O      92.98774076      49.38421861      87.19759902
C      85.79355268      56.02093742      83.47294846
O      87.25809058      57.85397194      83.11956964
N      84.34035315      55.18567839      81.66637011
H      83.33501875      53.58696993      81.94038042
C      83.42194616      56.73714369      79.43460333
H      85.06222860      56.93745467      78.20439150
C      81.43395408      55.21780372      77.94738872
H      79.77477439      54.96080095      79.13980602
H      82.21252132      53.31862879      77.78109281
C      80.69318137      56.32140390      75.36980203
H      82.19173433      55.90377439      74.01864772
H      80.48909092      58.36041859      75.59090001
S      77.76032613      54.92867560      74.23029706
C      78.59558516      54.22569741      70.90626848
H      77.17640070      52.96713970      70.09935534
H      80.50420873      53.46791717      70.75131092
H      78.62960023      55.91133328      69.72329981
C      82.63015084      59.38842971      80.20939112
O      83.65249277      61.18177997      79.25885878
N      80.81790330      59.69834481      81.94038042
H      79.74075930      58.29427816      82.65847642
C      80.05634360      62.20223218      82.86067714
H      79.73886958      63.29827345      81.14480564
C      77.38427059      61.99058283      84.24773625
H      77.27655619      63.56094540      85.57432412
H      77.35781443      60.24447573      85.33810833
C      75.34714563      61.96790612      82.36178939
H      75.81201830      60.73013538      80.78197819
C      72.95475211      60.93044638      83.45783065
H      72.09870609      62.23435753      84.80331578
H      73.19663708      59.03316116      84.22505953
H      71.54123683      60.73202511      81.97439549
C      74.53078386      64.52092636      81.27897621
H      73.01144390      64.38297635      79.89569655
H      76.11059506      65.46389980      80.35490004
H      74.13394133      65.75302792      82.88146412
C      82.06890212      63.55149676      84.41025271
O      82.07268157      65.83995533      84.49906985
N      83.81689896      62.20034245      85.65180290
H      83.58824208      60.32762367      85.36834395
C      85.83512666      63.34362687      87.29775452
H      84.58223812      64.72123735      88.17647725
C      86.84801997      61.42744439      89.28007742
H      88.67349559      60.72635594      88.63568075
H      85.64993348      59.75881605      89.12889932
C      87.02187479      62.41010207      92.02018057
H      85.15860464      62.80505487      92.80252727
H      88.21240236      64.09195850      92.02962921
C      88.32389622      60.56006002      93.81164112
H      88.82278396      61.44823138      95.60121194
H      90.19850472      60.30683670      92.99149990
N      87.00486725      58.13932060      94.26139598
H      87.35068717      56.68801081      93.07275813
C      85.08679504      57.79916988      95.75427977
N      84.51987715      59.43756258      97.34920878
H      83.19706873      59.21268516      98.70603227
H      85.71796363      60.90965938      97.55707867
N      83.92650309      55.66377913      95.59176331
H      82.51676726      55.28583387      96.82008541
H      84.73530595      54.27105085      94.56753164
C      87.84390573      64.52848527      85.58944193
O      89.01364632      66.38419651      86.33210437
N      88.18972565      63.53070978      83.34822652
H      87.19761933      61.95089859      82.95138400
C      89.69394779      64.73446544      81.28086594
H      91.37769394      65.51681213      82.17470648
C      90.39314653      62.52726510      79.42893415
H      88.59034764      61.66932936      78.92059777
C      92.01075225      63.59873993      77.23118245
H      90.87880619      64.50958802      75.77042401
H      93.20505928      62.20034245      76.30899601
H      93.25230244      64.90454080      78.22895794
C      92.33389545      60.55817029      80.67237406
H      91.54210013      59.95912705      82.47706269
H      94.20283478      61.31028136      81.10890084
C      92.58333933      58.34719051      78.75808131
H      94.32755672      58.29238845      77.66392977
H      90.94116716      58.20924048      77.52031057
H      92.65136947      56.56328887      79.78798215
C      88.16515921      66.68277328      79.72184173
O      89.30088472      68.67265508      79.23429234
N      85.80678077      66.21412115      79.04531971
H      85.15671492      64.47746267      79.49885402
C      84.12303462      68.06038376      77.72251129
H      85.01687517      68.69911124      75.97829390
C      81.57757328      66.94355551      76.78520704
H      80.34736145      68.48557218      77.37669137
H      81.06167800      65.17288195      77.70550375
C      81.54733767      66.85851781      73.78999083
O      82.88526389      68.30793790      72.44261597
O      80.24909569      65.21634565      72.75820027
C      83.70729483      70.58316839      79.16815192
O      82.91927896      72.41998236      77.93982982
N      83.97752570      70.67387525      81.63802421
H      84.11925517      68.99768801      82.53942366
C      83.28777559      72.75068447      83.08744429
H      82.93628650      74.53080664      82.11234552
C      81.02955265      71.96644805      84.72772673
H      80.65916629      73.21555713      86.32265574
H      81.53410957      70.22978956      85.71227414
C      78.54078310      71.26535958      83.30665255
H      77.38238087      70.06538338      84.51418766
H      79.22108457      70.22034093      81.66637011
C      76.97608972      73.57082569      82.62257162
O      77.91906314      75.70054724      82.46761406
O      74.82936062      73.16642426      81.61723722
C      85.29466494      73.65019419      85.05842884
O      85.03388271      75.76857739      85.78219402
N      87.01620561      71.99668367      85.71605359
H      86.85557887      70.26569436      84.92803772
C      89.08167647      72.18187685      87.49995523
H      90.13803348      73.94499150      87.36200521
H      90.37802872      70.58694784      87.36578467
C      88.03287837      72.26502480      90.24383784
O      85.94284106      71.32583083      90.62367283
N      89.60891012      72.82816324      92.09387990
H      91.36824531      73.13996809      91.42113733
C      89.19128060      73.45366265      94.81697552
H      87.17494262      73.15130644      95.10610364
C      90.61235478      71.73779116      96.71804019
H      92.63625166      71.95510969      96.39867644
H      89.86024371      69.85373403      96.35521274
C      90.17771773      72.28203234      99.63010844
H      90.72384863      74.20199427     100.13466536
C      87.33934881      71.69054800     100.12899618
H      86.94061656      69.67232030     100.25938730
H      86.20740275      72.52580703      98.62477404
H      86.78565900      72.61462417     101.88455193
C      91.66493234      70.37340875     101.24204498
H      90.91849045      68.48557218     100.89811479
H      91.45706244      70.84584034     103.23570624
H      93.68316004      70.50757933     100.85087163
C      89.67127109      76.21455280      95.43491602
O      91.74052139      77.06303991      94.62611316
N      87.98563521      77.45988244      96.78418061
H      86.28488153      76.62273368      97.00905804
C      88.23885853      80.31147944      97.31708343
H      90.18149718      80.95398639      97.54951977
C      86.99919807      81.96687969      95.21192832
H      86.66471651      83.88306218      95.89222979
H      85.24553205      81.00122955      94.72815838
C      88.91538055      82.10482972      93.04252251
H      89.30655390      80.28691300      92.15624087
H      90.75786371      82.65285035      93.77762605
C      87.77776531      83.67330256      90.92035986
H      87.47729883      85.64617682      91.43436542
H      85.88048009      83.02512643      90.45170773
N      89.35946624      83.69975872      88.67914445
H      90.38369790      85.30602608      88.72449788
C      89.92827386      82.00089476      87.01996475
N      88.68483394      79.89384992      86.94815515
H      89.33678953      78.58804905      85.71416387
H      87.55288788      79.27968888      88.35411153
N      91.49674670      82.38072976      85.08866446
H      91.56855630      81.27901931      83.53152998
H      92.46050712      84.01912247      84.89402265
C      86.85557887      80.70643224      99.86632423
O      84.62570182      80.00912323     100.08553248
N      88.16893866      81.65129540     101.65778477
H      89.83945672      82.44875990     101.19291210
C      87.36013580      82.16341123     104.27316599
H      85.89748763      80.75745484     104.61709618
C      89.59757175      81.29413713     105.96636076
H      88.88136548      81.70231801     107.85419735
H      91.25675146      82.49222361     105.73203470
C      90.15315130      78.40474559     105.82274156
H      91.03187402      77.91341675     104.02561184
C      92.16193036      77.77357701     107.62554047
H      92.72695853      75.79881300     107.45924455
H      91.67438097      78.07782294     109.60408392
H      93.83055869      78.90930252     107.22113904
C      88.13870304      76.48100421     106.60886771
H      87.13714810      76.18998636     104.83063525
H      87.05400014      77.53358176     108.01104463
H      89.01175660      74.66308749     107.02271777
C      86.31700687      84.81091780     104.78528182
O      85.17561218      85.49688845     106.67878758
N      86.88959395      86.55891464     102.98815209
H      87.84201601      86.12805703     101.39133336
C      85.68016911      89.04768419     102.84453290
H      84.75420321      89.41807055     104.64544207
C      88.04232700      90.86182145     102.35509378
H      87.50942419      92.75343749     101.74093273
H      89.22529567      90.19663779     100.80551820
C      89.80355192      91.23976671     104.71536195
H      90.79187878      89.48421097     105.14621954
H      88.59979626      91.96731134     106.22147382
C      92.16570981      92.99910191     104.12954679
H      91.48540834      94.87560013     103.62310014
H      93.12569078      92.22053467     102.48170544
C      93.87402240      93.14461084     106.42934371
H      94.66770745      91.25299480     106.59374990
H      92.60601604      93.68129311     107.96569120
N      95.96972888      95.02110906     106.05517790
H      97.17915372      95.21008169     107.51593634
H      95.48217949      96.74831891     105.40700178
H      96.97317355      94.38427130     104.56040439
C      83.85847294      89.23476709     100.65245037
O      84.09468873      87.88361278      98.81752612
N      82.11236583      91.11693450     101.03228536
H      82.23897750      92.11659972     102.65556026
C      79.95618810      91.71219828      99.10854397
H      78.88093383      90.02089324      98.62855349
C      77.95496794      93.72286709     100.08553248
H      78.87526465      95.54267352     100.37655033
C      75.66461965      93.95530342      98.25816713
H      76.25799371      94.34836650      96.32686684
H      74.29456808      95.33102418      98.95169669
H      74.84636815      92.07502574      98.06541505
C      76.71530748      92.66462035     102.58564039
H      78.01732891      91.64416814     103.81207277
H      75.16762163      91.33614275     102.30218144
C      75.52477990      94.72064257     104.18056940
H      75.39816824      94.08947398     106.13643613
H      73.58592070      95.02488852     103.54562136
H      76.66050541      96.40627844     104.51127150
C      81.25254035      92.69863543      96.63300250
O      83.10069269      94.04034111      96.82575459
N      80.50609846      91.64227842      94.46926588
H      79.25320992      90.20230697      94.48627341
C      81.19962802      92.57769294      92.09199017
H      82.05189458      94.45041172      92.19403540
C      83.07990570      90.73709951      90.89012424
H      84.64648881      90.27600629      92.14868196
H      83.99642296      91.64416814      89.28574660
C      82.03677677      88.13494637      90.29675018
C      81.45474107      87.51133670      87.77396555
H      81.57946301      88.84170402      86.23005915
C      80.59113614      85.10949455      87.24295246
H      80.07902031      84.54824584      85.34944669
C      80.39082516      83.26701139      89.14590685
O      79.55745586      80.93508913      88.59977595
H      79.44785174      80.83871309      86.79130787
C      81.02766292      83.97754848      91.69892710
H      81.31490132      82.51679005      93.09354512
C      81.79111235      86.39261871      92.22049156
H      82.05378431      86.92174209      94.17446857
C      78.78266806      93.08602932      90.57265022
O      76.75499173      93.31846566      91.72727300
N      78.87715438      93.40917252      87.98183544
H      80.44751694      93.01799917      86.97083187
C      76.62271089      93.68318284      86.15635983
H      74.86337569      93.28067112      87.15224559
C      76.37893619      96.51588258      85.28708572
H      74.76699965      96.51588258      84.00207183
H      78.01354945      97.20941214      84.24584652
C      75.48887510      98.10703213      87.53208058
H      76.81168352      97.99175883      89.10433287
H      73.69552484      97.34169298      88.18970534
C      74.83125035     100.85658392      86.79130787
H      73.84670293     101.45562716      88.49773073
H      73.24010079     100.85658392      85.48361726
C      76.93451573     102.81811983      86.19415435
H      78.44818651     101.86380804      85.17181242
H      77.90016587     103.33968429      87.93648201
N      75.95563750     105.18027772      84.82410277
H      75.15250382     104.62280845      83.18382033
H      77.45419047     106.34623886      84.63324042
H      74.59503455     106.14403814      85.75006867
C      76.55657048      91.94463463      83.84900400
O      78.45007623      90.92985160      82.99295798
N      74.43818727      91.91250928      82.56021065
H      72.95286239      92.85926216      83.29531419
C      73.94118925      90.51789126      80.20372194
H      75.51722099      89.22531846      79.90703491
C      71.52611902      88.93052116      80.43615828
H      69.78001191      89.94152474      80.84622889
H      71.60737725      87.71920659      82.10100716
C      71.19163746      87.19575239      78.15903807
O      69.56080366      87.80235455      76.47151247
O      72.75633085      85.43074802      77.86990994
C      73.79379060      92.49454498      78.04754422
O      73.26277750      94.69040696      78.45383537
N      73.94685843      91.77833871      75.57389247
H      74.24921464      89.92640693      75.22807256
C      73.59536934      93.54523280      73.42338393
H      74.89928049      95.01355016      74.05077306
C      74.41740028      92.37927167      70.85524587
H      74.05646255      93.74743353      69.35480318
C      77.33702743      92.12037917      70.98563698
H      77.77166449      90.98276393      72.64859614
H      78.34614128      93.91561917      70.96484999
H      77.94929876      91.01488928      69.36047236
O      73.22120352      90.10026174      70.41116019
H      73.70497346      89.69019114      68.71229623
C      70.96298058      94.65828160      73.34023597
O      70.56235861      96.61036888      72.13270086
N      68.98065768      93.20697180      74.45328477
H      69.35671321      91.45708524      75.11468898
C      66.38039428      94.14049660      74.66493412
H      65.71332089      94.86615151      72.85646603
C      64.80247280      91.73676473      75.22996228
H      65.06514476      91.46653387      77.25574889
H      65.64151128      90.24388095      74.08667786
C      61.92252990      91.82747160      74.99941567
H      61.08538114      93.32980400      76.13325146
H      61.42553188      89.94530418      75.68160687
C      61.16285992      92.06179766      72.28387896
O      60.52980161      94.14994523      71.48452473
O      60.94932085      90.08325421      70.98941644
C      66.02323601      96.38360173      76.61513167
O      64.18453230      97.63271083      76.79087622
N      68.01122808      96.96374771      77.98329352
H      69.60048791      96.11337087      77.35401466
C      68.32114319      98.59836098      80.09789727
H      67.38383894     100.41060850      79.80876914
H      70.32803254      98.97063705      80.37568703
C      67.70887187      97.59113685      82.75674219
O      68.14917810      98.87237128      84.62568151
N      66.81692105      95.17795634      82.90414084
H      66.66007378      94.27277744      81.22984333
C      66.23299563      94.05356919      85.26629873
H      64.97632762      95.31779610      86.29997902
C      64.70420703      91.48921059      84.88646374
H      64.06170008      90.87315981      86.74406471
H      65.91174215      90.01900351      84.09466842
C      62.49700671      91.81046406      83.04209086
C      61.36506064      89.71097813      81.81187903
H      62.04536212      87.79101619      81.89691672
C      59.04636645      90.04545968      80.42481992
H      58.14685674      88.52800945      79.40247798
C      57.90497176      92.49643470      80.15269933
O      55.70533033      92.67595870      78.83556009
H      55.31226727      94.41450692      78.49162990
C      59.02180001      94.59025147      81.40369815
H      58.26590948      96.48564696      81.33188855
C      61.30269967      94.25199045      82.76619082
H      62.07748747      95.95274414      83.58633204
C      68.61027132      93.60570406      87.01807502
O      70.66440382      93.29389921      85.98250500
N      68.13972947      93.37137799      89.55597746
H      66.35582783      93.79845614      90.08321110
C      70.03701469      93.25988414      91.56286681
H      71.72643001      94.14994523      90.79185847
C      69.38127966      95.02488852      93.63778630
H      70.35448871      94.27844662      95.29318655
H      67.34604443      94.88315904      93.93069388
C      70.11260374      97.78766839      93.48471847
C      68.37405553      99.71518923      93.86455346
H      66.42574770      99.12181516      93.98549594
C      69.03734947     102.26631975      94.03084937
H      67.49344308     103.60046653      94.07998226
C      71.53556765     102.99575411      93.78140550
O      72.31791435     105.47129557      93.74550070
H      70.81369220     106.39348202      94.16879939
C      73.39127889     101.12681477      93.49416710
H      75.36226344     101.65215870      93.43936504
C      72.67696236      98.54355890      93.25984104
H      74.19630230      97.17917651      93.19181089
C      70.41495996      90.57458305      92.32631624
O      68.66885284      89.30846641      93.24850268
N      72.82625072      89.89995076      92.35088268
H      74.20008175      90.92796187      91.51751338
C      73.23443161      87.04835375      92.26017582
H      71.54879574      85.93908440      92.68347451
C      74.19441258      86.15073375      89.70715557
H      75.26588739      84.39328828      89.80353161
C      71.90217456      85.88050288      87.98372517
H      72.73554386      85.82003165      86.09966804
H      70.32614281      87.19386268      88.15569026
H      71.20864500      84.02290192      88.53930471
O      75.85359228      88.08203404      88.69993144
H      77.51655143      87.38094557      88.87000681
C      75.26399767      86.28301459      94.21982200
O      76.78522735      87.92329703      95.00594815
N      75.14683464      83.94542313      95.08720638
H      73.60859742      82.94953738      94.55619329
C      76.76633010      82.90040449      97.15834642
H      78.49920912      83.96998959      96.86732857
C      75.53989771      83.47866074      99.83230915
H      75.12415792      85.49688845      99.80018380
C      73.06435624      81.93097488     100.25560785
H      71.93241018      82.27679481      98.56997198
H      72.10059582      82.57348184     101.95825125
H      73.55757481      79.94487254     100.48237500
C      77.34458634      83.04024424     101.94313344
H      77.76599531      81.02957543     102.06974511
H      76.33169304      83.59771350     103.64766658
C      79.76910520      84.57281228     102.02250195
H      79.39304966      86.59670915     101.99226633
H      80.90483071      84.08715262     100.37655033
H      80.72908617      84.19675674     103.80829331
C      77.44852129      80.14518353      96.82764431
O      75.93296078      78.84694155      95.74105168
N      79.62926545      79.24756353      97.67235198
H      80.84813893      80.23778012      98.75705488
C      80.13004292      76.54147545      97.92368558
H      78.52566528      75.59472256      98.80429804
H      81.70607467      76.18620689      99.20114056
C      80.67050465      75.08071701      95.44436465
O      81.88181922      76.01613153      93.66046301
N      79.51399215      72.81682489      95.35365779
H      78.42362006      72.48612277      96.88433610
C      79.18329004      71.40897878      93.12000129
H      80.93506633      71.76991650      92.09765935
C      79.27966608      68.54226397      93.46204175
H      77.39560896      67.95266935      94.05352609
C      80.24909569      67.35362611      90.89012424
H      78.95841262      67.81660906      89.34999729
H      80.54767244      65.33161895      91.13389893
H      82.17283707      67.89597757      90.39312622
C      80.96530195      67.67298985      95.60121194
H      80.88026427      65.61507791      95.61821947
H      80.06390250      68.26825365      97.35298823
C      83.84524486      68.30604818      95.80341265
H      84.35736069      70.28837108      95.58420440
H      84.94128612      67.23646308      94.42391244
H      84.67672443      67.53503984      97.52495332
C      76.72664583      72.26124535      91.54019009
O      74.79723527      70.98001091      91.06586879
N      76.85514722      74.65552858      90.68036462
H      78.38204608      75.75156985      91.01862563
C      75.21108533      75.39252185      88.61867321
H      74.76510992      73.82971819      87.35255658
H      76.19185329      76.85517001      87.55286757
C      72.80735346      76.72666863      89.46527060
O      71.13116622      77.33893995      87.97616626
N      72.48609999      77.26524063      91.91624563
H      73.93929952      76.96288442      93.11433211
C      69.91796193      77.68287014      93.21637733
H      68.47988021      76.43943023      92.42458201
C      70.08425784      76.97989195      96.05663598
H      71.48454504      78.08160240      97.08842655
H      70.62849902      75.01835604      96.36466137
C      67.69942324      77.27468925      97.50605606
N      65.77946130      75.47378008      97.83486844
H      65.69064418      73.72956269      97.06197038
C      64.05036173      76.37517953      99.49782759
H      62.28346763      75.51535406     100.04395850
N      64.54924947      78.82804429      99.88711122
H      63.24722804      80.05825612     100.54284625
C      66.86416422      79.47055124      98.69091446
H      67.57848075      81.38106454      98.65311993
C      69.00144467      80.37195069      92.73260739
O      70.20331060      82.26167700      93.37133489
N      66.60905116      80.62706374      91.92947371
H      65.46387701      79.10772378      91.76884697
C      65.38072906      83.10260521      91.74805999
H      66.72621419      84.48588487      91.02807426
C      63.09416022      82.96843464      89.77707544
H      61.56726135      81.90073926      90.65579818
H      63.55903290      81.69097964      88.23127932
C      62.20598886      85.42507885      88.40513414
H      63.51556919      85.98254811      86.91602980
C      59.73989601      84.48021569      87.21460656
H      60.21043787      83.25189359      85.63101591
H      58.64196502      86.01089400      86.38312698
H      58.54180952      83.54858062      88.60544513
C      61.75812371      87.60582301      90.24761729
H      63.59304796      88.15195392      91.00728727
H      60.59216258      86.71954136      91.69892710
H      60.79436329      89.13083214      89.25551098
C      64.54169058      83.86983409      94.36722066
O      63.21510270      82.45631881      95.63333728
N      65.21065368      86.06947552      95.36877560
H      66.31047440      87.12394280      94.21982200
C      64.22799600      87.11071472      97.69880814
H      63.52879726      85.54035214      98.83264393
C      66.26134151      88.61304714      99.17279467
H      65.50356127      89.47854179     100.88299698
H      67.25722728      89.92829665      97.94069311
C      68.24555414      86.97465442     100.43324212
H      68.97120905      85.56491859      99.11799261
C      70.58881477      88.57336288     100.92457096
H      72.03634513      87.49054971     101.91100810
H      70.18819279      90.29679327     101.98092797
H      71.26155734      89.24232600      99.09909534
C      67.32903688      85.90884878     102.89744523
H      65.53001743      84.92241165     102.72736986
H      67.06636493      87.42440929     104.26560708
H      68.81814121      84.69753422     103.64766658
C      62.02646486      88.90406499      97.25094301
O      60.08760566      88.70564373      98.45091922
N      62.34204915      90.68796663      95.48026945
H      63.96343432      90.82591665      94.48438369
C      60.54869887      92.64761282      94.88689539
H      58.72889243      91.84636886      95.42168794
C      60.56192696      94.96630700      96.69536347