 %block lattice_cart
   135.996   0.000   0.000
   0.000 142.663   0.000
   0.000   0.000   160.158
 %endblock lattice_cart

 %block positions_abs
N      89.98968998      44.06936334      80.23868187
H      91.76603270      44.45486751      79.65286672
H      89.54938375      42.32514596      79.59995438
H      89.83284269      44.12794486      82.13974655
C      88.39854041      45.97420747      79.09539746
H      88.75947815      47.81669062      79.94388457
C      88.90309734      46.11971639      76.24569017
H      87.17021831      46.69986237      75.29326811
H      89.35474193      44.26400515      75.47657157
C      91.03281889      48.06424477      75.36696745
H      90.67755035      48.33069618      73.35629865
H      92.77703629      47.01544666      75.68066201
S      91.22557098      51.00465891      76.99024235
C      87.90532185      52.04778784      76.62363544
H      86.63353604      50.44718965      76.86929986
H      87.48013342      52.84903179      74.77359337
H      87.71445949      53.70318809      77.83495000
C      85.81339482      45.12949980      79.62263110
O      85.18978513      43.09615429      78.80815906
N      84.39987953      46.61860414      81.09850735
H      85.14065225      48.33069618      81.49912933
C      81.65410721      46.36349109      81.78069855
H      80.65633171      45.28634709      80.33505791
C      81.36308935      44.74210591      84.05970848
H      82.51960185      43.06024949      83.78947762
H      79.38832536      44.21487227      84.31860098
C      82.38165183      46.03089925      86.40107939
O      82.21157647      48.26455576      86.75067875
N      83.22258005      44.45864696      88.15852485
H      84.32806994      45.20319913      89.52290726
H      83.11108619      42.56892065      87.90719125
C      80.26137891      48.92029079      81.83172115
O      81.51993663      50.80056847      81.16653750
N      77.86520594      49.18674220      82.41942604
H      76.88065854      47.63149744      82.92020351
C      76.65011193      51.64338640      82.68020828
H      76.59342014      52.61659546      80.86607101
C      73.94780331      51.01788699      82.97878503
H      73.37710595      49.56090801      81.63896908
C      73.52828406      49.96908889      85.68676283
H      73.77394849      51.54323091      86.99067400
H      74.93613017      48.55368388      86.19320949
H      71.68958036      49.06957917      85.91353000
C      72.43791197      53.37626543      82.34572672
H      73.00482987      54.78600126      83.73845500
H      70.45747880      52.97753318      82.75201788
C      72.51350103      54.57435192      79.62263110
H      71.96359068      53.14760855      78.24313090
H      74.21236498      55.63448838      79.13886117
H      71.25116385      56.20140627      79.54515233
C      77.93701555      53.59736341      84.29403454
O      78.69479580      55.54378151      83.33972275
N      78.51716153      52.93217975      86.65052325
H      78.24315121      51.10670413      87.12484456
C      79.64154869      54.62726425      88.51001394
H      78.36031424      56.23731107      88.57804409
C      80.12153917      53.12871129      90.92508417
H      81.19868317      54.15672240      92.34615837
H      81.21380097      51.48653912      90.33171011
C      77.79150663      52.14794333      92.20820835
C      76.57452287      53.40272160      94.07336821
H      77.44757644      55.06001158      94.88406080
C      74.32763829      52.40305638      95.00878274
H      73.32419361      53.54256135      96.37127542
C      73.18057441      50.16939988      93.99588944
H      71.32108372      49.53067239      94.53635117
C      74.28039513      49.15461685      91.86805760
H      73.46970254      47.53890085      90.91941500
C      76.62365576      49.96152999      91.12539516
H      77.72536621      48.91084216      89.76479223
C      82.35141622      55.54756097      87.41964186
O      83.04494578      57.76987911      87.64640902
N      83.82162328      53.79200522      86.28202662
H      83.19234442      51.99487550      86.41430747
C      86.40298943      54.22853200      85.28614086
H      87.52359713      55.24520476      86.68453834
C      88.00925679      51.75299053      84.77024557
H      89.53804539      52.27833445      83.49468032
H      86.69589701      50.53411706      83.75735227
C      88.94089186      50.23176085      87.18153635
H      87.36297039      50.12404645      88.50245505
H      90.50747498      51.18796236      88.11506114
C      89.94811599      47.59181319      86.55792666
O      91.77359161      46.82269458      87.91286043
O      88.98813502      46.37860890      84.77402502
C      86.29905448      56.08046379      82.93721106
O      88.06405885      57.66405444      82.61784730
N      84.29972405      55.95007267      81.36873822
H      82.98258480      54.65561015      81.85061842
C      83.97280140      57.42594892      79.08594883
H      85.78504892      57.44673591      78.10707060
C      81.92811753      55.97463911      77.55527051
H      80.08752409      55.87259389      78.46989805
H      82.62542654      54.05089773      77.33228281
C      81.47647294      56.92328172      74.92288175
H      82.97502589      56.07290488      73.79282542
H      81.54450307      58.97552450      75.05516260
S      78.51527179      55.99542610      73.53393292
C      78.90077597      56.32801793      70.12864611
H      77.43056889      55.34347053      69.07039936
H      80.69223651      55.48331027      69.56739738
H      78.83841499      58.36514290      69.84329743
C      83.08651975      60.06589658      79.76814003
O      83.80272602      61.93861536      78.70422411
N      81.53883390      60.30967128      81.80715471
H      81.05506396      58.74308816      82.78603294
C      80.55239676      62.76820521      82.66320074
H      79.93823571      63.76787043      80.97000597
C      78.23559230      62.27687637      84.13151809
H      78.15055462      63.85857729      85.45054705
H      78.37165261      60.45706993      85.08771960
C      75.90367004      62.43939283      82.44021303
H      76.20602625      60.92005288      81.08527926
C      73.80985329      61.36224883      84.00868587
H      71.93713450      61.74586327      83.24145699
H      73.61899092      62.39025995      85.78691833
H      73.93268549      59.36291839      84.48867635
C      75.48981997      65.06422268      81.32149505
H      76.80317977      65.35713026      79.76058112
H      75.63343918      66.54387838      82.74445897
H      73.66245463      65.02264870      80.37096271
C      82.52905048      64.37447258      83.90097148
O      82.88809849      66.66860032      83.30192823
N      84.05783908      63.30866693      85.60550460
H      83.85374863      61.43027898      85.86817656
C      86.04583116      64.59557055      87.23633842
H      84.93656182      65.98073994      88.28513652
C      87.26848408      62.60757847      88.91819484
H      88.20767806      61.13170222      87.83160220
H      85.63765027      61.70050984      89.78746893
C      88.98624530      63.72062727      90.77201634
H      87.95067528      64.92060348      92.08726585
H      90.51692361      64.75241784      89.85360936
C      90.27125919      61.57011873      92.21198779
H      91.61674432      62.34868597      93.56125238
H      91.40320525      60.62714530      90.77201634
N      88.43633494      59.87125477      93.49133252
H      88.66499182      57.99286682      93.25511672
C      86.90754635      60.33801717      95.42641226
N      86.46912986      62.49986407      96.42229803
H      85.47135435      62.52065106      98.04935238
H      87.75414374      63.84534921      95.99521988
N      85.71890851      58.39915797      96.39206240
H      84.61152888      58.69395528      97.91707153
H      85.32017626      56.87225911      95.31869786
C      88.06216914      65.85412828      85.71321901
O      89.09206997      67.85534844      86.14785606
N      88.83317747      64.68438769      83.57404881
H      87.94689582      63.04788470      83.15075013
C      90.55849760      65.59334605      81.61818209
H      91.91532108      66.80655034      82.58383223
C      91.97957178      63.41071216      80.43899286
H      92.85829451      62.27309692      81.91297940
C      90.08039683      61.86680576      78.87052002
H      91.11218740      60.15093427      78.38675009
H      89.54182483      62.83434563      77.13197181
H      88.29082601      61.49452967      79.82294208
C      94.04504264      64.25353009      78.62485560
H      93.16254045      65.37791725      77.14142046
H      94.94266264      62.65293190      77.69133081
C      96.15586694      65.81633375      79.81916263
H      97.64875072      66.47395851      78.56249464
H      96.97600815      64.76186647      81.38574575
H      95.49635244      67.57566895      80.66387030
C      89.33584466      67.47929291      79.86829551
O      90.51881334      69.20083358      78.81760769
N      86.93211279      67.24307712      79.25980365
H      85.99291883      65.82011320      80.11773940
C      85.56206123      69.04965547      77.71022808
H      86.74314016      69.59956583      76.11529906
C      83.14132181      67.96495257      76.63497380
H      82.31551142      69.54098431      75.59562432
H      81.89410244      67.27331274      78.12218841
C      83.52493626      66.08656461      74.40320703
O      85.00270223      66.74418937      72.78182184
O      81.87898463      64.33100887      74.27281590
C      84.73814054      71.55354284      79.02925704
O      84.64176450      73.59822671      77.86707535
N      84.30539322      71.39102638      81.55582111
H      83.80839521      69.71105968      82.30982191
C      83.24525676      73.41870271      82.96933639
H      82.47802788      74.85300498      81.70699923
C      81.18356535      72.28486692      84.78725311
H      80.61475773      73.78530961      86.07604646
H      82.05094973      70.73340162      85.82660258
C      78.87054034      71.18315648      83.44176798
H      78.01260461      69.99073918      84.88362915
H      79.52249592      70.07199741      81.83361089
C      77.11309488      73.30342940      82.36084453
O      77.78394772      75.55409344      82.61595758
O      75.11187471      72.58344368      81.42731972
C      85.26348447      74.63757618      84.73812022
O      85.09529882      76.92603475      85.14819084
N      86.91888471      73.15225130      85.85872793
H      86.93967170      71.28142225      85.48456212
C      88.67633018      73.79097879      87.70121109
H      89.76670226      75.38212835      86.97744590
H      89.97457216      72.25085185      88.13206869
C      87.46123617      74.57710494      90.29580531
O      85.14065225      74.68103989      90.66997112
N      88.91065624      75.53330645      92.08537613
H      90.77392639      75.68637428      91.70176169
C      88.09429449      76.01518666      94.63650666
H      86.04961060      75.77330170      94.69697790
C      89.32261658      74.00640759      96.25411238
H      91.33895455      73.70027193      95.97254316
H      88.44011439      72.20738814      95.76845271
C      89.01270146      74.37490422      99.16051144
H      89.88386529      76.15880586      99.70853207
C      86.28015722      74.40702957      99.88049717
H      85.00648168      75.37456944      98.58603465
H      85.90032224      74.93615294     101.83447419
H      85.52804614      72.51919298      99.55357452
C      90.24858248      72.25274157     100.63827743
H      92.29893552      72.19038061     100.46253287
H      89.52292757      70.53498036      99.76144441
H      89.94811599      72.20927787     102.67729212
C      88.55538770      78.68159049      95.44908897
O      90.73235242      79.43181184      95.28846223
N      86.82250867      79.97227356      96.67174189
H      85.18222624      79.05575630      96.99866454
C      86.97935595      82.60655204      97.65817903
H      88.98624530      82.97504867      97.94352771
C      85.87008661      84.28273928      95.53223693
H      84.89876728      85.94380871      96.26734046
H      84.50192476      83.11677815      94.52312308
C      88.11130202      85.21437435      93.85038051
H      89.16765903      83.66479878      93.00189339
H      89.31316795      86.42757865      94.99933411
C      87.24580736      86.92646639      91.66774661
H      88.84451583      88.01116930      90.95531980
H      85.81906399      88.21903919      92.40096042
N      86.08740513      85.39011890      89.73266688
H      85.43355984      83.74227756      90.43942452
C      86.27259832      85.66412922      87.37239870
N      87.26470463      87.59731924      86.33304924
H      87.29305052      87.93558025      84.45655100
H      87.75414374      89.13177700      87.35917062
N      85.36175023      84.00494951      85.88896356
H      85.94000648      84.01250842      84.07104684
H      84.38854119      82.64623630      86.81114999
C      85.67166535      82.88434181     100.32647259
O      83.44556775      82.85599592     100.74599183
N      87.22879983      83.06764526     102.30690577
H      89.04671655      82.61978013     101.94218858
C      86.64865385      83.36622202     105.02433219
H      85.25025637      81.93947865     105.52888913
C      88.84451583      82.33065200     106.44351665
H      88.45901165      82.49505819     108.45985463
H      90.48479826      83.47393642     105.95029809
C      89.66087759      79.55086459     106.23564677
H      90.24102357      79.02930013     104.32891291
C      91.62052378      78.75906927     108.21985939
H      91.11029767      78.95938026     110.20596174
H      93.19277607      80.02707563     107.80978878
H      92.15342660      76.78052582     108.02521759
C      87.27793271      77.82932392     106.50965708
H      86.00425717      78.14679794     104.92039726
H      86.34629764      78.21482809     108.30489708
H      87.73902594      75.82243458     106.52666461
C      85.45812627      85.91735254     105.74809737
O      83.60052530      85.91357309     107.13326677
N      86.45401204      87.92613161     104.64260749
H      87.96957255      87.75983570     103.49365388
C      85.29183036      90.53773338     104.65205611
H      84.19200964      90.65489641     106.39060432
C      87.44611836      92.57296862     104.87882328
H      88.68766855      92.86965565     103.26310728
H      88.70656580      92.05329388     106.42272967
C      86.33495928      95.19212929     105.31157060
H      84.50381448      95.11087106     106.25076458
H      85.71323932      96.04439585     103.54089705
C      88.14531709      97.20468781     106.48320091
H      90.00858723      97.23114398     105.60258845
H      88.40043015      96.43556920     108.37670668
C      87.03604774      99.95046014     106.52855435
H      85.01593031      99.72936217     106.86114617
H      87.40643410     100.93500755     104.75977052
N      88.12641982     101.37531378     108.64693754
H      87.98091091     100.33596431     110.23997683
H      87.32895533     103.10441336     108.77921839
H      89.97079271     101.78349467     108.37670668
C      83.43989858      90.76639026     102.41650989
O      83.82918219      89.78940176     100.35481848
N      81.39332497      92.26872268     102.73587363
H      81.03616670      92.80540495     104.53300336
C      79.38832536      92.84508921     100.90850829
H      78.72125196      90.95347317     100.44552534
C      77.26238326      94.38521615     102.31068522
H      77.22458872      93.69546605     104.25143414
C      78.00504570      97.10831177     102.72642501
H      77.46647369      97.55428718     104.66339447
H      77.18679420      98.30072907     101.25999738
H      80.04783983      97.31807139     102.90594900
C      74.64133286      94.06018323     100.88016240
H      74.30307185      92.10431649     100.32836231
H      75.01171921      94.98992857      99.08114295
C      72.45114007      95.08819434     102.36548727
H      72.91790246      96.85130899     103.32546824
H      71.91256806      93.78239346     103.86404025
H      70.93368983      95.49070605     101.03323023
C      80.16500287      93.86932087      98.34037022
O      81.79772640      95.52661085      98.25722228
N      79.16533766      92.98681868      96.23899457
H      77.61765181      91.88888769      96.44308502
C      79.83619050      93.60664891      93.71054076
H      80.57318376      95.52850057      93.68786404
C      81.70701955      91.74337877      92.59371251
H      83.46257528      91.55251641      93.65573869
H      82.36653402      92.58808643      90.83437732
C      80.64310363      89.04673932      92.05703024
C      80.46168990      88.26628235      89.47566410
H      80.73947967      89.63822365      87.99033922
C      79.84185967      85.76050526      88.85961331
H      79.72469664      85.12555722      86.92264385
C      79.46013496      83.97660362      90.91374581
O      79.13888148      81.39712720      90.44698342
H      79.58674662      80.77918670      88.80103181
C      80.05161929      84.73060442      93.34960304
H      80.05917819      83.37567065      94.87272244
C      80.42956455      87.29496303      93.94108737
H      80.79995092      88.02439738      95.81191642
C      77.47781205      93.66145097      92.10427340
O      75.37265694      93.29106462      92.95465024
N      77.86520594      94.37198807      89.75912304
H      79.64154869      94.70269017      89.14118254
C      75.97547963      94.73481552      87.90719125
H      74.12543758      94.17734626      88.61772834
C      75.91311866      97.51460293      87.28358157
H      75.16478704      97.99837286      85.42598061
H      77.80095525      98.17411741      86.78847328
C      74.53172874      99.06039905      89.36228052
H      75.67690287      98.90544149      91.06681366
H      72.70058393      98.12687425      89.49645108
C      74.44858078     101.70034671      88.50245505
H      73.77205875     101.54916860      86.56170613
H      76.31563037     102.51859820      88.20198856
C      73.05963193     103.48991753      90.13706830
H      73.82875054     103.19134077      92.02301517
H      71.09431656     102.88142566      90.11817104
N      73.40734158     105.95978982      89.11850582
H      72.92735110     107.34495921      90.34115875
H      72.18279892     106.05994531      87.65963711
H      75.09108772     106.43411112      88.35505639
C      76.40066805      93.16823241      85.46188541
O      78.60975812      92.72225700      84.62662638
N      74.40322735      92.08352950      84.21277632
H      72.78940108      92.75438234      84.98000519
C      74.41456571      91.00071633      81.71644786
H      75.87343441      89.56830378      81.46322452
C      71.92957559      89.61554694      81.20244229
H      70.43480209      91.00449578      80.92087308
H      71.79918448      88.14533987      82.63863430
C      71.98626738      88.17179603      78.82894605
O      73.52261488      86.36143823      78.58895080
O      70.77495282      88.96737081      76.93921973
C      74.99471167      92.99626731      79.63207973
O      74.36543281      95.22236491      79.93443594
N      75.62399054      92.16667746      77.27937048
H      75.92067757      90.28639978      77.15653826
C      75.49737888      93.50271396      74.81516735
H      77.30206750      94.46647438      74.57328240
C      75.32730351      91.67912807      72.62308483
H      73.50371761      90.72292656      72.68733553
C      75.34242133      93.00760567      70.05494677
H      76.90900443      94.33419354      69.88487141
H      73.60954229      94.11687502      69.96990909
H      75.25360419      91.68101780      68.47891503
O      77.23970654      89.79507094      72.88764652
H      76.25893859      88.27006180      72.93111022
C      73.21647921      95.25826971      74.56383375
O      73.58875531      97.36531455      73.75314117
N      71.10187547      94.44568739      75.33295237
H      71.13778027      92.67879329      76.05671754
C      68.65279018      95.77605472      75.24980441
H      68.81152718      97.05350971      73.64353704
C      66.59865767      93.71814276      74.82272627
H      64.73916697      94.50615864      75.22523796
H      67.02195636      92.14022129      76.07561480
C      66.55141452      92.69958028      72.10341009
H      68.27673463      91.57897258      72.12419708
H      66.88967553      94.17545653      70.70501262
C      64.29886074      91.07819510      71.48924905
O      64.57098133      88.68013241      71.41932918
O      62.29386112      92.12510348      70.77115305
C      67.92524554      97.69412693      77.40976159
O      65.99205552      98.90544149      77.31716500
N      69.59009442      98.02860848      79.11996390
H      71.23982549      97.07429670      79.01791868
C      69.26695122      99.62164777      81.46889370
H      68.16713050     101.31484254      81.07016146
H      71.16234671     100.08652044      82.13029791
C      67.96304007      98.23269893      83.66853514
O      67.54730027      99.30984292      85.64707859
N      67.09565570      95.84786432      83.48334195
H      67.98571678      94.90867034      82.07927531
C      65.94859182      94.29261956      85.46755458
H      64.62389368      95.67211977      86.24045265
C      64.83743275      91.90400550      84.43009484
H      63.93225384      90.79473616      85.90975055
H      66.39267750      90.68324230      83.85183858
C      62.92502971      92.37454735      82.35895480
C      62.69070366      90.70213957      80.18954899
H      64.05886550      89.20547633      79.94010511
C      61.06175957      91.11221018      78.22234391
H      60.99939860      89.76105586      76.69355531
C      59.44037439      93.20035775      78.29793295
O      57.73206180      93.61420782      76.39308883
H      57.18026172      95.34330739      76.37230185
C      59.62178812      94.81607375      80.48434629
H      58.41047355      96.45635619      80.44466205
C      61.28474727      94.47970247      82.44966167
H      61.28096782      95.76093691      84.03892150
C      67.68714002      93.68412769      87.53869463
O      69.96803969      93.27594681      87.05303496
N      66.82164538      93.58964137      89.93864705
H      65.01128757      93.58208247      90.54524918
C      68.36555178      93.55751603      92.17797272
H      70.22693219      94.35687026      91.80002746
C      67.13911939      95.29984369      94.22076687
H      66.68369535      94.06207295      95.80435751
H      65.37978419      96.09541847      93.50645033
C      68.86443951      97.53538992      94.85004573
C      67.66446332      99.94857042      94.57603542
H      65.80875208      99.99959303      93.72943803
C      69.00049981     102.17277829      95.19775537
H      68.20870448     104.03037925      94.89917862
C      71.48548991     101.95545976      96.05947056
O      72.84231340     104.07384296      96.51489462
H      71.72548516     105.49491715      96.36938568
C      72.80073942      99.60841968      96.18797195
H      74.80951850      99.39488061      96.47898982
C      71.36454743      97.35964537      95.77034245
H      72.12232768      95.46613960      95.75144518
C      68.64712099      90.84197932      93.10393862
O      66.76306385      89.40200786      93.46676607
N      71.09053711      90.03506618      93.45542772
H      72.37933047      91.41645611      93.20409412
C      71.76516940      87.38944934      93.65573869
H      70.24393972      86.13656080      94.25667166
C      73.05963193      86.46915263      91.18208695
H      74.91345344      87.36677263      91.07626229
C      73.34876006      83.64212206      90.77390608
H      71.66501392      82.53285272      90.34682793
H      74.53739791      82.99583566      92.32537138
H      74.31063076      83.44559053      88.96165853
O      71.51005635      87.13244656      89.15630035
H      72.04295917      88.78973654      88.64607424
C      73.72859504      87.14567465      95.78168081
O      75.01738839      88.99571671      96.51300488
N      74.08764304      84.87989280      96.57725558
H      72.95191754      83.50228232      95.90262329
C      76.07752486      84.05219267      98.41217983
H      77.64599770      85.38444972      98.31391407
C      75.18746376      84.86477499     101.07291448
H      74.27850541      86.70914787     100.97086925
C      73.25238401      83.02040211     102.18785300
H      71.82186119      82.60655204     100.76488908
H      72.44358116      84.01250842     103.79978955
H      74.13110675      81.22705183     102.68863047
C      77.40600245      85.01217364     102.92673600
H      79.16533766      85.65090113     102.07068997
H      77.72536621      83.11866787     103.67317789
C      76.75782632      86.93780475     104.96197123
H      76.52350026      88.84264888     104.21363962
H      78.32818890      87.03796025     106.29044882
H      75.23092747      86.45592454     106.26021321
C      76.87309963      81.32153815      98.13816951
O      75.64666726      79.84377217      96.88339125
N      78.97825474      80.48438939      99.31168955
H      80.09697273      81.72782931     100.23009655
C      79.83619050      77.83688283      99.16240118
H      78.51527179      76.75406965     100.30946504
H      81.74859352      77.93703832      99.92207115
C      80.12531861      76.90146830      96.41662884
O      81.52560582      78.04475272      94.94642178
N      78.98392392      74.72450359      95.77979107
H      77.74048401      73.79475825      96.89095015
C      79.52438566      73.32421639      93.37605920
H      81.11742494      74.22750557      92.43308577
C      80.20468712      70.48017829      93.78424008
H      78.56440468      69.43704937      94.46454156
C      81.14955029      69.31232743      91.29924998
H      79.97791996      69.88869396      89.70621070
H      81.28372085      67.27898192      91.59593702
H      82.98447454      70.09656385      90.78713415
C      82.21913538      70.32333101      95.89695410
H      81.37253799      71.09622907      97.60715641
H      83.87831507      71.50252023      95.58325953
C      83.14510126      67.70606007      96.57914530
H      84.31673158      67.66070663      98.27422981
H      84.11453087      66.97095653      94.91807587
H      81.60497433      66.40970781      97.02134126
C      77.11498460      73.63035206      91.69609252
O      75.61076245      71.82188397      91.62806237
N      76.72381125      75.86778801      90.67186086
H      78.03339159      77.24917795      90.80414169
C      74.45424995      76.61800936      89.41330312
H      74.09520195      75.63724140      87.63696039
H      74.61298697      78.59088363      88.84260578
C      72.06374616      76.36856548      91.08760065
O      70.08142326      75.86589828      89.92541895
N      72.09020233      76.94115256      93.58014965
H      73.68513135      77.77641159      94.21887714
C      69.79229513      77.26051630      95.19397592
H      68.45625863      75.83944212      94.53446143
C      70.11354861      76.79186418      98.04368319
H      70.73715830      78.54930965      98.91862649
H      71.50249745      75.30087012      98.34414968
C      67.67769139      76.19093121      99.24176969
N      66.26039667      74.07065829      99.04901760
H      66.62133438      72.56643614      97.93218935
C      64.21760251      74.24640283     100.51544521
H      63.03841329      72.70627589     101.14472407
N      64.21571278      76.62934772     101.38849877
H      62.85322011      77.41925331     102.46564277
C      66.37000079      77.77074241     100.77244799
H      66.83676318      79.70771188     101.21842341
C      68.58476003      79.85511053      94.93886287
O      69.84331775      81.85255124      95.57192119
N      66.14134390      79.94959685      94.27556893
H      65.18703211      78.30175550      94.42107785
C      64.73538752      82.29852665      93.86360859
H      65.95615073      83.75550564      93.06803382
C      62.68314474      81.93758893      91.83971171
H      61.22049658      80.72438464      92.64284539
H      63.36911540      81.23461074      90.03124364
C      61.30742399      84.37344615      91.00067322
H      61.11089245      85.47515659      92.73166253
C      62.88345573      85.86255048      89.10338802
H      63.18203249      84.57375713      87.52357682
H      64.53885598      86.40679166      90.20131900
H      61.81387064      87.52173018      88.51568313
C      58.70338113      83.44748025      89.90841142
H      58.98495035      82.09632594      88.37773311
H      57.72450290      85.14256476      89.26401474
H      57.32577065      82.74450206      91.26901437
C      63.84343670      83.24338981      96.34670897
O      63.02140575      81.67680670      97.94541742
N      63.90390795      85.72649019      96.71520560
H      64.70704163      86.81119309      95.36594102
C      62.90991190      87.09465204      98.94886210
H      62.29575085      85.76050526     100.39261300
C      64.93758825      88.76328037      99.99954994
H      64.16469018      90.06908125     101.39227823
H      65.69536849      90.13900113      98.66540316
C      67.20148036      87.18535890     101.07102475
H      68.07831337      85.82475595      99.79923895
C      69.12333202      89.24705031     101.57936112
H      68.42602301      90.75316218     102.79634487
H      69.92079652      89.95380795      99.81435676
H      70.60676717      88.41368100     102.73965308
C      66.53062752      85.87010939     103.41050592
H      65.03018484      84.50005781     103.07602436
H      65.89756920      87.29307330     104.75977052
H      68.07642365      84.70981743     104.12671220
C      60.60633553      88.60643309      98.29123735
O      58.77708046      88.68580159      99.75577523
N      60.48539304      89.85365245      96.07458838
H      62.16347001      89.91979287      95.16751974
C      58.24984681      91.34086706      95.22043208
H      56.49051162      90.31474567      94.91429643
C      57.79442277      93.49137561      97.06669469