 %block lattice_cart
   135.996   0.000   0.000
   0.000 142.663   0.000
   0.000   0.000   160.158
 %endblock lattice_cart

 %block positions_abs
N      89.06183436      40.58470803      82.44021303
H      88.16232462      39.99700314      84.01813450
H      90.90242779      40.94753548      82.78603295
H      88.99191448      39.08048588      81.27047244
C      88.11508147      42.66718643      81.05504364
H      88.65743292      44.48888259      81.84872870
C      89.02215010      42.81080562      78.30738159
H      88.33051027      41.07036769      77.44566639
H      91.06494425      42.86182824      78.04848908
C      87.96768282      45.03879295      76.88252795
H      86.00614690      44.66084769      76.38552993
H      88.83695692      45.11060255      75.01547835
S      87.99791844      48.20975370      78.21478500
C      86.39732025      49.89349985      75.56727843
H      87.37619849      49.39839155      73.82306104
H      86.67888948      51.92306591      75.76947915
H      84.41877681      49.34736894      75.41043115
C      85.28427145      42.67285560      81.27236217
O      84.10319250      40.81336491      80.57505316
N      84.15610485      44.62305316      82.24368150
H      85.23702830      45.97609720      83.04492545
C      81.28183112      44.88950457      82.59139114
H      80.24059193      43.94653114      81.08716899
C      80.40310838      43.48543792      85.01968945
H      81.22891879      41.59949106      84.96866684
H      78.34519644      43.49299682      85.03102781
C      81.47269347      44.66084769      87.34027336
O      82.31362169      46.81891513      87.51412818
N      81.22324961      43.51756327      89.53424561
H      81.12498383      44.45486752      91.19531504
H      80.73381050      41.68452874      89.73077715
C      80.40121865      47.71086595      82.39485960
O      81.86764627      49.59114364      82.10573147
N      77.95024364      48.16062082      82.47989728
H      76.86365100      46.61104524      82.22100478
C      76.71814208      50.83080410      82.39674933
H      77.46458397      51.65283504      80.65820112
C      73.83441973      50.68907462      82.24935067
H      73.43946693      49.54390048      80.58261207
C      72.54373664      49.40784018      84.53025033
H      73.31285526      47.53323168      84.89874697
H      70.52550894      49.24910317      84.14852562
H      73.13333126      50.49254309      86.17998141
C      72.64011269      53.30256611      81.45188617
H      72.51350102      54.44207108      83.16208848
H      70.67668706      52.95674620      80.92465253
C      73.78717656      54.89938485      79.40720230
H      72.57964145      56.54533647      79.13697144
H      73.77583820      53.91672717      77.59684449
H      75.60698301      55.62315003      80.04404007
C      77.89922103      52.79234001      84.45655101
O      78.50771289      54.87481841      83.83483105
N      78.23370257      51.84747685      86.76201711
H      77.15277912      50.37726978      87.31948637
C      79.53005482      53.07390923      88.80292153
H      78.55873551      54.84080333      89.22810995
C      79.07463078      51.34858911      91.05169584
H      80.21224602      52.12715635      92.58426388
H      79.61698223      49.42106827      90.57548481
C      76.39121943      51.40717062      91.90018296
C      75.71091795      53.52744355      93.36283112
H      77.09608734      54.96741500      93.77668118
C      73.26561211      53.51799491      94.27556893
H      72.46247842      55.16205681      95.18074783
C      71.57808651      51.43362679      93.83337297
H      69.65623485      51.75865972      94.43997512
C      72.34153593      49.36248675      92.35371727
H      71.00738915      47.87527214      91.93986721
C      74.81140822      49.28311825      91.42586165
H      75.46525352      47.52945223      90.61327934
C      82.42889500      53.56523807      88.44765298
O      83.56651023      55.10536502      89.71754906
N      83.66288628      52.50888106      86.48422734
H      82.65755187      51.34480965      85.35417101
C      86.18189145      53.17217500      85.61684296
H      87.19289502      54.24176009      87.05870414
C      87.66721634      50.70986161      85.35228128
H      86.74502990      49.96341972      83.66853514
H      87.51036905      49.66106351      87.11917538
C      90.49046745      50.99521029      84.95921821
H      91.12919494      52.48053517      86.23478347
H      91.01959082      51.44118570      83.01846928
C      91.79059915      48.49888183      85.49023130
O      91.88319574      46.77356170      83.92742764
O      92.69955751      47.96786873      87.63885012
C      86.24236269      54.73875811      83.18098575
O      87.45556699      56.70974266      83.09783779
N      84.50381449      54.44962999      81.44432727
H      83.56084105      52.79045028      81.50857796
C      83.79138767      56.06912544      79.34295161
H      85.51670778      56.12203777      78.22045418
C      81.66733529      54.78033209      77.88408289
H      79.93256654      54.98820199      78.97823443
H      82.06039836      52.77344275      77.64219792
C      81.41789141      55.75354114      75.17799481
H      83.12620401      55.15071845      74.19533713
H      81.50292909      57.80767364      75.30460647
S      78.57952250      54.81245744      73.62275006
C      78.95368831      55.90660897      70.64832084
H      77.34931067      55.97463912      69.35574804
H      80.70924405      55.21874860      69.82062071
H      79.21258081      57.91160859      71.04138391
C      83.29249991      58.79222105      80.08372432
O      84.76081727      60.53265899      79.30704681
N      81.26293385      59.31378552      81.62196154
H      80.12909808      57.80578392      81.92620748
C      80.40877756      61.84979823      82.22100478
H      80.57885294      62.93828058      80.48056685
C      77.75560182      61.89704139      83.39263509
H      77.31529559      63.32000530      84.81559901
H      77.37009765      60.18872880      84.47922772
C      75.58997546      62.29010446      81.49157042
H      75.79217619      60.87658918      80.00624554
C      73.03884494      61.80066534      82.76335623
H      73.12010317      60.14526509      83.98789888
H      71.61021186      61.68350231      81.28559026
H      72.45114007      63.31055667      84.03325231
C      75.44446654      64.85068361      80.25002024
H      75.37643639      66.42293591      81.58227729
H      73.61899093      65.05099460      79.31838516
H      76.89388663      65.10201721      78.80815906
C      82.35519566      63.18961418      83.98222970
O      82.75392792      65.43838850      83.69499130
N      83.89154315      61.70050985      85.19921345
H      83.64587873      59.82401162      84.94976958
C      85.98913936      62.50553326      86.69587669
H      85.39009612      63.85857730      88.12639951
C      86.90187717      60.21896442      88.18120157
H      87.95823418      58.86969983      87.03791715
H      85.29372009      59.27221154      89.05425513
C      88.55916715      60.71218299      90.59249235
H      87.59162729      61.85924686      92.00033845
H      90.24480302      61.76665027      90.05014089
C      89.30371931      58.41805524      92.14773710
H      90.42999620      59.02654712      93.76156337
H      90.26747973      57.02721668      90.97421706
N      87.08329090      56.99509133      93.16629958
H      86.28393668      55.78566649      91.92663912
C      85.70001124      57.56200922      95.17885811
N      86.07795651      59.60858282      96.48465899
H      85.28616118      59.81456299      98.20997911
H      87.70501085      60.54210762      96.12750072
N      83.64587873      56.21463436      95.93285891
H      83.00715125      56.70407348      97.66384821
H      83.32462526      54.56490329      95.02956973
C      88.18689106      63.87369511      85.30881758
O      89.44544880      65.50452892      86.35194650
N      88.54026989      63.30488749      82.88240899
H      87.32328614      62.08034484      82.06793695
C      90.36385578      64.48596644      81.07016146
H      91.59028815      65.55555153      82.33438836
C      92.02114576      62.39403941      80.00435581
H      92.83750753      61.23563718      81.49912933
C      90.78715447      60.51943090      78.21100554
H      90.10685301      58.88859710      79.26547283
H      92.03626356      59.71440749      76.78426218
H      89.43600016      61.57389819      77.06961085
C      94.30582487      63.47307313      78.72312137
H      93.57828023      64.49919452      77.09039784
H      95.57761068      62.08223456      77.89164180
C      96.03303473      65.20784189      80.51269219
H      97.91709185      65.59901523      79.77380920
H      96.20311009      64.37069313      82.38730070
H      95.20155515      67.09189902      80.50891274
C      89.17710766      66.36435439      79.23712693
O      90.43755511      67.61157376      77.73668424
N      86.80739087      66.74985856      79.59239548
H      85.85307907      65.81255431      80.95488815
C      85.28238172      68.51108348      78.19588773
H      86.45590177      69.22540003      76.66331969
C      83.04494578      67.16370862      77.08283893
H      81.70135036      68.68682803      76.74268820
H      82.37409294      65.79365704      78.46800832
C      83.57784860      66.13569751      74.38242003
O      85.21813103      66.98418462      72.85552117
O      82.23803263      64.31400134      73.54527128
C      84.48680694      70.76741670      79.74546331
O      84.43389461      72.86312318      78.76847481
N      83.73091643      70.48206803      82.17376162
H      83.25092593      68.71895338      82.72745143
C      82.78983272      72.55509779      83.87640503
H      82.53660939      74.28041792      82.78225349
C      80.27082755      71.67637506      85.09905795
H      79.57729799      73.17492802      86.32926978
H      80.63743444      70.04365152      86.29903416
C      78.09575256      70.65403312      83.44365770
H      76.55562561      69.98129055      84.63607501
H      78.83085610      69.03831712      82.39674933
C      77.04506473      72.78753413      81.71644785
O      77.95780253      75.00040364      81.88274377
O      75.44635627      72.14313746      80.05915788
C      84.77026589      73.53586575      85.81904368
O      84.49814530      75.65235922      86.67697943
N      86.45401204      71.92959838      86.50501433
H      86.14031748      70.08333577      86.14218688
C      88.81428021      72.74973960      87.71254945
H      89.54749401      74.50529535      86.92453357
H      90.36385578      71.42315173      87.42531105
C      88.64231512      72.88957935      90.62272797
O      87.04927582      71.59700655      91.72065896
N      89.97457216      74.57143577      91.94364666
H      91.26525523      75.68448457      91.08571091
C      89.40387481      75.10811804      94.66107310
H      87.35919094      74.88513034      94.75555941
C      90.63597637      73.28453215      96.56969667
H      92.67121160      73.47161505      96.31647335
H      90.08039684      71.37401885      96.03490413
C      89.86496804      73.64924933      99.27389503
H      90.56605649      75.50685029      99.82380539
C      87.08329090      73.43004107     100.05813145
H      85.94000648      74.65647345      98.86004497
H      86.90754635      73.95727472     102.04045435
H      86.35385654      71.52141750      99.80301840
C      91.24824770      71.68960314     100.96331035
H      91.07439288      69.76208230     100.25844244
H      90.58306404      71.82377371     102.90783873
H      93.22490142      72.26030049     101.07669393
C      89.87252695      77.90302326      95.31491840
O      92.01358685      78.81576107      95.26767524
N      87.92610883      79.07654330      96.32781171
H      86.30661339      78.07876780      96.49032817
C      87.92421911      81.58987929      97.41251461
H      89.90276257      82.12845129      97.58070025
C      86.64676413      83.46070834      95.72687874
H      86.32173119      85.32964767      96.53001242
H      84.80050151      82.74450207      95.16563002
C      88.31728218      83.81975634      93.20787356
H      88.95600968      81.93191976      92.68819883
H      89.97457216      84.93847432      93.69920241
C      87.20801284      85.20303600      90.94209171
H      86.89242855      87.22126371      91.20665340
H      85.45056736      84.20715024      90.54146974
N      88.76136786      84.98004830      88.65552288
H      90.10874272      86.27640055      88.26812898
C      88.91065624      83.10732952      87.00012263
N      87.54060467      81.11555799      87.20799252
H      87.95256500      79.50173172      86.27635745
H      86.63542576      80.85099631      88.86717222
N      90.46401128      83.32275832      85.15763947
H      91.06494425      81.71838068      84.31860099
H      91.63186214      84.83075992      85.08960932
C      86.60707987      81.75428548     100.02222665
O      84.57940353      80.77162780     100.47765069
N      87.71634921      83.27929462     101.69652416
H      89.44355907      83.88778649     101.16173162
C      87.06061419      83.43236245     104.40072252
H      85.61308383      82.07742868     104.95441233
C      89.20734327      82.59899315     106.06179194
H      88.72735280      82.71993563     108.06112238
H      90.70400652      83.98227281     105.77644327
C      90.08228657      79.91180233     105.61203708
H      91.00447300      79.81353656     103.77333338
C      92.38019375      79.21827277     107.28066542
H      93.27970348      77.58554924     106.40572213
H      91.57706008      78.96126999     109.15905337
H      93.64631039      80.83776822     107.39026954
C      88.00169790      77.87656709     105.77644327
H      87.14187241      77.96349450     107.64349287
H      89.04482682      76.11345244     105.56668365
H      86.59385178      78.15435686     104.29678757
C      85.86441744      85.90034501     105.05834727
O      84.12208976      86.10632518     106.64760710
N      86.65243331      87.88455764     103.71664159
H      87.93177802      87.59353979     102.32769275
C      85.15388033      90.18624429     103.58436075
H      84.05405962      90.35820939     105.31723978
C      86.83006758      92.65233713     103.43129292
H      85.74158522      94.38332643     103.66372925
H      87.87319650      92.71658782     101.65683991
C      88.49680618      92.63721932     105.83313506
H      89.70245157      90.96670126     105.87092959
H      87.52926632      92.76950016     107.64538260
C      90.20700849      94.90867035     105.68762613
H      89.18277683      96.69824117     105.69140559
H      91.27281414      94.96725186     103.92640121
C      92.09484509      95.00126694     107.93451072
H      93.41954322      93.44224273     107.70585384
H      91.08573123      94.88032445     109.72786099
N      93.73134807      97.28216660     107.91939291
H      94.74235164      97.39555018     109.53321918
H      92.74680066      98.87709561     107.55845518
H      94.85384550      97.31429194     106.37548651
C      83.27360266      90.17301621     101.36204260
O      83.68556299      88.73871394      99.44019094
N      81.38198662      91.85676235     101.43385220
H      81.26671332      93.13421734     102.84736749
C      79.40533290      92.09486787      99.50066219
H      78.62487592      90.20514155      99.26822585
C      77.09608734      93.37610231     100.73843292
H      77.72725592      95.26960807     101.25243848
C      74.92857125      93.79562155      98.66540316
H      73.19191278      94.60253469      99.41940395
H      74.28606432      91.97581511      97.94541743
H      75.52572478      95.14299641      97.22543171
C      76.06051731      92.27439187     103.15161342
H      77.51749630      91.62243629     104.45552458
H      75.05329319      90.59253545     102.51855511
C      74.04795879      93.95435856     104.58213624
H      74.67534794      95.87621022     104.97330959
H      73.49237926      93.10965090     106.37737624
H      72.33208731      94.10364694     103.45396963
C      80.22736384      93.13421734      96.85126590
O      81.77315997      94.93701624      96.64717545
N      79.19179381      92.18179528      94.83492792
H      77.81040388      90.90623002      95.16563002
C      79.91177955      92.61265288      92.10616312
H      80.70546459      94.49482029      91.84160144
C      81.99047848      90.84386905      91.40507466
H      83.26793348      90.85520741      93.02079066
H      83.31517664      91.53739861      89.98589020
C      81.38765580      88.13589124      90.79469306
C      81.41222224      87.28740413      88.26245980
H      81.83930039      88.72170640      86.87729042
C      80.71869268      84.83075992      87.68042410
H      80.69034679      84.25628312      85.72455736
C      80.20468713      83.02607129      89.56637096
O      79.90422064      80.40880035      89.24133803
H      79.90233092      79.96282494      87.48389256
C      80.42767482      83.85188169      92.13450902
H      80.21602549      82.37789517      93.52723731
C      80.92089340      86.40490194      92.73733171
H      81.08529959      87.08331369      94.65729365
C      77.60820317      92.60887343      90.56981563
O      75.46147407      92.69769056      91.46932536
N      78.01071488      92.93768580      88.15474540
H      79.77382952      93.18146050      87.46877475
C      75.98681799      93.27405709      86.29336498
H      74.22748280      93.04917966      87.33649391
C      76.06429678      96.03872668      85.43353951
H      75.03061648      96.03305750      83.65152760
H      78.00693542      96.51871717      84.93654149
C      74.97770415      97.95679889      87.47633366
H      76.19279816      97.93979135      89.14118254
H      73.13900043      97.38988100      88.20765774
C      74.87565892     100.61942327      86.41808692
H      73.95536221     101.84585564      87.79380768
H      73.78339711     100.68556369      84.67197981
C      77.62332097     101.42633640      85.74534435
H      78.08252447     100.63454108      83.90097147
H      78.90266569     100.74792466      87.20988225
N      77.94457445     104.15132174      85.23889770
H      76.85798182     104.62753278      83.74412419
H      79.66989458     104.84674103      84.81181956
H      77.32285450     105.22090684      86.69398696
C      76.03406116      91.38244105      84.02002423
O      77.91433883      90.13522168      83.43042962
N      73.77772794      91.00071633      83.02035901
H      72.16957084      91.63188492      83.83294132
C      73.11821344      89.31319074      80.86985047
H      74.39377871      87.69936446      80.73567990
C      70.36488221      88.39289402      81.17976558
H      69.16490601      90.03884564      80.87551965
H      70.09843081      87.58787061      83.05626381
C      69.94158352      86.27640055      79.31460571
O      68.40712576      86.44458619      77.44944584
O      71.30407618      84.39612287      79.62074137
C      73.42056965      90.73804438      78.35084529
O      73.37332650      93.05484883      78.50958230
N      73.54718132      89.41712568      76.10774016
H      73.27317100      87.52928910      76.11151961
C      73.65678544      90.56607928      73.57172745
H      75.11187471      92.00605073      73.81172269
C      74.68857601      88.81997217      71.45145452
H      74.45802941      89.94813878      69.74125221
C      77.61576208      88.13022206      71.68767031
H      77.91055938      86.42946838      72.81394719
H      78.71747251      89.56830379      72.66654854
H      78.17323133      88.00550013      69.70723714
O      73.32608335      86.60521293      71.16421612
H      73.79473547      85.71515184      72.67410745
C      71.27384057      92.20636172      73.00858900
O      71.44769539      93.85798252      71.43444699
N      69.16679573      91.87943907      74.45989881
H      68.81719637      90.33742240      75.52948391
C      66.85755018      93.49704479      74.25958782
H      66.83865291      94.49482029      72.45678892
C      64.30075048      91.90211578      74.22935220
H      62.63779132      93.09642281      74.45800909
H      64.45948749      90.46592379      75.69389009
C      63.89634905      90.71725739      71.62341962
H      62.38456799      89.32074964      71.71412648
H      65.63489724      89.69869490      71.20012092
C      63.18014276      92.69958029      69.41055010
O      64.89034509      94.13766201      68.47891503
O      60.92947874      92.97925978      69.10819389
C      66.88778579      95.53416976      76.52725940
O      65.00750812      96.76060213      77.00158070
N      68.94380802      95.79306226      77.87652399
H      70.39511783      94.65166757      77.38897460
C      69.47671084      97.62042761      79.94010512
H      68.52428879      99.41944706      79.62641055
H      71.46281319      98.14010234      80.10640104
C      68.49972235      96.69635144      82.72178225
O      69.41623961      97.69601666      84.48489690
N      66.98227212      94.74426416      82.84650419
H      66.26039665      93.94679965      81.27047244
C      65.78229590      93.87499005      85.17464701
H      64.62956286      95.29039506      86.13084852
C      64.11177785      91.43724311      84.87229080
H      62.92502972      91.32385953      86.55036776
H      65.29852597      89.77050450      84.63418528
C      62.36945018      91.54684724      82.60083977
C      62.16724946      89.38122088      81.03992583
H      63.10833316      87.65968021      81.60117455
C      60.71971911      89.56830379      78.85918167
H      60.44948824      87.82975558      77.82550138
C      59.51785317      91.81707810      78.11462950
O      57.93993170      91.80196029      76.15120386
H      57.50718438      93.43468382      75.49168938
C      59.81076076      93.97514555      79.61507219
H      58.69015305      95.63243553      79.20122213
C      61.26396029      93.88821814      81.75046293
H      61.43025620      95.63243553      82.79737131
C      67.80241333      93.05673856      87.21366170
O      69.83764856      92.21392063      86.71666368
N      67.07864815      93.37988176      89.54180452
H      65.29474651      93.98459418      89.85549908
C      68.81341690      92.83753031      91.62617264
H      70.67101788      93.51783178      91.04980611
C      68.11043872      94.23592778      94.13194973
H      69.38789370      93.59720029      95.61727461
H      66.16591035      93.89766677      94.71776489
C      68.76806348      97.11020150      94.02801478
C      66.82731456      98.81284491      93.33070577
H      64.98672113      97.97380643      93.05858519
C      67.26762078     101.29594529      92.79591323
H      65.73316302     102.43733998      92.08348641
C      69.80552323     102.22947008      93.06614409
O      70.45180962     104.61241497      92.27245904
H      68.88522651     105.48168907      91.97955146
C      71.87666327     100.55139312      93.64062089
H      73.80607382     101.21090760      93.59715718
C      71.34565016      97.95868862      93.93352847
H      72.78184217      96.53572470      94.22076687
C      69.29718684      89.96136686      92.35371727
O      67.62477906      88.41557074      92.10238367
N      71.71414680      89.21870442      92.77890569
H      72.99916070      90.63032998      92.74678034
C      72.71948120      86.65623554      92.65985293
H      71.13589054      85.38256000      92.99433449
C      73.60576284      85.91735255      89.98022102
H      75.48793025      86.61844101      89.52479698
C      73.58119640      83.09410144      89.66652645
H      74.91345345      82.14167938      90.91563555
H      74.00638482      82.64434658      87.70310081
H      71.61966048      82.47238148      89.77802031
O      71.80107421      86.87544379      88.17364267
H      71.12455218      88.44958581      88.77268591
C      74.76983424      86.09876628      94.77823613
O      76.13988583      87.79385078      95.65506914
N      74.76983424      83.84432279      95.78168080
H      73.36576759      82.66324384      95.25066771
C      76.41389614      83.01851239      97.88872564
H      78.10142174      84.19014270      97.75077562
C      75.17423568      83.50228232     100.42662808
H      74.47314721      85.43169289     100.25466298
C      72.77806272      81.82231563     100.64394661
H      73.13711072      79.82676464     100.99921515
H      71.57808651      82.07742868      98.98854636
H      71.77650777      82.58387533     102.27667014
C      76.83530511      83.33409668     102.81146269
H      77.62332097      81.43870119     102.98531751
H      75.66745425      83.74227756     104.45930403
C      78.95179857      85.12744695     102.65650513
H      78.25448957      87.06063697     102.50343730
H      80.08752410      84.64745647     101.00677406
H      80.22547411      84.76461950     104.23253687
C      77.11309488      80.20093045      97.61471533
O      75.90933922      78.79686380      96.13694935
N      79.21636027      79.33921526      98.83358880
H      80.25759946      80.42013871     100.01466774
C      80.01760422      76.73706212      99.11137857
H      78.72125197      75.50685029     100.13372050
H      81.62954077      76.85044570     100.39072328
C      80.72436185      75.57110099      96.44686446
O      82.44590254      76.36856549      95.16374030
N      79.48281167      73.48862259      95.73443764
H      78.07118612      73.06154444      96.94575221
C      79.83052131      72.15636554      93.41007428
H      81.51804691      72.86123345      92.46521112
C      80.28972481      69.22917948      93.87494695
H      78.62676565      68.42415607      94.78768476
C      80.46357962      67.72117788      91.45231782
H      78.85164309      68.06321835      90.21832654
H      80.35964469      65.71995772      91.93041858
H      82.22102510      68.18983001      90.49044713
C      82.42133609      68.74351982      95.75711436
H      82.04717027      69.86601725      97.44463996
H      84.10130279      69.67137544      95.01256219
C      82.84274505      65.99018858      96.29001718
H      84.38098227      65.61980222      97.61093587
H      83.68367326      65.16626791      94.60060186
H      81.00026191      65.21162134      96.77945630
C      77.42112026      72.67793000      91.90018296
O      75.70146931      71.18693594      91.68097470
N      77.23592709      74.97583720      90.89673828
H      78.77983348      76.08888600      91.00256296
C      75.30084734      75.67881539      89.06937294
H      74.93235071      74.20104941      87.68420355
H      75.61832136      77.34555400      87.89963235
C      72.74971681      76.13801888      90.33171012
O      70.93557956      76.24762301      88.94465100
N      72.50972158      76.46305181      92.92063516
H      74.12354785      76.66903197      93.91841066
C      69.94725270      77.04130806      93.93163874
H      68.71704087      75.64102086      93.05480573
C      69.77150814      76.45171345      96.75866931
H      70.93368983      77.77641159      97.82636467
H      70.55385485      74.54875905      96.85882480
C      67.16746528      76.46494153      97.86415920
N      65.57820546      74.40702958      97.66006876
H      65.92024593      72.73840124      96.80024328
C      63.40124075      74.94182212      98.81469153
H      62.00284328      73.64735960      99.54223616
N      63.63934627      77.27374440      99.85026155
H      62.30330976      78.07309863     100.95386172
C      65.96748909      78.32065277      99.26255667
H      66.72148988      80.17069483      99.69341427
C      68.83042445      79.70015298      93.59526746
O      69.89434035      81.59932793      94.53068198
N      66.59676795      79.83243382      92.36316590
H      65.95993018      78.13923905      91.75467403
C      65.09254580      82.19270199      91.82270418
H      66.35299324      83.77440291      91.44475891
C      63.25762154      81.44437037      89.65140864
H      62.25228715      79.75684477      90.27501833
H      64.52184845      80.90768810      88.11506115
C      61.45860210      83.73093921      88.98055580
H      60.06776353      83.82353580      90.49611630
C      62.80975642      86.19703205      88.19442966
H      64.24594841      85.82475596      86.76579656
H      63.48060925      87.07575478      89.93486759
H      61.46994045      87.46314867      87.27602267
C      59.70682581      83.08654253      86.70721505
H      59.17959217      84.89312089      85.87006629
H      58.13079407      81.82420536      87.10783703
H      60.89924311      82.23994515      85.25590524
C      63.62044900      82.97504868      94.19242097
O      62.27496387      81.44814982      95.32625676
N      63.88123124      85.40334699      94.78390531
H      65.01128757      86.53907251      93.74644556
C      63.05164138      86.47293209      97.27645432
H      62.62645295      85.01595310      98.67296206
C      65.27584925      88.08486863      98.29123735
H      64.50295119      89.83853465      99.04523814
H      66.61188576      88.54029267      96.78890493
C      66.98416184      86.68080198     100.11482324
H      67.60210234      84.92335651      99.23610050
C      69.43891632      88.07730973     100.47576096
H      70.51983977      88.09431726      98.72398467
H      70.59731855      87.09276232     101.86659953
H      68.92680049      89.90845452     101.26755629
C      65.87867195      86.29340809     102.74721199
H      65.58765410      88.14911933     103.59002993
H      67.43202697      85.38067028     103.74687721
H      64.38200871      84.88934144     102.93429490
C      60.58932799      88.12644261      96.92118577
O      58.63724071      87.61243705      97.92085099
N      60.61200471      89.88388808      95.11271769
H      62.07276315      90.06152236      93.89762367
C      58.46527562      91.38622050      94.19242097
H      56.67192534      90.37143747      94.24155386
C      57.84544538      93.54806740      96.05947057