 %block lattice_cart
   135.996   0.000   0.000
   0.000 142.663   0.000
   0.000   0.000   160.158
 %endblock lattice_cart

 %block positions_abs
N      92.58806365      44.24794248      78.05699284
H      92.66365270      42.80230185      79.30043277
H      94.26425089      45.10020905      77.73007019
H      92.00980740      43.62055335      76.35056998
C      90.80038256      46.19436058      78.74863268
H      91.75469435      46.85576479      80.44938636
C      90.39409140      48.02361566      76.63969811
H      89.44922824      47.24693815      74.98429787
H      92.19311085      48.78895481      75.98774253
C      88.53082126      50.24215435      77.25952835
H      86.85085456      49.56563232      78.23651685
H      88.08106639      51.05851612      75.42271436
S      89.74213582      52.61943005      79.10390122
C      92.55971776      53.49437333      77.48251605
H      93.28915211      55.28205442      78.19683259
H      92.09484508      53.83830353      75.50397259
H      94.01480702      52.08274778      77.84534350
C      88.31161300      44.96036931      79.31177111
O      87.52359713      43.30307932      77.97006544
N      87.19856421      45.73326737      81.40936733
H      87.94122665      47.19969498      82.37690720
C      84.56428573      45.18335701      81.94982906
H      83.69690135      44.08731574      80.43615827
C      84.44901242      43.91157121      84.48584177
H      85.71323932      42.30530384      84.23072871
H      82.52905049      43.29174097      84.90158156
C      85.40710366      45.47626458      86.75540306
O      86.20267844      47.60031697      86.73272635
N      85.47891326      44.17802262      88.84733009
H      86.34629764      44.97359739      90.34966252
H      84.72302274      42.42435659      88.83788147
C      82.98258480      47.67401628      81.96116740
O      83.98791920      49.81696592      81.73628998
N      80.50137415      47.36788062      82.32021540
H      79.83619049      45.58019953      82.37312775
C      78.56629441      49.42957203      82.55832093
H      78.69101634      50.53884138      80.82733162
C      75.90178031      48.35431777      82.61501272
H      75.77894810      47.48693339      80.74985284
C      75.23470692      46.35687705      84.64646849
H      75.23092747      47.26394568      86.49840029
H      76.69357563      44.90556725      84.71260893
H      73.55474023      45.29485087      84.10978622
C      73.68891079      50.24026462      82.63957916
H      73.76638957      51.33063671      84.38568627
H      71.90878861      49.20847405      82.72083739
C      73.51316625      52.11109367      80.42293019
H      73.19191277      50.89033047      78.79587584
H      75.32541378      53.07674382      80.27364181
H      72.04295918      53.53972676      80.62891035
C      79.16533765      51.39866686      84.60489452
O      78.64755264      53.66066924      84.20616226
N      80.38043167      50.70891674      86.73083662
H      81.03994615      48.98170690      87.21082710
C      80.82073790      52.37943481      88.82087393
H      79.30706712      53.76838365      88.96260340
C      80.75459748      51.02261131      91.32854074
H      80.86420160      52.63454787      92.60599573
H      82.58196282      50.10042488      91.55152845
C      78.46046973      49.41256449      91.79341342
C      76.02272279      50.56529754      92.16379978
H      76.02083306      52.59297388      91.92569425
C      73.90811905      49.01761169      92.49828134
H      72.20358591      49.95302623      93.12378073
C      74.16323210      46.35876677      92.46615599
H      72.65900995      45.15879057      93.14456773
C      76.51027218      45.25516660      92.11466688
H      76.86365100      43.25961562      92.37166967
C      78.64944237      46.76505794      91.92758399
H      80.54483786      46.02617494      91.77262642
C      83.18478552      54.02349670      88.11222656
O      83.17722661      56.20424087      88.72638761
N      85.26348446      52.96713970      87.01996475
H      85.24647692      51.13977434      86.46816466
C      87.28927107      54.63576803      86.29053039
H      87.77493073      55.79983943      87.91758474
C      89.65331869      52.75360061      85.99951254
H      89.26592479      51.59519839      84.34222256
H      89.87063721      51.56496277      87.66814088
C      92.12886016      54.25593303      85.80865019
H      92.35184786      55.48236542      87.44704290
H      92.07972727      55.42000445      84.10978622
C      94.27180980      52.39644234      85.49684534
O      96.42798752      52.95769106      86.17714681
O      94.07905771      50.15522694      84.90725073
C      86.54660863      56.12298263      83.87546016
O      87.63131153      58.19034322      83.73939986
N      85.01970977      55.08363316      82.25596472
H      84.78727343      53.19957602      82.44493734
C      83.90855069      56.27605046      80.22450893
H      85.38442695      56.83729918      78.89981078
C      82.18512030      54.50348718      78.60690321
H      80.93790093      53.68712541      80.02986712
H      83.47958282      53.16745068      77.72062156
C      80.52972005      55.59385926      76.36757753
H      81.70135036      56.86186562      75.24319037
H      78.90644514      56.71257724      76.96473103
S      78.94612940      53.24681918      74.37391626
C      80.80184064      53.77972200      71.58656995
H      80.12342889      52.44179578      70.17494440
H      82.80495053      53.78917064      72.05711181
H      80.26704809      55.64299216      70.89115066
C      82.75014846      58.91032895      80.87835423
O      83.10730674      60.77548882      79.47050813
N      81.44812704      59.09174267      83.07988539
H      81.37631744      57.43256297      84.02096909
C      80.45980017      61.51815125      83.87923961
H      79.80784460      62.81450351      82.41848118
C      78.24882039      61.04194023      85.70849469
H      77.64410797      62.72757610      86.72705717
H      78.80439992      59.58496125      87.05397982
C      75.85264742      59.79661058      84.48773149
H      76.58397151      58.71946658      82.89280249
C      74.19724717      58.10908500      86.22816943
H      72.66089968      57.30973076      85.11323089
H      73.47726145      59.31662010      87.73239157
H      75.36509803      56.65210600      87.09933326
C      73.99882591      61.76948486      83.29720392
H      75.06841100      62.80505487      81.87424000
H      73.28072991      62.92032819      84.84866922
H      72.38310991      60.78115800      82.48651133
C      82.46479979      63.11874944      85.11512063
O      82.74636901      65.33728813      84.58032808
N      83.94634522      61.98680339      86.75540306
H      84.01626509      60.08384899      86.63635031
C      85.88709414      63.32472961      88.20671287
H      84.98569469      64.84029012      89.27251852
C      86.94156143      61.44256221      90.22683030
H      88.54215961      60.36163876      89.50873430
H      85.38253722      60.20479147      90.75973312
C      87.94878555      62.86363640      92.39623610
H      86.46346067      64.02014889      93.23338487
H      89.41710290      64.24313661      91.97104769
C      88.88042062      61.19500806      94.40690491
H      89.70245157      62.24947534      95.97348801
H      90.23346466      59.80416949      93.71715481
N      86.76959633      59.71157290      95.55207906
H      86.15921473      58.07129047      94.79240907
C      85.72835713      59.97991405      97.70825677
N      86.27637776      61.74113897      99.36176729
H      85.46379545      61.56917386     101.07952851
H      87.31383751      63.30205290      98.99893984
N      84.17122265      58.39443366      98.44147058
H      83.26793347      58.64387754     100.10254001
H      83.93500686      56.69745943      97.60054238
C      87.90532185      64.79304695      86.58910714
O      88.90309734      66.57316914      87.47160934
N      88.53271098      63.68755706      84.37434791
H      87.71068004      62.04916436      83.84333481
C      90.48857772      64.80060586      82.75107300
H      91.95878479      65.74546902      83.84333481
C      91.90020327      62.79938569      81.21094607
H      92.36507595      61.20067724      82.42226063
C      90.22779549      61.58807113      79.19838753
H      89.86685776      62.72001719      77.51464140
H      88.40043014      60.97957926      79.92593217
H      90.97045793      59.80605922      78.48596072
C      94.35306803      63.81227900      79.94104999
H      95.33005653      64.90076136      81.39047006
H      93.78992959      64.82328259      78.23651685
C      96.13507994      61.58051222      79.27397659
H      96.13319021      60.10085652      80.70449941
H      98.04748297      62.34774112      79.27208687
H      95.52658807      60.85107788      77.44472153
C      89.31127822      66.89442261      81.18448990
O      90.53393115      68.66131672      80.30198770
N      86.87542101      66.54482325      80.43237883
H      86.15543528      64.77792915      80.50229870
C      85.52426669      68.28526118      78.61257238
H      86.73747099      68.91265033      77.07055572
C      83.18856497      67.13063840      77.45039070
H      82.03205247      68.69155234      76.75875086
H      82.20590729      66.30293828      79.06043751
C      83.67989381      65.26736827      75.25074928
O      85.77371057      65.02548330      74.22840733
O      81.94890451      64.00125164      74.44761558
C      84.73058164      70.79481773      80.08088972
O      84.93467208      72.90942147      79.06232725
N      84.20901718      70.41309302      82.55454148
H      84.28460623      68.69155234      83.37468269
C      83.06951221      72.45399743      83.99073347
H      82.26826826      73.96766820      82.84555933
C      80.87931942      71.50157538      85.67070016
H      80.46546935      73.13051945      86.86122773
H      81.47080375      69.88019019      86.79319760
C      78.51527180      70.53403549      84.31576639
H      77.31907504      69.73279154      85.78786319
H      79.02927735      69.20177844      82.83233123
C      76.91656334      72.63730088      83.11012100
O      77.63465934      74.85583957      83.16114361
O      75.15533841      71.81904939      81.82321738
C      85.04427621      73.55003869      85.79731183
O      84.56806518      75.59283283      86.64957839
N      87.14754160      72.35195221      86.32076602
H      87.28171216      70.65686770      85.45338163
C      89.01648092      73.13618863      88.02151969
H      89.89142420      74.82182450      87.22405520
H      90.27692837      71.50913427      87.92136421
C      88.11130201      73.39508113      90.77674065
O      86.02693389      72.62407280      91.48349831
N      89.52103784      74.82371422      92.26962445
H      91.06116479      75.69487805      91.55341817
C      88.75758841      75.70243696      94.83587278
H      86.70156619      75.64952462      94.96815363
C      89.55883237      73.77302639      96.80685733
H      91.37296963      72.96044408      96.27395451
H      88.45523220      72.08928025      96.37222027
C      89.44733852      74.53080665      99.51105567
H      90.25236193      76.38084871      99.93057491
C      86.72802235      74.60639570     100.58630995
H      86.65999221      75.45110336     102.46469791
H      85.73591604      72.80926597     100.73937778
H      85.73402631      75.81582054      99.24649400
C      90.74558050      72.57493991     101.06063126
H      90.09740437      70.67954442     100.58819967
H      90.40354003      72.77525090     103.08263841
H      92.72412394      72.79225844     100.53339762
C      89.70245157      78.28569283      95.71270578
O      92.02492521      78.86961826      95.48593863
N      87.87319650      79.65574442      96.70859155
H      86.04961061      79.09638542      96.59331825
C      88.40231987      81.77034815      98.46414731
H      90.35818660      81.57003716      99.08019807
C      87.87886568      84.35360402      97.41345947
H      88.43255549      85.58192612      98.97248368
H      85.85496880      84.63328351      97.14889779
C      89.40198509      85.07170002      95.01917624
H      91.26336550      84.31958896      95.46704137
H      89.28671178      87.12583252      94.90012347
C      88.51192399      83.87550326      92.65512861
H      86.46346067      83.93408478      92.43781008
H      89.03348846      81.88373173      92.56820121
N      89.48891250      85.44964528      90.42714130
H      90.68132980      86.86882974      90.87311671
C      88.94467132      85.10004591      88.07821148
N      87.45367726      83.25756276      87.41113810
H      86.89998745      83.00244971      85.60267002
H      86.96801760      81.76278926      88.49395128
N      89.68355431      86.66284957      86.35100163
H      89.50780976      86.27923513      84.49151094
H      90.97045793      87.93085593      86.96705242
C      86.93967170      81.68153101     100.97559358
O      84.69278711      81.21854808     100.94913740
N      88.13964791      82.02357148     103.17145554
H      90.01803586      82.26356672     102.92768086
C      87.05494501      82.13884478     105.69990935
H      85.74914412      80.60438702     106.12320805
C      89.10529806      82.01412284     107.63309938
H      88.27003903      82.53190786     109.44345717
H      90.43188593      83.51456554     107.14554999
C      90.38275304      79.54047110     107.78994665
H      90.97801683      79.07937788     105.87187445
C      92.73168285      79.93920335     109.36786813
H      92.32728142      79.78991497     111.38420611
H      93.46300693      81.85349611     109.15432906
H      94.17543375      78.48222438     109.18456467
C      88.80294185      77.30303515     108.71402283
H      90.07850711      75.84605616     109.41511128
H      87.62942181      76.56415216     107.18901368
H      87.40832383      77.85294550     110.12564837
C      85.83796126      84.76934381     106.03439091
O      83.96335276      84.95453699     107.36853769
N      87.04171692      86.63072423     104.84953251
H      88.59129250      85.97687892     103.94435361
C      85.93433730      89.14783968     104.36576257
H      85.02537895      90.00766515     106.00226556
C      87.98658008      90.92418241     103.33019255
H      87.22313065      92.81957790     103.05807197
H      88.68577881      90.30624192     101.49526830
C      90.19000096      91.11315504     105.24637503
H      90.67188117      89.24610544     105.96825048
H      89.43222071      92.25266001     106.78650199
C      92.50869515      92.22431411     104.04639883
H      91.80004778      94.06679727     103.45680422
H      92.95278083      91.28323041     102.26816637
C      94.85006605      92.35659496     105.65833538
H      95.51335998      90.43852275     106.00604502
H      94.59117354      93.41295196     107.40633221
N      97.04970748      93.63027049     104.34119613
H      96.45822314      95.18740497     103.41334051
H      97.90953295      92.38305112     103.17901445
H      98.31204465      94.22931373     105.64132783
C      83.85941781      88.83414511     102.34564514
O      83.91799933      87.39606338     100.55985379
N      81.98480931      90.54056797     102.54406642
H      82.05472918      91.79723597     103.98025841
C      80.30862207      91.07347079     100.38410924
H      79.39966371      89.25744380     100.04206877
C      78.40755740      93.23153824     101.28550868
H      79.51493702      94.71497340     102.19068759
C      77.12065378      94.56190556      98.98382204
H      78.54361769      95.14394127      97.61754992
H      76.28728447      96.31746131      99.66601324
H      75.48981997      93.49798965      98.30918974
C      76.35531462      92.33391824     103.15444801
H      77.20758119      91.57424826     104.86654004
H      75.21769938      90.91473378     102.18879786
C      74.59408970      94.27844663     104.34497558
H      73.57930667      93.41673142     105.91722788
H      73.34498061      95.14772072     102.95791647
H      75.64666725      95.84502973     105.16889625
C      81.86575655      91.94463462      98.02573079
O      83.58729722      93.50743828      98.19580616
N      80.84341462      91.24543588      95.93569350
H      79.29950822      90.12671792      95.95081131
C      81.51048800      92.31502098      93.38645270
H      82.76904573      93.94207533      93.50361573
C      83.08274030      90.48387618      91.75750862
H      84.85908303      90.27222683      92.77985055
H      83.59863558      91.24921534      89.91691518
C      82.06039836      87.96298128      91.51751337
C      81.35930990      87.26000309      89.02496436
H      81.30261811      88.57336288      87.46216071
C      80.77538447      84.64273215      88.36922933
H      80.25570973      83.82448065      86.57398933
C      80.82262763      82.98355245      90.41391321
O      80.16878232      80.51934934      90.03218849
H      80.13665697      80.04502804      88.28041219
C      81.64843802      83.67897173      92.85543960
H      81.76749078      82.38450921      94.42580216
C      82.30984223      86.23766115      93.46771093
H      82.83329642      86.69875437      95.38578313
C      79.23147807      93.31657592      91.88789973
O      77.04695445      92.97453546      92.62111354
N      79.56406990      94.37482266      89.81298023
H      81.33663318      94.86426177      89.29708496
C      77.62332098      94.91150493      87.86845186
H      75.83941934      94.36159457      88.73583625
C      77.41545108      97.77633002      87.53208058
H      75.75060220      98.04845061      86.35100163
H      79.11053559      98.53788973      86.64012977
C      76.77483386      99.20496311      90.09643919
H      78.22992312      98.84780484      91.50806475
H      74.95502742      98.49442602      90.74650504
C      76.43090367     102.09246493      89.85266449
H      78.10709091     102.87103216      88.94370614
H      76.31752010     102.81245065      91.78018533
C      73.94402385     102.91449588      88.43725948
H      72.37933046     102.16238479      89.54841856
H      73.93079576     102.31356290      86.46627494
N      73.82875054     105.60924559      88.71315953
H      73.35253951     106.08356689      90.50084061
H      72.33208730     106.18750184      87.68136896
H      75.38966448     106.57489573      88.19726424
C      77.75749155      93.47531293      85.51574260
O      79.77382952      93.17862590      84.38001708
N      75.61643163      92.94429984      84.26285405
H      73.96859029      93.43751841      85.08866445
C      75.46903298      91.64983731      81.79298177
H      76.93924005      90.21175559      81.70794409
C      72.85176204      90.57458304      81.71928245
H      71.44769539      92.05423876      81.44338239
H      72.57019282      89.64861715      83.53719915
C      72.61743597      88.49021492      79.82955613
O      71.68958035      88.83414511      77.65070169
O      73.02372713      86.29813240      80.59489529
C      75.86776523      93.42051087      79.44783141
O      75.43879736      95.68440299      79.62735542
N      76.59908932      92.22431411      77.35212494
H      77.02994692      90.36671315      77.40881673
C      76.36476325      93.57735815      74.87469373
H      77.81985251      95.03244741      75.00508486
C      77.10742569      92.06935656      72.55599954
H      76.82774620      93.26555331      70.90248902
C      79.77760897      91.12449340      72.74119272
H      80.93979066      92.82713681      72.71284683
H      79.97225078      89.81680280      71.16138154
H      79.95146380      90.01144460      74.46651285
O      75.48981997      89.92073774      72.21206936
H      74.06874578      90.50088372      71.24452948
C      73.74182313      94.83591588      74.40226215
O      73.69646970      96.65194287      73.02276195
N      71.66879337      93.86081710      75.55688493
H      71.92201669      92.29045453      76.61135222
C      69.02695598      94.86237205      75.68538632
H      68.47326617      95.64093929      73.86180043
C      67.35076874      92.63816418      76.38647478
H      65.50828559      93.23720742      77.09323242
H      68.18791750      91.59125580      77.95305790
C      66.91802141      90.68229744      74.29076831
H      65.67080205      89.25933353      75.10335062
H      68.60365729      89.61838153      73.77676275
C      65.78985481      91.96731134      71.93427959
O      67.17502419      92.59847992      70.18817247
O      63.50895515      92.48509634      72.08356797
C      68.69814360      96.97130661      77.66770923
O      66.62322411      98.09191432      77.95872708
N      70.66534869      97.65349781      79.13413685
H      72.34153593      96.75587781      78.95272311
C      70.68046650      99.29189052      81.24118168
H      69.75450061     101.06634354      80.75363229
H      72.64956132      99.50920905      81.80620985
C      69.43324714      98.28088695      83.58444231
O      69.77906705      99.62259263      85.41747684
N      68.10854899      96.05289962      83.61467794
H      67.89878937      94.97386590      82.05376399
C      67.05408171      94.95496864      85.89746732
H      65.85221577      96.29856404      86.89713253
C      65.34198967      92.55312650      85.27007818
H      64.12689565      92.39816894      86.92547844
H      66.53440697      90.87693925      85.19259941
C      63.73383258      92.57580321      82.90036138
C      62.92313999      90.32324944      81.72873108
H      63.52407296      88.45808957      82.30887706
C      61.20726850      90.36482342      79.71050338
H      60.59310744      88.64895193      78.79020665
C      60.23027999      92.77800392      79.00563546
O      58.24606736      92.95185874      77.29354341
H      57.70938509      94.65072270      76.94961323
C      61.04664176      95.06268304      80.09600754
H      60.42114235      96.84658468      79.32688892
C      62.81353586      94.98898371      81.99707220
H      63.37667430      96.74264974      82.87957439
C      69.02317653      94.23687264      87.92514365
O      71.08297821      93.37326771      87.25807026
N      68.29185244      94.31624114      90.41580293
H      66.50417135      94.83591588      90.84288108
C      69.96803968      93.73231571      92.46615599
H      71.79351530      94.40316855      91.78585452
C      69.23671560      95.15716935      95.00972760
H      70.52739867      94.40505828      96.42891206
H      67.33376120      94.57891310      95.55018932
C      69.39923206      98.00687663      94.47682478
C      67.43391670      99.60936454      93.34865817
H      65.78040617      98.61536850      92.68914369
C      68.02351131     102.05467039      92.66835669
H      66.59676794     103.06945342      91.61766887
C      70.24016027     103.27354388      93.58865342
O      70.46881716     105.77365178      93.16724444
H      69.09876558     106.63347725      92.34710323
C      72.02028246     101.85057996      94.99083033
H      73.59064503     102.87481161      95.79396403
C      71.61777076      99.15583023      95.33665025
H      73.16356688      98.15616501      96.21915244
C      70.30252124      90.91851323      92.88189578
O      68.41090520      89.55602056      93.11433210
N      72.59664899      90.07380557      93.38456297
H      73.94780330      91.41362153      93.50928490
C      73.30151690      87.29968734      93.42046777
H      71.63477829      86.16018238      93.81920002
C      74.52416982      86.38694953      90.87689615
H      76.46302902      87.07292019      90.75217421
C      74.58464107      83.54480116      90.46871527
H      75.61454191      82.63584280      92.00317304
H      75.50304805      82.93819901      88.72638761
H      72.64767160      82.84938187      90.54808378
O      73.08041892      87.17307569      88.80197667
H      72.78940107      88.89839580      89.28196715
C      75.18368431      86.83670440      95.54640987
O      76.69546536      88.38816970      96.40245590
N      75.23659664      84.45942869      96.51961893
H      74.08953277      83.10827439      95.80908184
C      76.69168591      83.65629501      98.61910485
H      78.39999849      84.79957943      98.46792676
C      75.30651652      84.15707249     101.16267648
H      74.81140822      86.15640292     101.11543331
C      73.01616823      82.35049413     101.44046625
H      73.61521147      80.40974520     101.79006562
H      71.78406667      82.63206335      99.81719134
H      71.91634751      82.80024899     103.12421238
C      77.03561609      83.65251556     103.47570149
H      78.95746775      84.28746360     103.09964594
H      77.15844830      81.64373649     103.91789743
C      76.28539475      84.86760958     105.92289705
H      74.82652603      83.85660600     106.96602598
H      75.76949946      86.80268932     105.44101685
H      77.83874978      85.03768495     107.26649246
C      77.19246338      80.83871308      98.41312469
O      75.72414603      79.47433068      97.33031152
N      79.10864586      79.95999034      99.66790296
H      80.05161929      81.20154053     100.76772368
C      80.21791521      77.37673447      99.64144680
H      78.97258557      76.02180071     100.56363323
H      81.91866889      77.28602761     100.79606957
C      80.92467285      76.34116445      97.02984502
O      81.96969150      77.63751670      95.31586326
N      80.19712822      73.99412437      96.54229564
H      79.37887672      73.00012833      97.95203147
C      80.39554948      72.65052896      94.10643842
H      81.97536068      73.48767772      93.08787593
C      80.90955504      69.74035044      94.70359193
H      79.24281643      69.17343255      95.77128730
C      81.47269348      68.37596804      92.17324841
H      80.36342413      69.13941747      90.61233447
H      81.24781605      66.33128417      92.28474225
H      83.42289103      68.62163246      91.55908736
C      83.23580813      69.53248055      96.41568398
H      82.96368754      70.44521836      98.24115959
H      84.81183987      70.26191490      95.31019409
C      83.55517187      66.78103904      97.16968478
H      83.90477124      65.48657651      95.60688111
H      81.87898463      66.01003070      98.08431232
H      84.96112825      66.59773558      98.66445828
C      77.92189774      73.12485028      92.78551973
O      76.24571050      71.52047263      92.80063755
N      77.56662919      75.37362458      91.54396955
H      79.00660064      76.62462340      91.56097708
C      75.65422616      76.18053772      89.88290012
H      75.48604052      75.05048138      88.16891835
H      76.20035706      78.04380786      89.19881918
C      72.93868945      76.52824736      90.77296121
O      71.20770015      76.42998160      89.22338562
N      72.68735585      76.73422753      93.25606158
H      74.22559307      76.59627751      94.37855902
C      70.23449109      77.25768171      94.42580216
H      68.90223404      76.01424180      93.46771093
C      70.15512259      76.60194669      97.28684781
H      70.86943914      78.17608870      98.40556578
H      71.39289332      74.98056151      97.57030675
C      67.52840301      76.20321443      98.22982124
N      65.76717809      74.30214976      97.60999101
H      66.17724870      72.88863448      96.39111754
C      63.46171199      75.00701768      98.36966098
H      61.73072269      73.96577849      98.07864313
N      63.55052912      77.36350639      99.27672961
H      62.04630698      78.41608394      99.80207354
C      66.11110828      78.04002841      99.35231867
H      66.82920428      79.92219582      99.67546186
C      69.49938756      80.07148419      93.92880414
O      70.50850141      81.90451872      95.03240432
N      67.26195160      80.35872259      92.56820121
H      66.47771518      78.75245523      91.89356892
C      65.94859182      82.76812364      92.25072718
H      67.27517969      84.27990469      91.80286205
C      63.82264971      82.47710579      90.29108099
H      62.53385637      80.93508912      90.74650504
H      64.79207931      81.91585708      88.56009170
C      62.10110904      84.83926368      89.83187750
H      61.36789523      85.37594596      91.68002983
C      63.50328597      87.00111058      88.59788622
H      65.20970883      87.75700111      89.47093978
H      62.33165565      88.68485673      88.42025194
H      64.08910112      86.12049812      86.83099211
C      59.81076075      84.42352389      88.18970534
H      58.33488450      83.21787851      88.97205203
H      60.36256083      83.35771825      86.51540783
H      59.02085515      86.32080911      88.04797587
C      64.67869573      83.39929223      94.82075496
O      63.11400235      82.01412284      95.76939757
N      65.37411502      85.61972065      95.76750785
H      66.86699880      86.57592216      95.05697076
C      63.92847439      86.91607290      97.75172048
H      63.14234824      85.51011653      99.03295493
C      65.62355889      88.81524785      99.30318579
H      64.43681077      89.72798565     100.72237025
H      66.46259737      90.26088848      98.09754040
C      67.74194209      87.37905585     100.78851066
H      69.08742722      86.50033311      99.49971731
C      69.24238478      89.33492259     102.22848211
H      70.36677194      90.34403643     100.82819492
H      70.69936377      88.44864094     103.38688434
H      68.00839350      90.59348031     103.29617748
C      66.63456247      85.42507885     102.52327942
H      68.16146133      84.48021568     103.52861381
H      65.56686710      83.88117244     101.67290257
H      65.47238079      86.48899475     103.84797757
C      61.59277266      88.33525736      96.84087239
O      59.50084564      87.57369766      97.56274784
N      62.02740972      90.47253782      95.49349753
H      63.83398807      90.97142557      95.12500091
C      60.07532244      92.15628397      94.52406794
H      58.37267903      91.10181668      94.04218772
C      59.22872505      94.09514316      96.55363400