 %block lattice_cart
   135.996   0.000   0.000
   0.000 142.663   0.000
   0.000   0.000   160.158
 %endblock lattice_cart

 %block positions_abs
N      90.18244205      40.71793374      82.17848593
H      91.98524096      40.41746724      81.62857558
H      89.35474193      39.18347596      81.40369815
H      90.20700850      40.54596863      84.07766088
C      89.09962888      43.14434232      81.44716185
H      89.30749877      44.60699048      82.88335385
C      89.90654201      43.71692939      78.86768543
H      89.43222071      42.25428122      77.49763386
H      91.94933616      43.92857874      79.02264299
C      88.84451582      46.24916264      77.98707297
H      86.83384703      46.06207975      77.57511264
H      89.69300294      46.53451132      76.13325146
S      89.77804062      48.98548634      79.85790202
C      90.15787561      51.34386478      77.37669137
H      88.51381372      51.36465177      76.13514119
H      91.86051902      50.99048597      76.27498093
H      90.25614138      53.16367123      78.33667234
C      86.16677364      42.85521420      81.43015431
O      85.08018101      42.25428122      79.51397183
N      84.77971453      43.36921974      83.54286833
H      85.72646741      43.54685403      85.19070968
C      82.01693466      43.59031773      83.56743477
H      81.51237773      42.53396072      81.87235027
C      80.92089339      41.98594008      85.84077553
H      82.14921550      40.35888574      86.12612420
H      79.07274106      41.21493175      85.35889532
C      80.60530910      43.44669853      88.39568550
O      78.58708140      44.47470965      89.16858357
N      82.59708063      43.69236294      89.62022815
H      82.54227857      44.24983221      91.44570377
H      84.27137815      43.23504918      88.82654310
C      81.17411672      46.31341335      83.53908888
O      82.68400804      48.06896909      83.73373069
N      78.66833963      46.67624079      83.57121423
H      77.50804767      45.25894607      83.03453195
C      77.51749630      49.14800281      83.76774576
H      78.06551694      50.11932214      82.03675646
C      74.58464107      49.13666446      83.73939987
H      73.94969303      48.14833760      82.04809482
C      73.49804844      47.73448753      85.97305637
H      71.45714402      47.67212656      85.70093578
H      73.63599846      48.73037329      87.77018609
H      74.24638006      45.81641532      85.94660020
C      73.32230389      51.84275254      83.44082311
H      73.81741218      52.92745543      85.11890008
H      71.27762002      51.58574975      83.43326421
C      74.02339235      53.24303973      80.91992821
H      73.16734633      55.11764824      80.94449465
H      73.08419837      52.30573548      79.34389646
H      76.02839197      53.67011788      80.69694050
C      78.45480056      50.91111747      85.85211389
O      78.97636502      53.05784655      85.21716585
N      78.87998898      50.10798377      88.18781561
H      78.78361293      48.24093419      88.57331978
C      80.05350902      51.63110319      90.22305085
H      78.91400405      53.34697469      90.23627893
C      79.92500763      50.35742765      92.76851219
H      81.10797630      51.52716824      93.98360621
H      80.89632695      48.54329039      92.80441699
C      77.20191201      50.33475094      93.75494933
C      76.10965020      52.65344513      94.65067960
H      77.11120515      54.43167759      94.57320082
C      73.64166764      52.64021704      95.86577362
H      73.22025867      54.33908100      96.92024090
C      72.31696949      50.40089135      96.15679147
H      70.51417059      50.39333246      97.10921353
C      73.38466486      48.18046295      95.10610364
H      72.31885922      46.44191473      95.22137695
C      75.79784536      48.04629237      93.97793703
H      76.37988106      46.34742841      93.00850743
C      82.99203343      52.34730946      89.80164188
O      84.32806994      53.71169185      91.14145784
N      84.11831032      51.37976959      87.71160458
H      82.99959234      50.18546256      86.73083662
C      86.77715524      51.74826622      86.85366883
H      87.82595334      52.90099928      88.20104369
C      88.13964791      49.21981241      86.37745780
H      90.06527902      49.68846453      85.81431936
H      87.26848408      48.17290404      84.82977195
C      88.27570820      47.56252244      88.75662323
H      86.33306955      47.21292306      89.34243839
H      89.54371456      48.35242804      90.17202824
C      89.47190496      45.01139192      87.97994572
O      91.72634845      44.67691036      88.20293342
O      87.93933692      43.23126973      87.58121346
C      86.79794223      53.43201237      84.31954585
O      88.45901166      54.96647013      83.98128484
N      84.85341385      52.95958078      82.67737368
H      83.61186366      51.59141893      83.16114362
C      84.63420560      54.23703577      80.23773701
H      86.48613739      53.83263435      79.43271360
C      82.61597790      52.88588146      78.62769019
H      80.67900843      52.87832255      79.32877865
H      83.14132181      50.89599965      78.63524910
C      82.67077996      53.92712065      75.83845415
H      83.65343764      52.57029716      74.64225740
H      83.78949794      55.65244078      75.73073975
S      79.56973908      54.36931662      74.73674371
C      80.60152965      55.85086204      71.90782342
H      81.95646341      57.24925952      72.58056599
H      78.98959310      56.94501358      71.24452949
H      81.42545032      54.65088583      70.45084444
C      84.01626509      56.99036702      80.57599802
O      84.96679743      58.43978709      79.07366560
N      82.38165183      57.50626229      82.53564421
H      81.87898463      55.97558399      83.55798614
C      81.64843802      59.96479623      83.55987587
H      81.26104413      61.32539918      82.06321263
C      79.19935272      59.65488111      85.22472475
H      78.94801912      61.39909850      86.29242012
H      79.55651100      58.19412268      86.63446058
C      76.65767083      59.18622898      83.89246770
H      76.67656810      57.61397670      82.56399010
C      74.47314721      58.66844398      85.65747208
H      72.70625311      58.33207269      84.65402740
H      74.17079100      60.38620520      86.75162361
H      74.90022536      57.04705881      86.85366883
C      75.97170018      61.25925876      82.24651608
H      75.88666250      63.15843369      83.04209086
H      74.13488620      60.98335871      81.35834471
H      77.00538047      61.16666217      80.46828362
C      83.71012943      61.00414570      85.30031380
O      83.69690135      63.25292002      85.46849945
N      85.41655229      59.64921193      86.55509208
H      85.00837141      57.78405206      86.57965852
C      87.60107591      60.77926826      87.86845186
H      86.88486964      62.37608701      88.95315477
C      88.71412471      58.73647413      89.60322062
H      89.95000572      57.53271847      88.47883346
H      87.20990256      57.53271847      90.33265497
C      90.12197081      60.15565858      91.82175931
H      88.81239048      61.32917862      92.89323413
H      91.69044365      61.31406082      91.16224483
C      91.06116479      58.30561653      93.89478907
H      89.55127347      56.92233687      94.10265897
H      91.32005729      59.37520161      95.63711674
N      93.47812474      56.90532932      93.37889379
H      95.08250238      57.93145071      93.31653282
C      93.85040083      54.61309132      92.70804095
N      92.09862454      53.00493422      92.14868196
H      92.82238971      51.25126819      91.93514289
H      90.42054757      53.26004726      93.01984579
N      96.03681417      53.95168711      92.41891282
H      96.37696491      52.16022655      91.85766411
H      97.45410891      55.22725236      92.34899295
C      89.66465704      61.82239719      86.04864542
O      91.16321001      63.53826869      86.75162361
N      89.76859199      60.92477720      83.64680328
H      88.69144799      59.46212902      83.05909840
C      91.31060866      61.91499378      81.60022968
H      92.65231435      63.11308026      82.60178463
C      92.97734727      60.03471611      80.03742602
H      93.86929809      58.57395766      81.18448989
C      91.38052854      58.53427340      78.21006068
H      90.13330917      59.77393387      77.13858586
H      90.05016121      57.58941026      79.46672868
H      92.51436432      57.11508894      77.23685163
C      94.96722908      61.63909374      78.53131415
H      95.60595657      63.28882481      79.58389171
H      94.10362415      62.31183630      76.78709676
C      97.03836912      60.01581884      77.73384965
H      97.61662537      58.90088031      79.36657318
H      98.67487210      60.96446144      76.91748788
H      96.09350596      58.62309054      76.54899125
C      89.72323856      63.59118102      79.98829314
O      90.72101405      65.55649639      79.25318960
N      87.31950669      63.18111042      79.57633280
H      86.33306955      61.61641703      80.04876438
C      85.89654278      64.95367370      77.97384489
H      87.00581212      65.11619015      76.24474531
C      83.39643486      63.83495572      77.22929272
H      82.27393743      63.87841943      78.95650257
H      83.58351777      61.86586089      76.65292620
C      81.90355108      65.29004498      75.23374173
O      82.78038409      65.26547853      73.00575441
O      79.64532813      65.74924848      75.67215824
C      85.38064749      67.52181176      79.14547520
O      85.21813103      69.41909698      77.74896746
N      85.60363520      67.76180700      81.67581874
H      85.85685852      66.12719373      82.62824080
C      85.35608105      70.12207516      83.24051212
H      85.81906400      71.65842265      81.95171878
C      82.51393268      70.26002518      84.10222732
H      82.42133609      70.92142939      86.05053515
H      81.68812228      68.37407832      84.19293418
C      80.93223175      72.03825765      82.32966404
H      79.05195407      71.74157062      83.12145936
H      80.99081327      71.31827191      80.40025347
C      81.58229760      74.86339848      82.32777431
O      83.57595886      75.75345957      83.32743953
O      80.43145428      76.48100420      80.95961246
C      87.07762172      70.28459162      85.53086041
O      88.60830004      71.98156585      85.40991793
N      86.88297991      68.69911124      87.58121346
H      85.46568518      67.41976653      87.53208058
C      88.44200412      69.06193869      89.80164188
H      89.57017073      70.74946429      89.45204251
H      89.86874749      67.61062889      90.12478508
C      86.98691486      69.57027507      92.16191005
O      85.07640156      70.97245200      92.01073194
N      87.44233890      68.43077012      94.33131585
H      89.05994462      67.42732544      94.48438368
C      85.69056261      68.77659002      96.45347850
H      83.78571848      69.04493116      95.71837497
C      85.69434206      66.53348490      98.23171096
H      87.60296564      66.36718897      98.98760149
H      85.32584543      64.72879626      97.30952452
C      83.87075617      66.70544999     100.49182363
H      84.65121314      67.82227823     102.03573003
C      81.16844754      67.65220286      99.75483037
H      80.42011592      66.72434725      98.07675341
H      81.08152013      69.67609975      99.38255429
H      79.96091243      67.19677882     101.35920801
C      83.44178830      64.05227425     101.67857176
H      85.27104337      63.50614334     102.45524927
H      82.87298068      62.60285416     100.33119690
H      82.23992236      64.11274549     103.35097955
C      86.54849835      71.19166026      97.82353008
O      88.51003427      71.22000614      99.08775698
N      85.03860703      73.28547700      97.56085812
H      83.23958758      72.96611326      97.01094777
C      85.67166535      75.80637191      98.63611239
H      87.62375263      75.92731439      99.28239879
C      85.40899339      77.83215851      96.77662170
H      85.66221671      79.70298757      97.60432183
H      83.55139242      77.97577771      95.89789897
C      87.19478475      77.75467973      94.45036861
H      86.84518539      75.88385068      93.66235274
H      89.17143848      77.85105578      95.02484541
C      86.79983195      79.90896773      92.49450188
H      86.82628812      81.65129539      93.59054314
H      84.97435634      79.79558416      91.54774899
N      88.60830004      79.86550404      90.31186799
H      90.46968045      80.00723351      90.70115161
C      88.10374311      78.60505657      88.18592588
N      85.98347019      77.54680984      87.59633127
H      85.39387558      76.67942546      86.00329199
H      84.58696244      77.91152702      88.84733009
N      89.93488791      78.06270512      86.62123250
H      89.72701801      76.55470354      85.46849945
H      91.67343612      78.69009426      87.09366407
C      84.21279663      76.33549527     101.09275660
O      81.93189697      76.06715414     101.04929290
N      85.49403107      77.31059405     102.99382127
H      87.36108067      77.46744133     102.62721437
C      84.66822067      77.63373725     105.64132784
H      82.86164232      76.64541039     105.74337306
C      86.86219292      76.70210219     107.39688358
H      86.17244282      76.76824260     109.33385305
H      88.41743768      78.05136677     107.36664796
C      88.14153764      74.19821482     106.86587049
H      89.15443094      74.43443061     105.08952775
C      90.07283793      73.40452976     108.87464956
H      89.06561380      73.49523662     110.66799983
H      91.83595258      74.44198952     108.64410295
H      90.73046269      71.46189112     108.68756665
C      86.22157570      71.99101448     106.76760472
H      85.28427145      72.04014736     108.60063924
H      86.96801760      70.10884707     106.38588000
H      84.81372960      72.24234808     105.28794902
C      84.18823019      80.44753973     106.12320805
O      82.92967246      81.13728983     107.89955078
N      85.06317347      82.16908041     104.37521121
H      86.07228732      81.57192689     102.86909934
C      84.37720282      84.87516848     104.26182763
H      83.53627461      85.54413160     106.01927310
C      86.88675936      86.32458856     103.66089466
H      86.40298943      88.13872582     102.81429727
H      88.00925679      85.22665758     102.32485816
C      88.41554795      86.85182220     106.11942859
H      89.04860627      85.08303838     106.96791571
H      87.28171216      87.74377302     107.58774594
C      90.97612711      88.31069093     105.51471617
H      91.83217313      88.88327800     107.29861781
H      90.49235717      89.91506856     104.31851942
C      92.95656028      86.76678452     104.16167213
H      92.21956702      86.40206734     102.27383555
H      92.91498630      84.90540411     105.04039487
N      95.54359560      88.00644499     104.17490022
H      95.43588120      89.86026650     103.72892481
H      96.92876499      87.38850448     103.01460826
H      96.20877927      88.16140255     105.95691213
C      82.51204295      85.32114389     102.16801087
O      82.23425318      83.96243067     100.26694620
N      81.11364548      87.40551201     102.43446228
H      81.47080375      88.62060603     103.86309538
C      79.49037058      88.31258064     100.40867568
H      78.43968275      86.63261395      99.84931669
C      77.95402308      90.76922485     101.17779429
H      79.34675138      92.26588809     101.42723816
C      76.02083306      91.65928596      99.23515564
H      76.89766607      91.89550173      97.38700330
H      74.92668153      93.31468621      99.78884545
H      74.62810477      90.15506380      99.04429328
C      76.63688384      90.31380081     103.88388237
H      78.07307584      90.02089324     105.33141272
H      75.61832136      88.52611973     103.81774194
C      75.07596991      92.51533197     105.02149761
H      73.41679021      92.94618956     103.88199264
H      76.21358515      94.23120346     104.94968801
H      74.79251096      92.18651959     107.03594586
C      81.13821192      89.02311774      98.10509930
O      82.85786287      90.59348030      98.42257332
N      80.34263714      87.94408402      96.03773871
H      78.83652527      86.79324069      96.27206478
C      81.21569070      88.70942317      93.56030752
H      82.23236346      90.49521454      93.66991164
C      83.04872522      86.71954136      92.48694297
H      84.37153364      86.11293922      93.94203223
H      84.27893705      87.38283531      90.97327220
C      81.58418733      84.37061156      91.61766887
C      81.23836741      83.99644575      88.95504449
H      82.14921550      85.13784044      87.52830113
C      79.71902746      81.87806255      88.13112382
H      79.72469664      81.60405223      86.10911667
C      78.68723689      80.07148419      89.88667957
O      77.38710519      77.93987291      89.16291439
H      77.31529559      78.07026403      87.35444631
C      79.24281643      80.44565000      92.47182516
H      78.65511154      79.12473131      93.91179661
C      80.61097828      82.54324621      93.31653282
H      80.68278788      82.84560242      95.33287080
C      78.92723213      89.27445135      91.63467640
O      76.78239277      88.90973416      92.38489775
N      79.31651575      90.02467268      89.29330550
H      81.15899891      90.19285833      88.83221228
C      77.34553121      90.69552554      87.52641140
H      75.48226107      90.68607689      88.40513414
C      77.54773193      93.32791428      86.30375848
H      76.25515913      93.66050611      84.73339591
H      79.47336304      93.64916775      85.64613372
C      77.37576683      95.65227764      88.05175532
H      78.86676089      95.52566598      89.46716032
H      75.47659189      95.66550573      88.84733009
C      77.75938127      98.11270131      86.59099688
H      76.71058317      97.95018484      84.82599250
H      79.75493226      98.49253629      86.24895641
C      76.78995167     100.60336058      87.92325393
H      78.09764228     101.07390245      89.44448361
H      74.96825551     100.28777630      88.83032256
N      76.67656810     102.78032530      86.13368311
H      77.01293938     104.26753992      87.27696753
H      74.91345345     102.83512736      85.40613848
H      77.79528607     102.78032530      84.58599726
C      77.13199214      88.73776908      85.41369738
O      78.97636502      87.65117644      84.51796711
N      74.70747328      88.48265601      84.63324041
H      73.39978267      89.55980001      85.50818370
C      73.87410397      87.41874010      82.15958867
H      75.11943361      85.80869328      81.84211465
C      71.20958987      86.40206734      82.47895242
H      70.17779930      88.08203403      83.07421621
H      71.16990562      84.93563973      83.92459305
C      69.85843556      85.35326924      80.19805276
O      67.70603729      86.26789677      79.76341571
O      70.80707817      83.54480116      79.09067314
C      74.22559307      89.22909791      79.94860888
O      74.64889176      91.38338590      80.23962674
N      74.29929239      88.24266077      77.55243592
H      74.11409921      86.41340571      77.04220982
C      75.04951374      89.83758978      75.33200750
H      76.85798182      90.57836249      75.98774253
C      75.44068709      88.15006418      73.01898250
H      76.01138443      89.39161438      71.47696582
C      77.72914565      86.25655842      73.24197020
H      79.15399929      87.33748187      74.26431214
H      78.50960262      85.64806654      71.43539184
H      77.63654906      84.60871708      74.47407176
O      73.27695046      86.74977698      72.41804953
H      73.60009366      86.24522006      70.70595749
C      73.34309088      92.03345176      74.46273340
O      74.34464582      93.85325819      73.32511816
N      70.94502819      92.17896068      75.38680957
H      70.32708768      90.76733513      76.51686590
C      69.57497661      94.62048708      75.32255887
H      69.87355337      95.55212215      73.51220106
C      66.73660769      94.10459179      75.12791706
H      65.61599999      95.80723520      74.84445811
H      66.16968979      93.15783891      76.86835499
C      66.18102815      92.11470999      73.17582978
H      66.73849742      90.21931449      73.76542439
H      67.28840777      92.50399361      71.48263500
C      63.35777704      92.01077505      72.52954338
O      62.23338988      94.02900274      71.70751243
O      62.36000155      89.90373021      72.77520780
C      69.87922255      96.26076953      77.61668661
O      68.82475526      98.28088695      77.47873659
N      71.40423168      95.59558586      79.48373621
H      72.06563589      93.80790476      79.56499444
C      72.29051332      97.42862039      81.49629474
H      71.76516941      99.29378026      80.80087545
H      74.32385884      97.10547718      81.43393377
C      71.12077274      96.99965251      84.15136021
O      71.62155021      98.36592463      85.89746732
N      69.54852044      95.05134468      84.35356092
H      69.12522175      94.18018085      82.70949903
C      68.04618802      94.40694800      86.74406471
H      67.72682428      96.26076953      87.58688264
C      65.44781434      93.23720742      86.36422972
H      64.39901624      93.10303685      88.13112382
H      65.67080205      91.30212767      85.69337688
C      63.96815864      94.60725899      84.35734037
C      62.53196664      93.27500194      82.58477709
H      62.52062828      91.23409752      82.58099764
C      61.46049182      94.56001584      80.47962198
H      60.58365881      93.52822527      78.95461284
C      61.84599599      97.22075048      80.28309044
O      60.82554378      98.42639587      78.17604560
H      61.01451641     100.22919477      78.13636135
C      63.04219275      98.62670687      82.13124278
H      63.46171199     100.62225786      82.10856606
C      64.10421893      97.23208884      84.14191157
H      65.11333279      98.27710749      85.57432412
C      69.52584373      92.68351761      88.56198142
O      71.00549943      91.00922009      87.78908336
N      68.98349228      93.09925741      90.97894137
H      67.87989211      94.54867748      91.54396954
C      70.51606031      92.13171752      92.97260263
H      72.42657362      92.31502098      92.22805047
C      70.28740343      93.92506779      95.23649476
H      71.25872276      93.23909715      96.92024090
H      68.29941135      94.15561440      95.71837497
C      71.47226183      96.41194762      94.79051935
C      70.00583421      98.59269179      95.35554751
H      68.11988735      98.31679175      96.08309215
C      70.94124874     100.97374695      94.66768714
H      69.62599922     102.53088142      94.61855425
C      73.40356212     101.19862437      93.83053838
O      74.60920751     103.45684732      93.40346023
H      73.20892031     104.60580092      93.48660819
C      74.92857126      99.06323364      93.64156575
H      76.88632772      99.22008092      93.08409649
C      73.96859029      96.61036889      93.98171649
H      75.17234595      94.97008646      93.81164112
C      69.94347324      89.45208562      93.76628769
O      67.76461880      88.89272662      94.09698979
N      71.93713450      87.92140731      94.05541581
H      73.69457997      88.65651083      93.91179661
C      71.90878861      85.04524385      93.79841303
H      70.00394448      84.47076705      94.33698503
C      72.41523526      84.25533825      91.03752289
H      74.29551294      84.88650684      90.47627417
C      72.25838798      81.47933030      90.49517144
H      73.98748755      80.55525413      91.12822975
H      72.14122494      81.43019741      88.43914921
H      70.60298773      80.69698360      91.43814487
O      70.57275210      85.29468773      89.44070416
H      70.70125349      87.10504554      89.41046853
C      73.80040465      83.94731287      95.64656537
O      75.59753437      85.17563497      96.32308739
N      73.40923130      81.62105977      96.52717783
H      71.73871324      80.72721922      96.30041067
C      75.14022060      80.19998558      98.25249795
H      76.99215239      80.91430213      97.70447732
C      74.67156848      81.33004192     100.88299698
H      74.33897665      83.35960798     100.76205450
C      72.19413728      80.50990070     101.90155946
H      72.16579139      78.46143738     102.10753963
H      70.62944389      81.04658297     100.67323736
H      71.78973585      81.54169127     103.63632822
C      76.96380649      80.99745009     102.69335479
H      78.73259032      81.38484398     101.71258683
H      76.96380649      79.04536281     103.35286927
C      76.85420237      82.85505105     104.95535718
H      74.99093222      82.85316133     105.83785937
H      77.43056889      84.73532873     104.34308586
H      78.11653955      82.10293998     106.39721836
C      74.93801989      77.29547624      98.08998149
O      72.89333602      76.41297405      97.28684781
N      76.64066330      75.81015136      99.03106519
H      77.92000801      76.67942546     100.14789344
C      76.68979618      72.92453928      98.90823298
H      74.76227534      72.39730565      99.40334128
H      78.05984776      72.21211246     100.27261538
C      77.38521546      72.17242821      96.24371888
O      79.55273154      72.78280980      95.60688111
N      75.63910835      71.06882804      94.81319606
H      73.91000877      70.90253212      95.60121194
C      75.75249193      71.26913903      91.98994495
H      77.36253875      72.46533578      91.51751337
C      76.54050780      68.76147221      90.75028449
H      75.33297269      67.15520485      91.20192908
C      77.05073391      69.09028459      87.91002584
H      78.60408893      70.43388000      87.73617102
H      75.30462679      69.81027031      87.09366407
H      77.44001753      67.38386173      86.82532294
C      78.90455542      67.68621794      92.03340866
H      78.36787315      66.78481849      93.80597194
H      80.13665697      69.14508666      92.80252727
C      80.61097828      65.66987996      90.72571805
H      81.74292434      64.83651067      92.22994019
H      81.77882914      66.50513899      89.24984180
H      79.44501714      64.07873041      90.12667481
C      73.13144153      72.14030286      90.88445506
O      71.37021661      70.66442661      91.00539754
N      72.98026343      74.35128264      89.82998778
H      74.61298696      75.33960951      89.87156175
C      70.68991514      75.42275746      88.63757047
H      69.78473623      74.06215452      87.38468193
H      71.49115909      76.81926522      87.35633603
C      68.57342167      76.47344529      90.40068512
O      66.89912415      77.70365712      89.46338087
N      68.66223880      76.05392605      92.96693346
H      70.14378423      74.97489233      93.49794655
C      66.62322411      76.62084395      94.69036385
H      64.91302180      75.73456231      93.96092950
C      67.32242285      75.41708828      97.16590532
H      68.44303055      76.70021245      98.32241783
H      68.24460929      73.70688597      96.47993467
C      64.98672112      74.60072652      98.74382679
N      64.02107098      72.25557616      98.71548090
H      64.70326218      70.82127389      97.65534444
C      62.09732959      72.09116997     100.27450511
H      61.09766437      70.43199027     100.91512233
N      61.64568500      74.45332787     101.27983951
H      60.55342319      75.05048138     102.72548014
C      63.51462433      76.02935961     100.35387361
H      63.87367232      77.94743182     100.95102713
C      66.28307337      79.48755877      94.77540154
O      67.75894962      80.87839734      96.03017981
N      64.22705115      80.42108356      93.71148562
H      63.13667906      79.18142310      92.75339438
C      63.65068462      83.17441480      93.63967602
H      65.22860609      84.29124305      92.93291838
C      61.39246168      83.52023472      91.70648600
H      59.81642993      82.25978726      92.11655661
H      62.02929944      82.82292571      89.87345148
C      60.39657591      86.22632280      91.26240032
H      59.99217448      87.07669964      93.09354512
C      62.34866319      87.97620937      89.98116588
H      63.86044424      88.21809433      91.36066609
H      61.70993570      89.86026650      89.44259388
H      63.06109001      87.03512566      88.29364028
C      58.03441802      86.23766115      89.66369186
H      57.47694876      88.20108679      89.39913018
H      56.54909314      85.20020141      90.64445982
H      58.48984206      85.18319388      87.95348955
C      62.99683932      84.18163893      96.32686684
O      61.45860210      83.11583328      97.61566019
N      63.90201822      86.41907489      96.98449160
H      65.17947321      87.06725101      95.72593387
C      63.34643868      88.01022443      99.15200768
H      62.33732483      86.88016810     100.54662570
C      65.78796508      88.78123277     100.40678595
H      65.62733834      90.56513442     101.42534843
H      67.21092899      88.88327800      98.92146107
C      66.75172550      87.05780237     102.48359517
H      66.54574533      85.13973017     101.75794026
C      69.64489648      87.61338191     102.57808148
H      70.03606983      89.62783016     102.41745475
H      70.56519320      86.41718515     101.17590456
H      70.25716781      87.35070995     104.52449959
C      65.47238079      87.48488052     105.05929213
H      66.00717333      85.94097412     106.31029095
H      63.42202774      87.27134145     105.05173323
H      66.07709321      89.33492259     105.73392443
C      61.67970008      90.18718915      98.65878911
O      59.44604357      90.26466793      99.36743648
N      62.42992142      91.86715584      96.88244638
H      64.27051485      91.76511062      96.38922781
C      60.86333831      93.90428080      95.92813459
H      59.09833393      92.92918203      95.50861535
C      60.49862113      96.03400236      97.92746503