 %block lattice_cart
   135.996   0.000   0.000
   0.000 142.663   0.000
   0.000   0.000   160.158
 %endblock lattice_cart

 %block positions_abs
N      90.47062532      42.71820904      79.71900715
H      89.99441429      41.33681910      78.49446450
H      90.48007395      42.18341649      81.55204167
H      92.29421121      43.13583855      79.33917215
C      89.05899977      45.03879295      79.35428997
H      89.79977247      46.44852878      80.66009084
C      89.31222308      46.12538558      76.67654778
H      89.45017311      44.88761484      75.03437562
H      91.19816995      46.94930625      76.63308407
C      87.59257214      48.33069619      76.13041688
H      85.63481569      47.69763787      76.03782029
H      88.19161539      49.08847644      74.31061044
S      87.67383037      50.73253833      78.51903094
C      90.38936709      52.57691121      77.64030820
H      90.65581850      54.14538405      78.94799880
H      90.39314653      53.20052089      75.67688256
H      92.07689268      51.43173706      77.93132605
C      86.30755824      44.22432091      79.89286197
O      85.32301084      42.29302062      78.96311662
N      84.83168199      45.82113964      81.31582588
H      85.58757253      47.33858987      82.19076915
C      82.11614529      45.32792107      81.78447801
H      81.12403897      44.34526339      80.26891750
C      81.57379384      43.81425030      84.26379893
H      83.15549476      42.54624394      84.63040583
H      79.77666412      42.81458508      84.12773863
C      81.41505682      45.53957042      86.47855817
O      79.36092433      46.32002739      87.19476444
N      83.49564549      46.11593695      87.79002823
H      83.27643725      46.69230347      89.59660658
H      85.23797315      45.72665333      87.11350621
C      80.77821905      47.94141256      81.68243279
O      82.05378432      49.96341972      81.77124991
N      78.29511869      48.02078107      81.82983144
H      77.09325275      46.55246372      81.61440264
C      76.87971368      50.43396157      81.67865332
H      77.28033566      51.25599252      79.83428045
C      73.98465297      50.07869302      81.90164103
H      73.50844194      49.24910317      80.07616542
C      72.98309801      48.54423526      83.99545778
H      73.72009128      46.62427332      83.88018449
H      70.94408333      48.50644073      83.70066049
H      73.44608096      49.31713332      85.84738958
C      72.34059107      52.44840982      81.76558074
H      72.54846097      53.64271685      83.42853990
H      70.32614283      52.01566250      81.77124991
C      72.68074180      54.10381007      79.42043039
H      71.36549229      55.68740072      79.39586395
H      72.43318766      53.09658595      77.64030820
H      74.63093937      54.73119921      79.64719754
C      77.77544395      52.37093104      83.79703653
O      78.31023649      54.67450742      83.16775767
N      78.25165498      51.53378229      86.06659783
H      78.35747965      49.66862241      86.45777118
C      79.14360580      53.12115239      88.05081046
H      77.89449670      54.75198620      88.20198857
C      78.75621191      51.61126106      90.56981563
H      79.87870933      52.44274064      92.08348641
H      79.84091481      49.88972039      90.26367997
C      76.02366765      51.25410279      91.32570616
C      74.60826264      52.97564346      92.84126665
H      75.28667440      54.79356018      93.47432498
C      72.01744788      52.48620435      93.54424485
H      71.07447444      53.92428607      94.64595528
C      70.68330109      50.40561568      92.60883032
H      68.73121382      50.03900877      93.07370300
C      72.19697188      48.64061130      91.11972599
H      71.16329158      47.12883025      90.21643681
C      74.85203734      49.00343875      90.69831702
H      75.84603338      47.69574814      89.48700246
C      81.83646580      54.14916350      87.72199808
O      82.58290769      55.78755622      89.32637571
N      83.28021670      53.40839079      85.85683821
H      82.60558441      51.85692549      84.97244629
C      85.60080061      54.45529917      84.94410040
H      86.39448566      55.70062881      86.38029239
C      87.44517348      52.32179816      84.83827573
H      89.01742579      53.14760856      83.79136734
H      86.48897197      50.81946574      83.80459543
C      88.63381134      51.16150620      87.24956650
H      87.28454676      50.73631778      88.74811947
H      90.09645951      52.29723172      88.15096595
C      89.95095059      48.71809008      86.42564583
O      88.67538531      46.93607817      85.50912856
O      92.27342422      48.62549349      86.81870890
C      85.39293072      55.98408775      82.44777194
O      86.79699737      57.80767364      82.00557597
N      83.50887357      55.34347053      81.01157994
H      82.35425080      53.99231622      81.70699923
C      82.65093784      56.62092552      78.55115628
H      84.26854356      56.51510085      77.28314993
C      80.53633408      55.13182119      77.14142046
H      78.71085848      55.34913971      78.06738635
H      81.09947254      53.15516746      77.03748551
C      80.46263476      55.77810758      74.34462551
H      82.18228570      55.12237255      73.41488016
H      80.34736145      57.83412981      74.28604399
S      77.57513296      54.30601079      73.13142122
C      78.03055700      54.95985609      69.93022484
H      80.02988744      54.75387592      69.48046998
H      77.61292749      56.94784817      69.58062548
H      77.02711232      53.51610519      68.85875003
C      81.97063636      59.36102867      78.82705633
O      83.04589064      60.88603781      77.35873898
N      80.55901081      59.92605684      80.80559978
H      79.77099494      58.43506278      81.69566087
C      79.84847372      62.53954833      81.45566563
H      79.52344078      63.77353962      79.83994963
C      77.21608496      62.51498189      82.81626857
H      76.91561848      63.81133414      84.39041058
H      77.03467123      60.74052888      83.84616940
C      75.07502505      62.48096682      80.85095321
H      75.58525115      61.20351183      79.32027489
C      72.68830071      61.57011873      82.04903969
H      71.04234909      61.68728177      80.81693813
H      72.10437529      62.80788947      83.58727691
H      72.83569937      59.62936981      82.71989253
C      74.74621267      65.12658366      79.70766879
H      76.34870058      65.51397755      78.47178778
H      74.59692429      66.48340715      81.24968546
H      73.23443162      65.25886450      78.31494050
C      81.70040550      63.89448210      83.13374259
O      81.81000962      66.19616875      83.02791792
N      83.14226668      62.55277642      84.72867160
H      82.76621113      60.71785217      85.08394014
C      85.40237935      63.42771970      86.18187114
H      84.71829843      64.94516993      87.39318569
C      86.23763838      61.03343646      87.78435905
H      87.35635636      59.91093903      86.47099926
H      84.58790731      59.94495410      88.36450502
C      87.57178516      61.82523179      90.09171488
H      86.37369868      63.21418063      91.02901913
H      89.20450869      62.75119768      89.23944831
C      88.61869354      59.57834720      91.62050346
H      89.66938136      60.34368636      93.21921193
H      89.83189782      58.57679225      90.28824641
N      86.76298230      57.71696678      92.33670973
H      86.07890137      56.60202826      90.94587116
C      85.45907114      57.79066611      94.49099772
N      86.12614453      59.34591086      96.42607747
H      85.16994300      59.10969507      98.06069074
H      87.91004617      59.99408699      96.62827818
N      83.59391127      56.30156177      94.99177521
H      82.92116870      56.50187276      96.76622821
H      83.59769071      54.64238207      94.04691204
C      87.59824133      64.58990138      84.64741337
O      89.06088948      65.86735637      85.89841218
N      87.90248726      64.21195612      82.23423287
H      86.41716238      63.31055667      81.44243754
C      89.88103071      65.09634803      80.68843674
H      91.11124254      66.22829410      81.89030268
C      91.49107753      63.00820046      79.60940301
H      92.07311323      61.85357768      81.21189093
C      89.77520603      61.55878038      77.75936096
H      90.53487602      59.75409175      77.11685401
H      89.33301008      62.57545313      76.02270248
H      87.93083316      61.03154673      78.50769258
C      93.97795736      63.71117865      78.19777746
H      93.40348056      64.93761102      76.64631216
H      94.70739171      61.88759275      77.57605751
C      95.95839052      64.85257334      79.92687704
H      96.65758927      63.47496286      81.28747999
H      95.10423424      66.37947220      81.01724911
H      97.43426679      65.64814812      78.73257000
C      88.93994700      66.81410925      78.57194327
O      90.46117668      68.24841152      77.46645338
N      86.43605963      66.71584348      78.06927607
H      85.40048961      65.22295970      78.64753233
C      85.06600807      68.52998074      76.44789090
H      86.26976372      69.16681851      74.90209477
C      82.56778988      67.28843056      75.46334349
H      81.04278075      68.55832664      74.91154341
H      82.00465143      66.12813860      77.06772113
C      82.84180019      65.66137620      73.18244383
O      84.84302035      65.81255431      71.88987103
O      81.03711157      64.26675818      72.68544581
C      84.45184701      70.95260988      77.75369178
O      85.34190811      73.04453691      76.93544028
N      83.01187556      70.81843931      79.76814003
H      82.49031110      69.14792125      80.53158946
C      82.11992474      72.99540402      81.20433202
H      81.71174386      74.63946591      80.03459144
C      79.64249355      72.65903274      82.75201788
H      79.13415717      74.46750082      83.59672554
H      80.04311552      71.71794903      84.53780923
C      77.27277675      71.50252024      81.34039232
H      75.88193818      70.92804344      82.74634870
H      77.97764467      69.81121519      80.40308807
C      76.24098618      73.48484314      79.40909203
O      77.67339872      75.15347147      78.59084053
O      74.12638244      73.25807598      78.45100079
C      84.22885931      73.78153017      82.99957203
O      84.49342099      76.06054010      83.27547207
N      85.45529168      72.05809977      84.29592428
H      85.03388272      70.21372689      84.02947287
C      87.48485774      72.68359918      86.14596633
H      88.19161539      74.56576659      85.69810120
H      88.95128536      71.23984828      86.07415674
C      86.64959871      72.87257181      88.88606949
O      84.40838331      73.06154444      89.40196477
N      88.48452296      73.05020609      90.54713892
H      90.32322666      72.93682251      90.05392035
C      88.03098865      73.65680823      93.27968317
H      86.06189382      73.29587051      93.76534283
C      89.63536629      71.73873602      94.76689778
H      91.57422548      71.95038537      94.10738328
H      88.83601205      69.86790697      94.43430595
C      89.51064435      72.41714777      97.55802354
H      89.99441429      74.39569122      97.85660030
C      86.69873159      71.99006962      98.62382917
H      86.66282680      71.81999426     100.67607195
H      86.16015960      70.27986731      97.61282560
H      85.30411358      73.28264242      97.82447495
C      91.34934806      70.67293038      99.02823061
H      90.94683635      70.65970230     101.04834804
H      93.22206683      71.47039489      98.71264632
H      91.29832545      68.73974037      98.32147296
C      88.67538531      76.54053059      93.68975377
O      90.69550274      77.38523825      93.06047492
N      86.91982957      77.91058216      94.98799575
H      85.08490532      77.42681223      95.18452729
C      87.35068717      80.48816885      95.85726985
H      89.36891488      80.87556275      95.98766097
C      85.86536230      82.20026089      94.19620043
H      85.60080061      83.87833786      95.35838211
H      84.00776132      81.43492174      93.73888666
C      87.42627623      82.95615142      91.81325555
H      87.96862767      81.13634498      91.01201159
H      89.03821278      84.05975159      92.46710085
C      85.97118697      84.48305028      89.91030115
H      87.29777484      85.70192375      88.91063593
H      84.62192237      85.58665045      91.01201159
N      84.77121075      82.83709866      88.12828924
H      84.21941068      81.05508675      88.53458040
C      84.08712984      83.39645765      85.82660259
N      84.03610722      85.55641482      84.86095244
H      83.20084819      85.76050527      83.15830904
H      84.58034840      87.10221095      85.84361012
N      83.32368041      81.37256077      84.44143320
H      82.63204057      81.80152864      82.71422335
H      83.25565026      79.72471942      85.40330390
C      86.18283632      80.56753736      98.57469630
O      84.26476411      79.35244334      98.92996484
N      87.46218103      81.95081702     100.32836232
H      89.20072924      82.60466232      99.88049718
C      86.79321792      81.66924780     102.97964832
H      85.23419370      80.32565239     103.07980382
C      88.93238809      80.64312641     104.69363010
H      88.24641744      80.44848460     106.62493038
H      90.37046983      82.10577458     104.50654719
C      90.06244444      77.90680271     104.26088277
H      90.91093155      77.64791021     102.40328181
C      92.08256187      77.37767934     106.32635363
H      93.43371618      78.93103437     106.32257417
H      93.11624216      75.62401332     106.00510016
H      91.15659597      76.99973408     108.12726281
C      87.83823657      76.03219421     104.40639170
H      87.02187480      75.85078048     106.28666938
H      88.90593193      74.38057341     103.79601009
H      86.38503703      76.38746275     102.99098669
C      85.66694102      84.18069407     103.87915806
O      84.75231350      84.43391740     106.03722551
N      85.81244996      86.16868615     102.31068522
H      86.39826512      85.57342236     100.59292400
C      84.93939640      88.76139065     102.66217431
H      84.52365661      88.75572147     104.68040201
C      87.20706798      90.44702652     102.23320643
H      87.81933929      90.37710665     100.26600135
H      88.80010726      89.73082025     103.32924770
C      86.89148368      93.27594681     102.97019970
H      86.28677125      93.55184686     104.92228698
H      85.30411358      94.19813325     102.03667490
C      89.26497993      94.82174294     102.25399343
H      90.07378279      94.20758189     100.46253288
H      90.71817946      94.75182306     103.71097242
C      88.84168124      97.62609679     101.84392281
H      87.12958919      97.65255295     100.69496922
H      90.34401365      98.16088933     100.54001166
N      88.91727029      99.15677510     104.35347936
H      87.49430638      98.89221342     105.60069873
H      89.58434368     100.93689729     104.18907317
H      90.27031433      98.41978184     105.47975624
C      82.66983509      89.28673457     100.96142063
O      82.54511317      88.37777621      98.82980935
N      80.85569784      90.88166358     101.75699540
H      80.66294576      91.22748349     103.62215527
C      78.91872836      91.76794522     100.04301364
H      77.90583506      90.02561756      99.62349440
C      77.07813494      93.55184686     101.61904539
H      76.42617936      92.49926930     103.26499700
C      78.51999611      95.99526298     102.57902635
H      79.38171131      97.11020150     101.07858366
H      80.20185254      95.47558824     103.64672171
H      77.33135827      96.98925902     103.93584985
C      74.73676403      94.03372707     100.06191091
H      73.78812143      92.22714871      99.78601086
H      75.32824838      94.74426416      98.21942775
C      72.95664185      96.04817531     101.13527545
H      70.98187785      95.99148353     100.55323974
H      73.64639196      97.98703451     101.03511995
H      72.86971443      95.70802458     103.16484150
C      79.97697511      92.97548033      97.55235436
O      81.93851102      94.25671477      97.56747216
N      78.66928449      92.68824193      95.48877323
H      77.02144315      91.72826096      95.55491364
C      79.27021745      93.60097974      93.02268039
H      80.05823334      95.50015468      93.15874068
C      81.09569308      91.79062193      91.69420279
H      82.75865223      91.25393966      92.78835433
H      81.93851102      92.75249262      90.08037651
C      80.06390251      89.36988252      90.90051774
C      78.99620714      89.12610783      88.48544751
H      79.03778113      90.64922724      87.12862401
C      78.39527417      86.61844101      87.68231383
H      77.58080213      86.32553343      85.83416149
C      78.57857763      84.43391740      89.14496200
O      77.93418096      82.09443622      88.16419404
H      77.36348360      82.17002527      86.44265336
C      79.30990171      84.67958182      91.64129045
H      79.63493464      82.95237197      92.68063993
C      80.10547650      87.18535891      92.53891044
H      80.64215877      87.17402055      94.50611555
C      76.80601434      94.06207296      91.46176645
O      74.64038799      93.43468382      92.21387753
N      76.95719246      95.18834984      89.22244077
H      78.60503379      95.89888694      88.57237491
C      74.83125036      95.47558824      87.44609804
H      73.10404051      94.63277031      88.18498102
C      73.95819679      98.18356605      86.87351097
H      72.62027056      97.97947561      85.32015594
H      75.58336142      99.22858470      86.15919442
C      72.68830071      99.43078542      89.15630035
H      73.93552007      99.79928205      90.75311909
H      71.48265532      97.99837287      90.01045665
C      71.20108611     101.83640701      88.34938722
H      69.74221739     101.17311308      87.05681442
H      72.61460139     103.16677434      87.65585766
C      69.72898930     103.21968667      90.61327934
H      70.91762715     104.23635943      91.95498502
H      68.73499327     101.76081796      91.67341580
N      67.71265132     105.03004448      89.53991479
H      68.34004047     106.35474263      88.31726187
H      66.65818405     105.98435627      90.81170060
H      66.26134153     104.12297585      88.69520713
C      75.31502029      94.04884488      85.05937370
O      77.28411511      94.49104083      83.86884613
N      73.59158988      92.15533911      84.44332293
H      72.10437529      91.83597536      85.59605597
C      73.74843717      90.47348269      82.17943081
H      75.59092033      89.55318598      82.16053353
C      71.74154782      88.46281389      82.51202264
H      69.89528523      89.35476471      82.70288498
H      72.08169857      87.50283293      84.30159345
C      71.59981835      86.54474169      80.24435106
O      72.90183978      84.55674961      80.57127371
O      70.06536059      86.81119310      78.45666997
C      73.44608096      91.75849658      79.54515233
O      72.53901233      93.88821814      79.42609957
N      74.21708929      90.62655052      77.42109995
H      75.07502505      88.92957629      77.26614239
C      74.09047764      92.05518362      74.95878656
H      74.96353120      93.89388732      75.27815031
C      75.59281006      90.60387381      73.01803763
H      75.34336619      91.38999995      71.13020105
C      78.31023649      90.45458543      73.85329667
H      78.72408656      89.21303524      75.44255650
H      78.94518454      92.33297338      74.41454539
H      79.38171131      89.69869490      72.26592657
O      74.79345582      88.06030219      72.77426295
H      76.22397865      87.12488766      72.16766080
C      71.44675052      92.65611658      74.11218917
O      71.49021423      94.03939624      72.28104438
N      69.41718446      91.82085755      75.29704756
H      69.64395162      90.69269094      76.81827725
C      66.90384847      92.80162551      74.73768858
H      66.78290599      93.86176197      72.97835339
C      64.80814199      90.68135259      74.69800432
H      62.92408486      91.40133831      74.27470564
H      64.65318443      89.80640930      76.55560530
C      65.50734073      88.67257352      72.69678417
H      64.52657276      86.89434105      73.03126572
H      67.51989925      88.33809196      72.42655330
C      64.77979609      89.37555170      69.98502690
O      63.38139863      87.84487339      68.68300548
O      65.26167631      91.57330341      69.16110624
C      66.26134153      94.91622925      76.75969574
O      64.17886313      96.09163902      76.58962037
N      67.85060136      95.62865607      78.52092065
H      69.36805158      94.47403330      78.61729671
C      67.49533281      97.88687902      80.20088736
H      66.25756207      99.20590798      79.21633995
H      69.35671322      98.75615312      80.34450656
C      66.56558746      97.25948988      82.85973227
O      65.33348591      98.93378739      83.92175847
N      67.01723205      94.91622925      83.83483106
H      67.96965411      93.81451881      82.60272950
C      65.77568186      93.82774690      86.07982592
H      64.36405631      95.22614437      86.62028764
C      64.49633715      91.27472665      85.52046693
H      63.83304321      90.68702176      87.37995762
H      65.88150653      89.82341684      85.05370453
C      62.31748271      91.26905747      83.50601868
C      61.96599362      89.08453385      82.14730546
H      63.14140338      87.53873773      82.77469459
C      60.21421732      88.89745095      80.06671678
H      59.88162549      87.14000548      79.08405910
C      58.83849657      91.05740812      79.32783380
O      57.00168259      90.98181907      77.55904996
H      56.21177699      92.58619671      77.24913485
C      59.14841168      93.29673380      80.72812099
H      57.83127244      94.81229431      80.36151409
C      60.77924549      93.35720505      82.88240898
H      60.79814276      94.99748748      84.09750301
C      67.54257596      93.42901464      88.39285092
O      69.55135504      92.36698846      88.14151732
N      66.79802380      94.00727090      90.74933963
H      65.23144068      95.01260530      91.17074860
C      68.18130346      93.47247835      93.11338724
H      69.99922016      94.43056959      93.24944755
C      66.79991352      94.64221894      95.37538964
H      67.25155811      93.61231810      97.10259950
H      64.80625227      94.30773738      94.98232658
C      67.10038001      97.49192622      95.92152055
C      65.07270368      99.22291552      95.70231229
H      63.20754380      98.41600238      95.53223693
C      65.52812772     101.76459741      95.92718973
H      63.95965488     103.05528048      95.71365066
C      67.95642603     102.74158592      96.44497474
O      68.30413567     105.32106233      96.61505011
H      66.80180325     106.28860220      96.93630358
C      70.05780169     101.09374457      96.39206241
H      71.92674100     101.85719400      96.69252889
C      69.59481873      98.44623801      96.16529525
H      71.13116623      97.10831178      96.03112468
C      68.36082746      90.68891149      93.54991403
O      66.36905592      89.44736130      93.99588944
N      70.69652917      89.76294560      93.22299138
H      72.00988897      91.07063621      92.76945706
C      71.46186833      87.18535891      93.08882080
H      70.12016266      85.80963815      93.83337298
C      71.90028484      86.35198960      90.34115875
H      73.58025154      87.35921373      89.70810044
C      72.35003971      83.43236245      89.90652170
H      70.56424834      82.58765479      90.49233686
H      73.84859267      82.65946439      91.08949037
H      72.74121304      83.07331445      87.91663989
O      69.88394687      87.00016573      88.79347290
H      69.78001192      88.79162627      88.53080094
C      73.98087351      86.89812051      94.86138408
O      75.36793263      88.64233789      95.61727461
N      74.37015713      84.53596262      95.68341504
H      72.84892745      83.39267820      95.50767049
C      76.42617936      83.64401180      97.28968239
H      78.11559468      84.67013318      96.70386724
C      75.67595801      83.93502965     100.07702871
H      74.52322496      85.61499634     100.38505410
C      73.85615158      81.79396974     100.75355074
H      73.27600560      81.77318275     102.72831473
H      74.78400720      79.96282494     100.57213701
H      72.17429516      81.90546359      99.56869234
C      77.99654193      84.06542076     101.87982762
H      79.64060381      84.52651398     100.72709457
H      78.49731940      82.26829104     102.74721200
C      77.58458158      85.74916691     104.20608071
H      76.00854985      84.92146678     105.24165072
H      77.11026029      87.61810623     103.48042581
H      79.22486403      85.66034977     105.44574117
C      76.97231027      80.82076068      96.57725558
O      75.60792786      79.57165159      95.12594578
N      78.77510917      79.57921050      97.72620918
H      80.01476963      80.54864010      98.80524291
C      79.14171608      76.77107720      97.74132699
H      77.54678707      75.91692090      98.72776413
H      80.67995329      76.31943261      99.03578952
C      79.65194218      75.64102086      95.20153483
O      81.00309649      76.87123269      93.72943803
N      78.70896874      73.36012120      94.83681765
H      77.46174938      72.51352381      96.00844796
C      79.02266332      72.10912238      92.37072481
H      80.54956218      72.66659164      91.10649790
C      79.62926545      69.28776100      92.72788308
H      77.93229124      68.42604580      93.51400923
C      79.95240865      67.87613544      90.20320873
H      81.00687594      68.91170546      88.76890646
H      78.06835152      67.93471696      89.37172915
H      80.47586284      65.90704062      90.49422657
C      81.80434045      68.71517392      94.62138884
H      81.53599930      69.69216243      96.41473912
H      83.49753523      69.41248293      93.67463597
C      82.24464668      66.07522626      95.35082320
H      83.15360503      65.17949599      93.73510721
H      80.55523136      64.89792677      95.44341980
H      83.65060306      66.13002833      96.85504535
C      76.50932732      72.86312318      90.97232734
O      74.74621267      71.23606883      90.85327458
N      76.26933207      75.22906052      90.19753954
H      77.77922340      76.39124221      90.32415121
C      74.05646257      76.08510654      88.96543800
H      73.54434674      75.10433859      87.22877951
H      74.02244749      78.06931917      88.41930708
C      71.62060535      76.07943737      90.61138960
O      69.62316463      75.67125648      89.70054153
N      71.66784850      76.60856073      93.08882080
H      73.32702821      77.08855122      93.90329285
C      69.47387625      76.89012995      94.71020599
H      68.09059659      75.55409345      93.97510245
C      70.12961129      76.24006410      97.50322148
H      71.67351769      77.42492250      98.18352295
H      70.72298535      74.28986655      97.78479069
C      67.87327806      76.45738263      99.15106282
N      65.95331613      74.72639333      99.39672724
H      65.92874969      73.15036158      98.32336270
C      64.31492342      75.58432907     101.07669394
H      62.59527248      74.63379674     101.62849402
N      65.11049820      77.83877256     101.95163722
H      64.24311382      78.70804667     103.41239565
C      67.37250060      78.35088839     100.81780142
H      68.58003571      79.98550165     101.01433297
C      68.14917811      79.50551117      94.54957925
O      69.37183104      81.38956830      95.49444241
N      65.88339626      79.66991736      93.41196401
H      65.14073382      78.12412124      92.57481525
C      64.40185082      82.03207525      93.38361812
H      65.56403252      83.59865836      92.72599335
C      61.92441964      81.69948342      91.73199732
H      60.72444343      80.31998321      92.67686047
H      62.44031492      81.08532237      89.83471210
C      60.34082899      84.16557626      91.49389180
H      60.21799678      85.19358737      93.27401399
C      61.45387779      85.92680118      89.53613533
H      62.27023955      84.86099554      87.97522140
H      63.12817530      86.72048623      90.43564507
H      60.29169610      87.55385554      89.04669623
C      57.63852036      83.45881862      90.51501357
H      56.68042912      82.08309786      91.70932060
H      57.63474091      82.84465757      88.54969820
H      56.54058937      85.20114628      90.56225672
C      63.75745416      82.92591580      96.17285415
O      62.68597934      81.38011967      97.59392834
N      64.05036173      85.39011891      96.61882956
H      64.70042758      86.56741840      95.26389580
C      62.96565884      86.58631567      98.96586964
H      62.31181353      85.21248464     100.35292876
C      64.94798174      88.46848307     100.20741983
H      64.13728915      89.13933591     101.97809339
H      65.22577151      90.12388332      99.01311279
C      67.54257596      87.37244181     100.68552059
H      68.42318843      87.01528354      98.85815523
C      69.48143516      89.39255924     101.65306046
H      71.18029911      88.47982143     102.38060508
H      68.67641174      90.25049499     103.34436550
H      70.00677907      90.77772863     100.22064792
C      67.46131773      85.01784283     102.30690577
H      69.35671322      84.61533112     103.00988394
H      66.71487584      83.36433230     101.32991725
H      66.30102577      85.28807369     103.98498273
C      60.52602217      87.79385078      98.25722228
O      58.70054655      87.35165482      99.48176493
N      60.38807215      89.39633869      96.36749596
H      61.77135181      89.73459970      95.09948961
C      57.90686150      90.63410943      95.51144994
H      56.34972701      89.29051402      95.42074308
C      57.16230933      92.72981591      97.36716118