 %block lattice_cart
   135.996   0.000   0.000
   0.000 142.663   0.000
   0.000   0.000   160.158
 %endblock lattice_cart

 %block positions_abs
N      93.21167333      43.57519991      81.48968069
H      92.93955274      43.72826774      83.37373782
H      95.03147977      44.07786711      81.21189092
H      93.14553291      41.83476198      80.71489290
C      91.75091489      45.46492622      80.07805513
H      92.19122112      47.35087309      80.78103332
C      92.40664992      45.42146252      77.29637800
H      91.71123064      43.67346568      76.45922925
H      94.45700297      45.45358787      77.09984647
C      91.39186689      47.92534988      76.21734428
H      89.39631590      47.70614163      76.67465805
H      91.69422310      48.11621224      74.18777823
S      92.58806365      50.83741813      77.92754659
C      95.56816204      51.56685249      76.32127922
H      95.39241749      51.99959981      74.31438988
H      96.72467454      49.86798853      76.46489843
H      96.66042385      52.99737531      77.32283417
C      88.90498706      45.06052479      80.43143396
O      87.82973279      43.08765052      79.85506743
N      87.66343687      46.70647641      81.81849307
H      88.57806441      48.15022732      82.66698018
C      84.89120837      46.78017574      82.29659383
H      83.94823494      45.77295161      80.76780524
C      84.19389936      45.30807894      84.73434077
H      85.33907351      43.60354581      84.57371403
H      82.25315044      44.63533637      84.58505239
C      84.73247136      46.78962437      87.03791716
O      85.89654277      48.71903494      87.28736102
N      83.87642534      45.75027490      89.09582910
H      84.34696719      46.65356408      90.70776566
H      82.77849435      44.18747124      89.07126266
C      83.86508698      49.54673506      82.03014242
O      85.31639679      51.32874697      81.79014718
N      81.34608181      49.80751729      82.37029315
H      80.19334876      48.31841296      82.68587745
C      80.05161928      52.33219165      82.37785206
H      80.65822143      53.17311986      80.59772987
C      77.20380173      52.06574024      82.37596233
H      76.50082354      50.73159346      80.97378541
C      76.40822695      51.25882710      85.04992506
H      74.42023487      50.72403455      84.94599012
H      76.78050304      52.72525472      86.45021226
H      77.34931066      49.50138163      85.56393062
C      75.75060220      54.54884061      82.03959106
H      76.12665773      56.00581960      83.44743716
H      73.75694094      54.03294533      82.02825269
C      76.18901870      55.58630036      79.35051051
H      75.84130906      54.25026385      77.81983220
H      78.19401832      56.02849631      79.16531733
H      75.16289731      57.34941501      79.06516183
C      81.24781604      54.19357206      84.31860099
O      81.49914964      56.29494772      83.73278582
N      82.21157646      53.32807741      86.45966089
H      82.46291006      51.50827097      86.97366646
C      83.27738210      55.05717699      88.25679062
H      82.09630316      56.74281286      88.20387829
C      83.10919646      53.88743640      90.97232734
H      83.77438012      55.34630512      92.26678985
H      84.33184938      52.26038205      91.29547053
C      80.56373512      53.20335548      91.74144594
C      78.79684101      54.99670575      92.68063992
H      79.26927259      56.97524920      92.84315639
C      76.38177078      54.08774739      93.41574345
H      74.94368906      55.44079143      93.93163875
C      75.61643163      51.58386003      93.00378312
H      73.74560258      50.90544828      93.45920716
C      77.15088939      50.00593855      91.68664388
H      76.28539474      48.20691910      91.26334518
C      79.70957882      50.67868112      91.22177120
H      80.84719406      49.37099051      90.14462720
C      85.92110921      55.74503737      87.86372755
O      86.83384702      57.63476368      88.81048044
N      87.35163203      54.33908099      86.25179101
H      86.53149081      52.88021228      85.33716347
C      89.56261182      55.14221467      85.03858671
H      90.56983594      56.38943404      86.32926978
C      91.22368125      52.77060815      84.45277155
H      93.04537741      53.35453358      83.68554267
H      90.25803110      51.53472714      83.11673505
C      92.07783754      51.37221068      86.82815752
H      90.36952495      50.90355855      87.87884535
H      93.30426992      52.57785607      87.96388305
C      93.51591926      48.89666921      86.17998140
O      92.47845952      46.91434631      85.39574498
O      95.85917989      48.75493974      86.62028763
C      89.02403982      56.72580532      82.76902540
O      90.46212154      58.57017821      82.26068903
N      87.04738610      56.32896280      81.32527450
H      85.90221195      54.90032971      81.85628760
C      86.30094420      57.58563080      78.90642483
H      87.86941704      57.53271846      77.57038832
C      84.05216989      56.18345387      77.75369177
H      82.54983747      56.55950941      79.11429472
H      84.57373435      54.19546179      77.87085480
C      83.46068555      56.82029164      75.08917768
H      84.96490770      56.28171964      73.78904597
H      83.41155267      58.87631387      74.97012491
S      80.35964467      55.57118255      73.98368779
C      81.01348998      55.73936819      70.82028594
H      80.98892354      57.67822739      70.12675637
H      79.55273154      54.55262006      69.98124744
H      82.75581764      54.67923173      70.53115780
C      85.44300846      60.38998464      79.20500158
O      86.59574151      62.04538489      78.13919594
N      83.73280614      60.82651142      81.00780048
H      83.13376290      59.35819408      82.06982668
C      82.92778273      63.46267963      81.85439788
H      82.56306555      64.76848051      80.30671202
C      80.47113853      63.39087003      83.22066999
H      80.20846657      65.08784426      84.35828523
H      80.48436661      61.66366018      84.34316742
C      78.22047449      63.20945630      81.45755535
H      78.31496080      61.62775538      80.14041610
C      76.00004607      62.51025757      83.31704604
H      75.55407066      64.10707630      84.54158870
H      76.26460775      60.88131349      84.54725787
H      74.40700679      62.02648763      82.10195203
C      77.52883466      65.54893748      80.30671202
H      78.66267044      65.65287243      78.59084053
H      77.83497032      67.25725007      81.41787109
H      75.55596039      65.66421078      79.73223522
C      84.97624606      64.88564354      83.34728166
O      84.76837616      67.24213226      83.66664540
N      86.89620799      63.63086527      84.23734276
H      86.64865384      61.75247732      84.00679614
C      89.02592955      64.67210447      85.57148953
H      88.26814929      66.26892320      86.62973626
C      90.11630163      62.77103980      87.46121584
H      91.18966617      61.29516355      86.50879378
H      88.44956302      61.83184582      88.22466527
C      91.49391211      63.77448447      89.81770455
H      89.93677763      64.60974350      90.87784102
H      92.68443969      65.16721276      88.87851057
C      92.87341232      61.75814650      91.42964111
H      93.76725286      62.71434801      93.01890093
H      94.26992006      60.60352372      90.45265260
N      90.90998668      59.98558321      92.28757684
H      90.87975106      58.24514528      91.50523015
C      89.33017548      60.33518258      94.25100249
N      89.38308782      62.37041782      95.65128968
H      88.47790891      62.32506439      97.33125637
H      90.75880857      63.67999816      95.45475814
N      87.72012866      58.50781724      94.86705326
H      86.59196205      58.73647412      96.39017268
H      87.89965266      56.96013139      93.76723255
C      90.99313464      65.68877723      83.71388856
O      92.09106562      67.66921040      84.26946811
N      91.42210251      64.64375858      81.44999644
H      90.65676335      62.91843845      81.17031694
C      93.13797400      65.65665188      79.44877628
H      94.79904343      66.41065268      80.40497779
C      93.79181931      63.64787281      77.44944583
H      92.27058962      62.36852809      76.90898411
C      94.85951467      64.54549281      74.90020504
H      95.33572570      62.96001243      73.67566240
H      96.71711564      65.42232582      75.02114753
H      93.34206444      65.51870186      73.90242954
C      95.90831278      62.01703900      78.45289051
H      95.52847779      61.45012111      80.39552916
H      97.59961783      63.19244877      78.39430900
C      96.11996212      59.31473037      77.30771636
H      94.29826596      58.36230831      77.43810749
H      97.17820886      58.15821787      78.64186315
H      97.23490065      59.40543724      75.57672707
C      91.88508546      68.02636868      78.28848432
O      93.11151783      69.76113743      77.26047320
N      89.37174946      67.83550632      78.13919594
H      88.50814454      66.18577525      78.55304600
C      87.68611359      69.81404977      76.89008684
H      88.33995889      70.53403549      75.07594959
C      85.07829128      68.55171259      76.57261282
H      83.77626985      70.14097242      76.41765528
H      84.65499258      67.27803706      78.13541650
C      84.45657132      66.86040754      74.18588850
O      85.61497355      67.35740556      72.19789642
O      82.82195806      65.24847100      74.32950769
C      87.39131628      72.11006724      78.58517135
O      88.17744243      74.21900180      77.83117055
N      86.10819212      71.89841789      80.82449703
H      85.37875776      70.22412038      81.37440739
C      85.23702829      74.10750795      82.41186713
H      84.31862130      75.51346433      81.22133956
C      83.23580812      73.19099069      84.36017496
H      82.69723612      74.78402997      85.55070254
H      83.80461574      71.82282884      85.78880805
C      80.79428173      72.19510492      83.21500081
H      79.65855621      71.21244724      84.62284692
H      81.29505920      70.77781019      81.80337526
C      79.15588901      74.26435523      81.99612734
O      79.22958834      76.41864323      82.86162199
O      77.84630868      73.69365789      80.17632090
C      87.31950668      75.45299309      83.78002899
O      87.21746146      77.76412837      84.15608452
N      89.38497754      74.07538260      84.43198456
H      89.35663165      72.18376656      84.17498178
C      91.33517510      74.97489233      86.12139989
H      92.25925127      76.72099944      85.53558474
H      92.77703628      73.52169279      85.89463274
C      90.46212154      75.39441157      88.87095168
O      88.23413422      74.88796492      89.38117777
N      92.26303072      75.64385544      90.73611154
H      94.06393990      76.04258770      90.25423134
C      91.44477923      75.84983561      93.36472084
H      89.40009536      75.61550955      93.41763318
C      92.74680066      73.88640997      95.19019646
H      94.72912356      74.05459561      94.65351419
H      91.94744643      72.07605216      94.61760940
C      92.35184786      74.40419498      98.06447018
H      93.45733775      76.10683839      98.40840037
C      89.50969948      74.79347860      98.92051620
H      88.61963839      76.47344529      98.12305170
H      89.32072685      74.87284711     100.96897954
H      88.33617944      73.25713111      98.20997911
C      93.60473640      72.59950635      99.95608622
H      95.64186137      72.59194745      99.64995056
H      92.92443493      70.67576497      99.68396563
H      93.25513703      73.23823385     101.88360706
C      91.99657931      78.55781342      94.19242097
O      94.21511800      79.33638066      94.26234084
N      90.07850710      80.09605064      95.07492315
H      88.37208424      79.35527792      94.64784502
C      90.42810647      82.77568255      96.14072880
H      92.35184786      82.94953737      96.85693507
C      89.95000571      85.03579522      94.25100249
H      90.07661738      86.64584204      95.52656774
H      87.96012390      84.98477261      93.71620995
C      91.93988752      85.27768019      92.18742135
H      92.78837463      83.45220457      91.75467402
H      93.41198432      86.46820776      92.99811395
C      91.28226276      86.42474406      89.57204013
H      93.00569316      86.12427758      88.48355779
H      91.12163603      88.46186902      89.83849154
N      89.23379944      84.99611097      88.40796873
H      88.75947814      83.33504154      89.21677159
C      87.98658007      85.50255762      86.30092389
N      88.11130201      87.71542713      85.09527850
H      86.55416753      88.21998406      84.11451055
H      89.11474668      89.19886229      85.75290325
N      86.52015245      83.74322242      85.32960456
H      85.42222147      84.33092730      83.88396393
H      86.56739561      81.92341598      85.90408136
C      88.73491169      83.24055522      98.48776888
O      86.55038808      83.83959846      98.26667090
N      89.87819611      83.01567779     100.75733019
H      91.74902516      82.64718116     100.80457334
C      88.64420483      83.26890112     103.13082644
H      86.97557650      82.07459409     103.29901207
C      90.43566537      82.24089000     105.08858290
H      89.89142420      82.65096061     107.03311127
H      92.05705055      83.48999909     104.84669793
C      91.13297438      79.36283683     104.93740478
H      92.14586769      78.96977375     103.18751822
C      93.07372331      78.93386895     107.00287565
H      93.88063644      77.03847346     106.97830921
H      92.16287522      78.94520731     108.84913825
H      94.38708310      80.51934933     106.93295577
C      89.10718778      77.36539611     105.57424255
H      89.94811599      75.50590542     105.29834252
H      87.54816357      77.42208790     104.22686769
H      88.46468083      77.47877969     107.52632983
C      87.48391287      85.79357547     103.88293751
O      86.27070858      85.87861315     105.93707000
N      87.43855944      87.77400865     102.37493591
H      88.23791367      87.46598326     100.66851304
C      86.26125995      90.34592616     102.63382841
H      85.27293309      90.44986111     104.44040676
C      88.21712668      92.54178813     102.67162294
H      87.07762172      94.24632127     102.85681612
H      89.30182959      92.55312649     100.92173637
C      89.90276255      92.37549222     105.04889864
H      91.33139565      90.89772624     104.89394108
H      88.72924251      91.96542161     106.69107080
C      91.40509497      94.80945971     105.53644802
H      90.13708862      96.41572708     105.30968087
H      92.93577329      95.05890358     104.18151426
C      92.38397320      94.77733436     108.27844090
H      93.31371855      92.93863066     108.34458132
H      90.73424213      94.83780560     109.51243220
N      94.22078718      96.83902577     109.04755952
H      95.58327985      97.06579293     107.73231001
H      94.97289825      96.31746131     110.72185703
H      93.17576853      98.43206505     109.18361982
C      84.22980416      90.67662826     100.54379110
O      84.04650071      89.30279723      98.75233056
N      82.48747650      92.51911142     100.91417746
H      82.45346143      93.52633554     102.53367291
C      80.55428648      93.21264098      98.97720800
H      79.38832535      91.60259416      98.43863599
C      78.64944236      95.07780085     100.05057254
H      79.69068156      96.61414834     100.94441308
C      77.00915992      96.38360173      97.95675578
H      75.59186519      95.09480838      97.19519608
H      78.14677516      97.19996350      96.44686446
H      76.04728923      98.00687663      98.78634564
C      77.29450859      93.81357394     102.20297082
H      78.52661015      92.81201900     103.51255115
H      75.93390565      92.43974291     101.49432344
C      75.69957959      95.60314476     103.85837107
H      75.03250620      94.70930422     105.59125009
H      73.99126700      96.13793731     102.84547775
H      76.82018729      97.27933200     104.28166975
C      81.79394695      93.99687740      96.50166652
O      83.21124168      95.77699958      96.46198227
N      81.05695368      92.99910190      94.30013537
H      79.94579461      91.44574687      94.33415044
C      81.89788189      93.75310270      91.74333567
H      82.41188745      95.74865369      91.70176170
C      83.94823494      91.96920106      90.77957525
H      85.57150984      92.30935180      92.00033844
H      84.60396997      92.55501622      88.91630510
C      83.28872046      89.12705269      90.67753002
C      82.59519090      88.03668060      88.38529201
H      82.45724088      89.21209037      86.72233285
C      82.14543604      85.47421172      88.24356253
H      81.77882913      84.50856158      86.48422734
C      82.42889499      83.95487177      90.48666767
O      81.98480930      81.42830769      90.36950464
H      81.83741065      80.81981581      88.66686123
C      83.02415878      85.16240688      92.83937693
H      83.46446501      84.04746836      94.49477718
C      83.57406913      87.72298604      92.89417899
H      84.16744319      88.74721770      94.55524843
C      79.69824046      93.64349857      89.93675731
O      77.87654430      92.42651483      90.61516907
N      79.62454114      94.92095356      87.61050422
H      81.11175575      96.03778181      87.19098499
C      77.66300523      94.89260767      85.70943956
H      76.03784060      94.01010548      86.61650819
C      76.92601196      97.61948274      85.10661685
H      75.58241655      97.50231971      83.54759266
H      78.64377318      98.58324316      84.50757361
C      75.64288780      99.26732408      86.99634317
H      76.80506948      99.06890282      88.68764822
H      73.79284574      98.38860135      87.23255896
C      75.74115356     101.96774298      86.00423686
H      75.79217618     101.98097107      83.94443517
H      77.46269424     102.88048079      86.67319998
C      73.57174776     103.45306787      87.20232334
H      73.42434911     103.02787944      89.21299213
H      71.66312418     102.89181915      86.67508969
N      74.04228961     106.24608336      87.03224797
H      75.69013095     106.99441498      87.64262958
H      72.53050856     107.11535746      87.80514603
H      74.09898140     106.94528209      85.25590524
C      77.96158198      93.30334784      83.22822890
O      79.98736859      93.51688691      81.96778145
N      76.03784060      91.85014830      82.54225825
H      74.47692666      91.71408801      83.63263034
C      75.88099331      90.47253782      80.12907775
H      77.62143125      89.37838629      80.02136335
C      73.72481559      88.42218477      80.04026061
H      71.91823723      89.33870203      80.41820587
H      74.02150262      87.06347155      81.56149029
C      73.78150738      86.74410781      77.69511026
O      71.73493378      86.23577143      76.73701902
O      75.89611112      86.33403720      76.68977587
C      75.94713373      92.31124152      77.87841371
O      75.64288780      94.61670763      78.13352676
N      76.20980569      91.34937083      75.54649145
H      76.17768034      89.46342397      75.26681195
C      76.24193104      92.79312173      73.11819312
H      77.64410796      94.29734388      73.22968699
C      76.96191676      90.86560089      70.95445650
H      76.65389137      91.59881470      69.05528155
C      79.70957882      90.09459256      71.04705309
H      80.09697272      88.66029029      72.47190673
H      80.83963516      91.73298527      71.57428674
H      80.12342888      89.39350410      69.15354732
O      75.73737411      88.54879643      71.31161477
H      77.02049828      87.32236406      70.93744897
C      73.74560258      94.02711302      72.44167110
O      73.64355736      95.94896468      71.19445174
N      71.72737488      93.16539782      73.77959733
H      72.01650300      91.53267428      74.72823994
C      69.25939231      94.38049184      73.79849461
H      68.96837446      95.35937007      72.00892378
C      67.35265846      92.09014355      73.70589802
H      67.07108924      91.51377702      75.66554419
H      68.10287981      90.56324468      72.54371632
C      64.70326217      92.78745255      72.71757116
H      63.78107573      94.29923361      73.77014870
H      63.35210786      91.23598725      72.79693966
C      64.70137244      93.74176434      69.78471591
O      66.06008566      92.48698607      68.23703006
O      63.71682504      95.85258863      69.36141722
C      68.77184292      96.34580720      75.90742916
O      66.86699880      97.62515192      75.76947914
N      70.55196511      96.61414834      77.69888971
H      72.18279892      95.62582148      77.58928558
C      70.62566444      98.66261166      79.57538795
H      69.79796431     100.35958589      78.75335699
H      72.64200241      99.06890282      79.63019001
C      69.44647522      98.08246568      82.16242327
O      69.05908132      99.83991115      83.62318170
N      69.04018406      95.65416737      82.73501033
H      69.28206903      94.29545415      81.41787109
C      67.76461880      94.80001108      85.08960932
H      66.94447758      96.52722093      85.85116902
C      65.69347876      92.79123201      84.43576401
H      64.65412929      92.56635458      86.19887866
H      66.75739467      91.10181668      83.92175846
C      63.63178735      93.56035062      82.60839867
C      62.91747080      91.96164216      80.66764974
H      63.90579767      90.17774052      80.59206070
C      61.30553426      92.70052514      78.60784806
H      60.98050133      91.66873458      76.87685876
C      60.22650054      95.12693373      78.73068027
O      58.65991742      95.93762632      76.85796150
H      58.07788172      97.57790876      77.37007733
C      61.00695750      96.73509082      80.66009084
H      60.29453068      98.64560413      80.55993534
C      62.69826255      96.02077428      82.66886992
H      63.27273935      97.49098135      83.96333243
C      69.55418962      93.94396506      87.19476443
O      71.36265770      92.69485597      86.56548557
N      68.91735185      94.49954459      89.56070177
H      67.62666878      95.82613247      90.03124363
C      70.65212060      93.83058148      91.69609251
H      72.47192704      94.43529390      90.94587116
C      70.10976915      95.30267828      94.07525794
H      71.49493854      94.69607613      95.47176568
H      68.16524078      94.76977546      94.48532855
C      70.55007538      98.19584926      93.97888190
C      68.59987783      99.95707419      94.30769428
H      66.66101863      99.32590560      94.38328332
C      69.03073543     102.53655060      94.36627579
H      67.59454343     103.95573506      94.67241146
C      71.52706389     103.47763431      94.18675179
O      72.08831260     105.82845384      94.15840590
H      70.55196511     106.75441973      94.43430593
C      73.43190801     101.66349705      93.80691681
H      75.35186994     102.30789372      93.54424484
C      72.99538123      99.14260215      93.68975377
H      74.31441020      97.61381356      93.39306674
C      71.01305833      91.03000708      92.10805285
O      69.05341214      89.77144936      92.05514051
N      73.35253951      90.17963024      92.48977756
H      74.71314245      91.41173180      91.96821310
C      74.01205399      87.54346204      92.70898581
H      72.35287429      86.37750090      93.07370299
C      75.21958910      86.56836326      90.16730392
H      77.10364624      87.38283530      90.01423610
C      75.59186519      83.68275118      90.16163475
H      76.28728447      82.98733190      88.34938721
H      73.80796355      82.82292571      90.73044237
H      76.85042291      82.90229421      91.59404729
O      73.84575807      87.22409829      87.99411867
H      73.35820868      88.96831568      88.08671526
C      75.97925908      87.12394279      94.88217108
O      77.13955104      89.06658144      95.64939995
N      76.47625710      84.81658697      95.95742534
H      75.29517815      83.40685114      95.44341979
C      78.65511154      84.18352865      97.69408382
H      80.36909331      85.19075278      97.16118101
C      77.92000800      84.81091779     100.50221713
H      77.00727019      86.65151122     100.38694383
C      75.93201592      82.90040449     101.40361658
H      76.75971605      81.01445762     101.35259397
H      74.43346296      83.13473055     100.00899856
H      75.19880211      83.30669564     103.28767371
C      80.04783983      84.90351438     102.35792838
H      81.67867364      85.72932478     101.40550631
H      80.62798581      82.97599354     102.79634488
C      79.39021508      86.44931050     104.77677805
H      77.95024362      85.57247749     105.95974673
H      78.75526703      88.36360326     104.36103826
H      81.06262286      86.62694477     105.96919535
C      79.31084657      81.36783645      97.23299060
O      77.78961689      79.89196019      96.22765621
N      81.67300446      80.73288840      97.97565305
H      82.89754711      82.01223312      98.68430041
C      82.56117583      78.15530171      98.07013937
H      81.21947015      76.83249329      98.89972921
H      84.20712745      77.87373249      99.27578476
C      83.02793823      77.08949607      95.44530951
O      84.89498782      77.95499072      94.24722303
N      81.82607229      75.01268685      94.79713340
H      80.62420636      74.34183401      96.11616236
C      82.14354631      73.61617911      92.35749672
H      83.69312189      74.41742307      91.26145546
C      82.80495052      70.74757457      92.75622897
H      81.36875852      69.62885659      93.71998939
C      83.52682597      69.50791410      90.11628131
H      84.43011515      67.67865903      90.40729916
H      85.15199060      70.54159440      89.39062641
H      82.03394219      69.62318741      88.70087630
C      85.05939401      70.37340876      94.68941899
H      84.58318298      71.22378560      96.50166652
H      86.33306955      71.78314459      93.89006476
C      86.59763123      67.88652893      94.93697314
H      87.56139165      67.49346586      93.15874067
H      85.14821115      66.45411638      95.23932935
H      87.73524647      68.08495019      96.64150627
C      79.72847609      73.98845519      90.74367046
O      78.19968750      72.34250357      90.26556969
N      79.14266093      76.37895898      90.18053201
H      80.45602072      77.74712083      90.39974026
C      76.79562085      77.11028306      88.83693660
H      76.43279340      76.03502879      87.11728566
H      76.95435786      79.09638542      88.31348241
C      74.39566843      76.99878921      90.29769504
O      72.36610237      76.69454327      89.06748321
N      74.23693142      77.16319540      92.84126665
H      75.89422140      77.51279477      93.72565857
C      71.95225231      77.46177216      94.30013537
H      70.53306785      76.16164045      93.56692157
C      72.46625786      77.20287965      97.22165225
H      73.48293062      78.82993401      97.97187359
H      73.46403336      75.40763965      97.36149199
C      70.20047602      76.88351590      98.75988947
N      68.79829909      74.64607995      98.97531826
H      69.14789846      73.13807835      97.86226947
C      66.56464259      75.20921839      99.99010130
H      64.81097657      74.16231001      99.98821157
N      66.56842204      77.53169203     100.77811717
H      64.96593413      78.14207363     101.61148647
C      69.01372789      78.67119700     100.16773557
H      69.76583896      80.54580550     100.46631233
C      70.84109324      80.09038146      93.84660105
O      71.74438241      82.08215299      94.81792038
N      68.74349703      80.24533902      92.32159192
H      68.19925585      78.62017439      91.48066371
C      67.36399682      82.56025375      91.57137058
H      68.70759223      84.05691699      91.13106434
C      65.71993493      82.04624819      89.16763871
H      64.11933674      80.90863295      89.79124839
H      66.67991589      80.87650760      87.76924123
C      64.84121219      84.47076705      87.47255420
H      66.39456722      85.59515421      86.72233285
C      63.40879965      83.52779362      85.11795521
H      64.72593889      82.51679004      83.89908174
H      62.59621733      85.15295825      84.14474617
H      61.81387064      82.44875990      85.84549984
C      63.02140575      86.33592692      88.90118729
H      64.03051960      87.09937635      90.52824166
H      61.27907809      85.55169050      89.66841617
H      62.64723994      88.06691622      87.84860973
C      65.90512811      83.68653063      93.93541819
O      64.21193333      82.35427358      94.83303820
N      66.24716857      86.07892414      94.65729364
H      67.28651804      87.26000309      93.57448046
C      65.23238554      86.98599277      96.97409810
H      64.71460053      85.51767543      98.32147296
C      67.05030225      88.75477660      98.40084147
H      65.94670208      89.87160485      99.73120880
H      67.76650852      90.15317407      97.07047414
C      68.97404364      87.38094557     100.01088828
H      69.77528759      85.96365084      98.74855111
C      71.23415631      89.04390473     100.77622745
H      72.25460852      89.56546919      99.06602513
H      72.56452363      88.11037993     102.04234408
H      70.50094250      90.74654814     101.67573717
C      67.91012772      85.97120974     102.28044959
H      66.68369535      87.24488528     103.33869633
H      69.30852520      85.08303838     103.50310251
H      66.92558031      84.33281703     101.51700016
C      62.78330024      88.29935256      96.45442336
O      60.93325818      87.49621888      97.67896602
N      62.76062352      90.24955012      94.88217108
H      64.39901623      90.44041247      93.92219010
C      60.46082660      91.61015306      94.08470657
H      58.95093527      90.20986586      94.12628055
C      59.92981350      93.83814038      95.78546025