 %block lattice_cart
   135.996   0.000   0.000
   0.000 142.663   0.000
   0.000   0.000   160.158
 %endblock lattice_cart

 %block positions_abs
N      85.85307908      40.67447003      77.30204719
H      87.56139165      40.93525226      76.49324433
H      84.68900766      40.95603925      75.81672230
H      85.54883313      38.96237799      78.09195279
C      85.54127424      42.82497857      78.96122689
H      86.77904496      42.57364497      80.58828125
C      86.37464353      45.41390362      77.79148629
H      85.12931389      45.36099128      76.15309358
H      88.37964315      45.09642960      77.43432802
C      86.02882361      47.70047246      79.57349822
H      86.69589701      46.90678741      81.35362039
H      84.06161853      48.29762597      79.70766878
S      87.72957730      50.38388382      78.43021380
C      85.85118934      51.18701751      75.75625105
H      86.26881886      53.12209725      75.18744344
H      83.89154315      51.05284694      76.37608130
H      86.12330994      49.89633443      74.17455014
C      82.79739162      43.13300396      79.75491193
O      81.05884341      42.37900316      78.34517610
N      82.34952648      43.78306981      82.21722533
H      83.85752808      44.12888973      83.33027413
C      79.69635074      44.34809798      83.19421383
H      78.35086562      43.51472868      81.87518486
C      79.35242056      43.01773066      85.73589571
H      80.54483785      41.34154342      85.62440186
H      77.39277437      42.45081276      86.01935466
C      79.83619050      44.63155693      87.96010358
O      78.27527656      45.90712219      89.08071130
N      82.08685453      44.87344189      88.71599412
H      82.12275934      45.90712219      90.31848202
H      83.55328214      44.19125070      87.70310081
C      79.11242531      47.18457718      83.26602343
O      80.87742969      48.58297465      83.46633442
N      76.69357564      48.02739511      83.32649466
H      75.38966447      46.63277709      83.34161248
C      76.04162006      50.72970374      83.16019875
H      76.58019205      51.35898260      81.27425190
C      73.19758196      51.17000997      83.58916663
H      72.33586676      50.01727692      82.11518010
C      71.99760574      50.21002900      86.03825192
H      72.66089969      48.30329515      86.45021227
H      69.94347325      50.34042012      86.05336974
H      72.68735585      51.53094770      87.46121584
C      72.40011745      54.00648917      83.07516107
H      73.38655458      55.34441540      84.29025508
H      70.40267674      54.02538643      83.57404881
C      72.82152641      54.67356255      80.30104284
H      74.78873151      54.71513653      79.69066125
H      71.97681876      56.51415598      79.92309757
H      72.12043795      53.12209725      79.13886116
C      77.41734081      52.45880332      84.96110794
O      78.13732653      54.54695089      84.22222494
N      77.60253399      51.81818610      87.40074460
H      77.29261887      49.95491595      87.67853437
C      78.80817938      53.38665893      89.36605997
H      77.58174701      54.99292630      89.76857168
C      78.95368830      51.97503338      91.83782199
H      80.04595012      52.89910955      93.31936742
H      79.80028569      50.11743241      91.56192194
C      76.41200642      51.82952445      93.18141739
C      75.77705837      53.78350146      94.69886763
H      77.22269901      55.14410441      95.17129920
C      73.37899569      53.88743641      95.97065342
H      73.06530112      55.57118255      97.07992278
C      71.69524953      51.85976007      95.73443764
H      69.92835543      51.99393064      96.75300012
C      72.31696949      49.82452483      94.17730316
H      70.98849190      48.28061844      94.04124287
C      74.61298697      49.81696593      92.78079542
H      74.95502742      48.26361090      91.50145070
C      81.41411196      54.27672003      88.66308177
O      82.19078948      56.40644158      88.93142291
N      82.88998821      52.59675334      87.32893501
H      82.14732577      50.88277157      86.94532055
C      85.29938927      53.12965616      86.38785130
H      86.37842298      54.08774740      87.85805837
C      86.74880935      50.57285645      86.15730468
H      88.03571296      50.78450580      84.56426541
H      85.37119886      49.10264938      85.72644709
C      88.28137738      49.98893102      88.61016944
H      87.02659912      50.45380370      90.17486283
H      89.79504816      51.37599014      88.45521188
C      89.50025085      47.32630665      88.70276603
O      91.24068880      46.69702779      87.21366169
O      88.75191924      45.82775368      90.34304846
C      85.22568993      54.73970297      83.98789887
O      86.77904496      56.44423611      83.55137210
N      83.29249992      54.23136660      82.39296988
H      82.10197235      52.79517460      82.79170213
C      82.92022384      55.76771409      79.98545855
H      84.63798506      55.61464626      78.85918166
C      80.76971529      54.73970297      78.37352200
H      78.92534241      55.09686125      79.21633993
H      81.08152014      52.71580609      78.15809321
C      80.47869743      55.91133329      75.82806066
H      82.14543604      55.70913257      74.63564335
H      79.86831584      57.85586167      76.12663742
S      77.80851416      54.64143721      74.19533712
C      79.56029046      53.89877477      71.15854694
H      78.11842928      53.05595683      69.95101182
H      81.11742494      52.58163553      71.45334424
H      80.31996043      55.61653598      70.31194955
C      82.38354157      58.53805286      80.71678264
O      83.51737734      60.18211476      79.42609955
N      81.00593108      59.13709611      82.81626857
H      79.84752886      57.80483905      83.54381319
C      80.15744396      61.68633690      83.55515155
H      79.85319803      62.91843846      81.93187665
C      77.69135113      61.44445193      84.91197505
H      77.40222300      63.42488511      85.39385526
H      77.76127100      60.42022027      86.69776642
C      75.31407542      60.68100250      83.27169260
H      75.64666726      58.93111594      82.23612259
C      73.30151690      60.11786406      85.25212579
H      71.60643239      59.20701598      84.51513252
H      72.85743121      61.88664789      86.20643757
H      74.27094651      58.81773236      86.52391160
C      74.57330272      62.76159117      81.30448752
H      73.95725193      64.32817429      82.49123563
H      72.94435863      61.93767050      80.35395517
H      76.03973032      63.06394738      79.88908251
C      81.88843327      63.06205766      85.32771483
O      81.97914013      65.28815525      85.52046692
N      83.47958282      61.62775539      86.76201710
H      83.23580813      59.74558798      86.55603693
C      85.42222147      62.58962608      88.31348241
H      84.68144875      64.11274549      89.48511272
C      86.33873873      60.52793467      90.13328884
H      87.41966218      59.18055981      89.01079141
H      84.75514809      59.53771808      90.99878351
C      87.93177801      61.61263758      92.39907070
H      86.73936072      62.86741585      93.51400922
H      89.52481729      62.74836309      91.75089458
C      88.90498707      59.40732697      93.85415996
H      90.37519413      60.12920242      95.10515877
H      90.06149957      58.19979185      92.65229403
N      87.03415802      57.89743564      95.28468277
H      86.13653801      56.46880255      94.39462169
C      86.25559078      58.33963160      97.54101599
N      86.96612788      60.21046065      98.91484703
H      86.23102434      60.34652095     100.67229249
H      88.51192399      61.28193547      98.60115246
N      84.76648644      56.73336424      98.57658602
H      83.79327739      57.29083350     100.12238213
H      84.19956855      55.07985371      97.80746740
C      87.58217864      63.93700094      86.85839314
O      88.73113224      65.66421079      87.77868987
N      87.95445473      63.11685972      84.40552840
H      86.94912034      61.60885812      83.80837487
C      89.84796049      64.32061538      82.57249388
H      91.12919493      65.27303744      83.87640502
C      91.19155591      62.28915960      81.07583064
H      92.08539645      60.97391008      82.38163151
C      89.62875224      60.68856141      79.30326734
H      88.61585894      61.89609652      77.97667947
H      88.11697119      59.71346263      80.30482229
H      90.89864833      59.41110642      78.30738159
C      93.63686176      63.25858919      79.50168862
H      93.15876099      64.27526195      77.77258903
H      94.68754958      61.67688827      78.70233439
C      95.36029215      65.04816001      81.03803611
H      96.78325606      65.81538890      79.76247084
H      96.28058886      63.99369273      82.54981715
H      94.16220567      66.49191092      81.88841294
C      88.54971853      66.28404102      80.96811623
O      89.50592004      68.34384270      80.62040658
N      86.35574628      65.80782999      80.13285720
H      85.51859752      64.14298111      80.53725864
C      84.78916316      67.56716519      78.60028917
H      85.89465305      67.96778717      76.90709438
C      82.43456417      66.16498826      77.58361641
H      80.85853242      67.45945079      77.29070882
H      81.49914964      65.03115248      79.02736730
C      82.97880535      64.52848528      75.20256124
O      85.08585018      64.76281134      74.08573300
O      81.17600644      63.21512549      74.32194879
C      83.92366850      70.00491213      79.84372907
O      83.95768359      71.92109461      78.51525147
N      83.26604375      70.05971419      82.34383698
H      83.18478551      68.30982763      83.09972751
C      83.07518139      72.44454880      83.72333719
H      82.96935672      74.06215453      82.45533083
C      80.76593583      72.35195221      85.51857720
H      80.94545984      73.71255516      87.05492469
H      80.88498860      70.54915331      86.50690405
C      78.31307108      72.35762139      84.22222494
H      76.70869344      72.23289945      85.51101829
H      77.98236897      70.65875744      83.10728642
C      77.73292510      74.77836080      82.68398772
O      78.82329719      76.84194193      83.15452957
O      76.17957007      74.68765393      80.87362991
C      85.56017149      73.25713112      85.00268191
O      86.17433254      75.56259722      85.19354426
N      87.01904021      71.44866303      86.04392110
H      86.50692438      69.63641550      85.73967518
C      89.18088711      72.07794190      87.66719602
H      90.37141468      73.53303116      86.83004725
H      90.45267291      70.48301289      87.95821387
C      88.32295136      72.87729613      90.33926901
O      86.19322980      72.24612754      91.16696914
N      90.00858723      74.15097166      91.83971170
H      91.70745120      74.47222514      91.02901913
C      89.41332345      75.06937865      94.32281208
H      87.47635397      74.67064640      94.90673752
C      91.04982643      73.75790859      96.37316513
H      93.03970824      74.06404425      95.94041780
H      90.68321952      71.74723979      96.12561098
C      90.50369553      74.56293200      99.05846623
H      90.36196606      76.60005696      99.31357927
C      88.06594859      73.41019895     100.01466774
H      87.77304101      73.97522711     101.97431393
H      88.14342737      71.35606645      99.87671771
H      86.44834287      74.25301688      99.05657650
C      92.53326158      73.67665036     100.80268362
H      93.05671577      71.68676855     100.68930004
H      92.36318622      74.44009979     102.70752773
H      94.15086731      74.76513271     100.14127941
C      89.45489742      78.07971267      94.39840114
O      91.24446825      79.38929300      93.81447570
N      87.44611836      79.21543818      95.55302391
H      85.93811676      78.15341199      96.05002194
C      87.16076968      81.90640845      96.17663359
H      89.00514256      82.69253460      96.64528572
C      85.90032224      83.37283607      93.92407984
H      85.49025162      85.25500348      94.65351419
H      84.18634047      82.26923590      93.63306198
C      87.58973755      83.64495666      91.54869385
H      88.56483633      81.90073927      91.04980611
H      88.85963363      85.23232676      91.86994734
C      85.67544480      84.37817047      89.30936818
H      86.72046345      85.22665758      87.75034396
H      84.58129326      85.95042276      90.06525871
N      84.38476173      82.16341123      88.44387353
H      84.24870143      80.67052744      89.62306274
C      82.98447452      81.86861392      86.43698419
N      82.34007786      83.53913199      84.77402503
H      81.64087912      82.87583805      83.12429395
H      82.62164707      85.35704870      85.29181003
N      82.01882438      79.69353894      86.23667319
H      80.68656734      79.39118273      84.90441614
H      82.53660939      78.24600858      87.36672952
C      85.74158522      82.31836879      98.55201958
O      83.48525201      82.48088525      98.59170382
N      87.00770185      82.16719068     100.66851304
H      88.88420007      81.82515022     100.58725481
C      85.76426194      82.44498045     103.10059080
H      84.07106716      81.27523986     103.11003944
C      87.54816357      81.48499948     105.19818702
H      86.49747575      81.69475910     106.95752221
H      89.27159398      82.60560719     105.33235758
C      88.14720682      78.58426959     105.06590617
H      88.96356858      78.10805856     103.23665110
C      90.16354480      77.90774757     107.05389825
H      91.85484984      79.05103199     106.78555712
H      90.62085856      75.91597604     106.80634410
H      89.59473718      77.92475511     109.03622115
C      86.01937498      76.86650837     105.78211244
H      86.68266893      74.91631082     105.72353093
H      84.61908779      76.95721524     104.27600057
H      85.54127424      77.51090505     107.67750793
C      84.58885216      85.12839181     103.60514774
O      82.95801836      85.43263775     105.23598155
N      85.35986051      87.13717088     102.26344205
H      86.75069907      86.77623316     101.00866378
C      84.52460147      89.80924389     102.47698112
H      83.58918694      89.87727404     104.31001564
C      86.76392716      91.54023319     102.32391329
H      87.57650947      91.41551126     100.43607671
H      88.18689106      90.78623240     103.60703747
C      86.15732500      94.42773500     103.03256067
H      85.29749953      94.51277268     104.90338972
H      84.81183988      95.10425702     101.62849402
C      88.56672606      96.03967155     103.06468600
H      89.45111797      95.67117491     101.23921040
H      89.73079746      95.43495913     104.65205611
C      87.60296564      98.65505276     103.30657097
H      86.22535515      98.66072194     104.83913902
H      86.82061895      98.97630624     101.43007275
N      89.53804539     100.64115512     103.92829093
H      89.78182007     100.65438320     105.82179670
H      88.76136787     102.37214442     103.72797995
H      91.13864358     100.30100438     102.94563326
C      82.52338130      90.67284882     100.49087877
O      82.91077520      90.27411656      98.25344281
N      80.50704333      91.83503050     101.26755628
H      80.52783032      92.24321138     103.13082642
C      78.37921151      92.74776831      99.68963482
H      77.25671407      91.07347079      99.27011558
C      76.66145029      94.50899323     101.41684466
H      76.41200642      93.64538831     103.26877645
C      77.55340111      97.28878064     101.84203308
H      76.27027693      98.22608489     103.15161341
H      78.03339159      98.28466641     100.10348488
H      79.37887672      97.00721142     102.75666062
C      73.96103138      94.29734388     100.22442736
H      73.41301075      92.41895593      99.57625124
H      74.02528208      95.37070843      98.46887161
C      71.86910435      95.22519950     101.92140158
H      71.71603652      93.99687740     103.56924294
H      70.13433560      95.22708923     100.81024251
H      72.20358591      97.15649980     102.55068046
C      78.95179857      93.96853151      97.07614333
O      80.74136939      95.47275365      96.93252413
N      77.71969702      93.01988890      95.19586564
H      76.58775096      91.50810785      95.47932459
C      77.95402308      93.94018561      92.53324127
H      78.61164784      95.88471399      92.69008856
C      79.87398501      92.23376275      91.22933011
H      81.60497433      92.09392300      92.33670973
H      80.27271727      93.09169850      89.40007504
C      79.33352329      89.38027602      90.59438207
C      78.12976764      88.46942794      88.39663036
H      77.98425871      89.90184048      86.94910001
C      77.46080452      85.86349535      88.06025908
H      76.76538523      85.11516373      86.29525471
C      78.12409845      84.05880672      89.98211074
O      77.83686005      81.54547072      89.63440110
H      76.90711470      81.14295902      88.13017896
C      79.30895685      85.10193565      92.13828847
H      79.80784460      84.00967384      93.78801954
C      79.91177955      87.66251480      92.53324127
H      80.87176052      88.18974844      94.25478193
C      75.38021585      93.90428081      91.19342531
O      73.58686557      93.20130262      92.35938644
N      75.34620077      94.56946447      88.71221467
H      77.02427773      95.18173580      88.04514128
C      73.37521623      94.29734388      86.83760616
H      71.84075846      93.29956839      87.78246932
C      72.47948596      96.82957714      85.84361012
H      71.10187547      96.54611820      84.33938797
H      74.21803417      97.66483617      85.11795521
C      71.34565016      98.57001508      87.90341179
H      72.25838798      98.35647601      89.73833604
H      69.40868069      97.95585403      88.24356253
C      71.17746453     101.29122097      86.95665892
H      69.94536296     101.33279495      85.30503812
H      73.07663948     101.81845461      86.36328486
C      70.09465134     102.96929794      88.97488662
H      71.48737965     102.62725747      90.45643204
H      68.16713050     102.31167318      89.28291201
N      70.10409999     105.64704012      88.04703100
H      71.84642765     106.21962719      87.51979735
H      69.34443000     106.91504648      89.25456612
H      69.19514162     105.70184218      86.36895404
C      74.20102662      92.69296625      84.66820035
O      76.12854746      93.08413959      83.51168784
N      72.63066406      90.87315981      83.90664064
H      71.08675766      90.67851800      85.01402026
C      72.76483462      89.65239661      81.50479850
H      74.71314245      89.04390473      81.23078818
C      71.12266246      87.20520103      81.70510950
H      69.20647998      87.61149219      82.33627809
H      71.68391117      85.79924466      83.09972751
C      71.05652205      85.68397135      79.16720706
O      73.04073468      85.46476310      77.86140617
O      68.90223405      85.12083291      78.35462474
C      72.07508452      91.39094482      79.29192900
O      71.24360494      93.53956363      79.71900713
N      72.46625787      90.81268856      76.81449779
H      73.52072516      89.22909791      76.65009161
C      72.07508452      92.30935180      74.46556798
H      73.12577236      94.07624591      74.61296665
C      72.86121067      90.79568103      72.15065325
H      72.35854348      92.00132641      70.55761397
C      75.74493302      90.07569530      72.07317448
H      76.12665774      89.80546444      70.06439540
H      76.14366527      88.49777383      73.33929111
H      76.75215715      91.73298528      72.76859375
O      71.66879336      88.49021493      72.09585119
H      71.89745025      87.54724149      73.62652950
C      69.37466563      93.22964852      74.28604399
O      68.93624912      95.32913445      73.25047396
N      67.44903451      91.88227366      75.20823042
H      67.83453868      90.19663779      76.01703330
C      64.74105671      92.72887105      75.18366398
H      64.36689089      93.88538355      73.51881511
C      62.92691944      90.39694877      75.41232088
H      60.97105270      91.04323517      75.32917292
H      63.15368660      89.35381985      77.17165606
C      63.12345098      88.55635535      73.32039384
H      61.84977544      86.96142634      73.59251443
H      65.07175881      87.89873059      73.18244382
C      62.35055292      89.83570006      70.78627085
O      60.47216496      88.85493210      69.72613440
O      63.23872428      91.74054418      69.90376867
C      64.16091073      94.60536927      77.39653349
O      62.00851246      95.45574611      77.49668899
N      66.00339389      95.20630224      79.03114677
H      67.65690441      94.29923361      78.73634945
C      66.04118840      97.25476556      80.92276279
H      64.72782861      98.72686236      80.32749902
H      67.89312019      98.15238556      81.02291829
C      65.32120269      96.53477984      83.63074060
O      65.90701784      98.00309718      85.32771483
N      64.44247995      94.21986511      84.01435505
H      64.13634429      93.23531770      82.40997741
C      63.47682981      93.06146288      86.40863828
H      61.97071792      94.18018085      87.25523567
C      62.73794682      90.27411656      85.91919918
H      62.14079330      89.52578494      87.74089534
H      64.41791351      89.32169450      85.20488262
C      60.85577940      89.60704318      83.83672078
C      61.22049658      87.51889560      82.43454384
H      62.49417211      86.10915977      83.17720630
C      59.44982303      86.99544141      80.46733876
H      59.32321136      85.18697333      79.53381395
C      57.67725975      88.80957867      79.68121261
O      55.91225537      88.42785396      77.75369177
H      55.15069567      89.99443707      77.24535540
C      57.48450766      91.07725025      81.04370529
H      56.01619031      92.44541210      80.66576002
C      59.04542160      91.43062907      83.08083025
H      58.97361199      93.19185399      84.10884137
C      65.66891233      92.83091627      88.30025432
O      67.64367633      91.88794284      87.61806313
N      65.31931296      93.57546843      90.66808140
H      63.65068462      94.23876237      91.31814725
C      67.34132012      93.17862591      92.65796321
H      69.01372789      94.11404043      91.90585214
C      66.67235700      94.43718363      95.17318893
H      67.96304007      93.93073698      96.69630833
H      64.81664575      93.63027050      95.55869309
C      66.66290836      97.17917651      95.03145946
C      64.46326694      98.56623563      94.66485255
H      62.73227763      97.49854026      94.49099772
C      64.42736213     101.14949150      94.60438131
H      62.62267351     102.01120669      94.19242096
C      66.69314399     102.52332253      94.85193546
O      66.52117889     105.19917498      94.73666214
H      64.77507178     105.67349629      94.85760464
C      68.96837447     101.27232371      94.95209094
H      70.55763429     102.50253554      95.31113894
C      68.93624912      98.60969933      95.26389579
H      70.68613569      97.57034986      95.42641226
C      67.78729552      90.32324945      93.27968316
O      65.93914319      88.84359375      93.27590371
N      70.16835067      89.47854179      93.82014489
H      71.65367556      90.67662827      93.83526269
C      71.07919875      86.80079960      93.66896678
H      69.44836495      85.66885354      94.21698742
C      71.52895362      86.19608718      90.75122936
H      73.19947168      87.25244419      90.17864228
C      71.93902424      83.37850525      90.31659231
H      70.17401986      82.34293523      90.56036699
H      73.52828406      82.77946201      91.48066372
H      72.71570174      83.33315182      88.40796873
O      69.32364301      86.72521055      89.23755857
H      68.81908609      88.44675122      89.50778944
C      73.38655458      86.43041324      95.35082320
O      74.92479181      88.15006419      95.75522464
N      73.76449984      84.14951358      96.50544598
H      72.60798734      82.67363733      96.13883907
C      75.98492827      83.49188883      98.18352294
H      77.41545109      84.77501299      97.44463995
C      75.22525828      84.26667662     100.96897952
H      74.36354309      86.07514470     100.48520960
C      73.29206827      82.38828866     102.23698588
H      72.74782709      83.24244495     104.03033616
H      74.14055538      80.56848222     102.69618938
H      71.71603652      82.04246875     100.95386172
C      77.50993740      85.04713358     102.59981333
H      78.81195883      85.88806179     101.24487957
H      78.51338208      83.35204908     103.20641548
C      77.00538048      86.60426806     104.96764040
H      76.18334953      88.36171354     104.27978002
H      78.82140746      87.18252432     105.74809738
H      75.82052207      85.59137476     106.31690500
C      76.77294413      80.69131443      98.01344758
O      75.45769462      79.16819502      96.88150151
N      78.84408418      79.87306294      99.22098268
H      80.03083230      81.27146041      99.75010606
C      80.07051656      77.23311528      99.34003544
H      78.98770337      75.78369520     100.32080341
H      81.88276408      77.58460437     100.25277325
C      80.55806595      75.97455755      96.72087477
O      82.39110046      76.66052821      95.34326429
N      78.99715201      74.03002918      96.10293427
H      77.65166687      73.56704623      97.37283036
C      79.00282118      72.66564678      93.75589419
H      80.55050704      73.46311128      92.65607347
C      79.66989458      69.87830047      94.26612029
H      78.00315596      68.98634965      95.08437179
C      80.09886245      68.51580780      91.68853361
H      81.63709966      69.34728737      90.60005125
H      78.44346219      68.48179272      90.46210122
H      80.84719406      66.64308902      92.10994258
C      82.00370657      69.59673125      96.05191167
H      81.84685928      70.71544923      97.77345234
H      83.73658560      70.36207040      95.24310879
C      82.56117584      66.91143016      96.92118577
H      84.04650072      66.91520961      98.34603940
H      83.23013896      65.80216081      95.31869785
H      80.73947967      66.18577525      97.55235436
C      76.61231740      73.06059958      92.00978708
O      74.84353358      71.57905415      91.75656376
N      76.44224203      75.44921364      91.03279858
H      77.71024840      76.82493439      91.41641302
C      74.02717180      76.18620690      89.82715319
H      73.79662519      74.99001015      88.16797349
H      74.25582869      78.15908117      89.28291201
C      71.42123922      76.15408155      91.48822261
O      69.52962318      75.56070749      90.39974025
N      71.68391117      76.63407204      94.02990451
H      73.30907580      77.32382214      94.75555941
C      69.42379851      76.58871861      95.56247255
H      68.26350655      75.03725330      94.86894299
C      69.84520747      76.27313431      98.33092160
H      71.10187547      77.76601810      98.99043608
H      70.81463708      74.46277650      98.49154834
C      67.58131536      76.14463292      99.82191565
N      65.74639111      74.27191415      99.65561974
H      66.12622609      72.66753651      98.69374905
C      63.91335658      74.89363410     101.27322546
H      62.41291389      73.59539213     101.75888513
N      64.29130184      77.22555637     102.04045435
H      63.10266400      78.44065039     102.90783873
C      66.67802617      78.03246951     101.40739604
H      67.57186673      79.75401018     102.03856463
C      67.99327569      79.02268610      95.15240194
O      69.06664023      81.11083367      95.61160544
N      65.63300752      78.91875115      94.39840114
H      64.81475603      77.23122555      94.03935313
C      64.15524154      81.17886382      93.74077639
H      65.38734310      82.48466470      92.73166253
C      61.83087818      80.57037195      92.08915559
H      60.81420542      79.16630530      93.20031465
H      62.20882345      79.54425056      90.34304846
C      60.26051561      82.71710104      91.24066846
H      59.84477582      83.81125257      92.93575297
C      61.33010070      84.71265203      89.44731819
H      62.90991191      85.61972066      90.40918889
H      59.78808403      86.06191661      89.24511748
H      61.82142956      84.08526289      87.54814325
C      57.83032757      81.64184677      89.88195525
H      58.30275915      80.75934458      88.08104608
H      56.28453145      82.99867026      89.76101277
H      57.00073773      80.11683763      90.99311432
C      63.22927565      82.48088525      96.23332539
O      61.78363502      81.43019742      97.61660505
N      64.03807851      84.87327876      96.74544121
H      64.89034509      85.80302411      95.31113894
C      63.04030303      86.16774129      99.02067170
H      62.80975641      84.90351438     100.63260825
C      65.14545813      87.87605387     100.01466774
H      64.41035460      88.87949855     101.65683990
H      65.68214040      89.13461160      98.47454079
C      67.51139548      86.65529068     101.10126037
H      68.43925110      85.37972541      99.77656223
C      69.43513687      88.76800469     101.94407831
H      70.32897741      89.49932878     100.23765545
H      70.84865214      87.92896621     103.18562850
H      68.50539151      90.20230696     103.09303191
C      66.84621182      85.29468773     103.45585936
H      66.71960015      86.56458381     105.07346508
H      68.42980246      84.09849097     104.00576971
H      65.16246567      84.10793961     103.49554360
C      60.52129784      87.59637438      98.67107234
O      58.96227363      87.27323118     100.39072327
N      60.26618480      89.04201501      96.68119053
H      61.82520900      89.21586983      95.59270817
C      57.83032757      90.07191585      95.90829247
H      56.38090749      88.61682659      96.05191167
C      56.90058224      92.20730658      97.55991325