 %block lattice_cart
   135.996   0.000   0.000
   0.000 142.663   0.000
   0.000   0.000   160.158
 %endblock lattice_cart

 %block positions_abs
N      86.65904734      38.20743232      80.61284768
H      88.51853804      38.19042478      81.04559502
H      86.34346305      37.17186230      79.04059539
H      85.76520680      37.53091030      82.15675409
C      85.70095610      40.79446764      80.13285720
H      86.22441029      41.69586709      81.90919994
C      87.08234604      41.88106027      77.71589726
H      86.32456579      41.09493413      75.97167986
H      89.08545593      41.43697459      77.53826297
C      86.68361379      44.67407576      77.71400752
H      84.66349636      45.05013131      77.59684449
H      87.63792557      45.50933480      76.08884289
S      87.98941467      46.22554107      80.47678740
C      86.66093707      49.41161964      80.19521817
H      86.40960347      49.85192586      78.19966718
H      87.83445711      50.67395681      81.32527450
H      84.92805804      49.52878267      81.30259779
C      82.67928373      40.93430739      80.11018049
O      81.42450546      39.19953863      79.16342760
N      81.63993426      43.00733716      81.17598612
H      82.57912823      44.64950932      81.43298891
C      78.91683864      43.05835977      81.85817732
H      78.08346933      42.34782267      80.11207022
C      78.23275771      41.28012732      84.05592903
H      78.40472281      42.33270486      85.81715395
H      79.49131544      39.65118322      83.98600915
C      75.43596277      40.46754499      83.80081597
O      74.04512420      41.43130541      82.28147603
N      74.80857363      38.61750293      85.26535388
H      72.98120829      38.06192340      85.30314839
H      76.04823410      37.82381788      86.48233761
C      78.28000087      45.82869854      81.98289927
O      79.84847371      47.56157758      82.45155139
N      75.79690050      46.41073425      81.81849307
H      74.69330033      44.88950456      81.48401151
C      74.65928526      48.98265176      81.83739033
H      75.20919561      49.97664780      80.11962913
C      71.69052522      48.79367913      81.73345539
H      71.04612855      47.70330704      80.11018049
C      70.54535107      47.39717139      84.01624477
H      70.47165175      48.54612498      85.72644709
H      71.52611903      45.61704919      84.35261606
H      68.54035145      47.15906586      83.60995363
C      70.49432846      51.44496514      81.52936495
H      70.88739153      52.45974818      83.27736178
H      68.46287268      51.11615276      81.62007182
C      71.31824913      53.00776880      79.15208924
H      71.43919162      51.77188779      77.50991708
H      73.24388025      53.57468670      79.61318246
H      70.10693457      54.61781562      78.72501110
C      75.45297031      50.65128009      84.13340780
O      76.01232930      52.92840030      83.83861050
N      75.86115119      49.40972990      86.30281361
H      75.78367241      47.50299605      86.32738005
C      76.40728210      50.66261846      88.60827971
H      75.00888462      52.17062006      88.72733247
C      75.83469502      48.92218052      90.84949512
H      75.51722100      50.00121424      92.57481524
H      77.35970416      47.68063033      91.46176646
C      73.47442686      47.34614877      90.75878826
C      71.21998337      48.24754822      91.77357129
H      71.20108610      50.11837728      92.59182278
C      68.95231179      46.80757678      91.79624800
H      67.21376358      47.60126182      92.51434400
C      69.05057756      44.29990995      90.73611154
H      67.30258072      43.25678103      90.88917937
C      71.31069023      43.46087147      89.85927854
H      71.54501629      41.52957118      89.24133803
C      73.52544947      44.92729909      89.81770455
H      75.15061410      44.00133320      89.00512224
C      78.87715439      52.23865019      88.89362839
O      79.04345030      54.16050185      90.16163475
N      80.75176289      51.44118570      87.42720078
H      80.29822857      49.94263272      86.33304923
C      83.14793585      52.85281125      87.07382195
H      83.32179067      54.21341419      88.61016944
C      85.41749716      51.07835824      87.25712540
H      86.93116793      51.94952207      86.16864304
H      85.05655943      49.25288262      86.37273349
C      86.71384941      50.63994174      89.71376961
H      87.46029130      52.40872556      90.45832178
H      88.28799142      49.31902305      89.56070178
C      84.92238886      49.56657720      91.82270417
O      83.91138528      51.10292468      93.24944754
O      84.33090453      47.27811862      91.87561651
C      83.15549476      54.34380531      84.53402979
O      84.38192714      56.38282000      84.46410991
N      81.76843564      53.50854629      82.64430348
H      80.86892592      51.86826385      83.02791792
C      81.54922739      54.88237731      80.24624078
H      83.35580575      54.78033209      79.26358310
C      79.65005245      53.42917777      78.64942204
H      77.79812066      54.09247171      79.25980364
H      79.89949632      51.38449390      78.70233439
C      79.41572639      54.10003062      75.88664217
H      80.87837455      53.09469621      74.84351325
H      79.36848323      56.12203777      75.48413048
S      76.22397864      53.15894692      75.00225027
C      76.67751296      52.85092152      71.61397098
H      77.55623569      54.49498342      70.73713797
H      74.95786201      52.39927693      70.57273179
H      78.14205085      51.47331104      71.16799557
C      80.74420398      57.56767840      80.55804562
O      81.52844040      59.29299853      79.21067077
N      78.84124959      58.08357368      82.24557122
H      77.99654192      56.54911592      82.99957202
C      77.98520357      60.55722542      83.10917614
H      77.67528845      61.68161258      81.41220191
C      75.35659426      60.23597195      84.29403455
H      74.41551056      62.01042496      84.74378941
H      75.56257443      59.05300328      85.96833205
C      73.56891317      58.74875735      82.58194251
H      74.44385646      56.95540707      82.07549585
C      71.41462518      58.12325793      84.25435029
H      70.74566206      59.85046778      85.16141892
H      72.13083145      56.79667007      85.65652721
H      69.91796194      57.32390370      83.08649943
C      72.62593974      60.15282399      80.28970449
H      71.52233958      61.85168795      80.66764975
H      71.63005398      58.87914847      79.01224950
H      74.31157561      60.71785216      79.25035501
C      79.73509013      62.10302155      84.77591476
O      79.83902508      64.44250272      84.40174894
N      81.42639518      60.78777203      86.14974578
H      81.03144238      58.92450189      86.03258275
C      83.46729960      62.15026471      87.49523093
H      83.01187556      64.03621157      88.18120158
C      84.40649358      60.39659870      89.45298739
H      85.78032461      61.37736664      90.63028687
H      85.25498069      58.71852172      88.61205917
C      82.31267682      59.40449237      91.35405205
H      80.74609371      58.51443129      90.35627655
H      81.63048562      61.08256934      92.33670973
C      83.65627223      57.58846540      93.15118177
H      84.99230873      58.76009570      94.18864152
H      84.74097514      56.15605284      92.14773710
N      81.64749316      56.22030355      94.69319844
H      81.16939240      54.48742452      94.05258122
C      81.12781842      56.77777280      97.04023852
N      81.92528293      58.81489776      98.28367844
H      81.65127261      58.83190530     100.17340475
H      82.95140432      60.17361098      97.42385296
N      79.91083468      55.23197667      98.46887161
H      79.58958121      55.79700484     100.26411161
H      79.87304015      53.37815516      98.02289622
C      85.64993349      62.81355865      85.78124915
O      87.02943370      64.56344522      86.54091913
N      86.19039522      61.41138172      83.70821938
H      85.51387320      59.62748008      83.60806390
C      88.03854755      62.11813936      81.71455812
H      89.66560191      62.72096206      82.82760692
C      88.77365109      59.79377599      80.16498255
H      87.08045631      58.78088269      79.57349822
C      90.14181294      60.57045351      77.63085956
H      89.00797715      61.90837974      76.55182584
H      90.44227942      58.81489776      76.59151010
H      91.93516321      61.43216871      78.16187266
C      90.34401365      57.89649078      81.73156566
H      89.43505530      57.57523730      83.55137210
H      92.21673243      58.64671213      82.14730545
C      90.82211441      55.34158080      80.57316343
H      91.95783992      54.35325394      81.97723009
H      91.93705294      55.50598700      78.84973303
H      89.01742578      54.53844712      79.98734828
C      86.96896246      64.22707392      80.18199008
O      88.07256263      66.22451464      79.91175922
N      84.60302511      63.96629169      79.26169337
H      83.91516474      62.18994896      79.36751804
C      83.37848246      65.90893034      77.65164655
H      84.69373198      66.49285577      76.17766004
C      80.93695607      65.00186171      76.27403607
H      79.96374702      66.60812909      75.42554895
H      79.48942571      64.14770542      77.46645338
C      81.26576845      63.28032105      73.92888571
O      83.19139956      63.70173001      72.64387182
O      79.64627300      61.60413380      73.45267468
C      82.51676726      68.39958963      78.78359262
O      82.50920836      70.22317553      77.43810749
N      81.68528769      68.55643691      81.16842723
H      81.01821430      66.98229489      82.01880406
C      81.35836504      70.96961742      82.52336099
H      80.91238963      72.58533341      81.32716423
C      79.27399691      70.68993792      84.46788936
H      79.31557089      72.33966899      85.69999092
H      79.83335590      69.04398631      85.57148953
C      76.74176365      70.48773721      83.26224397
H      75.64383266      69.26130482      84.50379417
H      76.93262601      69.51074870      81.45944507
C      75.46619839      73.05398553      82.76335624
O      73.13805557      73.22406091      82.55926580
O      76.76633009      74.95882966      82.16620271
C      83.80934006      71.84456069      83.89908175
O      84.24775657      74.14624734      84.19576877
N      85.67072048      70.26097004      84.65119282
H      85.41560743      68.39203072      84.36017496
C      87.47729884      71.00741193      86.76201711
H      88.52420721      72.72706288      86.32549033
H      88.78120999      69.47673362      87.21366169
C      86.07512191      71.67826478      89.31503736
O      83.84335514      71.46472570      89.61550384
N      87.67572010      71.94849564      91.25200684
H      89.50497517      72.15447581      90.74367046
C      87.02565425      72.72139370      93.81636543
H      84.98474983      72.52297244      94.01289698
C      88.09145989      70.85245439      95.71176092
H      90.09645951      70.50096528      95.40184582
H      87.20706797      69.07044246      95.17885811
C      87.57178515      71.46283598      98.45564353
H      87.85524410      73.47350477      98.79579427
C      84.93183749      71.07355236      99.28145394
H      83.52966057      72.15258608      98.22509693
H      84.48019290      71.44771817     101.25621793
H      84.50286962      69.05721438      99.22476214
C      89.40292995      69.96617274     100.29623696
H      89.15726553      70.66159203     102.21808862
H      91.29643572      70.63135640      99.82758483
H      89.15159635      67.92526833     100.15072804
C      87.39037143      75.50496057      94.27745866
O      89.49174709      76.33832986      94.07714766
N      85.40615880      77.09044094      94.77823614
H      83.62981606      76.42525727      94.98421629
C      85.70284583      79.77385230      95.26956497
H      87.71351463      80.21037908      95.16940947
C      84.66538608      81.42736283      93.14551259
H      84.25153602      83.30386105      93.88439558
H      82.92305842      80.59777297      92.42363715
C      86.66849597      81.69759369      91.00256296
H      87.69272764      79.92503041      90.77957525
H      88.12547496      83.07331444      91.47499453
C      85.52332183      82.72182535      88.55914683
H      86.98219054      82.85032675      87.10972675
H      84.73530596      84.59265441      88.91252565
N      83.57690373      81.02485112      87.60483505
H      83.24431190      79.40535567      88.55914683
C      82.46196520      81.20248539      85.35984018
N      82.81534402      83.04685828      83.78569816
H      81.79678154      82.84654729      82.18321025
H      83.63170579      84.72871469      84.18443041
N      81.22230474      79.31653853      84.59639076
H      80.31145666      79.36378170      82.92020351
H      80.81412386      77.79341912      85.67164503
C      84.81656419      80.39557226      98.03612429
O      82.57723851      79.99495029      98.64839561
N      86.39637539      81.21571348      99.80868757
H      88.27476334      81.28563336      99.47609574
C      85.66127185      81.62767381     102.37493591
H      83.91327501      80.56753735     102.60737224
C      87.60013105      80.41635926     104.25332386
H      86.98974945      80.97193878     106.14116045
H      89.38214296      81.35366351     103.82057654
C      87.59068242      77.63657184     104.23631632
H      88.62625243      76.87879159     102.62626950
C      88.92860864      76.77296692     106.69296053
H      87.63414612      77.12256629     108.25765392
H      90.53109656      78.03908356     106.96319139
H      89.67694026      74.85678443     106.61548175
C      85.04144162      76.16447505     104.24198551
H      84.04177640      76.62367855     102.50154758
H      83.90949556      76.96949845     105.76699464
H      85.24742179      74.11979118     104.35914854
C      84.88648406      84.35454888     103.17617986
O      83.50509413      84.53029344     104.98842740
N      85.58190334      86.27262109     101.71731115
H      86.52487677      86.00427996     100.07891843
C      84.58223813      88.94280437     101.92518105
H      83.93784145      89.02217289     103.87915805
C      86.89904258      90.64544779     101.72487005
H      88.01020166      90.41112173     100.00521912
H      88.06311399      90.12955250     103.34058606
C      86.09023972      93.42712491     102.17084546
H      84.97719092      93.70680441     103.88293751
H      84.97719092      93.72948112     100.46442260
C      88.66026751      94.92378815     102.08391805
H      89.28198747      95.02394365     100.12238215
H      89.89236906      93.82774690     103.31601962
C      88.55633256      97.59397144     103.05901683
H      87.61335913      97.47113923     104.88449246
H      87.55099816      98.72402777     101.66250908
N      91.04321239      98.79016819     103.74876693
H      92.14870228      97.77538517     104.92795615
H      90.81455551     100.42289172     104.71252735
H      91.96917828      99.16055456     102.12360230
C      82.31267682      89.27539620     100.05435199
O      82.45251657      88.14911933      98.01533731
N      80.40405325      90.86843548     100.74788155
H      80.76499097      92.12132404     102.14060985
C      78.19307346      91.39755885      98.94886211
H      77.31624045      89.53617843      98.84492715
C      76.33358277      93.03406184     100.40584109
H      76.15972795      92.10242677     102.23320643
C      77.38993978      95.76660610     101.03134051
H      76.13516151      96.95902340     102.14816876
H      77.45230075      96.94012613      99.34003545
H      79.15305443      95.61542798     102.08769750
C      73.57080290      93.19090913      99.32680736
H      73.12482749      91.27850609      98.69941823
H      73.57080290      94.63088057      97.85471056
C      71.70375330      93.86365170     101.46408782
H      69.74410712      93.73515031     100.85181651
H      71.95319718      95.80062116     102.11415367
H      71.88138758      92.51816657     103.01555312
C      79.07746538      92.46147477      96.26167128
O      80.61192314      94.23781750      96.00088906
N      77.92284260      91.53172942      94.25289222
H      76.45830471      90.32986349      94.47587993
C      78.28000087      92.28006104      91.45987673
H      79.15116470      94.14333120      91.38995685
C      80.13949156      90.64355805      90.05581007
H      81.89315758      90.71158820      91.13295408
H      80.38137653      91.32008007      88.12450979
C      79.31746062      87.91101380      89.62495248
C      78.31779540      87.00583491      87.33082473
H      78.08157961      88.20014194      85.69432174
C      77.51466171      84.38478450      87.12862401
H      76.77766845      83.66101933      85.36928881
C      77.61292748      82.82953975      89.29991954
O      76.94396437      80.28596814      89.05803459
H      76.33547250      79.75495505      87.43475967
C      78.64849750      83.83109470      91.56948085
H      78.73920437      82.58576505      93.18519684
C      79.47808735      86.25183411      91.71876923
H      80.33224365      86.71292732      93.51589895
C      75.86493064      92.58997616      90.01990527
O      73.84481321      91.86999043      90.99878350
N      76.03311629      93.74081949      87.68042409
H      77.78300285      93.70869414      86.91697466
C      73.86560020      93.97514555      85.98911904
H      72.10626501      93.64444344      87.00768154
C      73.90717418      96.63776993      84.82315791
H      72.54279178      96.88721379      83.30003851
H      75.76666487      97.04784053      84.04081122
C      73.23632134      98.42167156      86.94343084
H      74.75755102      98.18923523      88.31159268
H      71.37683065      97.90766600      87.66719602
C      73.06246652     101.26193021      85.86250739
H      71.54123684     101.27137885      84.47544827
H      74.80101473     101.78160494      84.88740860
C      72.20075132     103.39921067      87.80892549
H      73.32324875     103.31417298      89.53235589
H      70.38094488     102.69623248      88.47032970
N      72.23476640     105.95223092      86.60139037
H      72.31224517     107.22212701      88.02435429
H      70.85148673     106.22246178      85.31259703
H      73.80701869     106.31505837      85.58282789
C      74.24921465      92.03061718      83.81782352
O      76.46208416      91.71503287      83.09216861
N      72.17429515      90.93079645      82.92209324
H      70.40173187      91.05173894      83.62696116
C      72.17807461      89.61554694      80.51269219
H      73.64261250      88.16801659      80.46544903
C      69.75355575      87.95636724      80.60528878
H      68.16996510      89.26972702      80.66764975
H      69.68552560      87.24960961      82.53847880
C      69.56647284      86.16112725      78.54548710
O      70.75133124      84.13345091      78.50013368
O      68.19453154      86.75450131      76.74646766
C      72.26500202      91.23126294      78.14297539
O      72.17051570      93.52161123      78.44155215
N      72.24988421      90.42812926      75.74869216
H      72.46531301      88.57241801      75.36507771
C      72.50310753      92.08163978      73.43377743
H      73.95630707      93.46302972      73.90620900
C      73.37805082      90.58497655      71.16421612
H      73.25143915      92.02872745      69.69967823
C      76.10870534      89.84042437      71.39665245
H      76.80034517      88.59131528      69.91321731
H      76.33169304      88.87099477      73.20323081
H      77.45041102      91.39944859      71.44767507
O      72.22720749      88.34187140      70.41399477
H      73.21175490      87.81652750      68.98536169
C      70.05969141      93.57452356      72.78938075
O      70.27512021      95.71558348      71.95223199
N      67.83737327      92.56351999      73.39976235
H      67.70320270      90.77394917      74.04415902
C      65.53946607      94.17356682      73.50936647
H      65.46576674      95.45102180      71.89742993
C      63.15652119      92.52572546      73.61708087
H      62.57448548      92.23848707      75.57294761
H      63.50801028      90.76450055      72.60985675
C      60.85294481      93.86365170      72.46623755
H      60.71877424      95.81195952      73.11630340
H      59.22778018      93.08319472      73.46401305
C      60.89262907      93.58019275      69.56928711
O      60.01390633      91.51661162      68.77560207
O      61.45009833      95.40377865      68.02349100
C      65.40151605      95.89321775      75.92065725
O      63.56281235      97.25193097      76.15120386
N      67.32525743      96.00660133      77.58739586
H      68.95987070      95.12220942      77.15275880
C      67.30824990      97.36531455      79.93065649
H      65.95142641      98.89977231      79.72467632
H      69.11293853      98.35742086      80.02514281
C      66.94731217      96.04061640      82.58005278
O      67.44242047      97.11398096      84.57371405
N      65.70009281      93.84664415      82.51580208
H      65.27868384      93.09075363      80.81504840
C      64.47932961      92.66178577      84.79103256
H      63.26990477      94.12821338      85.58093816
C      62.79558346      90.42246008      84.11073109
H      61.72977782      90.18246484      85.85494848
H      63.86138910      88.66123515      84.03703176
C      61.18931610      90.87410467      81.77880882
C      60.58082422      88.73871393      80.41442643
H      61.54647437      86.96237120      80.69788537
C      58.78180477      88.95225301      78.53036929
H      58.30937320      87.32519865      77.39275405
C      57.58938747      91.38622050      78.05037880
O      55.67509472      91.47692736      76.37041211
H      55.22345013      93.16445296      75.89042163
C      58.23189442      93.51594205      79.35995914
H      57.19821412      95.26393889      79.15964815
C      60.00445770      93.29862352      81.26102382
H      60.38429269      94.86331691      82.51580208
C      66.37472510      92.01360963      86.79225273
O      68.04902261      90.37710664      86.39729993
N      66.01756683      93.09642281      89.15252089
H      64.33571041      93.85231334      89.64384974
C      67.67863626      92.62399123      91.15185134
H      69.55702421      92.69769057      90.30714367
C      67.39517731      94.25860450      93.41763318
H      68.83136931      93.88254896      94.84626627
H      65.61127567      93.86176196      94.37005525
C      67.48399445      97.01004600      92.88473036
C      65.28435302      98.27805236      92.01734598
H      63.63651167      97.18957000      91.51089933
C      65.37128043     100.92555893      91.80569664
H      63.78202060     101.94223168      91.02334994
C      67.53879651     102.30883859      92.39151179
O      67.52934788     104.84674103      92.24789259
H      66.09315588     105.57995483      91.41641302
C      69.83859343     101.02949388      92.96787833
H      71.44486080     102.04616663      93.70487158
C      69.74410712      98.36120032      93.27023454
H      71.36927174      97.42578579      94.07525794
C      67.53690678      89.90089561      92.08537613
O      65.42986194      88.83320025      92.61827895
N      69.82158589      88.78028792      92.20820835
H      71.35793339      89.90467506      92.09482476
C      70.28645857      86.09498682      92.72032418
H      68.64995558      84.91579760      93.14173315
C      71.14628404      85.00272501      90.29769504
H      73.07947406      85.68491622      90.08982514
C      71.02723128      82.06420060      89.98211074
H      72.55224042      81.46704709      91.22933011
H      71.12549705      81.69570396      87.95821386
H      69.20175566      81.41035530      90.67941975
O      69.65528998      85.71704157      88.27190844
H      69.38505912      87.49716374      88.49489613
C      72.49743835      85.68302648      94.52690253
O      74.19819204      87.27606576      94.57603541
N      72.60137330      83.49283368      95.80057806
H      71.13116623      82.28151913      95.67774585
C      74.76322020      82.56875752      97.47676531
H      76.39027456      83.58920973      96.73221313
C      74.27378109      83.28496379     100.18285339
H      73.46497823      85.16713121      99.96364513
C      72.35192943      81.74483686     101.53211797
H      70.65306547      81.67491698     100.36804657
H      71.64139233      82.62922876     103.25365865
H      73.22120353      79.89290506     101.77211321
C      76.86270614      83.62133508     101.74565705
H      78.44818651      84.10132556     100.52111439
H      77.11781919      81.82609508     102.71886609
C      76.56790883      85.51862030     103.95474710
H      75.86115119      87.30441167     103.21019493
H      78.41417144      85.69058539     104.85047737
H      75.33391755      84.67769209     105.37393156
C      75.13171683      79.69070435      97.36149201
O      73.51222138      78.21860755      96.46387200
N      77.49387472      78.84977613      98.04179347
H      78.80912424      80.12345167      98.57847574
C      78.16850702      76.04164284      98.11927225
H      76.66995405      75.00418310      99.07547376
H      79.76532575      75.77897088      99.39672724
C      78.81479342      74.88513033      95.48688350
O      80.30767721      75.98495105      94.08659631
N      77.70174462      72.73273206      95.03901836
H      76.51877595      72.18471143      96.43174665
C      77.56190487      71.27197363      92.68441937
H      79.07179620      71.99384907      91.48633290
C      78.10992550      68.51297320      93.23999892
H      76.39405401      67.80054639      94.12817028
C      78.63715914      66.99552298      90.86083349
H      80.33602310      67.80999501      90.02179501
H      77.04223014      67.12969354      89.56637095
H      78.85069822      64.97918501      91.22744038
C      80.37759708      68.19927863      95.25066770
H      80.01665935      68.96650752      97.12716593
H      82.15771927      68.98729452      94.57792514
C      81.04844992      65.35524054      95.86860821
H      81.97630554      64.39336984      94.30013537
H      79.34391679      64.44061300      96.58103503
H      82.34480217      65.20028299      97.46353722
C      75.09770176      71.80676617      91.18964587
O      73.46686795      70.04743097      91.05169584
N      74.51566606      74.09522474      90.49611631
H      75.80823885      75.42748178      90.93831226
C      72.33303216      74.82276936      89.03157841
H      71.69241494      73.45838697      87.62562203
H      72.91695759      76.57076620      88.10939197
C      70.04079415      75.48417357      90.63028687
O      68.00366918      75.76196334      89.41330312
N      70.00866880      75.71472019      93.15118177
H      71.60926699      75.93203872      94.16596481
C      67.81280682      75.96227434      94.71209570
H      66.22921617      74.79253375      94.10738328
C      68.57247680      75.29898040      97.53912628
H      69.67796669      76.80509226      98.40462093
H      69.56836257      73.50751985      97.73187835
C      66.08181752      75.38401808      98.96209018
N      64.17319394      73.59822671      98.82036071
H      64.15240696      72.05998949      97.69030437
C      62.20976831      74.42970630      99.99577048
H      60.46555092      73.43571026     100.36237739
N      62.69353824      76.80887173     100.70441784
H      61.33104557      78.06553971     101.16362134
C      65.11616737      77.43626086     100.06002118
H      66.03457436      79.24472893     100.30001642
C      66.86038476      78.72505420      94.45320320
O      68.08870687      80.59210379      95.18452729
N      64.60027209      78.96693917      93.32503660
H      63.75178498      77.26996494      93.11905642
C      63.31147875      81.34799433      92.79969268
H      64.56247757      82.59521369      91.73955621
C      61.01168182      80.82454013      91.08949037
H      59.91564056      79.44881938      92.15907547
H      61.50867984      80.04030371      89.24889693
C      59.47722406      83.17913912      90.38651217
H      58.81581985      84.08053857      92.11561176
C      60.65830300      85.32208877      88.97299689
H      59.36950966      86.92646640      89.00323251
H      61.28947159      84.70792771      87.10972675
H      62.49889643      85.95892652      89.64196001
C      57.19065522      82.51395546      88.77646536
H      55.85083926      84.06920021      88.61394889
H      56.18532082      80.90957782      89.58904768
H      57.68576351      81.97916292      86.85083425
C      62.54613959      82.47616093      95.47743486
O      61.97166279      80.99083606      97.30857966
N      62.58204439      85.01028392      95.60404653
H      62.86550334      85.98349298      93.98455107
C      61.65040932      86.46159373      97.66195848
H      60.90774688      85.27106615      99.16618062
C      63.80469731      88.22470837      98.67107233
H      62.92030540      89.18279961     100.26600134
H      64.41507891      89.63444420      97.29724131
C      66.14039904      86.80552391      99.55357453
H      66.79046489      85.70192375      97.93974825
C      68.00177945      88.77461874     100.45119452
H      69.83103453      87.88077818     100.76299936
H      67.54824514      89.30941128     102.38816399
H      68.05847124      90.22214909      98.98665662
C      65.45442838      84.94414349     101.63983237
H      67.24399920      84.11644338     102.24265506
H      64.24500354      83.57031247     100.70063839
H      64.20531929      85.74538745     103.06657574
C      59.36573020      88.01494875      97.00244401
O      57.39474566      87.96392615      98.24966337
N      59.63218161      89.42090513      95.01067246
H      61.39718599      89.79129149      94.38706278
C      57.65174844      90.79095671      93.66896678
H      55.97934065      89.64011338      93.32125714
C      56.66531130      92.85831729      95.34893347