 %block lattice_cart
   135.996   0.000   0.000
   0.000 142.663   0.000
   0.000   0.000   160.158
 %endblock lattice_cart

 %block positions_abs
N      90.89297915      41.33870883      81.23929196
H      90.36007633      40.19731413      82.67359423
H      92.72790340      41.80358150      81.47550775
H      90.66432226      40.36361005      79.61412733
C      89.20923300      43.59504205      81.03331179
H      89.79693789      44.85171004      82.55643120
C      89.69489267      45.00288815      78.50107853
H      87.88642458      44.77234154      77.54298729
H      91.14809220      44.05613527      77.39369891
C      90.56227704      47.74110158      78.84122927
H      90.87786134      48.65194966      77.02142283
H      92.39720129      47.34614878      79.68971638
S      88.77459595      50.07869303      80.86701588
C      91.28793195      52.47864544      81.13346729
H      91.27659359      53.52555382      79.35901428
H      93.09828975      51.61315079      81.60589886
H      90.60763047      53.68051138      82.66036615
C      86.38598189      43.23788377      81.58511188
O      85.31261735      41.26311977      81.08244468
N      85.05939402      45.00477787      82.74162438
H      86.05339006      46.44285960      83.50696354
C      82.34385731      44.94052718      83.42381558
H      81.56151061      43.92763388      81.81187903
C      81.60497432      43.64984411      85.74817894
H      82.16055386      41.68074929      85.52330151
H      79.56406990      43.58370369      86.01463035
C      82.81628889      44.91218129      88.07254231
O      82.42133609      47.12127135      88.55631224
N      84.13153840      43.52512217      89.60133090
H      84.73058164      44.35849148      91.20948799
H      84.90443646      41.84704521      89.13078904
C      81.28372085      47.67874061      83.39735941
O      82.77660463      49.40972991      83.39924914
N      78.75715677      47.97164819      83.30287309
H      77.72536620      46.47309522      82.73028602
C      77.62143125      50.55112460      83.31421145
H      78.12409845      51.16717538      81.41503651
C      74.69424519      50.64939037      83.18571006
H      74.23693142      49.39083265      81.61912695
C      73.25049429      49.58547446      85.45527136
H      74.30685130      47.92629475      86.06754269
H      71.35509880      49.09225589      84.81465414
H      73.08608810      50.95363631      86.98405995
C      73.52072515      53.32713256      82.63768943
H      73.93835467      54.53844712      84.24962598
H      71.47604128      53.13815993      82.46383461
C      74.73770890      54.78411154      80.28120072
H      73.71347724      56.48675495      79.73506982
H      74.53550818      53.72586481      78.52564497
H      76.60664822      55.50031782      80.76875011
C      78.40566767      52.29723172      85.60644947
O      78.46046973      54.61214645      85.17937132
N      78.66456018      51.34669938      87.85900323
H      78.78739239      49.46075252      88.12734437
C      79.43934796      52.75265576      90.13990289
H      78.22425395      54.41372519      90.24194812
C      79.27116232      51.05190208      92.59654710
H      79.62832060      52.04022894      94.36722066
H      80.81884817      49.69507858      92.51339914
C      76.68601673      49.72153475      92.67591561
C      74.78495206      50.81757601      94.17068912
H      75.20258157      52.57124203      95.13067009
C      72.23949071      49.96719917      94.11588706
H      70.84676242      50.94985686      95.23649476
C      71.72926461      48.00188381      92.39434639
H      69.82064103      47.28756726      92.45103818
C      73.59820393      46.80001787      90.95815439
H      73.18813332      45.23154503      89.71471447
C      76.20602624      47.58614402      91.10366331
H      77.62521070      46.59214798      90.02651932
C      82.22669428      53.84491757      90.08132138
O      82.60841899      55.89527062      91.11878112
N      84.02004455      52.72053041      88.78307940
H      83.71390888      50.89694452      88.31253755
C      86.46157094      53.78444632      88.16702862
H      86.87164155      55.00709925      89.77329599
C      88.23224450      51.50732612      87.87034159
H      89.66654677      52.03078031      86.48706193
H      87.42533136      49.80279298      87.03886201
C      89.67032622      50.97442330      90.22305085
H      88.44011439      50.99143083      91.87467165
H      91.06116479      52.46352763      90.51973788
C      90.95345039      48.42896195      89.89801793
O      89.80638652      46.71309046      90.98461056
O      92.99813426      48.13983383      88.70182117
C      86.31417229      55.42850822      85.74250976
O      87.38375738      57.48642017      85.61589810
N      84.76648644      54.66127933      83.88490880
H      84.00492674      52.95674620      84.28553078
C      84.40554872      56.13337613      81.61156804
H      86.24236269      56.14471449      80.67993297
C      82.46102034      54.87859786      79.76719516
H      80.60152965      55.16961571      80.60245419
H      82.72747175      52.85848043      79.47428758
C      82.54416830      55.86503500      77.02331256
H      84.28649596      55.26032258      76.10679529
H      82.26826826      57.90593941      77.00819475
S      80.04595011      54.29845188      75.30177188
C      79.97791996      55.78377676      72.19506183
H      78.28661491      55.11481365      71.23319113
H      81.65221748      55.39638287      71.06122604
H      80.05161929      57.80956337      72.56733791
C      83.60808421      58.80355941      82.21439074
O      84.67955903      60.55911516      81.19960771
N      81.70324009      59.22307865      83.72806151
H      80.75270775      57.69051061      84.35923010
C      80.59586047      61.66649478      84.55576164
H      80.60152965      63.18961418      83.16870253
C      78.04472995      61.38870501      86.02596871
H      77.64788742      63.10457650      87.09366408
H      78.21858477      59.95251301      87.49239633
C      75.99248717      60.77643368      84.01907937
H      76.61420713      59.11158480      82.98161962
C      73.64733682      59.95251301      85.47227890
H      72.09020233      59.53677322      84.19104446
H      73.46970254      61.37736665      86.95004488
H      74.26905677      58.17050110      86.29997903
C      75.41234119      62.91938332      82.28431061
H      76.97892431      62.96095730      80.94638438
H      75.46525353      64.63714454      83.42192585
H      73.55851968      62.44884147      81.52653036
C      82.50448404      63.07812033      86.36800917
O      82.72558202      65.33256382      86.12990366
N      84.22224526      61.61169271      87.69081759
H      83.97469112      59.74275339      87.40735865
C      86.05716951      62.61513739      89.47093978
H      85.11041663      63.98140951      90.68981325
C      86.84518539      60.61769667      91.38145308
H      88.37019452      59.57267802      90.46871527
H      85.35419132      59.35158004      92.02962921
C      88.15287599      61.67594341      93.69447809
H      86.62597713      62.44317229      94.84343169
H      89.59473717      62.97985456      93.01606634
C      89.34151384      59.62748008      95.29885573
H      90.22401603      60.60446859      96.88433611
H      90.81927982      58.71474228      94.18958638
N      87.43855945      57.77932775      96.34387438
H      87.16832858      56.04455900      95.58987358
C      86.51448328      57.99853600      98.66634802
N      86.97557650      59.86369587     100.24237976
H      86.09118459      59.79566573     101.93179509
H      88.23413423      61.27721116      99.99671534
N      84.98002551      56.18061929      99.49782760
H      84.24114253      56.26187752     101.25716279
H      84.41310762      54.79356018      98.31674865
C      88.23413423      63.94928416      87.99128408
O      89.02970900      65.89003309      88.76040269
N      89.30182959      62.80222029      85.89368787
H      88.94467132      60.97485495      85.47605835
C      90.95722984      64.26108900      84.19860337
H      92.41420883      65.26831313      85.25118092
C      92.62018900      62.44128256      82.57910792
H      93.62174394      61.21296046      83.89435743
C      91.22368125      60.49108501      80.91236931
H      92.48223898      59.13993070      79.99774177
H      90.28448727      61.57578791      79.43460333
H      89.80260707      59.53299377      82.05943318
C      94.43999544      63.71495810      80.62135146
H      93.46867611      64.62391646      79.04909916
H      95.34328461      62.07656539      79.75585680
C      96.58294508      65.29665902      81.68904682
H      98.02480625      65.78420841      80.30009798
H      97.62796373      63.96629170      82.86256686
H      96.12563131      66.95394900      82.82666206
C      89.55127347      66.17916121      82.61501272
O      90.76636748      68.10668205      82.11801470
N      87.12108543      65.96940159      82.00841057
H      86.24992160      64.28187599      82.20116265
C      85.97402155      67.87046626      80.47395280
H      87.11163680      68.71328420      78.98106902
C      83.46068556      66.92938256      79.21917453
H      82.27204771      68.50730403      78.64091828
H      82.31551141      65.85412829      80.55143158
C      84.02004455      65.27398231      76.92504679
O      85.95701402      65.69917073      75.49263424
O      82.39676964      63.71684783      76.18238435
C      85.34474269      70.29309540      81.96872632
O      85.69434206      72.36801489      81.00496590
N      84.59263162      70.12302003      84.32521503
H      84.20145827      68.37880264      84.99417814
C      83.90288152      72.35856626      85.82187827
H      83.17155743      73.87979594      84.64268905
C      81.60308459      71.82377371      87.59255182
H      81.14577083      73.66436714      88.39379578
H      82.17756139      70.61056942      89.15346576
C      79.12754312      70.72584272      86.34155301
H      77.59686481      70.50096529      87.70215595
H      79.42989933      68.89658765      85.44582273
C      78.13543681      72.37935324      84.16458829
O      78.46424919      74.64891455      84.29119996
O      76.70113454      71.59133737      82.58477710
C      86.05716951      73.42059244      87.35066686
O      86.33306955      75.75251471      87.58121347
N      87.67288551      71.77086137      88.32198618
H      87.24958682      69.93026794      88.04041696
C      89.62119334      72.53431080      90.14746180
H      90.80794146      74.06120966      89.44070416
H      91.01959081      71.04520647      90.40824403
C      88.79538294      73.24673762      92.81575535
O      86.53338054      73.51129931      93.23149514
N      90.47912909      73.58310891      94.64312070
H      92.28570744      73.37901846      94.06297472
C      89.80638652      74.00451787      97.40212112
H      87.89965267      73.30909859      97.76116911
C      91.64886967      72.43037586      99.04240356
H      93.44977885      73.32799585      98.60209732
H      91.62241350      70.43293514      98.53406718
C      91.24257852      72.56454642     101.86754439
H      91.38997717      74.48828781     102.58375067
C      88.64231511      71.47039489     102.29462254
H      88.48546782      69.47484390     101.81463206
H      87.14187242      72.59478204     101.44046625
H      88.34184863      71.59133737     104.32985778
C      93.13230483      70.87513110     103.21680898
H      94.95022154      71.72361821     102.75760549
H      93.22679114      68.91548491     102.59130957
H      93.14175346      71.15670032     105.25771340
C      89.62875224      76.82776899      97.98604655
O      91.28982167      77.90491298      99.27295017
N      87.89776294      78.21482810      96.78796006
H      86.97179705      77.53263690      95.26484066
C      87.72390812      80.92469563      97.09976491
H      89.62686252      81.71271150      97.12622107
C      86.56550589      82.16813555      94.77729127
H      86.07417705      84.12211255      95.19870023
H      84.77593507      81.27240527      94.28974188
C      88.12453010      82.17758418      92.44536900
H      88.67066100      80.26896060      91.89545864
H      89.86307831      83.23016173      92.78174028
C      86.95478951      83.33787613      90.01329123
H      88.34562808      83.29819188      88.49395128
H      86.26314968      85.27673533      89.96415835
N      84.91199537      81.79774919      89.11378151
H      84.49436585      80.29352704      90.21360222
C      83.90099179      81.78074165      86.89146336
N      84.08051579      83.49661314      85.22094530
H      83.16021907      83.33220695      83.55987587
H      84.99514332      85.13311613      85.57999330
N      82.64054434      79.74928587      86.13935229
H      81.41033251      79.65290982      84.68237330
H      82.70668476      78.33010140      87.41113810
C      86.46346067      81.60499710      99.55829884
O      84.24870143      82.26829104      99.65845433
N      87.94878555      81.83743344     101.64833614
H      89.83284269      81.89601496     101.35353884
C      87.00770185      82.06231087     104.32607833
H      85.22002076      81.03429976     104.32229887
C      88.89553843      81.11366826     106.29328342
H      88.38909178      81.69003479     108.20568645
H      90.70967570      81.97160401     105.83219020
C      89.12608505      78.20160002     106.00226557
H      90.34684824      77.94081778     104.36198313
C      90.40354003      76.98083682     108.31907003
H      92.23468483      77.90113353     108.50237348
H      90.74369077      75.06654406     107.63876855
H      89.47757414      77.08855122     110.15588400
C      86.80550113      76.75029021     105.57140797
H      86.39165107      77.33043618     103.63821795
H      85.33529406      77.24161905     106.92823146
H      87.00770185      74.70182688     105.60731277
C      86.11764075      84.63800784     105.13110174
O      84.84018577      85.02540173     107.02271777
N      86.86786210      86.60899238     103.70624810
H      87.86563759      86.08742792     102.16423142
C      85.81528454      89.15445373     103.81585222
H      85.18789541      89.63066476     105.72069635
C      87.96768282      91.00260606     103.34720010
H      88.56294660      90.94402454     101.37621555
H      89.57395018      90.52261558     104.54150713
C      87.18911557      93.92601267     103.75727071
H      86.74125044      94.47781275     105.69046072
H      85.57150985      94.20380243     102.51194107
C      89.21301246      95.91211502     102.88232742
H      89.53426593      95.60219991     100.87165863
H      90.91187641      95.67211978     104.01805294
C      88.19633970      98.74859422     103.09964595
H      86.60141069      99.05661961     101.83163959
H      89.81016597      99.87676083     102.49304380
N      87.67855469      99.67644984     105.79061622
H      86.93778197     101.43578503     105.78494704
H      89.27726315      99.64432449     106.83374514
H      86.49936547      98.65410790     106.88665748
C      83.53249516      89.46247911     102.07919374
O      83.86130754      88.66312488      99.83419888
N      81.50670855      90.58497654     103.04484389
H      81.30072838      90.93268619     104.91000376
C      79.31840548      91.19535814     101.49526831
H      78.26960738      89.47948665     101.04740317
C      77.57229837      92.91500909     103.19980144
H      77.07152089      91.55440614     104.66622906
C      78.58519167      95.25637999     104.53016877
H      80.16689260      94.56851961     105.65455592
H      77.20380174      96.19179451     105.73770388
H      79.64154868      96.47525346     103.24893433
C      75.13266170      93.26082900     101.69557930
H      74.56763353      91.53739861     100.72237025
H      75.59375492      94.65922648     100.25371812
C      72.69491475      94.15277982     103.08830759
H      73.03884494      96.05762395     103.78939605
H      72.07319480      92.90367073     104.60197837
H      71.01872751      94.04317570     101.89778001
C      80.07807546      92.67123439      99.14633850
O      81.72402708      94.38332643      99.14444878
N      78.91967323      91.90400551      96.92402036
H      77.53072439      90.59442518      96.90323337
C      79.73603500      92.87910429      94.43714053
H      80.62798582      94.72158744      94.66957687
C      81.76182160      91.18213006      93.16157527
H      83.27738211      91.14811499      94.55808301
H      82.43078472      92.26494324      91.54207982
C      80.95868792      88.56296939      92.47749434
C      80.39743921      87.92424190      89.93959191
H      80.20657685      89.24327086      88.39001633
C      79.40533289      85.51673057      89.49739595
H      78.73448005      84.88178253      87.67947923
C      79.36753836      83.71393167      91.51940310
O      78.56440468      81.44248064      91.24728251
H      78.01260460      80.76406890      89.65802268
C      80.50704333      84.30541601      93.80597194
H      80.59019129      82.65379521      95.00405842
C      81.13443247      86.82631091      94.34643367
H      81.96780177      87.15890274      96.17946819
C      77.48726068      93.11909953      92.61544436
O      75.39722338      92.41801107      93.46204175
N      77.68757167      94.16789763      90.35155224
H      79.40155344      94.49293056      89.58054391
C      75.57674738      94.44379768      88.35033208
H      73.77016903      93.87876951      89.16102466
C      75.34809050      97.17067275      87.22972437
H      75.34809050      97.35397620      85.17748160
H      76.95246814      98.27049346      87.90624639
C      72.95191753      98.65410790      87.94782037
H      72.97837370      98.88843396      89.99439397
H      71.29840701      97.43901388      87.77207582
C      72.74026819     101.20523842      86.54375372
H      72.24704962     100.87831577      84.56898972
H      74.42779378     102.38442764      86.52863591
C      70.57464183     102.78127017      87.72861212
H      71.03762478     103.85652444      89.42180690
H      69.12711147     101.36586516      88.11222656
N      69.79040541     104.47824440      85.68770770
H      71.17179535     105.68577951      85.16236379
H      68.40901548     105.60452128      86.37556808
H      69.20270053     103.49558671      84.16269857
C      76.08508376      92.57485835      86.16013928
O      78.03150186      92.96225225      84.88268429
N      74.19913690      91.07063621      85.46472000
H      72.53806747      91.19346842      86.39635507
C      74.09142250      89.54940652      83.01185524
H      75.85453715      88.50060842      82.84177987
C      71.78406667      87.93369053      83.27074775
H      69.94158352      88.82753107      83.50129436
H      72.06374616      86.70347870      84.89969183
C      71.65178583      85.84554295      81.25063032
O      73.37710595      84.29029820      81.31866047
O      70.00772394      86.08364847      79.64436295
C      73.91000877      91.33330816      80.71016859
O      73.49048953      93.52350096      80.93315630
N      74.29362321      90.17679566      78.45383537
H      75.00227058      88.40423238      78.50296826
C      74.01772317      91.33519789      75.92160212
H      75.33864187      92.88666319      75.62113563
C      74.70180410      89.46625857      73.88447715
H      73.39789294      87.88077819      74.05455252
C      74.48448557      90.24104636      71.18216852
H      75.71658713      91.88510825      71.06122604
H      72.50783185      90.69458067      70.81178217
H      75.24604528      88.67824269      70.07856836
O      77.11498460      88.44013718      74.30210667
H      76.90144553      86.69025061      74.73296426
C      71.31541455      92.25360488      75.32444860
O      71.11321383      94.18490517      74.09234704
N      69.37466562      91.08008484      76.43560767
H      69.82631021      89.71759217      77.69227567
C      66.76495358      91.98526374      76.46584329
H      66.22071241      92.67501385      74.60257315
C      65.00183893      89.82530657      77.23496190
H      63.21226811      90.75694164      77.65259142
H      65.64623561      88.82942080      78.92059777
C      64.57665051      87.69369529      75.43027327
H      64.03240933      85.95136762      76.38269534
H      66.31330899      87.06630615      74.51753546
C      62.73605708      88.42123992      73.44795037
O      60.62523279      87.45370004      73.42527366
O      63.29541607      90.21459019      71.89081589
C      66.41535422      94.29450930      78.20061205
O      64.30452992      95.14866559      78.49918881
N      68.46192781      95.14866559      79.58011226
H      69.90000954      93.94302020      79.23618207
C      68.35232369      97.04217136      81.55487625
H      67.07675842      98.52560651      80.90858986
H      70.25527808      97.64310432      82.06321263
C      67.11644268      96.01416024      83.98128484
O      66.70448234      97.55995637      85.69148715
N      66.93124950      93.61987700      84.28742050
H      67.31675367      92.46714395      82.81532371
C      65.71615548      92.52761519      86.60800442
H      64.21949224      93.69168660      87.41302782
C      64.30452992      90.08608880      85.80487073
H      63.56564694      89.21492497      87.51696277
H      65.67836095      88.93146602      84.79386716
C      62.10488850      90.39600391      84.04742526
C      61.20537877      88.35320977      82.70194013
H      62.11811658      86.56174922      83.05531895
C      59.23061477      88.61021255      81.01441453
H      58.69582223      87.07764451      79.77853352
C      57.91536526      90.98559852      80.62135146
O      55.89335810      90.97237044      79.17382110
H      55.35667583      92.64477823      78.71650733
C      58.86589759      92.96414197      81.91203453
H      57.92103444      94.74615389      81.60022969
C      60.90113283      92.71658783      83.62034711
H      61.42836648      94.25293532      84.85811785
C      67.61155097      92.10431650      88.71504925
O      69.78284651      91.35976433      88.32009646
N      66.97660293      92.83186113      91.06019961
H      65.16813485      93.28350572      91.46649077
C      68.38633876      92.34998092      93.22204651
H      70.26472671      93.06429747      92.76473274
C      67.48871876      94.01294008      95.39901122
H      68.87955733      93.56129549      96.85032103
H      65.54796984      93.53861877      95.90167842
C      67.38856327      96.83052201      94.99649952
C      65.10766361      98.18356605      94.83209333
H      63.37667430      97.24626180      95.37255506
C      65.06608963     100.73091712      94.34076449
H      63.31053388     101.75325905      94.15368158
C      67.31108449     102.00648238      93.70392672
O      67.14478857     104.39320671      92.94614647
H      65.40057119     104.85618966      92.77040192
C      69.73182389     100.61942327      93.60377123
H      71.39289332     101.70412617      93.12567047
C      69.75639034      98.05128521      94.43336108
H      71.47793101      96.96280285      94.53351657
C      68.67357716      89.55129625      93.94581169
O      66.89723443      87.99983095      93.85510483
N      71.04329396      88.85398724      94.55430356
H      72.34342566      90.24482581      94.41068436
C      72.03540027      86.21403958      94.65823851
H      70.63133362      84.87989281      95.35932697
C      72.94624835      85.32964767      91.96537851
H      74.89455618      85.91546282      91.64412504
C      72.61932570      82.58387533      91.43814487
H      70.68991514      81.99994990      91.86333329
H      73.91378823      81.34988405      92.45859708
H      73.03506549      82.53474245      89.42180690
O      71.37966524      86.28584918      89.94148163
H      71.48926937      88.09620699      89.96982753
C      74.10465058      86.03640531      96.60654634
O      75.16478704      87.98849259      97.32086288
N      74.57519243      83.68180632      97.38700330
H      73.31096553      82.40246161      96.74638608
C      76.47625711      82.97504868      99.42601800
H      78.22047449      84.06542076      99.30129606
C      75.48604052      83.39834738     102.18879787
H      74.42401433      85.15390312     102.02061222
C      73.70024915      81.30831007     103.22058843
H      72.88577711      82.12278211     104.93079075
H      74.53928764      79.45448856     103.53050355
H      72.14689412      81.03052031     101.89589029
C      77.63654906      84.04652350     104.08986254
H      78.56818413      85.70381348     103.29806721
H      78.94801912      82.50639656     104.48481534
C      76.75404687      85.01028392     106.64666224
H      78.32818889      85.90601419     107.62365074
H      76.16634199      83.55519466     107.97891929
H      75.41801037      86.55608004     106.39721837
C      77.38521546      80.16313593      99.01594739
O      75.97736936      78.54175075      97.94447257
N      79.56595963      79.70771189      99.98537699
H      80.48814607      81.18169841     100.76961341
C      80.61853718      77.21327315     100.56552296
H      79.21258081      76.20415930     101.68046149
H      82.32118059      77.44193004     101.70124848
C      81.14388110      75.76007362      98.15234246
O      82.67266969      76.55564840      96.63678196
N      79.60186443      73.73806646      97.64967526
H      78.36220397      73.15792049      98.98004259
C      79.77193980      72.03920251      95.40657013
H      81.54072362      72.67226082      94.56375219
C      80.25382001      69.21217194      96.33064630
H      78.67400881      68.34478757      97.32653206
C      80.98703381      67.43582921      94.02329047
H      79.45068632      67.15992917      92.67969506
H      81.69001200      65.63303031      94.72815838
H      82.69156695      68.23140399      93.18047253
C      82.43078472      69.08367055      98.27517467
H      81.67489419      70.20238853      99.83041943
H      84.09563360      70.13057893      97.66668280
C      83.22446977      66.61757772      99.40145155
H      81.55962089      65.54232344      99.95892082
H      84.57751381      66.78765308     100.94535795
H      84.16555347      65.62736113      97.85943488
C      77.42489971      72.33777927      93.61888904
O      75.98870772      70.60490024      93.10677321
N      76.85231264      74.79631320      92.87811632
H      77.62899016      76.29486617      93.77006714
C      74.59975888      75.26496532      91.14334757
H      74.39377871      73.94215691      89.57865418
H      74.81329795      77.14902246      90.34210361
C      72.03540027      75.38590781      92.58331902
O      70.13622533      74.72072415      91.45893186
N      71.84831737      75.96227433      95.00783788
H      73.38844431      76.39691139      96.04718735
C      69.38411425      76.32132233      96.34765383
H      68.22193257      74.78875429      95.60877084
C      69.86032528      76.14935724      99.13877960
H      70.78818090      77.87845682      99.76238928
H      70.69936377      74.27096928      99.23515564
C      67.28840777      76.00384831     100.48993391
N      65.21726773      74.26152065     100.09687084
H      65.30986432      72.49651628      99.38066457
C      63.38990239      75.04575707     101.66156422
H      61.71182542      73.96483362     102.08864237
N      64.38578816      76.89012995     103.23003706
H      63.26518045      77.68948418     104.55095576
C      66.74227687      77.51562936     102.43257256
H      67.93658390      79.04441795     103.07130005
C      68.33153670      78.79119462      95.60688112
O      69.35576836      80.69036957      96.21726272
N      66.03362950      78.71182612      94.54296520
H      65.07553826      77.15847109      93.98549594
C      64.70704163      81.06642511      94.10265897
H      65.95237127      82.38923352      93.13133965
C      62.66991666      80.43525652      92.22427102
H      61.35844660      78.97071862      92.84599097
H      63.39935102      79.93258932      90.36478033
C      61.00884723      82.92213635      91.78207506
H      60.33610467      83.62322481      93.59999177
C      62.27307414      85.00272502      90.43847965
H      63.48060925      86.01183887      91.76884698
H      60.87467667      86.31986426      89.69770694
H      63.28596744      84.31675436      88.78307940
C      58.61834345      82.15112801      90.36667005
H      57.20104871      83.64023234      90.21927140
H      57.73584126      80.61289079      91.41357843
H      59.04731132      81.38011967      88.50528963
C      63.89067986      82.08876704      96.58009017
O      62.96093452      80.86233466      98.29407194
N      63.85855451      84.65312565      96.78984979
H      64.77507178      85.66223950      95.45192356
C      62.64912967      86.08553819      98.96492478
H      62.24472824      84.68714072     100.42190376
C      64.48027447      87.92991107     100.14978317
H      63.61666955      89.27161676     101.45369433
H      65.24750335      89.14122564      98.67012747
C      66.60621657      86.61844101     101.74471218
H      67.54352082      85.28240451     100.48615446
C      68.52050933      88.42501937     102.80862810
H      69.86788419      87.57464253     104.11631871
H      67.67202221      89.94624905     103.90844881
H      69.65812457      89.23382223     101.29306759
C      65.70481712      85.22571272     104.18245913
H      64.17413881      83.96337554     103.62876932
H      64.64090121      86.60332320     105.28416957
H      67.08242760      84.15990708     105.28227984
C      60.07910189      87.28740413      98.47359593
O      58.25551600      86.50694716      99.72648448
N      59.78997376      88.92957629      96.69158402
H      61.35088770      89.39444897      95.69758798
C      57.29742476      89.90089562      95.99238529
H      55.69682657      88.60454337      96.06608461
C      56.46783490      92.25549460      97.56841703