 %block lattice_cart
   135.996   0.000   0.000
   0.000 142.663   0.000
   0.000   0.000   160.158
 %endblock lattice_cart

 %block positions_abs
N      85.93433730      38.81025503      79.42043038
H      87.77115128      38.44553785      79.05193375
H      85.14632143      39.22977427      77.73479451
H      85.08773991      37.20587738      80.01569417
C      85.71134960      41.03824235      81.09094844
H      86.66188193      40.62628200      82.87107063
C      87.06628336      43.41362831      79.82861126
H      85.97969073      43.99566402      78.17699047
H      88.87286172      42.65584807      79.18988377
C      87.32706559      45.65295400      81.57093893
H      88.38720206      45.01611623      83.22067000
H      85.44111873      46.29168149      82.10573147
S      89.16198984      48.14739273      80.00813526
C      92.14586769      47.77511664      81.64085880
H      91.70745119      47.57858511      83.64396869
H      93.57072133      49.17918330      81.15519914
H      92.88475068      46.05357598      80.78481278
C      82.95801836      41.72988218      81.60117455
O      81.47647293      42.16451922      79.83050099
N      82.05661891      41.57870406      84.01246532
H      83.10541701      41.59571160      85.60550460
C      79.47714249      42.31002815      84.66253117
H      78.06929639      41.64106503      83.31326659
C      78.74014923      40.95887383      87.23444869
H      78.87054034      38.90474133      87.20043361
H      76.75404687      41.39540061      87.56704052
C      80.19145904      41.91885480      89.60794493
O      79.78516788      43.99377429      90.36950464
N      81.59363596      40.46565528      90.99122460
H      82.88242931      41.08359577      92.25734123
H      81.90355108      38.66474609      90.43942451
C      79.20502190      45.19752995      84.63229555
O      81.05884341      46.73198772      84.63607500
N      76.82774620      46.04034789      84.73812023
H      75.47848161      44.69675249      84.89118806
C      75.89233167      48.58014006      84.08616465
H      76.89955580      49.20941892      82.40619796
C      72.92357164      48.37227017      83.60617416
H      72.60987707      47.20630902      81.93565610
C      71.46659265      47.25733164      85.87951492
H      71.72737488      48.21920233      87.68042410
H      72.04295917      45.28634709      86.01935467
H      69.42190878      47.31780288      85.65274776
C      71.97492903      51.00465891      83.17909602
H      72.57586199      52.42006392      84.54914759
H      69.93969379      50.68151572      83.16208848
C      72.69680448      51.87960220      80.54103808
H      72.46247842      50.46608691      79.06138238
H      74.68290683      52.35203379      80.82638676
H      71.56674814      53.57279698      80.23679215
C      76.70113454      50.57191160      86.11006153
O      77.31718531      52.72808931      85.42787033
N      76.99782157      49.90105875      88.53647012
H      76.29295365      48.19463590      89.02590923
C      78.12787790      51.42606788      90.54902864
H      77.17734557      53.25343324      90.47154986
C      77.69891003      50.27522457      93.13606396
H      78.46991836      51.56968708      94.54013061
H      78.75337731      48.53100717      93.43086127
C      74.90589454      49.87838204      93.77857091
C      73.66245462      51.39772199      95.56058282
H      74.48448557      53.07201951      96.39206240
C      71.05652204      50.93662878      95.98766097
H      70.14189450      52.34447488      97.14795292
C      69.73560335      48.96375450      94.96153958
H      67.76461880      48.59903732      95.35271293
C      71.10565492      47.27811863      93.33826468
H      70.10598970      45.62838756      92.66552211
C      73.65111627      47.82613926      92.78457487
H      74.68479656      46.50711030      91.62050346
C      80.96246737      51.92873508      90.32793066
O      82.13976686      53.46130313      91.73388704
N      82.19267920      50.44529993      88.78969344
H      81.06451259      49.33603059      87.72577753
C      84.81561932      50.55868351      88.07915635
H      85.82095372      51.98731661      89.16763870
C      86.05905924      47.86393379      88.67442014
H      88.02248488      48.16062082      88.12450978
H      85.27482282      46.38427808      87.47444393
C      86.00992635      47.37638440      91.50711988
H      84.07673634      47.38205358      92.21387752
H      86.64676412      49.15839632      92.32159192
C      87.36297039      45.02745459      92.38206316
O      89.46245633      45.36949506      93.19842493
O      86.18945035      42.92607893      92.32726110
C      85.13120362      51.52811311      85.43920869
O      87.17210804      52.66383862      85.02157917
N      83.16588825      51.58291517      83.76113172
H      81.70890927      50.39805678      84.10317218
C      83.23958758      53.17217499      81.50479850
H      85.00081250      53.00209963      80.45222095
C      81.07207150      52.49754271      79.70955851
H      79.26171369      52.29723171      80.67142920
H      81.57095924      50.63049310      78.99713169
C      80.90577558      54.35514367      77.50802735
H      82.68211832      54.20396557      76.47434706
H      80.77916392      56.29022341      78.20155691
S      78.21480531      53.35736818      75.56727843
C      78.94612940      55.21685887      72.68544580
H      79.34675137      57.19540233      73.09362669
H      77.21136064      55.16016708      71.57428673
H      80.50515360      54.36837175      71.64042715
C      82.99203343      56.02377200      82.26824793
O      84.43578433      57.58846540      81.38385602
N      81.31584619      56.55478510      84.09183383
H      80.04595011      55.25843285      84.68898734
C      80.84341461      59.22496838      84.91575450
H      80.70357487      60.44006239      83.25657480
C      78.31874026      59.15882795      86.33682869
H      78.10331146      60.86336110      87.47066447
H      78.53038961      57.53366333      87.58404805
C      75.93768511      58.79222105      84.66820035
H      76.37232216      57.05745230      83.64963787
C      73.49237926      58.42939361      86.33871841
H      72.05429753      58.36892237      84.86662162
H      73.27695046      60.23975142      87.29680965
H      73.45647446      56.84958240      87.66152683
C      75.40667201      60.82556657      82.68776718
H      74.62243559      62.40159832      83.75924200
H      73.95914166      60.10180139      81.41031219
H      77.02805719      61.43594816      81.57660810
C      83.04116632      60.37959115      86.44265336
O      83.31139718      62.74552850      86.46344035
N      84.66633094      58.82623612      87.57459942
H      84.26759869      56.96674543      87.42342132
C      87.04927583      59.63125953      88.75000919
H      86.43700450      61.19217348      89.94431622
C      87.87130677      57.32390370      90.46777041
H      88.36074589      55.66094456      89.35283188
H      86.38787162      56.70785293      91.75845348
C      89.88008584      58.35002509      92.33859946
H      88.93522269      59.65015680      93.62739280
H      91.47123540      59.13804097      91.29924998
C      90.77203666      56.01243365      93.71998939
H      89.17710765      55.54000208      94.93697314
H      92.16476495      56.54344674      95.14106358
N      91.65453885      53.84491757      92.25923095
H      92.42743691      54.27577516      90.56603618
C      91.31627784      51.47709049      93.05858518
N      90.45456264      51.07646852      95.31680813
H      90.54715923      49.32658195      96.07647810
H      90.24669275      52.59391874      96.45820282
N      91.71123064      49.59303336      91.51467878
H      91.08006205      47.90361803      92.13828847
H      92.01925603      49.99176561      89.67408536
C      89.03159873      60.55344598      86.81870890
O      90.46968045      62.23719212      87.62751176
N      89.11852614      59.71251777      84.47922772
H      88.10374311      58.18183946      83.95955298
C      91.14620247      60.55722543      82.65375210
H      92.70900613      61.50208858      83.60995362
C      92.16476495      58.18183946      81.48401151
H      93.28348293      57.20296122      82.91075488
C      90.08228656      56.35825356      80.30482230
H      88.50814454      56.07479462      81.60306427
H      90.97990656      54.62348481      79.65286672
H      89.36797001      57.25398383      78.59273026
C      94.24346390      59.16071768      79.53003451
H      95.64942028      60.50998227      80.20277707
H      93.34773363      59.75220203      77.77447876
C      95.87996689      56.77399336      78.70233438
H      96.79837387      56.09747133      80.41820587
H      97.10639926      57.43917701      77.18488415
H      94.46834133      55.37937533      78.15431375
C      89.94811599      62.47718736      80.73379017
O      91.38430799      64.04943966      79.70010988
N      87.30816833      62.76442576      80.69221619
H      86.25748050      61.35846938      81.44621699
C      86.08551541      64.58990139      78.93477072
H      87.14187241      64.48974589      77.16598689
C      83.31139718      63.54866218      78.45478024
H      82.08874425      63.85479784      80.07994486
H      83.36053006      61.49075022      78.37352200
C      82.14354632      64.65604181      76.12852714
O      83.54005406      65.01131035      74.21990357
O      79.76438089      64.91493431      76.17199085
C      86.10063322      67.29976892      80.16309282
O      86.67888947      69.28587128      78.96122689
N      85.54316395      67.51330798      82.64052402
H      85.02726867      66.05254955      83.75735227
C      85.52615642      70.02853371      83.82727214
H      86.60707987      71.53842504      82.93532132
C      82.85786286      71.05276538      83.99356806
H      82.72558202      72.21116760      85.69054229
H      81.72969625      69.33500416      84.12017972
C      81.80906476      72.53431081      81.73912457
H      79.80784459      72.91225607      82.03959105
H      82.00937575      71.35512159      80.06293733
C      83.25281566      74.99095501      81.05315392
O      82.65377242      76.00195858      79.01602895
O      84.96301798      75.93014899      82.35895480
C      86.81872922      69.61468364      86.50690405
O      88.19444997      71.27764280      87.48767201
N      86.45779149      67.49441072      87.82782275
H      85.22757966      66.23018382      87.09838839
C      87.31761696      67.08811956      90.51879302
H      89.28860151      67.67960391      90.62083824
H      87.31194778      65.05855350      90.86083348
C      85.93811675      68.71139448      92.54457962
O      84.77782480      70.60112079      92.09104531
N      85.89843250      67.77220050      94.88217107
H      86.94156143      66.22640438      95.29602114
C      84.38098227      69.01941987      96.91929604
H      82.58196282      69.44271855      96.01222741
C      83.91988905      67.35457098      99.19641625
H      83.82918219      68.58100336     100.84992677
H      85.72646741      66.39081056      99.41751423
C      81.83552093      65.32689464      98.79957372
H      80.12153916      66.38325165      98.36115722
C      82.27204771      63.49197039      96.54701996
H      84.22413499      62.88158879      96.30324526
H      81.72402708      64.53887878      94.85949436
H      81.21947015      61.74775300      96.84937617
C      81.62387158      63.83968004     101.18629805
H      79.70768910      63.14992994     101.50377207
H      81.59363596      65.11335557     102.80390378
H      83.02982796      62.33545790     101.19574669
C      85.86252770      71.43071063      97.42385297
O      87.99224926      71.38346748      98.35737776
N      84.72491246      73.66436714      96.90606796
H      83.34730198      73.73239729      95.58514926
C      85.81717427      76.03597367      97.75833452
H      87.82784307      75.62212360      97.58258998
C      84.92711318      78.10522398      95.93663836
H      84.67388985      79.92880987      96.85882480
H      82.98069507      77.70649173      95.39428690
C      86.60707987      78.34332948      93.58203937
H      86.49558602      76.58210456      92.52568236
H      88.54026989      78.65702406      94.22832577
C      85.65087835      80.35021884      91.71121032
H      85.89654277      82.18514309      92.61260977
H      83.67044518      80.06298044      91.22555066
N      87.11352652      80.25384279      89.35094216
H      88.59318222      81.44626009      89.17519761
C      86.39543052      79.23339058      87.19098498
N      84.40932817      77.72727871      87.08138085
H      84.02193427      76.91091694      85.39952444
H      83.77815958      77.08288203      88.76323727
N      87.57084029      79.63212284      85.10283740
H      87.19478475      78.58143501      83.55515155
H      89.30560904      80.30486541      85.52613610
C      85.21624130      76.53108196     100.57402673
O      83.10541701      76.03219420     101.33180698
N      86.75258879      77.95593559     102.10848449
H      88.47412947      78.64757542     101.65683991
C      86.37653326      78.26018154     104.81646230
H      84.74947890      77.23972932     105.55912474
C      88.54782879      77.10933821     106.22052895
H      88.23224450      77.19059644     108.25387446
H      90.35818660      77.99373012     105.78589190
C      88.89742816      74.19538024     105.59691927
H      89.18844601      73.99317952     103.56546348
C      91.17832782      73.29209106     107.17484074
H      91.74146626      71.46661544     106.40194268
H      90.78148529      73.22784035     109.19306844
H      92.85073561      74.40325012     106.70807834
C      86.70912509      72.45872175     106.37170706
H      87.11352652      70.54631873     105.71975148
H      85.08207073      73.24295817     105.38526992
H      86.28771612      72.34344845     108.38426558
C      85.66032699      81.01162305     105.76699464
O      84.95167962      81.38011968     107.93451072
N      85.91166059      82.81253222     104.09647658
H      86.31228256      82.16624583     102.34659001
C      85.10852690      85.51673057     104.19663207
H      84.35452610      85.99105187     106.05423304
C      87.47257452      87.27228632     103.50310251
H      88.99191448      86.86977461     104.83535956
H      86.80361140      89.14689483     104.03600533
C      88.50814454      87.26850687     100.77244799
H      86.92644362      87.40645688      99.45719848
H      89.51347894      85.49594359     100.47954041
C      90.37708386      89.34153663     100.61938016
H      91.81327586      89.22059415     102.09147696
H      89.32261658      91.10654100     100.73276374
C      91.69800256      89.03351124      98.07391882
H      90.33928934      88.78595710      96.54513023
H      93.15498154      87.58031170      97.97754277
N      93.13608428      91.33708762      97.40495570
H      94.38141392      91.51094244      98.83925797
H      92.05516083      92.90556045      97.28212349
H      94.18677211      91.14244581      95.82136505
C      83.02604851      86.05152311     102.30501603
O      82.46102034      84.56430852     100.63071852
N      81.75426270      88.21714947     102.48076058
H      82.42133609      89.57397296     103.64483199
C      79.75871171      88.96548110     100.69496921
H      78.49637453      87.41779525     100.19797119
C      78.17134161      91.17457115     101.72675978
H      79.39399453      92.72036728     102.32202357
C      76.59342014      92.58052754      99.72364989
H      75.57107820      91.20102732      98.58981410
H      77.72725592      93.68412770      98.40462092
H      75.13644115      93.69168661     100.66473359
C      76.54617698      90.24293608     104.01332862
H      77.72725592      89.16768181     105.31346032
H      75.05896237      88.91256875     103.50310251
C      75.36509803      92.32541448     105.71219257
H      74.60542805      91.25582938     107.29956268
H      74.10843003      93.66523043     104.77866778
H      76.91845306      93.57641329     106.22997758
C      80.97191600      89.61743668      98.17596404
O      82.68967722      91.21047596      98.05124210
N      80.15744396      88.32297415      96.11994181
H      78.62676565      87.21370481      96.38072404
C      80.78483310      89.02784207      93.57259074
H      82.00937575      90.67568341      93.74077638
C      82.40810800      86.97370957      92.34804809
H      83.84052055      86.19703205      93.60849554
H      83.43800884      87.91479327      90.83059786
C      80.92467285      84.72871471      91.46554590
C      80.28594535      84.62289003      88.82370851
H      81.08718931      85.94002927      87.48767201
C      78.59086085      82.68781028      87.92797824
H      77.95213335      82.63489795      85.99100877
C      77.47970178      81.02296141      89.74778468
O      75.85642687      79.18236798      89.06181403
H      75.54651176      79.37889951      87.28547130
C      78.28850464      81.09288127      92.31403301
H      77.61954152      79.62078448      93.55936265
C      79.88721310      82.94859252      93.18330712
H      80.20846657      82.88434181      95.19775537
C      78.45102110      89.86310110      92.04947133
O      76.53105917      89.98215386      93.25133727
N      78.67211908      90.28828952      89.48322300
H      80.39365975      90.05018399      88.69520713
C      76.38932969      90.97426017      88.04703100
H      74.76416506      90.63221970      89.26590447
C      76.14366527      93.76349620      87.24389732
H      74.34275610      94.13010311      86.31604170
H      77.77638881      94.19624352      86.06659782
C      76.34586599      95.62109716      89.47377437
H      77.91622855      95.12976833      90.71721428
H      74.83408494      95.33385877      90.84193622
C      76.61798658      98.54450377      88.51001395
H      75.50871723      99.77660533      89.73077714
H      75.46147407      98.56907021      86.80548081
C      79.32407466      99.39110116      88.04325155
H      80.46924880      97.95301944      87.11539593
H      80.24815083      99.70479574      89.85738881
N      79.49603975     101.66633164      86.44076363
H      81.14010164     102.63009206      86.53713968
H      78.05795803     102.82662360      86.91508494
H      79.32218493     101.27515829      84.57938322
C      76.02839197      89.31508047      85.71132928
O      77.68379222      88.97870918      84.28458591
N      73.60009366      88.66312489      85.28803058
H      72.38499964      89.64011339      86.38974102
C      72.72326065      87.72015146      82.81248911
H      73.49426898      85.86632995      82.35139589
C      69.92079652      87.49527403      83.02035901
H      68.96081556      89.26594757      83.44365770
H      69.51828482      86.29151837      84.64174418
C      68.81152718      86.41057111      80.71678263
O      68.05185720      87.82597612      78.98768306
O      68.58664975      84.12589200      80.67898811
C      73.29773745      89.55129625      80.66198057
O      73.87788342      91.83408564      81.01724912
N      73.48104090      88.75383174      78.24124116
H      73.01049905      86.93213558      77.91998769
C      74.27472595      90.48104160      76.21356483
H      75.95280292      91.50905271      76.82205670
C      74.81140822      88.97870918      73.71156719
H      75.16667677      90.43568817      72.29805191
C      76.79373112      86.90001023      74.05738710
H      76.88632771      85.89467584      72.26214711
H      76.02272279      85.60554771      75.46334348
H      78.63810401      87.68424665      74.53170841
O      72.46436814      87.74849735      73.04071435
H      71.94847286      88.64611735      71.55349974
C      72.39822772      92.58997616      75.69200037
O      72.98215315      94.29450929      74.11596862
N      70.15512259      92.51816657      76.95811700
H      69.81119240      90.96103208      78.00880483
C      68.24082983      94.53072509      77.14708963
H      68.31641888      95.78361363      75.51625582
C      65.67647123      93.15878378      76.98646289
H      64.00595316      94.32663464      77.26614238
H      65.62544862      91.80573974      78.53792819
C      65.30986432      91.69235617      74.53737759
H      66.69881316      90.17868539      74.67532761
H      65.71048630      93.01705431      73.01047873
C      62.63590159      90.78150808      74.15187342
O      61.00317805      92.31785557      73.42999797
O      62.10488849      88.47604198      74.00447477
C      68.22760175      96.43556921      79.48279135
O      66.50984053      97.91522491      79.73412495
N      70.13433560      96.03116778      81.06638200
H      71.31919400      94.56662988      80.75268743
C      70.73148911      97.49003649      83.33405358
H      69.79985404      99.30417376      83.04681518
H      72.74215791      97.87554067      83.57593854
C      69.61277114      96.62643157      85.85116902
O      70.31385960      97.57696390      87.99978784
N      67.82886950      94.79339705      85.76991079
H      67.17124474      94.44190794      84.01246532
C      66.47771518      93.89766678      87.97900085
H      65.51962394      95.44157317      88.94843045
C      64.52184845      91.93235141      87.23444869
H      63.25195237      91.62243629      88.82748797
H      65.39490200      90.08797852      86.95665892
C      62.79652832      92.47281313      84.80426065
C      62.08977068      90.32608404      83.39452482
H      62.84755094      88.50249815      83.90664065
C      60.30775877      90.62466079      81.41976082
H      59.38935178      89.02595233      80.54481754
C      59.60289086      93.15311460      80.71489291
O      57.96260842      93.47436808      78.80060015
H      58.00418239      95.26015944      78.49257476
C      60.41547317      95.29039506      82.15486436
H      60.04319709      97.25571043      81.74479375
C      61.71938433      94.80473541      84.34127770
H      62.25228715      96.49981990      85.34472237
C      68.44492027      92.65044741      89.82526346
O      69.99260612      91.13866635      89.11283664
N      68.37877985      93.34397696      92.18553163
H      67.07108924      94.62521141      92.72410362
C      70.20425547      92.45391586      94.10927301
H      72.03917972      92.56352000      93.17952767
C      69.87733282      93.98837364      96.65473436
H      71.12455219      93.28161599      98.13250033
H      67.90823800      93.71625305      97.18952690
C      70.63889252      96.79083775      96.11805208
C      68.92491076      98.60875447      95.34326429
H      66.94258786      98.13254344      95.43019170
C      69.83008966     101.02193498      94.60816076
H      68.38066958     102.38064820      94.14139836
C      72.39066882     101.60586041      94.83681764
O      73.37521622     103.84140663      94.06391958
H      72.15067357     104.90343282      93.25322699
C      74.13677593      99.55361763      95.10137933
H      76.12287828      99.90888618      94.79335394
C      73.23537648      97.16122411      95.87805684
H      74.55629517      95.64566362      96.23899457
C      69.66568347      89.63066475      94.62894775
O      67.45659341      88.99571672      94.91996560
N      71.63288856      87.96203643      94.62705802
H      73.32986279      88.66312489      94.11116274
C      71.40612141      85.18413874      94.43430594
H      69.51639509      84.56997770      94.96909848
C      71.84264818      84.39423315      91.76034321
H      73.78906629      84.84587774      91.26145546
C      71.30218646      81.69003478      91.16507942
H      72.61176679      80.58076544      92.30269466
H      71.56296869      81.69759369      89.12039555
H      69.27639985      81.47838545      91.46743563
O      70.16835067      85.78129225      90.11439159
H      70.41023564      87.56330417      90.36761491
C      73.27695046      84.05030296      96.39206240
O      75.38399530      84.94414350      96.58292476
N      72.66089968      81.93191975      97.62794341
H      70.85999050      81.36878132      97.34259473
C      74.43157323      80.40691062      99.17940871
H      76.30051256      81.25917718      99.04901759
C      73.59442448      80.76028944     101.88360706
H      73.56418886      82.80686305     102.10659477
C      70.95825627      79.77385231     102.59036470
H      69.53529236      80.36911609     101.22598231
H      70.21937328      80.35588802     104.42339923
H      70.87699804      77.71971980     102.71130719
C      75.30840624      79.82298520     103.99443136
H      75.55973984      77.78397050     104.13049165
H      74.54684654      80.56564764     105.75943573
C      78.01827378      81.03996894     103.80356900
H      79.27872123      80.32754211     105.26810689
H      78.01071487      83.09788090     103.89427586
H      78.89888624      80.41069008     102.05179271
C      74.59031024      77.74428624      98.38005448
O      73.04829357      76.87123270      96.84748644
N      76.27216666      76.10211408      99.51011081
H      77.42112026      76.69170870     100.91606719
C      76.84475374      73.47728423      98.91106757
H      75.14400005      72.49084710      99.52900808
H      78.59464030      72.84422591      99.79168004
C      77.52127576      73.25240681      96.07269865
O      79.48848085      73.97995144      95.21854236
N      75.76383028      72.08266622      94.62138884
H      74.30685130      71.50818942      95.71176093
C      75.38399530      72.86501291      92.03435352
H      76.47814683      74.59789194      91.80758636
C      76.31374064      70.84678521      90.14462721
H      74.90400481      69.34823223      90.18431146
C      76.44413176      72.13368883      87.49334119
H      77.32285449      70.97528660      86.03447248
H      77.06396199      74.09144529      87.65963711
H      74.48070612      72.17904225      86.87351096
C      78.92156295      69.77153094      90.67753003
H      79.30706712      69.72806723      92.69953718
H      80.45413099      70.90158727      89.89140388
C      79.29194931      66.98985380      89.76479222
H      79.42045070      66.96528736      87.70876999
H      77.71213811      65.82389267      90.38084300
H      80.86609133      66.02231393      90.67753003
C      72.58153117      73.32988558      91.45798699
O      71.03195560      71.78975863      92.22332615
N      71.92957560      75.34055437      90.03313335
H      73.37899568      76.50084634      89.59282712
C      69.46915194      75.79975787      88.95032018
H      68.77940183      74.52419262      87.48956174
H      69.49560810      77.54586498      87.85805837
C      67.38856327      76.28352781      90.94209171
O      65.10577388      76.64068608      90.21454708
N      67.98004760      76.14935723      93.34771331
H      69.81875130      76.31376343      93.83337297
C      66.13756445      76.67092170      95.42074307
H      64.37633952      75.70716128      94.95964985
C      67.03896390      75.63346196      98.00021949
H      68.55641413      76.87501214      98.63138808
H      67.91957636      73.80987606      97.61849478
C      64.89034508      75.52574755      99.84270265
N      63.46927089      73.36956984     100.18474311
H      63.90579767      71.65747780      99.46286766
C      61.99717409      73.75885346     102.30879548
H      60.64601978      72.39636078     103.00232504
N      62.32220702      76.22494629     103.12704698
H      61.16758424      77.26996494     104.22875742
C      64.17224908      77.26429576     101.54156660
H      64.98105194      79.11055837     101.86659953
C      65.73694247      79.41480431      95.52467802
O      67.42068861      80.84532712      96.05002194
N      63.45793253      80.34454965      94.75177996
H      62.11055767      79.06142549      94.32281209
C      62.90802218      83.03929937      94.70453680
H      64.35744226      84.05786185      93.65384897
C      60.35122248      83.37189120      93.41196400
H      59.05864968      82.25884240      94.56469705
H      60.57043073      82.53096299      91.54302468
C      59.13801818      85.96081625      93.07370299
H      58.54275439      86.36143824      95.00500328
C      60.78963898      88.08675836      91.98333091
H      62.36945018      88.37777621      93.27401398
H      59.54808879      89.68924628      91.61483428
H      61.56253704      87.17968973      90.30525394
C      56.72672741      85.75483609      91.48633289
H      57.07065760      84.94036404      89.62495247
H      55.96327798      87.63133432      91.11972598
H      55.32455048      84.66446400      92.53135154
C      62.85133039      83.98038308      97.44463995
O      62.12945494      82.58198560      99.12082719
N      63.95304083      86.13845054      97.92274071
H      64.42736213      87.17024109      96.38828295
C      63.54674967      87.49527403     100.23198627
H      62.63590159      86.25561357     101.60392757
C      66.07142403      88.63477898     101.31668917
H      65.51584449      90.10120661     102.65461540
H      67.02195636      89.69680517      99.82758484
C      67.71737564      86.54474169     102.44107633
H      68.17657914      85.11043942     101.03511995
C      70.21370410      87.66723912     103.31979906
H      69.81497185      89.11287975     104.73142462
H      71.25872275      88.50438788     101.75699540
H      71.33242208      86.09309710     104.04167451
C      66.24149939      85.19547710     104.57646706
H      64.83743274      83.88967621     103.82246626
H      65.42324790      86.59576429     105.84258369
H      67.52084411      84.11077420     105.77455354
C      61.52285279      89.65145175      99.76333414
O      59.70682580      89.74215861     101.22031313
N      61.86489325      91.11787937      97.74321671
H      63.35021813      90.93079646      96.56024804
C      60.03185873      93.10776118      97.11771730
H      58.20827284      92.16856720      97.30857966
C      60.06776353      95.10898133      99.20586488