 %block lattice_cart
   135.996   0.000   0.000
   0.000 142.663   0.000
   0.000   0.000   160.158
 %endblock lattice_cart

 %block positions_abs
N      89.75347418      43.41268345      81.46511426
H      91.50147101      44.07219793      81.85061841
H      89.79693789      41.96326337      80.22356407
H      89.22813027      42.69080800      83.15263985
C      87.87130677      45.41201390      80.66953947
H      88.52704181      46.97103809      81.84683896
C      88.17177326      46.31719279      77.92565687
H      86.44456340      47.32063747      77.42676911
H      88.38531233      44.82997819      76.51781077
C      90.49046745      47.93290880      77.59117531
H      90.38086331      48.72281440      75.69011063
H      92.23846428      46.85765451      77.78203766
S      90.71345515      50.56340781      79.79270647
C      92.81294109      52.87832255      78.42076517
H      91.76981216      53.70224323      76.84473342
H      94.38330364      51.88810596      77.52881435
H      93.17954798      54.26349194      79.89853113
C      85.01782005      44.66368227      81.32149505
O      84.50192476      42.33175999      81.48023206
N      83.31328690      46.54207023      81.31393614
H      83.83863082      48.29195680      80.76213606
C      80.48436661      46.36443595      81.96778145
H      79.82107268      45.38366799      80.28214557
C      80.09886245      44.71470489      84.39796949
H      80.88309886      42.83442720      84.08616464
H      78.06929639      44.45392264      84.61528802
C      81.10986603      45.74460572      86.73934039
O      81.43111949      48.04440264      87.07571168
N      81.63520994      44.18558151      88.56103655
H      82.57062447      44.85454463      90.08604569
H      81.33285373      42.30530384      88.42875571
C      79.25793423      48.99304525      81.77880881
O      80.62798581      50.82796950      81.17976558
N      76.81640784      49.18390761      82.37785206
H      75.74682275      47.63055259      82.68776718
C      75.56918848      51.71992033      82.27202739
H      75.73359466      52.40778070      80.33694765
C      72.63633323      51.49315316      82.55170688
H      72.20358591      50.26105160      80.96055732
C      71.70847761      50.34419956      85.16141891
H      71.62343993      51.68023607      86.72422257
H      72.76672436      48.65667396      85.68865257
H      69.79040541      49.70169262      84.76079695
C      71.27762001      54.06318095      82.51391236
H      71.97303930      55.12709686      84.13151808
H      69.34631973      53.39988701      82.78981239
C      71.16045698      55.60897707      80.03648115
H      70.85810077      54.38065497      78.41131652
H      73.09364701      56.21557922      79.66042562
H      69.72993417      57.08296359      80.16498254
C      76.65956055      53.48492470      84.35450578
O      76.84097428      55.77338326      83.97656052
N      77.43812779      52.57785606      86.51068351
H      77.44757644      50.66923250      86.53713967
C      78.24693067      54.20491042      88.60261053
H      76.86554072      55.67700722      89.00701197
C      78.33007861      52.65722458      91.08571091
H      78.80628964      53.98003300      92.58993305
H      79.91933844      51.35520315      90.91752526
C      75.79028646      51.37787986      91.52034796
C      73.51694570      52.74415199      92.02112543
H      73.45080527      54.75671051      91.69609250
C      71.41557004      51.34575451      92.86394337
H      69.78851568      52.40400125      93.49511195
C      71.48926936      48.70013767      93.27212425
H      69.95481159      47.68157519      94.15273672
C      73.60198339      47.43213131      92.39907070
H      73.81174301      45.42524197      92.70142691
C      75.85831660      48.73793220      91.59782674
H      77.54773192      47.63811148      91.27846300
C      80.94168038      55.26126743      88.01112620
O      81.20624206      57.55161572      88.15285568
N      82.64243407      53.59263909      87.09838838
H      82.04150110      51.78417101      86.96421782
C      85.02348921      54.30884538      86.04581083
H      86.00236745      55.20079619      87.62373231
C      86.38598189      51.84653198      85.30314839
H      88.13019927      52.48525947      84.41497702
H      85.16332897      50.70324756      84.10128245
C      87.00014294      50.38199409      87.76357205
H      85.25214611      49.81318647      88.69331740
H      87.87508622      51.68779498      89.09393937
C      88.60830003      48.00471839      87.47066448
O      90.06905847      47.75716424      85.56771008
O      88.34184863      46.21892702      89.13362362
C      84.86286248      56.14565934      83.75357281
O      86.33117982      57.98058359      83.54570293
N      83.03738687      55.84330313      81.91486911
H      81.94890451      54.28049947      82.02069378
C      82.60841899      57.40988626      79.78136810
H      84.33184938      57.46279859      78.65509123
C      80.57318376      56.27038128      78.02959182
H      78.66833962      56.16077715      78.80815906
H      81.16466808      54.32396318      77.70644861
C      80.27838644      57.50626229      75.39342361
H      82.04150110      57.10753005      74.40320701
H      80.47680770      59.55472561      75.41987977
S      77.48159151      56.55572996      73.66243431
C      78.68723689      57.09052250      70.42533313
H      80.40877757      55.99826069      70.12864609
H      78.98203420      59.12197829      70.26470639
H      77.30962640      56.40455185      69.05528155
C      82.00370657      60.12542296      80.77536414
O      83.19990333      61.94333968      80.13852637
N      79.99114804      60.31439559      82.15864380
H      79.09919723      58.63820836      82.34572672
C      79.08596915      62.61986169      83.31704604
H      78.75526704      63.91621394      81.75235266
C      76.61987630      62.07939998      84.74378941
H      76.44980093      63.69700570      86.00612659
H      76.97703458      60.34841067      85.80014642
C      74.28417458      61.76570540      83.07705079
H      74.45802940      60.11030515      81.86384650
C      71.97870848      61.33484780      84.70599487
H      70.22504247      60.93989500      83.69499131
H      71.68769062      62.99969669      85.87951491
H      72.13744550      59.72102153      85.97778068
C      73.71536696      64.06361259      81.34795121
H      75.09297745      64.57194897      79.90420031
H      73.48293062      65.58862174      82.71422334
H      72.02028246      64.04660506      80.17632091
C      81.12687357      63.77448447      84.96866683
O      81.53505444      65.93633137      84.51324279
N      82.27771688      62.49136031      86.59005201
H      81.49537019      60.80950388      87.04547605
C      84.33562885      63.50803306      88.14151731
H      83.73280614      64.89131272      89.54369424
C      85.18033650      61.20256697      89.77424085
H      86.11575103      59.77771332      88.61772834
H      83.51737734      60.36919765      90.66052249
C      86.65810247      62.25892398      91.86238843
H      85.72268795      63.89353723      92.69953718
H      88.39287124      62.93922544      90.98366569
C      87.38942657      60.07817980      93.66896679
H      88.86341308      60.84729841      94.88784025
H      88.46279111      58.62686999      92.67497073
N      85.36552968      58.91977757      95.08815125
H      84.77026589      57.24925951      94.38139360
C      84.44334324      59.51126191      97.25755704
N      85.46190573      61.10619091      98.83736824
H      84.66822067      61.20634641     100.56835754
H      87.12675461      61.99058283      98.53690177
N      82.61219844      58.05428292      98.08714690
H      81.86008738      58.34719051      99.81435676
H      82.28716551      56.28738882      97.44275022
C      86.43322505      64.95178397      86.91886439
O      87.09840872      66.91520961      88.04514127
N      87.44989781      63.99936191      84.88551888
H      86.83951620      62.32506439      84.20143795
C      89.69678239      65.13508742      83.54003374
H      90.85140516      66.12341428      84.93465177
C      91.26903469      63.02426312      82.28336574
H      91.44666896      61.55405606      83.71199884
C      89.83851186      62.10396642      80.02514281
H      90.62841746      60.36163876      79.25791391
H      89.86118859      63.47401799      78.48690558
H      87.84863006      61.68822662      80.34450655
C      93.79937821      63.99558245      81.27992108
H      93.49513229      65.86263204      80.46166958
H      94.64786534      62.82962131      79.80593454
C      95.76469359      64.15998864      83.32271521
H      97.55048494      64.82706203      82.54225824
H      96.02736554      62.25514451      84.06537765
H      95.29982090      65.46389980      84.84772435
C      88.74625005      67.15520485      81.66542524
O      89.88953448      69.13752774      81.37629711
N      86.37464353      66.88875343      80.56182508
H      85.37875776      65.27681689      80.78670250
C      85.04805566      68.90131196      79.10673582
H      86.17811199      69.65342303      77.55716023
C      82.54794774      68.01314059      77.86140617
H      81.46702429      69.60240042      77.12063345
H      81.38387635      67.16654320      79.33350297
C      82.97124644      66.38419651      75.49924828
O      84.85341385      67.01158564      74.06494600
O      81.23080850      64.92532780      74.80382900
C      84.33184938      71.18221162      80.65631139
O      84.87231112      73.34783797      79.84372907
N      83.26037457      70.97245200      82.90130625
H      82.64243407      69.35673600      83.70632965
C      82.55550665      73.22500576      84.50190444
H      82.13409769      74.71788955      83.14886039
C      79.88532337      72.61084471      85.97400124
H      79.19179382      74.25490660      87.00012262
H      80.07996518      70.98756982      87.22877951
C      77.75938128      72.01180147      84.05403929
H      76.24193105      71.22189587      85.19921344
H      78.36409370      70.32238614      83.04303573
C      76.79184140      74.03947780      82.26824794
O      78.17323133      75.88763013      81.82416226
O      74.78306233      73.50090580      81.08338954
C      84.63798506      74.29648058      86.10061290
O      84.58885216      76.55659325      86.58816229
N      86.45590176      72.71666938      87.05303495
H      86.43133532      70.83828143      86.71477394
C      88.63664593      73.41019894      88.68197904
H      88.91821515      75.37740403      88.13773786
H      90.24480303      72.22156109      88.19442965
C      88.13964791      73.30815372      91.54113495
O      86.53149081      72.01180147      92.56725633
N      89.77804062      74.57616007      92.94709133
H      90.78904420      75.89518904      92.00978707
C      89.42655153      74.89174437      95.68530476
H      87.51603822      74.46466622      96.32403225
C      91.07439288      73.08894547      97.13283512
H      93.07750276      73.52169279      96.92496521
H      91.27092440      71.26158012      96.20875894
C      90.37330442      72.55037348      99.91073280
H      90.50369553      74.33616483     100.93307473
C      87.71445948      71.49590618     100.52111440
H      86.25559078      72.86784749     100.04301363
H      87.33084504      70.74568484     102.40139207
H      87.39131628      70.04270665      99.10004020
C      92.44255473      70.88363486     101.16362133
H      92.34806840      70.90064239     103.22153330
H      94.33795022      71.50724454     100.65528495
H      92.38964239      68.96934210     100.40206163
C      89.71945910      77.73956192      96.68119053
O      90.94589149      78.29514147      98.62004973
N      88.54215962      79.57448617      95.46798624
H      87.89209376      79.09260596      93.73888665
C      88.33995889      82.29947151      96.30513498
H      90.13330916      83.21976823      96.72654396
C      87.43289026      83.94542313      94.03557369
H      86.91321554      85.89373096      94.45698265
H      85.50347970      83.35393880      93.62172362
C      89.34340357      84.10416014      91.78490964
H      89.92165983      82.29758179      90.97988624
H      90.95156066      85.29468772      92.27623848
C      87.82406362      85.33626170      89.63062164
H      89.18277683      86.28679404      88.40985846
H      86.60896959      86.86694001      90.28068751
N      86.21968598      83.38984360      88.27190844
H      86.46157095      81.57381661      88.80103180
C      85.01404059      83.63550802      86.10250262
N      84.96490771      85.79924465      84.93843122
H      84.21657608      86.12616730      83.21500081
H      85.56773039      87.31858460      85.92675808
N      83.79516711      81.83459884      85.08582986
H      83.36053007      82.31647905      83.29058986
H      83.82162328      79.97888760      85.52613609
C      86.65999221      82.29758179      98.68807986
O      84.38098228      82.90985311      98.58225519
N      87.76359238      81.58137552     100.89905966
H      89.56828100      80.99178091     100.70441784
C      86.61085933      81.63806732     103.46152853
H      84.90632619      80.53257741     103.12326752
C      88.36641506      80.79524937     105.58369118
H      87.37808821      81.28468848     107.32412912
H      90.10685301      81.89695981     105.57802201
C      88.90498707      77.89451948     105.47975623
H      89.33206522      77.54114067     103.49743334
C      91.43155114      77.14429813     106.81579274
H      92.99057536      78.26301611     106.06746111
H      91.53548610      75.09583481     106.63248928
H      91.09517987      77.67342150     108.77732865
C      86.84329565      76.11439729     106.41517076
H      85.06695293      76.83249329     105.66305969
H      86.67888946      76.20699388     108.46741353
H      87.42722108      74.31537785     105.59880899
C      85.79449755      84.34226566     103.99065190
O      83.98791919      84.26289715     105.46085898
N      86.73558125      86.37183172     102.85114694
H      88.17366298      86.33781665     101.59447894
C      85.65843727      88.94185951     103.11759835
H      84.53593983      89.21775956     104.82213147
C      87.89587321      90.76922485     103.20830520
H      89.48702277      90.29301382     101.98754202
H      88.37964315      90.61048784     105.20196646
C      87.11352652      93.40917251     102.60359278
H      85.27482281      93.77766914     103.45774908
H      86.75258880      93.66050611     100.59103426
C      88.86719253      95.38393651     103.90750395
H      90.84384626      95.14961044     103.37649085
H      88.57995414      95.26110430     105.94462891
C      87.68800333      97.85380880     103.22909219
H      85.74536467      97.74231494     103.90750395
H      87.55194302      98.01065608     101.17873915
N      89.27348370      99.74920429     104.46119376
H      88.39098150     101.41594290     104.16828617
H      90.84762571     100.03266324     103.41995456
H      89.60229607      99.50542959     106.32446390
C      83.66099654      89.31413559     101.20141587
O      83.91421987      88.72643071      98.91484703
N      81.48214211      90.56702413     101.90628377
H      81.23080850      91.00166119     103.74687721
C      79.48659112      91.40228317     100.17529447
H      78.48881563      89.67318359      99.67451700
C      77.75182237      93.24287659     101.60770702
H      77.46647369      92.44163264     103.48231552
C      79.00093145      95.81479411     101.96864475
H      78.79495130      96.84280522     100.19419174
H      80.93790093      95.72219752     102.65839486
H      77.92189773      96.93351208     103.32168878
C      75.06841101      93.19941289     100.68552059
H      74.29929240      91.30023794     100.90661855
H      75.12321306      93.56035061      98.65784425
C      73.31096554      95.06079331     102.27100096
H      71.33431180      94.79434190     101.75510568
H      73.52639433      97.01288059     101.65495018
H      73.74371285      95.12315427     104.28544920
C      80.44090291      92.50210388      97.64495095
O      82.16811276      94.00443630      97.69408383
N      79.11809450      92.01077504      95.50011158
H      77.57607781      90.90717487      95.70798147
C      79.59430553      92.90272586      92.96598859
H      80.52027141      94.68284805      93.42708182
C      81.54639281      91.07536051      91.82081444
H      83.21124169      91.05835298      93.03212902
H      81.93945587      91.98431887      90.01423610
C      80.68467760      88.28990393      91.41263356
C      79.72658637      87.66251479      89.07882156
H      79.30706713      89.09114788      87.68420355
C      79.08218970      85.05280275      88.73300166
H      78.14110598      84.51612048      87.00201234
C      79.34486165      83.15173808      90.56981562
O      78.77227458      80.61383564      90.18053201
H      78.34519643      80.05636638      88.50812422
C      80.18767958      83.89817998      92.89984817
H      80.62042690      82.40151674      94.21698742
C      80.96624682      86.43797214      93.44408935
H      81.59552568      86.90284481      95.32814648
C      77.15655857      93.52444581      91.49011235
O      75.20825074      92.67028952      92.17986244
N      77.50426821      94.75276793      89.29047091
H      79.20313218      95.55023242      88.94465099
C      75.20636103      95.36503924      87.78435905
H      73.58875529      94.36915348      88.57804409
C      74.88321783      98.20718762      87.79191794
H      76.21358514      99.22575010      86.59194174
H      75.11187470      98.61347878      89.79691757
C      72.16957084      99.15205077      87.21177196
H      70.82219597      98.19018008      88.44198379
H      71.74627215      98.60403014      85.27480249
C      72.03917972     101.97152243      87.28736102
H      73.03128603     102.80111228      85.68487311
H      72.91034355     102.53277115      89.06748321
C      69.31797384     102.97874656      87.32704527
H      68.44681001     102.59702185      89.15252090
H      68.37689012     101.86758749      85.86628684
N      69.38033480     105.63570175      86.90374657
H      67.82320032     106.44261489      87.65018847
H      69.31419437     106.17049430      85.07449150
H      70.88077749     106.61835944      87.55948162
C      75.52761449      93.94963423      85.19165455
O      77.51182712      94.22175482      84.03703176
N      73.55285050      92.42840456      84.50001471
H      71.92579614      92.22998329      85.47889294
C      73.33553198      90.90528514      82.24557122
H      75.01927811      89.77333908      81.87707459
C      71.00360971      89.16862666      82.60461921
H      69.56174852      90.63883373      82.61028839
H      71.30974536      88.27100666      84.43387429
C      70.66912815      87.34693050      80.45789013
O      70.70503294      85.03012604      81.01346967
O      70.10032053      88.02534224      78.21100553
C      73.28639908      92.61926691      79.95711266
O      72.56452364      94.80945971      80.08372432
N      73.91945741      91.69708047      77.70644861
H      74.10276085      89.79601580      77.71022806
C      73.71158751      92.96697655      75.22901741
H      75.13833088      94.43907335      75.02870642
C      74.17834991      91.02244818      73.10307532
H      72.39255854      90.10026174      72.64765127
C      75.04195483      92.26588809      70.57084205
H      75.51249669      90.74087896      69.26693091
H      76.80884893      93.21642043      71.03571472
H      73.78528683      93.69830063      69.78282619
O      76.04728923      89.36326847      73.70967746
H      77.58363672      89.58247674      72.77237321
C      71.12455218      94.27844661      74.77548311
O      71.06219121      96.29289486      73.70022883
N      69.24805395      93.04067588      75.85451682
H      69.54096154      91.35126055      76.69355531
C      66.59865766      94.16695276      75.63908803
H      66.56842205      95.00410152      73.75692062
C      64.52562790      92.10904082      75.73546407
H      62.62834268      92.88760805      75.53893253
H      64.94514714      91.16039820      77.51369654
C      65.02829510      90.29301382      73.36385755
H      64.58609914      88.35793407      73.91187817
H      66.98227210      90.34214670      72.70623280
C      63.50517569      91.11504477      71.14342913
O      61.76095830      89.67129386      70.50659136
O      63.67336133      93.35437045      70.25714748
C      65.78229590      96.12470922      77.54582188
O      63.67147161      97.02610867      77.57416778
N      67.59076398      96.74453945      79.23712692
H      69.39356288      96.12848867      79.11807418
C      67.23171598      98.55111781      81.19677311
H      65.97126854     100.07990639      80.63930386
H      69.14033955      99.13693296      81.70699921
C      66.06764458      97.51554779      83.69877075
O      65.77284726      98.86481237      85.50156965
N      65.29852596      95.14205154      83.69121184
H      65.23427527      94.11970960      82.07927531
C      64.41224432      93.73798489      85.92864780
H      62.98361123      94.96441726      86.76201711
C      62.96282425      91.33614274      85.29369976
H      61.73639186      90.77111458      86.84894451
H      64.36689089      89.84514868      85.07260178
C      61.35655687      91.17929546      82.97500558
C      61.49072744      89.07603007      81.26858272
H      62.98550095      87.74188330      81.65597661
C      59.79375321      88.71698207      79.29192900
H      59.89957788      87.08236881      78.07872470
C      57.85111456      90.51222207      79.07272073
O      56.04642593      90.55757550      77.23590677
H      55.16203402      92.10715108      76.90709438
C      57.60356041      92.68729706      80.68087783
H      56.17870677      94.12159933      80.39552915
C      59.49895590      93.09169849      82.55548634
H      59.56698606      94.85481314      83.57971800
C      66.64779056      93.27689167      87.83727138
O      68.82664500      92.85737243      86.92831302
N      66.21315350      93.03311697      90.24478271
H      64.42358268      92.98398409      90.90618692
C      68.29563189      92.51911142      92.00411790
H      70.00772394      93.45641567      91.34460341
C      67.66257358      93.94585478      94.45131348
H      69.25183341      93.75688215      95.74766572
H      65.82953905      93.31279647      95.14295330
C      67.59076398      96.63304560      93.94675654
C      65.33821022      97.95396429      93.87494695
H      63.57887502      96.93729154      93.68975377
C      65.38923282     100.60902976      93.81069626
H      63.62422846     101.62759224      93.68408460
C      67.64556604     101.92238955      93.36472084
O      67.58698452     104.54155022      93.17007903
H      65.97504799     105.36925034      93.27212425
C      69.87733282     100.49186673      93.26078589
H      71.59887349     101.53121620      92.91496599
C      69.94158351      97.91616978      93.74833528
H      71.64989611      96.80312097      93.83526270
C      68.86632925      89.62027125      92.51812345
O      67.23738517      88.03479087      92.58237415
N      71.22470768      89.10248624      93.22677082
H      72.33208730      90.61993647      93.56314210
C      72.29240304      86.38505980      93.58392910
H      70.79573981      85.11138427      94.19620043
C      73.20703058      85.43263774      91.01957049
H      75.06652127      86.28301458      90.77012662
C      73.45269501      82.51490031      90.87973074
H      71.51005635      81.83837829      90.92697391
H      74.55440544      81.70420773      92.41985769
H      74.30685130      81.96687968      89.08638047
O      71.56485842      85.98065837      88.96732772
H      70.67290759      87.49054970      89.43409012
C      74.37110200      86.11860839      95.71554037
O      75.66934396      87.91951758      96.26167129
N      74.51850064      84.06447589      97.08370222
H      73.17679496      82.76245446      96.69630833
C      76.72381125      83.38417442      98.70319767
H      78.36031424      84.49533349      98.12872087
C      75.95469264      84.37250128     101.46219809
H      74.97203497      86.18285909     101.40739604
C      73.99504645      82.68875514     102.68674075
H      72.76861407      83.95865122     103.74687721
H      75.00793977      81.38862343     103.92073203
H      72.76294491      81.52090427     101.51888988
C      78.21102587      84.75611573     102.92484626
H      79.51871647      85.82381109     101.74376731
H      79.21824998      83.04969286     103.48609497
C      77.77260935      86.32647829     105.32668840
H      79.44123769      87.09937635     106.25265429
H      76.62554549      85.29468772     106.68918107
H      76.82585647      88.10471075     104.89394107
C      77.38899491      80.56659249      98.44619489
O      75.73926385      79.12851076      97.67707630
N      79.66611513      79.77101771      99.10192993
H      81.10986603      80.99933981      99.31735872
C      80.45980017      77.21988719      99.41562450
H      79.01982872      76.25612677     100.53056302
H      82.21157647      77.02524538     100.48331986
C      80.88120914      76.02558016      96.76811793
O      82.49314569      76.88918508      95.22799098
N      79.63398978      73.92420450      96.33348089
H      78.38110123      73.32138180      97.64117150
C      79.84185966      72.30659877      93.96376409
H      81.44056812      72.75257419      92.74111117
C      79.77949871      69.43043532      94.61571967
H      78.13543681      68.95422429      95.75711435
C      80.21791520      67.72968164      92.25734123
H      80.22358439      65.70389504      92.62394812
H      82.00181685      68.10384745      91.29736026
H      78.74392868      67.93944126      90.83437732
C      81.95457368      68.89753250      96.57914530
H      81.92244833      70.18632585      98.18541267
H      83.78949793      69.33594901      95.75900408
C      82.16622304      66.16876772      97.35015363
H      83.22446977      64.97824013      96.04624248
H      80.26893781      65.38642101      97.55235436
H      82.99770262      66.10262729      99.23232104
C      77.59308535      73.12485028      92.33482001
O      75.93579537      71.60173086      91.71687950
N      77.18868392      75.45488281      91.83215280
H      78.42267520      76.76257342      92.47465976
C      75.02494730      76.32037746      90.30147450
H      74.94179933      75.07126837      88.66497151
H      75.36509803      78.13451472      89.38684696
C      72.35854346      76.40541514      91.67719525
O      70.59353910      76.63029258      90.23722380
N      71.96548039      76.20321443      94.21698742
H      73.56607858      76.22967060      95.25822661
C      69.45970331      76.49423228      95.30169032
H      68.27106545      75.15441633      94.28690729
C      69.49938755      75.81015136      98.14761814
H      71.05841176      76.93642824      98.88272167
H      69.94914242      73.80515174      98.28178872
C      67.10510432      76.14463291      99.58003068
N      65.00561838      74.61584433      99.38538887
H      64.87711699      72.95477490      98.45753325
C      62.97794205      75.82526917     100.29812668
H      61.01451641      75.27913827     100.23198626
N      63.73950175      78.11561746     100.94630281
H      62.59621733      79.51212520     101.56802276
C      66.29819119      78.44820929     100.54946029
H      67.23360571      80.26234655     100.50599658
C      68.52806824      79.15118748      94.64595528
O      69.48615947      81.09193640      95.59459789
N      66.37378023      79.33638066      93.36472084
H      65.71426575      77.63184752      92.81481049
C      65.21726774      81.68531047      92.63339676
H      66.77818167      82.84560242      91.95498502
C      63.11400234      81.38484398      90.54335946
H      61.41135893      80.81981581      91.55436303
H      63.71493531      79.92597527      89.21866131
C      62.68125502      83.90762861      89.17897706
H      62.70393173      85.47799117      90.51312383
C      64.65223957      84.41029581      87.20232333
H      63.93036411      85.64050764      85.71510872
H      64.99616975      82.65851951      86.17620195
H      66.35110352      85.25122402      88.00734675
C      59.90902652      84.14006494      88.13395840
H      58.52007767      83.95676149      89.64384974
H      59.65958265      82.76812364      86.61839790
H      59.68981826      85.84270835      86.99634316
C      63.92091548      82.80213871      95.03334918
O      62.76440297      81.39996179      96.52245351
N      63.77162711      85.40996103      95.26767524
H      64.62578339      86.47009749      93.93163874
C      62.78141051      86.64584203      97.53345709
H      62.40157552      85.36649732      99.10381965
C      64.78829985      88.41651559      98.69941822
H      63.94359220      89.29334860     100.35859792
H      65.14545813      89.73176510      97.15551182
C      67.32620230      87.13906060      99.59514849
H      68.15201269      86.00333509      98.09092635
C      69.27262040      89.07225062     100.48143014
H      69.39545262      90.51222207      99.01500251
H      71.18313370      88.32202927     100.65528495
H      68.54885523      89.74121374     102.29178795
C      67.01817690      85.17941442     101.65683990
H      65.69914794      83.67897172     101.15417271
H      66.17346925      86.09971113     103.29901208
H      68.87766760      84.39328827     102.06880025
C      60.25106698      88.00644498      97.05535633
O      58.52007767      87.34126132      98.39517229
N      60.09044024      89.76200072      95.26200607
H      61.64946446      90.25143984      94.27556892
C      57.82654812      90.99788173      94.53824088
H      56.24484719      89.68074249      94.48532854
C      57.24073296      93.02933752      96.52434324