 %block lattice_cart
   135.996   0.000   0.000
   0.000 142.663   0.000
   0.000   0.000   160.158
 %endblock lattice_cart

 %block positions_abs
N      88.66499182      40.16329906      82.53186476
H      88.01492597      39.13150849      81.06354741
H      87.84674033      39.49055649      84.12112459
H      90.56227704      39.97621615      82.56776956
C      87.97713144      42.85048988      82.13880168
H      88.75002950      43.84448592      83.77152522
C      89.18655628      44.13550377      79.73884927
H      88.45145275      43.05835977      78.14203053
H      91.20667371      43.74622015      79.83711503
C      88.78971376      47.03623366      79.64247322
H      86.81683948      47.43307619      80.08277946
H      89.24702752      47.62960772      77.72251129
S      90.88919969      48.74643597      81.75140779
C      89.71378992      51.81724123      81.28086594
H      87.81839443      51.68118094      82.07833044
H      89.42088234      52.35203378      79.31555057
H      90.59251266      53.48586957      82.10856606
C      85.17088787      43.00166798      82.44115789
O      83.87831507      41.28390676      81.53408926
N      84.18445073      44.94619636      83.60333958
H      85.39009612      46.38238836      83.95482867
C      81.86386682      44.96887307      85.05653911
H      80.54294813      43.88039072      83.91325469
C      82.53849911      44.33014558      87.71916349
H      83.36241978      45.93074377      88.72071843
H      83.78004930      42.69364259      87.86467241
C      80.26137890      43.85771400      89.23850344
O      79.10297668      45.41673821      90.41958239
N      79.33352329      41.66752120      88.88890407
H      77.62710042      41.28390676      89.65424323
H      80.23114328      40.32392580      87.87034159
C      80.88309886      47.81669063      85.15291515
O      82.52527103      49.53823130      84.98661924
N      78.48314644      48.38738797      85.72928168
H      77.32663394      46.91340145      86.09399886
C      77.39088464      50.80812738      85.78030429
H      78.27338682      51.73976245      84.17025747
C      74.54873626      50.81757601      85.42503574
H      74.31441020      49.46642170      83.89057798
C      73.29206826      49.49098814      87.80042172
H      71.34753989      49.06013054      87.26940862
H      73.28450936      50.64183147      89.50684458
H      74.19346771      47.71653513      88.33332454
C      73.37143677      53.45752367      84.89591237
H      74.06874578      54.80489853      86.29053039
H      71.31730427      53.32524283      84.92047882
C      74.21047525      54.41939436      82.25596472
H      76.25704885      54.60458754      82.12935305
H      73.31663470      56.18628847      81.68526737
H      73.74560258      53.07390923      80.76875011
C      78.28283546      52.18006868      88.24639713
O      78.58141221      54.53844712      88.24261768
N      78.72125196      50.84403218      90.30430908
H      78.03717103      49.06579972      90.22494058
C      80.02138366      51.95708098      92.46426626
H      79.08974859      53.78255660      92.66079779
C      79.61698223      50.23554031      94.64878988
H      81.00593107      50.58136022      96.13222503
H      79.90800008      48.25699686      94.15746103
C      76.93357087      50.36215197      95.78262566
C      76.48759546      51.63015833      98.09943012
H      78.02394295      52.60525710      99.02161656
C      74.19724717      51.95519125      99.13877960
H      73.89867041      53.06068115     100.82630519
C      72.05807698      50.83269382      97.80274309
H      70.25149862      51.02355618      98.73248844
C      72.34909483      49.33603058      95.66735236
H      70.68613568      48.48565374      94.84721114
C      74.83975411      49.08280726      94.68091522
H      75.08541853      48.07747286      92.91969030
C      82.85786286      52.54100641      92.08065182
O      84.21468635      53.31768392      93.72282398
N      83.86130753      52.18762759      89.75250900
H      82.69345667      52.09692073      88.24828685
C      86.52582163      52.92273112      89.04575136
H      87.49714096      53.79956413      90.63312146
C      87.85807868      50.54545542      88.18781561
H      89.67788512      50.96686439      87.32232096
H      86.74125043      49.56279774      86.76296197
C      88.58373359      48.73887707      90.42525157
H      86.79794222      47.94330229      91.07153797
H      89.51347893      49.60248199      92.04852647
C      90.36196605      46.78301033      89.41802744
O      89.81394542      45.71531497      87.37334357
O      92.54082049      46.27467396      90.25895565
C      86.32740037      54.81623689      86.79319759
O      87.53304576      56.86281049      86.95949351
N      84.50381448      54.32112860      85.06220829
H      83.33974307      52.81690645      85.22472475
C      84.03894180      56.02944118      82.94193537
H      85.79449755      56.00109529      81.86479137
C      81.87898463      54.72741975      81.29976320
H      80.07240627      54.55734439      82.27297225
H      82.30228332      52.72619959      81.05976796
C      81.55773116      55.78566649      78.58044704
H      83.20935195      55.22441777      77.48440578
H      81.70512981      57.83979899      78.62580047
S      78.48692590      54.81245744      77.34645575
C      79.27494177      54.84836224      74.02998607
H      77.63843878      54.28711352      72.91504755
H      80.90955503      53.64838603      73.66148944
H      79.69824046      56.78722143      73.47629627
C      83.27360265      58.68639638      83.91514442
O      84.49436585      60.51187200      83.05153949
N      81.18167562      59.02087794      85.31165216
H      80.20279739      57.53933251      86.01085090
C      80.21791520      61.65704614      86.07321187
H      80.01949394      62.81544837      84.38001709
C      77.63654906      61.43783789      87.25429081
H      77.16033803      62.97796484      88.53363553
H      77.62899015      59.96007191      88.68670336
C      75.47470215      60.90115562      85.38157204
H      76.11153992      59.22685810      84.36300955
C      72.95002780      60.14526509      86.75540307
H      71.51761525      59.64826707      85.36267477
H      72.13177631      61.57578791      87.98750462
H      73.27506073      58.52199019      87.98183544
C      75.03061647      63.14992993      83.61089848
H      76.37799133      63.10268677      82.04998455
H      75.26683226      64.97729528      84.52930547
H      73.09364700      62.96095730      82.93626619
C      82.12464905      63.17260665      87.79097309
O      82.02449355      65.44216795      87.95537928
N      83.78193903      61.75153246      88.99661847
H      83.92177877      59.90338013      88.53741498
C      85.55450231      62.95906757      90.70871051
H      84.38665145      64.35368559      91.67436066
C      86.80928058      60.78399259      92.35277241
H      88.04516159      61.85357768      93.60566095
H      87.86374786      59.38181566      91.27184895
C      85.12931389      59.36858758      94.25383708
H      83.94634522      58.03444080      93.22204651
H      84.22224526      60.84635356      95.36499615
C      86.79227304      57.67728253      95.90356815
H      88.26625957      58.76387516      96.84654158
H      88.01492597      56.42628371      94.81697552
N      85.18978513      56.36203301      97.82919926
H      84.85152412      54.52332931      97.44180537
C      84.02571372      57.49019962      99.81152216
N      84.28649595      59.81834244     100.64111201
H      83.58351776      60.31534046     102.34375542
H      85.63198109      60.95595768      99.90033930
N      82.52338130      56.07668434     101.25527307
H      81.91488943      56.95918653     102.83319454
H      82.65188269      54.19451693     100.96992439
C      87.59162727      64.17983077      89.21015755
O      88.31728218      66.34167767      89.93392273
N      88.23602395      63.09512787      86.95571406
H      87.56139165      61.34902075      86.58154825
C      90.16165506      64.32156024      85.42503574
H      91.18021754      65.33823300      86.89902227
C      91.79059914      62.23719212      84.18348555
H      92.65420407      60.97674467      85.56298576
C      90.40920921      60.55155625      82.22572909
H      91.70367173      59.52354514      80.99929672
H      89.31694740      61.67216395      80.88591314
H      89.42844125      59.01898821      83.19326897
C      94.08283716      63.38803545      82.77563945
H      93.41765350      64.56344521      81.22039470
H      95.21100377      61.85168795      81.99707221
C      95.89319497      65.03587679      84.34033284
H      96.71711564      64.16471296      86.01463035
H      95.11084827      66.86702159      84.87134593
H      97.45032945      65.40626315      83.04209086
C      89.19789464      66.19427902      83.45405120
O      90.39031194      67.94605531      82.78319836
N      86.77337578      65.97696050      82.81532370
H      85.90788113      64.58234248      83.79042248
C      85.27482281      67.95550394      81.41125705
H      86.22913460      68.53564992      79.68026775
C      82.87487040      66.84623460      80.37757676
H      81.52560581      68.30510331      79.83333558
H      82.00748602      65.74074471      81.88557836
C      83.26604374      65.13225283      78.11746409
O      84.82695768      65.58767687      76.42993849
O      81.60686404      63.52031629      77.57700236
C      84.54916791      70.31199266      83.00996551
O      85.44678791      72.29809501      82.02163865
N      83.18289578      70.09467413      85.16803296
H      82.91077520      68.34667729      85.88801869
C      82.38543128      72.33399981      86.75540307
H      81.64843802      73.66814659      85.37212341
C      80.37665221      71.61590381      88.69237254
H      80.03083229      73.22217118      89.93581245
H      80.93790092      69.92270904      89.72605283
C      77.96158198      70.57277489      87.49806551
H      76.93357087      69.92837822      89.16102466
H      78.27149710      69.00808150      86.19226463
C      76.39121942      72.44927312      85.90124677
O      76.93546059      74.69615770      85.78408374
O      74.65456093      71.59700655      84.69182193
C      84.64743368      73.58877808      88.33332454
O      84.80617069      75.79597842      88.70182117
N      86.26314967      71.85967851      89.09677397
H      85.77182083      70.07955632      88.62056294
C      88.30027464      72.41336832      90.96949274
H      89.22246108      74.19538023      90.50650980
H      89.75536390      70.96394824      90.84477081
C      87.32139641      72.38691215      93.67558082
O      85.14065225      71.68771341      94.14801240
N      89.06939325      72.99162457      95.58987358
H      90.93833257      72.86879236      95.22515640
C      88.62908702      73.80987606      98.16746027
H      86.60330041      73.68137467      98.50950073
C      89.86118857      71.90503194      99.85687559
H      91.90776217      71.77275110      99.66223378
H      89.22246108      69.98318028      99.47515088
C      89.21679190      72.10723265     102.71414178
H      89.80449679      73.95916444     103.39255353
C      86.46535039      71.72172849     103.35853845
H      85.14443170      73.14091295     102.65933972
H      86.46157094      71.59511682     105.41456068
H      85.71701877      70.02853371     102.45335955
C      90.88730996      70.15514537     104.04450910
H      92.85262533      70.62001805     103.64577685
H      90.43188592      68.35990538     103.14121993
H      90.74747022      69.91515013     106.08541352
C      89.42655152      76.56698675      98.85343092
O      91.63942104      77.05264642      99.52050431
N      87.66910605      78.33199113      98.76272406
H      85.85118934      77.91247189      98.36021235
C      88.10941228      80.97193879      99.60743172
H      90.07472765      81.41602447     100.03450987
C      87.26092517      83.00339458      97.59298347
H      87.13809296      84.79674485      98.59831787
H      85.55450231      82.30608557      96.67835594
C      89.36041110      83.20559529      95.62577838
H      89.97079270      81.30831007      95.10232419
H      90.98179628      84.20337078      96.41001480
C      88.25114176      84.51706535      93.32031228
H      89.82150432      84.58320577      91.98805523
H      87.66910605      86.45403482      93.70203699
N      86.23669351      83.02985074      91.97860660
H      85.45056736      81.54641559      92.88378550
C      85.41088311      83.36433230      89.62211788
N      86.16110445      85.08965242      88.15191081
H      85.81150509      85.10288051      86.27541258
H      87.17399776      86.52962388      88.89079380
N      83.76115204      81.83554371      88.74339515
H      83.05817385      82.24183487      87.01429557
H      83.28872046      80.22549690      89.65424323
C      86.40676887      81.21193403     101.91856700
O      84.08618496      81.17413950     101.89211083
N      87.64076016      81.41791420     104.15600296
H      89.54938373      81.35366350     104.15600296
C      86.62408740      81.41035529     106.72792047
H      85.05183511      80.10644414     106.98492325
C      88.90309733      80.54108119     108.44757141
H      88.30972327      80.54675037     110.41855596
H      90.55471813      81.72782931     108.11497958
C      89.57772963      77.84444174     107.70301925
H      89.84229131      77.24728823     105.74904224
C      92.18555194      77.47594511     108.96535642
H      93.60095695      78.48127951     107.85797680
H      92.71467531      75.50307084     108.71024337
H      92.27247935      78.14490822     110.91177453
C      87.77871018      75.90180309     109.05606329
H      85.83040235      76.18715176     108.45324059
H      87.85618896      76.06431955     111.10641634
H      88.49491645      74.03664322     108.56095499
C      85.79827700      84.12967146     107.45168565
O      84.69845629      84.56241878     109.51715651
N      86.10252294      86.01183887     105.75660114
H      86.84140593      85.38444973     104.11253925
C      85.46190572      88.75383175     105.72825525
H      84.63987477      89.21114551     107.56128977
C      87.91854993      90.20703128     105.80573403
H      88.60263085      90.59064572     103.89900018
H      89.45300769      89.34342636     106.87342939
C      87.41966218      92.97737006     106.76004582
H      85.93622702      93.06618719     108.18678918
H      86.79605250      94.18112572     105.20669079
C      89.66465704      94.48348193     107.81640283
H      91.12541548      94.60631414     106.37076220
H      90.32795097      93.60664892     109.55873049
C      89.13175422      97.22736453     108.44946114
H      87.20423338      97.45224196     109.14110097
H      89.36985973      97.97947561     106.54650674
N      91.18588672      98.30639826     109.99714699
H      92.50491569      98.89410314     108.74992762
H      91.86807792      97.03461245     111.24436636
H      90.54715923      99.83896630     110.94012042
C      83.63831983      89.41145650     103.60420287
O      83.88020479      88.57808720     101.34786966
N      81.73725516      90.78339781     104.24670982
H      81.54072362      91.33897734     106.06084708
C      79.64721785      91.42401503     102.54217669
H      78.64944236      89.67979764     102.08675264
C      77.71024838      93.07563582     103.94057416
H      77.33986203      92.20069254     105.76793950
C      79.01038009      95.61731771     104.74748729
H      79.62454114      96.73414597     103.12988157
H      80.45224126      95.10520188     106.12887723
H      77.61198261      96.86831653     105.59597441
C      75.06085209      93.49893452     102.58941984
H      74.67912738      91.82274728     101.45369433
H      75.30084733      94.96914159     101.16645593
C      72.96703534      94.06585241     104.43190300
H      73.00105041      92.78083852     106.04194982
H      71.13400081      94.04695515     103.49648847
H      73.18624359      95.92345338     105.29739765
C      80.50326387      92.52761519      99.99293589
O      81.94512505      94.39466479      99.84742696
N      79.42800960      91.36354378      98.06541505
H      78.05984775      90.07475044      98.39989661
C      80.30106316      91.81518837      95.47271055
H      81.11553520      93.70302496      95.33287080
C      82.19078947      89.76672505      94.70170221
H      83.76871094      89.76861478      96.02451063
H      82.71802311      90.11254496      92.74016630
C      80.93979065      87.12866712      94.50895013
C      80.24626109      86.24994438      92.18458676
H      80.20468712      87.62188568      90.67469544
C      79.37698699      83.74416729      91.77073670
H      78.63432455      83.31141996      89.92069464
C      79.57729798      81.99806018      93.71904453
O      79.04061571      79.61322557      93.22582596
H      78.14866489      79.48094473      91.65168394
C      80.67711869      82.71237672      96.11332777
H      81.34041263      81.34043542      97.47015126
C      81.36686880      85.29563259      96.40434562
H      82.22291482      85.68113676      98.21659316
C      77.96914089      92.03817608      93.74928015
O      75.82430152      91.71692260      94.63178234
N      78.26015874      92.65611658      91.36066609
H      80.07429600      92.55218163      90.77296121
C      76.36287352      93.21547557      89.55975692
H      74.58464106      92.69580083      90.45926664
C      76.30996118      96.02927805      88.81520475
H      77.15277912      96.39966441      86.97272159
H      77.39277436      96.93823641      90.31375771
C      73.77394847      97.31240222      89.12700959
H      72.78940106      96.65288773      90.81264546
H      72.85932094      96.83430146      87.34499768
C      74.00260536     100.14132251      89.35188702
H      72.09398178     100.90855139      89.40101990
H      74.89077672     101.00114798      87.70593540
C      74.74715752     100.96524318      91.97671687
H      76.35342489      99.80306150      92.53796558
H      73.04073466     100.39454583      92.97827182
N      75.18746375     103.71857442      92.09199017
H      75.91500839     104.30438958      93.75872878
H      73.56418885     104.71257046      91.95404015
H      76.13610636     104.20045463      90.50839952
C      76.47814683      91.39944858      87.19570930
O      78.58519167      90.79473616      86.35100164
N      74.37299171      90.77394917      85.96171802
H      72.67034831      90.98370879      86.79886677
C      74.02717180      89.50216337      83.69026699
H      75.38210556      87.96392615      83.48806627
C      71.56674814      88.06597137      83.90002661
H      70.07764380      89.39444897      84.41025271
H      71.88611189      86.68080198      85.39102067
C      70.89400557      86.76961912      81.46416939
O      69.16112654      87.70503364      80.09978699
O      72.30563113      85.05185790      80.79898573
C      74.09520195      91.50149380      81.41692623
O      73.76072039      93.70302496      81.70227491
N      74.39188898      90.73993410      78.97351011
H      74.74148834      88.90689958      78.57288813
C      74.42023487      92.53895355      76.73607416
H      75.92823647      93.86365170      77.20094683
C      75.27817062      91.24638075      74.41926970
H      74.49204447      92.32919393      72.85079686
C      78.11276009      91.20480677      74.20951007
H      78.86487116      93.08886391      74.56666835
H      78.50393343      90.54151284      72.30088650
H      78.86676089      89.92546206      75.63814317
O      74.31818965      88.84264888      74.03565525
H      74.38433007      88.31919469      72.30088650
C      71.95603176      93.97325582      76.43749740
O      71.88611189      95.81384925      75.06177664
N      69.92835543      93.05295911      77.46361879
H      70.10976915      91.28795473      78.16848670
C      67.37155572      94.16033873      77.39558864
H      67.17502419      95.25260054      75.66081988
C      65.45915270      92.05707334      77.77731335
H      65.36088693      91.66967945      79.79932051
H      66.07898293      90.48104160      76.60757277
C      62.80030777      92.68635220      76.63969811
H      61.66647198      93.93546130      77.82266679
H      61.79875283      90.89678138      76.44505630
C      62.94014752      93.88065923      73.96573538
O      62.85699956      96.23147877      73.69739424
O      63.01951603      92.38021654      72.16104675
C      67.04274335      96.14455136      79.51208211
O      65.16246566      97.47491868      79.80876914
N      69.05152242      96.63588020      80.90481040
H      70.46125825      95.35653548      80.78953710
C      69.18380326      98.41789211      83.09689292
H      68.20114558     100.19612457      82.74918328
H      71.12833163      99.03772234      83.35578543
C      67.88745101      97.59964062      85.49873507
O      67.93280444      98.93945657      87.37901275
N      66.81219674      95.32818959      85.49306589
H      66.71960015      94.37009835      83.84522454
C      65.87111303      94.01671953      87.64546416
H      64.59743750      95.29039506      88.64512938
C      64.37444979      91.71881233      86.83477157
H      63.53919076      90.90245056      88.52985607
H      65.60277189      90.21081073      86.15824955
C      62.18236727      92.04006580      84.85811785
C      61.12978971      89.82719629      83.74317932
H      61.46616100      87.99794122      84.58032808
C      58.94526609      90.02750728      82.11045579
H      58.08355090      88.30218716      81.43960295
C      58.09299953      92.35565010      81.24685086
O      56.15791978      92.31407612      79.63302459
H      55.43415460      93.97703527      79.58200198
C      59.18526134      94.70269018      82.24840581
H      58.35567148      96.50737881      81.77597423
C      61.24884247      94.41734151      83.99451292
H      61.88945969      96.18801506      84.77874934
C      67.90823800      93.10965090      89.61455898
O      70.05307736      92.52572547      88.98528012
N      67.25250297      93.25138037      91.97860660
H      65.44592461      93.65011262      92.44725872
C      68.81530663      92.99815704      94.21793228
H      70.72204048      93.58208248      93.70203699
C      67.75328044      94.76694087      96.12655585
H      68.25405791      94.16222845      98.03139998
H      65.71615547      94.52127645      96.31174903
C      68.34287505      97.53161047      95.74861059
C      66.89156524      98.93567712      93.97604731
H      65.44214516      97.91522491      92.96693346
C      67.31486393     101.57751451      93.78518495
H      66.30575008     102.77560099      92.47938407
C      69.19892107     102.71512975      95.41412903
O      69.84142802     105.19634040      95.40845985
H      68.84365252     106.31883782      94.38800764
C      70.56519319     101.29027611      97.15078751
H      72.18279892     102.18033720      98.02384107
C      70.22126300      98.70324078      97.35487796
H      71.40423168      97.64499405      98.63800212
C      68.90601349      90.20703128      95.27428929
O      66.92935977      88.90689958      95.58609413
N      71.17746452      89.25838867      95.32531190
H      72.62310515      90.48860050      95.12311118
C      71.86532490      86.55796977      95.66735236
H      70.12299724      85.68302649      96.33253602
C      72.44925033      85.41846480      92.96693346
H      73.21836894      83.53440767      93.27495885
C      70.21370410      85.16524148      91.19059072
H      68.53751686      84.46415302      92.16191005
H      70.58786991      83.80085908      89.69392748
H      69.79418486      87.04173971      90.45548719
O      74.21047525      87.07764451      91.72916272
H      75.93768510      86.84331844      92.23182992
C      74.09898140      85.81908678      97.35865741
O      75.62776999      87.51606101      98.14667328
N      74.35598418      83.50039260      98.22415206
H      73.13144153      82.13789992      97.68558006
C      76.27216666      82.77284796     100.15356263
H      78.03150186      83.74794674      99.70758722
C      75.32163432      83.58920973     102.69902397
H      74.37299171      85.40712645     102.50249243
C      73.58119639      81.59932792     103.91978717
H      72.46814759      82.52151437     105.38621479
H      74.66400957      79.99872974     104.63410371
H      72.10343041      81.15335251     102.55918422
C      77.64032851      84.22982695     104.38277011
H      78.90455541      85.58854017     103.48515012
H      78.57007385      82.42513832     104.71347222
C      76.82963592      85.30886068     106.89988556
H      75.87532413      83.87266868     108.02616245
H      75.44257681      86.77339857     106.48981495
H      78.37732177      86.23860602     107.88821243
C      76.74648796      79.80408793     100.11198865
O      75.23659664      78.37356511      99.02917547
N      78.80439992      79.05764603     101.49526831
H      79.91177954      80.44092569     102.20391568
C      79.74170417      76.43659564     101.67101286
H      78.31685053      75.44070987     102.77650275
H      81.53694417      76.40258056     102.68012671
C      80.09886244      75.14402284      99.18602275
O      81.89788189      75.69771265      97.92368558
N      78.50015398      73.34500339      98.47926511
H      77.15277912      72.81776975      99.72459475
C      78.80251019      71.58944764      96.34954356
H      80.35775495      72.29431556      95.19870023
C      79.09352804      68.81343969      97.35676768
H      77.33608257      68.08589506      98.14667328
C      80.07240627      67.18071616      95.11933173
H      79.98925832      65.30232820      95.96025994
H      81.85441819      67.98196011      94.46359670
H      78.69290607      67.33567371      93.59810205
C      81.07018177      68.56210609      99.50349677
H      80.39365975      69.58822748     101.15511757
H      82.69912585      69.72995695      99.03295492
C      81.82229284      66.01475502     100.40678595
H      80.54294813      65.01508980     101.67479231
H      83.39832458      66.29443452     101.70313820
H      82.87298067      64.99619254      98.95736587
C      76.37610161      72.08266621      94.90957211
O      74.75660616      70.46883994      94.39556655
N      75.81863234      74.35411724      94.20281447
H      77.14710994      75.66747703      94.59398781
C      73.83819917      75.04386734      92.35655186
H      73.08419837      73.56232192      91.14145784
H      74.68668628      76.44982372      91.11500167
C      71.40612140      76.19471067      93.46204175
O      69.62033004      76.87312242      92.08632100
N      71.40423168      76.33266069      95.96592912
H      73.09175727      76.47627989      96.84843130
C      69.04018406      76.69548814      97.33598069
H      67.69280920      75.33866465      96.57253126
C      69.17813408      75.76196334     100.05529686
H      70.45369934      77.04886696     101.03795454
H      70.14945340      73.94971581     100.17434962
C      66.45692819      75.73928663     101.20425046
N      64.86388891      73.83633223     100.74315724
H      65.12089169      72.27919775      99.66979269
C      62.69070365      74.30498436     102.06785538
H      61.00695750      73.17870747     101.81463206
N      63.04597219      76.40069084     103.45869395
H      61.80442201      77.45137867     104.45646944
C      65.39868145      77.30586974     102.92201167
H      66.29441173      79.08221248     103.36609736
C      67.97626814      79.36567142      97.07330874
O      69.04963269      81.28941281      97.92935476
N      65.80497261      79.51495980      95.75427977
H      65.16435539      77.87845681      95.01350705
C      64.39145733      81.78074165      95.13444954
H      65.68214040      83.03363020      94.12911514
C      62.26551523      81.15713197      93.18425198
H      60.88223557      80.23683525      94.40312546
H      62.90613245      79.89479479      91.69136820
C      61.09199519      83.42669327      91.89545864
H      60.06965325      84.42068931      93.38267325
C      62.89479409      85.35421411      90.65579818
H      64.24405868      84.30541600      89.50684458
H      63.93414356      86.30285672      92.16191005
H      61.55119868      86.59387457      89.70526584
C      59.16447435      82.65946439      89.89990765
H      57.85867346      84.03896459      89.10433287
H      57.91914471      81.36122241      90.89957287
H      60.13390395      81.30075117      88.69237254
C      63.21037838      82.99583567      97.44936427
O      61.81765009      81.75617521      98.84398229
N      63.67336133      85.40901617      98.08620204
H      64.71271080      86.46537318      96.88244638
C      62.63779131      86.81686227     100.21214414
H      61.90268777      85.59231962     101.69557930
C      64.91491152      88.41557074     101.27794978
H      64.24216895      89.60231886     102.82185618
H      65.73127328      89.71570244      99.90600848
C      67.17502419      86.84898762     102.34564515
H      68.09343118      85.73971828     100.86976890
C      69.15167791      88.82753107     103.32452338
H      70.58786991      87.86755010     104.44702081
H      68.39011821      90.01616892     104.82307635
H      69.95103214      89.77050450     101.67668203
C      66.68936452      85.12177777     104.55095576
H      65.10766360      83.85188169     104.19190776
H      66.00150415      86.30852590     106.08919298
H      68.34476478      84.01439815     105.07440994
C      60.40602453      88.43446800      99.47326115
O      58.20071393      88.06597137     100.23671058
N      60.94081708      90.26939225      97.75927939
H      62.63212213      90.53017448      96.91079227
C      58.73739620      91.45614037      96.54796482
H      57.39758024      89.89711616      96.41946343
C      57.82654812      93.63688454      97.98037737