 %block lattice_cart
   135.996   0.000   0.000
   0.000 142.663   0.000
   0.000   0.000   160.158
 %endblock lattice_cart

 %block positions_abs
N      91.89831354      39.53496506      82.44304762
H      90.99124491      38.18003129      81.45472076
H      91.64131077      39.23449857      84.31009722
H      93.75402478      39.24961638      82.09911743
C      90.78526475      42.03696269      81.92148316
H      91.62430323      43.50528004      83.09878265
C      91.20478399      42.78907377      79.11334986
H      89.39820563      43.43158071      78.36690796
H      91.81516559      41.27918244      77.84912295
C      92.70144723      45.31374812      78.79776556
H      93.30238019      45.32886593      76.82678102
H      94.37952419      45.00383300      79.95238834
S      91.12352576      48.18613212      79.89191710
C      93.34206445      50.59364344      78.58611621
H      95.27714419      50.36120710      79.25507933
H      92.82994862      52.51738483      79.11523958
H      93.56505215      50.65600441      76.53954262
C      88.00169789      41.89901267      82.71894766
O      86.69400728      40.08676514      82.12368387
N      87.12108543      43.90779174      83.89624715
H      88.21901641      45.44980841      84.11734513
C      84.48869667      44.50116581      84.35923010
H      83.23769785      43.48638278      83.07610593
C      83.95201440      43.70370130      87.14279696
H      84.44523297      41.71192977      87.30153397
H      81.97158122      44.10621301      87.53774976
C      85.30883789      45.19469536      89.20259864
O      85.38253722      47.52472791      89.08354588
N      86.38409216      44.04385204      91.09610441
H      87.33273477      45.27595359      92.19970457
H      85.39009612      42.53207099      91.70081683
C      83.89343288      47.29985048      83.69215671
O      85.58284821      48.85131578      83.24240185
N      81.45568594      48.01227730      83.80554029
H      80.15366451      46.73104286      84.35734037
C      80.62042691      50.63521742      83.64680328
H      81.49537019      51.25882710      81.88935781
C      77.75938127      50.90922773      83.61845739
H      76.98459348      49.55807342      82.26919280
C      76.51972081      50.11365296      86.20549271
H      76.95624759      51.63110318      87.52641140
H      77.37387710      48.31652323      86.74028525
H      74.48070612      49.86609881      86.06754269
C      76.80317976      53.54350621      82.99484770
H      77.12065378      54.83229956      84.57087945
H      74.80006986      53.32240823      82.56399010
C      77.86520594      54.76048996      80.61379255
H      76.79940030      56.39699295      79.95994724
H      78.10142173      53.30540070      79.17382110
H      79.77571925      55.44457088      80.96717137
C      81.72024762      52.37565535      85.65936180
O      82.56873474      54.35986798      85.01874458
N      81.97725040      51.47236617      88.02718887
H      82.01315520      49.59019877      88.33710399
C      83.30950745      53.13343560      89.89234874
H      82.44968198      55.00048520      89.75817818
C      82.89376766      52.22069779      92.58331901
H      82.69912585      54.00648916      93.59054314
H      84.59074189      51.20402504      93.15779581
C      80.51649196      50.61820988      93.15968554
C      78.11087036      51.73692786      92.97449236
H      77.87465458      53.65877952      92.32442651
C      76.06618649      50.42923725      94.09132061
H      74.23315197      51.30040108      94.29352133
C      76.60097904      47.94424715      94.91902074
H      75.11376443      46.85387507      95.79018457
C      78.91211432      46.63466681      94.68091522
H      79.20691163      44.89422888      95.70325716
C      80.87553996      48.16156567      93.92880415
H      82.62164707      47.11087784      93.83431783
C      86.04016197      53.78161173      89.36322538
O      86.74880934      55.89999493      89.92447409
N      87.53115604      52.13754984      87.94971009
H      86.71479427      50.46703178      87.51507304
C      90.24480302      52.55517935      87.22783464
H      91.19722508      53.70980213      88.64512938
C      91.57894980      49.98326184      86.88390445
H      93.37985897      50.50293658      86.02596871
H      90.40920921      48.87210277      85.60267001
C      92.08161700      48.70769658      89.48038841
H      90.24291329      48.06707936      90.15124125
H      92.69199860      50.15900639      90.80886601
C      93.95055632      46.48915789      89.24606235
O      95.76469358      46.32853115      90.81075573
O      93.72756862      44.90934669      87.53963949
C      90.20133932      54.11231383      84.77874934
O      91.79059914      55.82062642      84.50851848
N      88.49869591      53.34508495      82.90792029
H      87.27415326      51.92401076      83.25751966
C      87.86563759      55.15166331      80.76686038
H      89.55127346      55.27260579      79.58956089
C      85.67922425      54.03105560      79.13035739
H      83.98980892      53.93090011      80.30009798
H      86.09307431      52.09408613      78.55777032
C      85.08773991      55.50126267      76.74363306
H      86.59007233      55.45024006      75.33767668
H      84.99136387      57.54027737      77.02520228
S      82.17756139      54.76426941      75.33578696
C      83.14699099      51.73503813      74.06211142
H      85.05750429      51.82007582      73.30055172
H      81.89788190      51.24937847      72.49552831
H      82.77660463      50.33475093      75.52475959
C      87.31572724      57.86908974      81.72306189
O      88.33995890      59.49614410      80.63457954
N      85.87008661      58.31317543      83.70727452
H      84.84963440      56.85241699      84.39135545
C      85.29372008      61.00981488      84.66158631
H      84.73436109      62.30616713      83.16303334
C      83.09974783      60.72635593      86.40391397
H      83.09974783      62.50269866      87.44704290
H      83.74792396      59.25614886      87.68892786
C      80.43523373      60.32951340      85.36267477
H      80.40688784      58.54750149      84.33277393
C      78.28850464      60.19723256      87.33743877
H      76.50082355      59.70212427      86.44170850
H      78.02961213      61.86397117      88.51851772
H      78.79873074      58.61742136      88.55631224
C      79.89288228      62.34585138      83.44082311
H      80.76404611      63.99558245      84.31387667
H      77.88599293      62.75214254      83.21972513
H      80.84341461      61.96412666      81.65503175
C      87.58595810      62.13987121      86.02596871
O      87.89965267      64.43210923      85.95226938
N      89.30182959      60.54305248      87.09744353
H      89.03348845      58.65521589      87.15980450
C      91.75658407      61.46901837      88.05931422
H      91.42399224      62.98079942      89.41613771
C      93.09073085      59.45645985      89.60133089
H      93.30615965      57.89365619      88.27852247
H      91.77548133      58.70056932      90.99216946
C      95.57950040      60.25392435      90.94492630
H      95.06738457      61.60318894      92.41513337
H      97.11017872      60.50903740      89.58999253
C      96.49601766      58.08640827      92.51339914
H      95.22423186      57.57429244      94.04974663
H      98.18354326      58.80261454      93.45448284
N      97.15175269      55.82818533      91.16791401
H      97.09695063      55.88109766      89.26306988
C      97.58261029      53.52271922      91.95970933
N      97.82260554      52.86131501      94.22738091
H      98.31582410      51.05662639      94.61099535
H      98.09094667      54.21813851      95.54074069
N      97.47489589      51.65944908      90.33265498
H      97.50135206      49.84720155      90.93358794
H      97.59016920      52.12621148      88.48639237
C      93.62930285      62.44978633      85.95037966
O      95.16942979      64.03904616      86.56265098
N      93.46111721      61.62019648      83.60900875
H      92.34617868      60.14809968      83.12145937
C      94.92187565      62.62742060      81.56432488
H      96.51302520      63.71401323      82.28997979
C      96.04437308      60.33329286      79.97506505
H      97.17820886      59.19189816      81.25629949
C      93.91087207      58.57584738      78.99996628
H      92.86585342      57.85208221      80.61946173
H      94.61762971      57.03572044      77.83022569
H      92.44444445      59.48102629      77.86802022
C      97.71111168      61.47090810      77.90203529
H      98.82605021      63.00158641      78.71272788
H      96.80971223      62.34963083      76.27120148
C      99.72178048      59.81361812      76.68505154
H     101.06348616      59.21835433      78.13069217
H     100.82160119      60.69234086      75.18082940
H      98.76368924      58.34719050      75.60223837
C      93.28726238      64.49447020      80.05254383
O      94.37385501      66.33506363      79.24941015
N      90.91187641      64.10896603      79.49507457
H      90.02370504      62.69734047      80.42104046
C      89.25080698      65.99302316      78.06833120
H      90.30905372      66.52781571      76.38458506
C      86.92077444      64.41321197      77.58456127
H      85.87953524      64.15242973      79.34389647
H      87.62186290      62.59151580      76.92693651
C      85.38064749      65.49413542      75.43594245
O      86.51070383      65.86263205      73.37992022
O      83.07140194      65.86074232      75.77798291
C      88.71979389      68.44399819      79.38547044
O      89.12419532      70.41120328      78.15714834
N      88.11130201      68.37785777      81.90069617
H      87.59162728      66.74891369      82.74729356
C      88.01303624      70.64174989      83.41625667
H      88.47223974      72.29337069      82.27486198
C      85.37119886      70.74001566      84.55954109
H      85.39765503      72.10439806      86.10155776
H      84.91388509      68.99012910      85.54408850
C      83.38698623      71.64519457      82.45060652
H      81.53505444      71.41653768      83.31988063
H      83.46824446      70.42821082      80.78953709
C      83.31706636      74.44198951      81.81565848
O      81.32529482      75.83282808      82.19360375
O      85.15577006      75.39441157      80.70260968
C      89.81583515      70.96111364      85.63668509
O      90.54337978      73.09272492      86.09777831
N      90.79660310      68.97690101      86.73083662
H      90.06338929      67.27047815      86.29242012
C      91.86240874      68.92965785      89.33676921
H      93.53481653      70.10317789      89.60133089
H      92.31216361      66.96434249      89.76384736
C      89.97835161      69.74412989      91.33798937
O      87.78626909      70.20711284      90.75595367
N      90.61518938      69.61562851      93.82486920
H      92.35184786      68.85784825      94.05163636
C      88.86530281      70.31104779      95.85821471
H      86.95478951      70.22412038      95.08909611
C      89.06750353      68.37974750      97.95770065
H      90.98368601      68.29470981      98.70603227
H      88.72357334      66.49191091      97.21314848
C      87.51414850      68.71422905     100.44269075
H      88.11508147      70.45844644     101.35920801
C      84.70034602      68.61407356     100.04206877
H      84.31484185      70.12207516      98.69091446
H      83.70446025      68.79548729     101.83730877
H      84.26381924      66.87552535      99.03106519
C      88.38342260      66.68088354     102.33808624
H      87.37241902      66.55994106     104.12954679
H      90.40165030      66.93599659     102.65933972
H      88.02815406      64.86296683     101.43479706
C      89.39442618      73.08327629      96.75583471
O      91.47312512      73.81082092      97.62888827
N      87.53493549      74.76135326      96.39489699
H      85.81150509      74.22089153      95.77695648
C      87.90532185      77.44476462      97.03740393
H      89.92354955      77.84160715      96.94669707
C      86.71101482      79.11150323      94.95303581
H      86.68644837      81.09760558      95.48971808
H      84.77971452      78.52568807      94.54296520
C      88.30216437      78.97733266      92.50772996
H      88.39476096      77.05737073      91.77262643
H      90.17299342      79.66708276      93.02362525
C      87.36674985      80.66674798      90.47816390
H      88.19067052      82.52623868      90.79374820
H      85.30694816      80.60060756      90.47438445
N      88.40798904      79.82204032      87.96293818
H      90.12008108      80.47210617      87.43570454
C      87.07195254      78.76568331      86.16391873
N      84.86853166      77.72255439      86.53808454
H      83.78760821      77.39941119      84.99795759
H      84.25437061      77.21988719      88.27474302
N      87.84863006      78.79969839      83.83955536
H      87.12297515      77.45232353      82.69816067
H      89.64575978      79.26079161      83.39169023
C      86.78471414      78.02680032      99.58286528
O      84.63798505      77.63184753     100.23104140
N      88.36074589      79.20787927     101.23826553
H      90.01614614      79.75778963     100.46914692
C      87.95823418      79.46866150     103.91600771
H      86.25370105      78.40285586     104.36576258
C      90.41487839      78.60883603     105.28039011
H      90.29015645      78.96032512     107.30428699
H      92.01547658      79.53291220     104.36954203
C      90.98935519      75.77046711     104.76260510
H      91.35218264      75.12418071     102.84264317
C      93.64253093      74.99001014     105.95313268
H      93.81071657      75.40386020     107.96380148
H      95.09950992      75.96132946     104.86842978
H      94.19055156      73.03603313     105.58274632
C      89.09773915      73.82215928     106.08352379
H      89.77048172      71.93243297     105.61298194
H      87.16454913      73.98656547     105.39188396
H      89.14687203      74.13207439     108.11875903
C      87.40076492      82.15396259     104.79284072
O      86.64487439      82.45064962     106.98114379
N      87.76737182      84.08526288     103.20736035
H      88.80105212      83.71487653     101.64833614
C      86.72424290      86.60993724     103.47759121
H      85.83796126      86.78568179     105.32952300
C      88.59318222      88.81902730     103.54562136
H      89.93866736      88.60170877     105.08952775
H      87.62942180      90.62749538     103.75160152
C      90.29582563      88.89839580     101.10787441
H      89.13553367      89.24799517      99.44302553
H      91.25958605      87.09937635     100.83008464
C      92.28003826      91.03756599     101.33275184
H      93.75402478      90.63127483     102.71414178
H      91.46556622      92.82335736     101.96392043
C      93.54993434      91.58558662      98.81941585
H      92.03059439      91.69519075      97.43235673
H      94.63652697      89.90184048      98.34320482
N      95.10517910      93.95152396      99.09153644
H      93.89197480      95.38204678      99.43168717
H      96.27302996      94.55056721      97.70447732
H      96.28058886      93.98364931     100.59575858
C      84.44712269      86.88394755     101.56140873
O      84.15988429      85.30224663      99.81719134
N      83.13376290      89.10815542     101.96769988
H      83.60808421      90.34025698     103.34531037
C      80.95490847      89.86971513     100.38788869
H      79.68312266      88.35793408      99.80018380
C      79.58863634      92.12226889     101.70313820
H      81.01915916      93.51121773     102.22848212
C      77.64977714      93.39783415      99.96647972
H      76.79373112      94.96063782     101.00016001
H      76.13421664      92.05612847      99.59042418
H      78.46046973      94.12915824      98.21848288
C      78.02961213      91.03378654     103.91222826
H      79.23525752      89.99254734     105.21802914
H      76.69168590      89.59003563     103.30562611
C      76.82207702      93.06335260     105.63754838
H      75.20447130      93.96664177     104.73614893
H      78.32440944      94.35970485     106.19123819
H      76.23437214      91.95219353     107.26838219
C      82.12842851      90.69363580      97.82164035
O      83.50414926      92.57202376      97.71392595
N      81.31584619      89.46531370      95.79396402
H      79.82107268      88.30502174      96.02451063
C      82.50637377      89.68074250      93.28251775
H      84.05594935      91.03756599      93.25228213
C      83.60619448      87.18063458      92.46237653
H      84.85908303      86.54946600      93.97226785
H      84.81561932      87.66629425      90.86744752
C      81.93567642      84.90918356      91.65357367
C      81.33474345      84.36116293      89.15913494
H      81.75615242      85.76522958      87.73995047
C      80.56184539      81.91207762      88.52796635
H      80.04406038      81.65129539      86.57209961
C      80.04028093      80.07337392      90.30241935
O      79.27872123      77.74334138      89.75061927
H      78.73448005      77.38429338      88.05553477
C      80.63176527      80.74989594      92.84410125
H      80.26326864      79.52157384      94.42958162
C      81.61631268      83.10071548      93.50739518
H      82.16055385      83.59771350      95.41034958
C      80.47302826      90.53111934      91.37389417
O      78.16000325      90.09459256      91.55719763
N      81.55584143      91.61771197      89.41424799
H      83.44934720      91.73109555      89.21204727
C      79.93823571      92.74020940      87.38657165
H      78.02016350      93.02555807      88.08388066
C      80.81506872      95.44062830      86.79697704
H      79.75682198      96.02455373      85.13023844
H      82.81250943      95.64849819      86.34155300
C      80.03650148      97.38137722      88.82087393
H      81.69946063      97.71963823      89.98872479
H      78.47558754      96.77099562      90.01518096
C      79.46013495      99.90605158      87.69459704
H      78.84786363     100.98130585      89.33865894
H      77.87843403      99.90038240      86.37556808
C      81.74103461     101.46507578      86.88768391
H      82.80117107     100.71485444      85.29086517
H      82.91455465     101.78821898      88.55064306
N      80.72058240     104.01998576      86.12423448
H      79.26738287     103.69306311      84.92992745
H      82.00748602     105.12736538      85.24929119
H      79.91177954     105.07256332      87.49995523
C      79.53950346      91.09425778      85.09811309
O      81.28183112      90.32513917      83.71861288
N      77.25671407      90.24577066      84.60300479
H      76.03406115      90.26655765      86.06943241
C      76.51027218      88.99477185      82.14636059
H      77.65544632      87.28079008      82.11234551
C      73.61332174      88.51667109      82.38257638
H      72.78184216      90.39505904      82.23706745
H      73.29395799      87.78534700      84.28175132
C      72.37933046      86.72143109      80.48151171
O      71.29840701      87.70597850      78.63713882
O      72.89333601      84.35927320      80.54009322
C      77.01860856      90.52733989      79.74640817
O      77.11876405      92.84414434      79.85601230
N      77.20758119      89.37649656      77.42960371
H      76.85042291      87.50755724      77.29732287
C      77.83308060      90.84103445      75.13358624
H      79.48848085      92.00132641      75.53420822
C      78.35653479      89.07414035      72.76197972
H      78.77227457      90.14372544      71.04988768
C      80.61286800      87.22598802      73.04921812
H      82.22858400      88.45808957      72.71095711
H      80.56751457      85.70475833      71.66215900
H      80.76782556      86.32647829      74.89548072
O      76.32696873      87.45464490      72.21395909
H      76.50838245      86.68363656      70.58312528
C      75.62588026      92.75532721      74.41171079
O      76.01138443      94.74898847      73.08701264
N      73.36765732      92.33013879      75.53609794
H      73.09742646      90.81457828      76.66426455
C      71.27006111      94.04412055      75.19405748
H      71.56107896      95.24409676      73.54621614
C      68.76617375      92.65328199      75.04854856
H      67.18069337      93.96097260      74.91248826
H      68.41090520      91.54023319      76.74552279
C      68.44114082      90.87315980      72.84323795
H      69.66946292      89.24421572      73.11157909
H      69.19514162      91.85959694      71.20106578
C      65.79930344      90.18151997      72.36135774
O      64.55775325      91.72542637      71.00642397
O      64.86010946      88.03479088      73.01520304
C      71.16423644      96.23431335      77.19716737
O      70.07197463      98.17128282      76.74174333
N      72.64578187      96.06045853      79.28342522
H      73.85709643      94.59214118      79.15681356
C      72.91412300      97.69318206      81.42826459
H      72.70436338      99.56401111      80.59300556
H      74.81518767      97.44562792      82.18037566
C      71.03384532      97.29067036      83.68081835
O      70.32141850      99.03677747      85.00551650
N      70.18346848      94.95118918      83.99829237
H      70.82975488      93.68696228      82.72272711
C      68.85688061      93.83814039      86.05053515
H      68.08587227      95.48220228      87.02374420
C      66.98416183      91.85959694      85.14724597
H      66.06953430      91.24921534      86.89146336
H      67.93091472      90.12293845      84.57465890
C      65.12089169      92.68351761      83.16114362
C      64.00973262      90.86371117      81.46227966
H      64.51806900      88.89461635      81.63235503
C      62.39023717      91.47409277      79.44216223
H      61.72127405      90.03979050      78.15525861
C      61.68347953      94.01955411      79.10957040
O      60.00729229      94.71875285      77.19149820
H      59.32132163      96.39871954      77.22173382
C      62.85322011      95.84691946      80.71205832
H      62.66802693      97.83680126      80.30576716
C      64.61255531      95.24598649      82.62824080
H      65.20026019      96.83902577      83.76396631
C      70.67290760      92.81957790      88.16135944
O      72.71948119      91.76700035      87.78530391
N      69.89056090      93.04067588      90.59721666
H      68.20492503      93.80223559      91.07153796
C      71.71036734      92.17707096      92.67024642
H      73.61521147      92.65517171      92.05041619
C      71.53462280      93.90617053      94.98516116
H      72.63633324      92.95563820      96.44402987
H      69.56552798      94.00254657      95.58420440
C      72.64956132      96.44596270      94.34643366
C      70.97526381      98.36970408      93.40912941
H      68.99105118      97.92183895      93.25228213
C      71.91445778     100.72619280      92.62867245
H      70.68424595     102.12081082      91.78963396
C      74.55440544     101.07579216      92.66457725
O      75.59186519     103.16393974      91.65735312
H      74.47881639     104.00675768      90.49706116
C      76.30240228      99.32401587      93.77195687
H      78.27905601      99.82290362      93.68880891
C      75.29328843      96.94862990      94.54674465
H      76.57641260      95.42551049      94.99460979
C      71.43257757      89.36704793      93.40912941
O      69.37655535      88.48454574      93.87022263
N      73.57552721      88.08581349      93.39779106
H      75.12888224      89.11760406      93.00283826
C      73.78717656      85.39862267      93.47149038
H      71.89556052      84.70131366      93.88911990
C      74.47503694      84.22510263      90.89579342
H      76.51783108      84.36872183      90.67469544
C      73.85331698      81.44909468      90.62745228
H      74.80951850      80.37761986      92.10521826
H      74.69802464      80.87839733      88.83788146
H      71.81808174      81.14106929      90.67469544
O      73.21836894      85.36649732      88.72638761
H      73.94213412      87.02756675      88.69615199
C      75.61076245      84.59359926      95.57664549
O      77.32096477      85.98254810      96.25127779
N      75.26494254      82.31836878      96.50639084
H      73.80607382      81.29602685      95.82419964
C      77.03561609      81.07492887      98.24115960
H      78.83463554      82.02357148      97.91234722
C      75.94146456      81.45098440     101.04551344
H      75.80162481      83.46732238     101.43101761
C      73.33364225      80.27935409     101.41967925
H      72.14500439      81.22043779     100.02317151
H      72.77050380      80.49100344     103.38877407
H      73.43946692      78.23278049     101.21747854
C      77.71591757      80.54202605     103.16200691
H      77.92567719      78.52946752     102.78973083
H      76.75593660      80.71210142     104.97803390
C      80.14232615      82.17474958     103.11665348
H      81.30450783      81.85160638     104.78717154
H      80.01382476      84.17219029     102.62721437
H      81.32718455      81.48499948     101.57652654
C      77.25104489      78.22333186      97.70825678
O      75.79406590      77.18398239      96.30607985
N      79.08029996      76.98367140      98.84020284
H      80.68656733      77.77924618      99.50160705
C      79.30328767      74.15853056      98.70414254
H      77.39277437      73.50279553      99.11232343
H      80.77538447      73.50090580      99.98348726
C      80.25382000      73.23634412      96.15679147
O      82.25126072      73.85428463      95.23082558
N      78.65700127      71.68298909      94.91902074
H      77.03939555      71.28236711      95.85254554
C      78.53416906      71.22189587      92.21104293
H      79.70957883      72.74501528      91.48160857
C      79.46013495      68.65186809      91.56286681
H      77.99559706      67.23079390      91.83309767
C      80.03650148      68.75580303      88.79063830
H      80.66011116      66.94166577      88.03285805
H      81.80717503      69.76491688      88.49206155
H      78.56062523      69.58161343      87.61711826
C      81.74103461      67.77881453      93.06708895
H      81.40844278      67.45945078      95.07397829
H      83.20557250      69.22256543      92.93669783
C      83.30194855      65.39397992      92.01451139
H      82.00559630      63.94455984      91.33798937
H      84.45846105      64.84595929      93.63022739
H      84.47924804      65.94766973      90.41769266
C      75.80918372      71.77369595      91.34932773
O      74.03851016      70.34128341      91.76317779
N      75.37454666      74.02058054      90.38934677
H      76.85987155      75.21866702      90.30997826
C      73.14277989      74.77269161      88.96827258
H      72.63255378      73.17020370      87.78152445
H      73.43001829      76.31659801      87.63223607
C      70.74660692      75.72133422      90.34399333
O      68.80018882      76.07471304      89.10433287
N      70.99227134      75.89896850      92.85354988
H      72.74404764      75.60984037      93.55652807
C      68.91168267      76.31659801      94.58453918
H      67.39234272      75.17898277      93.78518495
C      69.57119716      75.35472732      97.24149438
H      71.15478781      76.38651788      98.05974587
H      70.41968427      73.48389827      97.11110326
C      67.41312971      75.19410058      98.98760149
N      65.95048154      73.14752698      99.40712073
H      66.17913842      71.44110412      98.57942061
C      63.98327645      73.81271065     101.01527782
H      62.28819195      72.78847898     101.51227584
N      64.16280045      76.27691376     101.25905252
H      62.89101464      77.23500500     102.30974035
C      66.33220626      77.23878445     100.15923180
H      67.01061800      79.15685666      99.99860507
C      68.51484015      79.13795940      94.49950150
O      70.20803492      80.47210617      95.46704137
N      66.45314874      80.03935885      93.44503421
H      65.22104718      78.77513194      92.71559986
C      65.93158428      82.70009350      93.28440748
H      67.57564617      83.76400941      92.64945944
C      64.05508605      82.91930175      90.98839001
H      62.36945018      81.76278925      91.22838525
H      65.20214992      82.05947628      89.50684458
C      63.49950651      85.71987614      90.43281047
H      65.07175881      86.87071947      91.10555304
C      63.25006264      86.13750566      87.47349906
H      64.81853548      85.27579046      86.45304686
H      63.38801266      88.17841008      87.22972437
H      61.48505826      85.24555484      86.89902226
C      61.00506778      86.75166671      91.68947847
H      60.49295195      85.89940014      93.49416710
H      59.42903603      86.29624267      90.44414883
H      61.09577464      88.78312250      92.01640112
C      64.79774849      83.82259093      95.73349278
O      62.86077902      82.78324145      96.55174427
N      66.20370487      85.62350010      96.84843130
H      67.85532566      86.16396183      96.05663598
C      65.37411502      87.09748663      99.12744124
H      64.33287582      85.62350010     100.12143728
C      67.73816263      88.23132241     100.55796406
H      66.97093375      89.22153900     102.19257732
H      68.80018882      89.37649656      99.21625837
C      69.74316225      86.29813240     101.34031075
H      70.25527808      85.37972541      99.56963719
C      72.26216743      87.59448465     102.17179033
H      73.55851968      86.26978650     103.07130005
H      71.85965572      89.00988966     103.60987205
H      73.19380250      88.52234027     100.58630995
C      68.74538676      84.52367939     103.28105967
H      67.93658390      82.95331682     102.22281294
H      67.42257834      85.35893842     104.62465508
H      70.32897741      83.58637514     104.20513584
C      63.52218323      89.12705269      98.62666376
O      61.85922407      89.44452671     100.04773795
N      63.82453944      90.38183096      96.51206002
H      65.38734310      90.02467269      95.47649000
C      62.02740971      92.49454498      95.71648524
H      60.07154298      91.91817845      96.00750309
C      62.12567548      94.80756998      97.48337934