 %block lattice_cart
   135.996   0.000   0.000
   0.000 142.663   0.000
   0.000   0.000   160.158
 %endblock lattice_cart

 %block positions_abs
N      88.18216675      38.08176553      80.53064459
H      87.79855231      37.98538949      82.39769419
H      90.06244444      37.82098330      80.73095557
H      87.42249678      36.67391943      79.49129511
C      87.77209614      40.65368304      79.45350059
H      88.72073875      41.79696746      80.88024395
C      88.88136549      40.99761323      76.86835500
H      87.86469273      40.00172746      75.38114038
H      90.84101168      40.37400355      76.99307694
C      88.76420246      43.85298969      76.39592341
H      86.77621038      44.38589251      76.34679053
H      89.44828338      44.29707537      74.50241766
S      90.12291568      46.15278661      78.66359499
C      88.16704894      48.83619798      77.50330304
H      87.93839206      48.65856370      75.46428834
H      88.90215248      50.68624004      78.03242640
H      86.28488154      48.79651372      78.33856207
C      84.88648406      40.98060569      79.55365609
O      83.55044756      39.77307058      78.06833121
N      83.99075379      42.58498333      81.34133718
H      85.08490533      43.51094923      82.60178462
C      81.18639994      43.15001150      81.50385365
H      80.33035392      42.46215112      79.76152599
C      80.27744159      41.21493176      83.53530942
H      80.63648959      41.94436611      85.42692546
H      81.31112188      39.43291984      83.59956012
C      77.49009527      40.66313167      83.31232173
O      75.98020395      41.56264140      81.83077630
N      76.64727734      39.10788692      84.98472951
H      74.81235309      38.62033753      85.17937131
H      77.88315835      38.35388612      86.23005914
C      80.30578748      45.81263588      81.87801946
O      81.85725278      47.40000598      82.40336337
N      77.86804054      46.30396472      81.74195916
H      76.78900681      44.81486038      81.23173306
C      76.56979856      48.72281440      82.15202976
H      77.17829043      49.67523646      80.42859936
C      73.63694332      48.53006231      81.94038042
H      73.28545423      47.82519440      80.03931574
C      72.24610476      46.82174973      83.81309920
H      73.23443162      45.02273028      83.63357520
H      70.23543596      46.77261684      83.37279297
H      72.49932808      47.61732451      85.69715632
C      72.47476164      51.17189970      81.94793933
H      72.84514800      52.27172041      83.64869300
H      70.48676956      50.80529280      81.54731734
C      73.41206589      52.83674858      79.78609243
H      72.37838560      54.61876050      79.74073900
H      72.68263153      51.88999570      78.10612574
H      75.42084496      53.21847330      79.53853827
C      77.24821031      50.24782353      84.43670887
O      77.34080690      52.58730471      84.42726024
N      77.75843641      48.96469937      86.60989414
H      77.30679182      47.11843676      86.78563868
C      78.56157009      50.21758791      88.92669860
H      77.32001991      51.82196555      89.28196714
C      78.32913376      48.31841297      91.13011948
H      78.48220159      49.50705082      92.80441699
H      79.89382714      46.99938400      91.37578391
C      75.84603338      47.06930387      91.27562841
C      73.61426661      48.20313966      92.12411552
H      73.72198101      50.15333722      92.71748958
C      71.36171284      46.92001550      91.96159905
H      69.67229752      48.00660813      92.32442651
C      71.20297583      44.65423365      90.59343721
H      69.44742009      43.61488417      90.55942214
C      73.35537410      43.52795676      89.64479459
H      73.07569461      41.90279214      88.44103893
C      75.63438404      44.71470489      89.94715081
H      77.37482197      43.93235820      89.22149590
C      81.28655544      51.12276682      88.87567599
O      81.72119249      52.90477873      90.27974264
N      82.96274268      50.15144749      87.20326821
H      82.49220083      48.48470888      86.40202425
C      85.27009851      51.46858673      86.54942290
H      85.89937737      52.41911907      88.26529439
C      87.29588511      49.62421385      85.54030905
H      88.98719016      50.75615991      85.22283502
H      86.55322267      48.76627810      83.82254783
C      88.16515922      47.59842724      87.38468192
H      87.65304339      48.18991158      89.29141578
H      90.21173281      47.35843200      87.32987986
C      86.87636587      45.15501112      86.81587430
O      85.09246423      44.15156645      87.99506353
O      87.63414612      44.07219794      84.84488977
C      84.82979227      53.67011789      84.70127057
O      85.53843964      55.88676685      85.29275490
N      83.76965581      53.08619246      82.48462160
H      83.18762011      51.27772437      82.30320787
C      83.42383590      54.85497628      80.30765689
H      85.23419371      55.04961809      79.34956564
C      81.55489657      53.61153637      78.49918881
H      79.81823809      53.31484934      79.56688417
H      82.17283708      51.64622100      78.46517372
C      81.19584857      54.38443443      75.79310073
H      82.91738925      54.14254946      74.68761084
H      80.64215876      56.36675733      75.86113088
S      78.43684816      53.16178151      74.05644224
C      79.03022222      54.87009409      71.15949181
H      79.00943523      56.92611632      71.28043428
H      77.60914803      54.56773788      69.70062309
H      80.78766769      54.36553717      70.21273892
C      82.56967960      57.45901914      81.09189330
O      83.65060305      59.12197830      80.05065411
N      80.63459986      57.75192672      82.65847641
H      79.80501001      56.14754908      83.27452720
C      79.60847847      60.11786407      83.52586079
H      79.20218731      61.36130398      81.93282152
C      77.01010479      59.64543249      84.69371166
H      76.58113692      61.32728891      85.80298101
H      77.03656096      58.01270895      85.95037966
C      74.70841814      59.33173792      82.76808055
H      75.02589216      57.65555068      81.60967831
C      72.52011507      58.54939123      84.48584177
H      70.97431895      57.99003224      83.24051212
H      71.87193895      60.12542297      85.64613372
H      73.17018092      56.98280811      85.65180290
C      73.97331461      61.74113897      81.22795360
H      72.14594926      61.38776015      80.34545141
H      75.15439355      62.38175619      79.66514994
H      74.03945503      63.35307551      82.50918803
C      81.41883628      61.57484305      85.33621860
O      81.55111712      63.85574271      85.02252404
N      82.97030158      60.22557847      86.88201473
H      82.83235156      58.32829325      87.02374420
C      84.92994777      61.56350470      88.34844234
H      84.10980655      63.16221316      89.35377675
C      85.98819450      59.73802908      90.17958714
H      87.41682760      60.77170937      91.24539279
H      86.94817547      58.19034323      89.21582672
C      84.22885931      58.63631864      92.16191004
H      82.53755426      57.66688904      91.49672639
H      83.87548049      60.31817506      93.29952529
C      85.84268558      56.70123889      93.66613220
H      87.44328377      57.64421232      94.55997274
H      86.52109732      55.36331266      92.25639637
N      84.27232301      55.32929759      95.48782836
H      83.47485851      53.63988227      95.09854474
C      83.79233253      55.91511275      97.93502394
N      84.40649358      58.10152609      98.82508503
H      84.22319013      58.55128095     100.67134764
H      85.47607867      59.11063994      97.60810129
N      82.38637615      54.45624403      99.28995769
H      81.89693704      54.84552765     101.09275661
H      81.98008499      52.69123966      98.68524527
C      86.99541863      62.53104457      86.54375371
O      87.76642696      64.61163323      87.02185447
N      87.43761459      61.25925876      84.45938560
H      86.83857135      59.45834958      84.65969659
C      89.49741627      61.76192596      82.60745381
H      91.04699184      62.54616238      83.71294371
C      90.31755749      59.24103106      81.11834948
H      88.60924490      58.19601241      80.63646927
C      91.81800018      60.04038529      78.95461284
H      92.52097837      58.46813299      77.82455651
H      93.32789150      61.23280259      79.68593693
H      90.63125206      61.27248684      77.80754898
C      91.61579946      57.40043763      82.88335385
H      90.67471576      57.53271847      84.71071919
H      93.53765112      58.13932062      82.91358947
C      91.72918304      54.70001873      81.86479137
H      89.77709576      54.07262959      81.64747284
H      92.71373045      53.73436858      83.39357996
H      92.85357020      54.66789338      80.14136097
C      88.75097437      64.03715644      80.98417891
O      90.34779311      65.67554915      80.41159183
N      86.26598427      64.16187838      80.33033361
H      85.13403821      62.71812747      80.85945697
C      85.06600806      66.01192044      78.89792105
H      86.43983909      66.53537461      77.45605987
C      82.60369468      64.90454082      77.73007019
H      81.43773354      66.53915407      77.27086671
H      81.58513219      63.81794819      79.15303411
C      83.14226668      63.22646385      75.38303011
O      84.45940592      63.93322149      73.47062709
O      81.81000963      61.32539918      75.17704995
C      84.54633333      68.49313109      80.17915550
O      84.46696482      70.36018068      78.72217651
N      84.54066415      68.61029412      82.72839629
H      84.19295451      66.96245276      83.62601629
C      84.09090929      70.90253212      84.05309444
H      83.53910920      72.32927549      82.67359423
C      81.84591443      70.56238140      85.83888581
H      81.68528769      72.13463369      87.15980450
H      82.21063160      68.98823938      87.11823051
C      79.30801199      70.17309778      84.37623763
H      77.85481245      69.40397917      85.61778782
H      79.57824285      68.50446944      83.19704841
C      78.14960976      72.46344606      82.84555932
O      76.14838959      72.22912000      81.66259066
O      79.35903460      74.59505735      82.83800041
C      86.41905210      72.10061862      85.37779258
O      86.58345829      74.45332788      85.31921107
N      88.00264275      70.62852181      86.56265099
H      88.00831193      68.72934686      86.37367835
C      89.83567728      71.72834253      88.46371566
H      90.54432464      73.52358252      87.73617103
H      91.54587959      70.57938893      88.47694374
C      88.52042776      71.90597680      91.08098659
O      86.16960823      72.00991175      91.35310718
N      90.08701088      71.98723503      93.04819169
H      91.96728856      72.02691928      92.72315876
C      89.34056898      72.00802203      95.75805922
H      87.37525362      71.40141988      95.84687636
C      90.90337264      69.97845596      97.18480258
H      92.85734965      70.62285264      97.07141900
H      90.85612949      68.21534132      96.12277640
C      90.30621913      69.81782922     100.11954755
H      90.39125681      71.60740004     101.13433059
C      87.58501324      68.88052498     100.35387361
H      87.34123854      67.25725008      99.10665425
H      86.16582878      70.33183479     100.00994343
H      87.22974469      68.06227348     102.20958486
C      92.09956940      68.00558170     101.43479706
H      94.04409778      68.58383794     101.78439644
H      92.14681256      66.25758486     100.34442499
H      91.34556860      67.51614258     103.28861858
C      89.36513543      74.60639571      97.00527858
O      91.05455075      75.13362935      98.38666853
N      87.59446187      76.11628702      96.06797434
H      86.13370343      75.32071225      95.12878036
C      87.64170503      78.88662580      96.32497711
H      89.64859437      79.33260122      96.43836070
C      86.58534802      79.90329855      93.81164112
H      86.30944798      81.92719544      94.08376171
H      84.71073952      79.07181898      93.62833767
C      88.32578595      79.30803477      91.48538803
H      88.71884903      77.29736597      91.26995922
H      90.04354717      80.39651713      91.81797986
C      87.58879269      80.68564525      88.99661848
H      89.31600254      80.74422677      87.87601077
H      87.10313303      82.56781266      89.67503022
N      85.40237935      79.68786976      87.61333882
H      84.42161139      78.32348737      88.51851772
C      84.68428335      80.31903834      85.32488025
N      85.59513143      82.41663456      84.17970610
H      85.34379783      82.82292571      82.33155376
H      86.58156857      83.52590391      85.37590286
N      83.30667287      78.77324223      84.08333006
H      82.44873712      79.40819027      82.50162914
H      82.63015085      77.21988720      84.96205280
C      86.49275143      79.87873211      98.75705487
O      84.31578672      80.57415140      98.93279942
N      87.93272288      79.72755402     100.86409971
H      89.80733138      79.53669165     100.55229488
C      87.10124330      80.14707326     103.52672410
H      85.47040949      78.98300185     103.99915567
C      89.08167648      78.80914703     105.25771339
H      88.65837778      79.46488206     107.16444725
H      90.91093155      79.74834101     105.13488118
C      89.64859437      76.01235207     104.97803391
H      90.30999858      75.76290821     103.04484389
C      91.81233100      75.31126362     106.81106843
H      92.08445159      73.27224893     106.90177528
H      91.34367888      75.83849725     108.74425844
H      93.53009222      76.30714939     106.25737862
C      87.14281728      74.42876143     105.39944286
H      86.37558840      74.68009503     107.29483837
H      87.36013581      72.38785702     105.20291133
H      85.69339720      75.01835604     104.05773718
C      86.42472128      82.96276546     104.20135638
O      85.21151699      83.59771351     106.09108269
N      86.60046583      84.77690272     102.42312392
H      87.35446663      84.13061633     100.79417985
C      85.64237459      87.42629902     102.47036709
H      84.74475459      87.63605864     104.31285023
C      87.70028654      89.40106300     102.19446704
H      88.99285934      88.90595472     100.67134764
H      89.00230797      89.14217050     103.76860907
C      86.89337341      92.21108603     102.47036709
H      85.37970263      92.31502099     103.86498511
H      86.14882124      92.99154301     100.71481134
C      89.23096486      93.62838077     103.19224254
H      90.75030481      93.39783415     101.82030124
H      89.97551702      92.77611420     104.91378321
C      88.79821753      96.50076477     103.74971179
H      90.64636987      97.15838953     104.37521120
H      87.40737897      96.83713604     105.23503668
N      88.18783593      97.92183895     101.41967926
H      86.36991922      97.90861087     100.84331273
H      89.09679429      97.20941214      99.90033929
H      88.74152574      99.74731457     101.39700253
C      83.68461813      87.76267029     100.34442499
O      83.69973594      86.51734065      98.42635277
N      81.98764390      89.48988015     100.87165862
H      81.98764390      90.22309395     102.63288354
C      79.78989220      90.27411657      99.24838372
H      78.76943999      88.54690672      98.78351104
C      77.93607068      91.91061956     100.90000452
H      77.32757881      90.72954061     102.47603627
C      79.39304967      93.96286233     102.30596089
H      80.06957169      95.38204678     100.97181412
H      80.76499098      93.28256086     103.68357137
H      78.09669742      94.82079807     103.65711520
C      75.81957721      92.80446009      99.22570701
H      74.90117023      91.12827286      98.46036785
H      76.43940744      94.14238633      97.78762529
C      73.64828168      94.07813563     100.62410447
H      74.27567082      95.70707971     101.71825601
H      72.66940345      92.71942241     101.82219095
H      72.21586914      94.64505353      99.25783236
C      80.51176765      91.58558662      96.70481211
O      82.05000487      93.28067112      96.88811555
N      79.36470378      90.65206183      94.64501042
H      78.20252209      89.14406023      94.79618853
C      79.78800247      91.57613800      92.12222580
H      80.40594298      93.52444583      92.38867720
C      81.78733291      89.98309872      90.68036462
H      83.56178592      90.08703365      91.71782436
H      82.25220558      90.70875362      88.80953557
C      81.04467047      87.21275994      90.34588306
C      80.05445388      86.42663380      88.07443204
H      79.58769148      87.75889084      86.59855579
C      79.31746062      83.83959846      87.59822100
H      78.57857763      83.20087098      85.80676046
C      79.61792710      82.02546120      89.56164664
O      79.01510441      79.46299233      89.35944593
H      78.46897350      79.15685666      87.65680251
C      80.41539161      82.89095586      92.02018057
H      80.53255464      81.63995704      93.62833767
C      81.20907666      85.48177064      92.33954431
H      81.63237535      85.99766591      94.26895488
C      77.20663633      91.66306540      90.69926188
O      75.30935111      90.68040773      91.55719763
N      77.29545346      92.77422448      88.41836222
H      78.77321944      93.92884725      88.06309368
C      75.19029835      92.72131214      86.60800441
H      73.57458235      91.98809833      87.65302306
C      74.42306947      95.28945020      85.47416863
H      73.42151452      95.09480838      83.68270809
H      76.12571288      96.44029353      85.33432887
C      72.37838560      96.95429909      86.97272159
H      73.01333364      97.37759777      88.88512461
H      70.67007301      95.80912493      87.08421544
C      71.96831499      99.53944467      85.68959743
H      70.39228324      99.26921382      84.38946572
H      73.64072278     100.14793654      84.65024795
C      70.99699566     101.54444430      87.49806550
H      72.45208492     101.93750737      88.90402189
H      69.25466800     100.73942089      88.24450739
N      70.29968665     103.87447683      86.02029952
H      68.49499802     103.82534395      85.40235902
H      71.60359781     104.11636180      84.64646849
H      70.43007777     105.33901474      87.23728327
C      75.45108058      90.89583652      84.50095957
O      77.56379460      90.42529466      83.51074299
N      73.34592547      89.84703842      83.52586079
H      71.74343756      90.40639741      84.40080407
C      73.39694808      88.26155805      81.24685086
H      75.13738601      87.15984761      81.16181318
C      71.22565255      86.27734542      81.55487625
H      69.62316463      87.25244419      82.40336337
H      71.68296631      85.03579523      83.13468744
C      70.47543120      84.92619110      79.05098888
O      71.47131697      82.90229422      78.52564498
O      68.80680287      85.87105426      77.71117293
C      73.12671722      89.88672267      78.85634708
O      72.42373903      92.19407850      79.13602658
N      73.46308850      89.00611020      76.46206383
H      73.78434197      87.12961198      76.29765765
C      73.17773983      90.47631728      74.10179568
H      74.25677355      92.17896068      74.52320465
C      74.55724004      89.25177462      71.98341247
H      74.01299886      90.16640216      70.22218756
C      77.50521309      89.28578971      72.14025976
H      78.20252209      88.02345253      73.61235656
H      78.33480294      91.11126533      72.60891188
H      78.32724403      88.89461636      70.29399715
O      73.65395086      86.81213795      71.62247475
H      74.97675928      85.63672820      72.01931728
C      70.44330585      91.27000234      73.35346406
O      70.18441335      93.05957315      71.97207411
N      68.41562952      90.26277821      74.60446287
H      68.81247205      88.89083691      75.86868978
C      65.89473462      91.37015783      74.80855331
H      65.39206742      92.22242439      73.00197495
C      63.96721378      89.21398010      75.32255887
H      63.53068700      89.25933353      77.33511739
H      64.88373104      87.37716613      75.17138076
C      61.56348191      89.51255686      73.65393054
H      60.80759138      91.37015783      74.12258266
H      60.22177623      88.07825458      74.26998131
C      61.86583812      89.52956439      70.91949657
O      61.17041884      87.54346205      69.68172583
O      62.77290675      91.44574687      69.85369092
C      65.44875921      93.43562869      76.95717213
O      63.34549382      94.35214595      77.37291192
N      67.53879651      94.27277745      78.16848669
H      69.26600636      93.46775404      78.06833121
C      67.25533756      96.38927091      80.05443356
H      65.65473938      97.57790877      79.53853827
H      68.94286316      97.54200396      80.30576715
C      66.30858468      95.50487900      82.56399011
O      65.99677984      96.95240936      84.35923010
N      65.79457912      93.05579370      82.94760455
H      65.76056405      92.09959219      81.29598375
C      64.94231256      91.78400788      85.20393777
H      63.52312810      92.94052039      86.14691120
C      63.72721854      89.17429585      84.48584177
H      63.11872666      88.19541761      86.19226463
H      65.11616738      87.80991346      83.81120947
C      61.57104081      89.19697257      82.60934353
C      60.76790713      86.80268933      81.66825984
H      61.70143193      85.05847195      82.16903731
C      58.80259177      86.75355645      79.98262395
H      58.26401977      84.95264726      79.18893891
C      57.36828949      88.84359374      79.30043276
O      55.40486385      88.61304714      77.62613525
H      54.70944457      90.23821177      77.21606463
C      58.11284166      91.24543589      80.28120071
H      57.13018398      92.94429985      79.72184173
C      60.23311458      91.36826809      81.87612972
H      60.56570642      93.12760330      82.85311823
C      67.08904165      91.29078932      87.20326821
O      69.04112893      90.56702415      86.48139274
N      66.55235937      91.65550649      89.61077952
H      64.73444266      91.89172229      90.14746179
C      68.37405554      91.29834823      91.75372916
H      70.23921541      91.90306065      91.11689139
C      67.79768902      92.90272587      94.01195211
H      68.85593575      92.25266002      95.65412428
H      65.82103529      92.42462511      94.35210285
C      68.07358906      95.70330026      93.41479859
C      66.09882506      97.12815391      92.57953957
H      64.49066797      96.11715033      91.83876684
C      66.26701070      99.71707894      92.56442175
H      64.67775087     100.91138598      92.10143881
C      68.55546927     101.14571205      93.00094852
O      68.65184531     103.74030627      92.56064229
H      67.04935740     104.45273310      92.09576963
C      70.73621343      99.59991591      93.47149038
H      72.53901233     100.40115987      93.99116512
C      70.36015790      96.94296073      93.92502470
H      72.03634514      95.80723521      94.18202747
C      68.77656725      88.52800946      92.52662722
O      66.80747243      87.18441405      92.58142928
N      71.11793815      87.71353741      93.21637732
H      72.54279179      88.98532321      93.20125952
C      72.03067596      85.02445686      93.34487872
H      70.41495996      83.80180395      93.72282399
C      73.16640147      84.24399990      90.73516668
H      75.20163671      84.56714310      90.70682079
C      72.55979932      81.44720496      90.37611868
H      73.32135903      80.19809586      91.82742848
H      73.54245701      80.82359528      88.67536499
H      70.52834354      81.12406176      90.28352209
O      72.07224994      85.26634183      88.50717936
H      73.51033166      85.43263774      87.41113809
C      74.15283861      84.76745408      95.39901122
O      75.79879022      86.43608242      95.80152293
N      74.43629755      82.47710579      96.48560385
H      73.00577473      81.23744534      96.24749834
C      76.66239515      81.67775156      97.94825201
H      78.26677279      82.67174761      97.12433135
C      76.23720673      82.67174761     100.73748806
H      75.73642926      84.66729860     100.65434009
C      74.25488383      81.16752547     102.15478278
H      72.38972396      81.52657347     101.35542856
H      74.29267835      81.54547073     104.18056940
H      74.57424757      79.14740804     101.92234645
C      78.62582079      82.66229897     102.32485816
H      80.30389775      83.13473056     101.22692717
H      79.08124483      80.84249253     103.17901446
C      78.34992075      84.51989994     104.50938177
H      77.08380412      83.87172381     105.99848612
H      77.53544871      86.34348583     104.01049402
H      80.17728609      84.80902807     105.41645041
C      77.24632058      78.93764842      97.85187597
O      75.77989296      77.39563175      96.86354911
N      79.33257843      78.31970791      98.94791724
H      80.59869506      79.66330332      99.42979745
C      80.20941144      75.84605616      99.38633375
H      78.84691877      74.73867655     100.45969829
H      82.09346857      76.01046236     100.20080579
C      80.54767245      74.46277650      96.94480735
O      82.04433569      75.19410059      95.33476053
N      78.89605165      72.42187209      96.53662646
H      77.64127338      71.92676379      97.88589104
C      79.06612702      70.98568009      94.16313021
H      80.68184302      71.37307398      92.94614646
C      79.23053321      68.15487007      94.80563715
H      77.62237612      67.61629808      95.97348802
C      79.46107982      66.70922945      92.25639637
H      79.61414765      64.67210447      92.52284778
H      81.15427460      67.29693432      91.24728251
H      77.73386997      67.00969593      91.17358318
C      81.61158836      67.76936591      96.56119290
H      82.03110760      69.24146271      97.94069312
H      83.31045232      67.65787205      95.40279068
C      81.12025952      65.31839088      97.99549518
H      80.91238963      63.68944680      96.75394499
H      79.52533051      65.63586489      99.25972207
H      82.67928373      64.91021000      99.27861934
C      76.60759309      71.56960552      92.73071767
O      74.68385170      70.21656147      92.91213140
N      76.52066568      73.78814421      91.49105721
H      77.99654193      74.99189988      91.61955860
C      74.52700442      74.62529296      89.98683506
H      74.17929477      73.19288042      88.54875334
H      75.00699490      76.40730487      89.07220752
C      72.01177869      75.21110813      91.23216471
O      70.07669895      75.24323348      89.99061452
N      72.07602939      75.41141912      93.68313973
H      73.77678307      75.38685268      94.55052410
C      69.69119478      75.56070750      95.18925160
H      68.40807061      74.10372850      94.50139123
C      70.24488459      75.04859167      98.05785615
H      71.61115671      76.41675352      98.76839324
H      71.17840939      73.22500576      98.28273357
C      67.85438080      75.09772455      99.45436389
N      65.83993255      73.43854484      99.30696524
H      65.85127091      71.73401171      98.44902948
C      63.79524868      74.33994430     100.47670582
H      61.96410389      73.44232429     100.42568322
N      64.33571041      76.70777137     101.24960388
H      63.21321298      77.84349687     102.29462254
C      66.98510670      77.19343102     100.71481134
H      68.01689727      78.94898678     100.84331273
C      68.30413567      78.05892568      94.77351182
O      69.29624198      79.91652665      95.79396402
N      66.09693533      78.11183802      93.46204174
H      65.60371677      76.45265832      92.65701834
C      64.63239744      80.39651713      93.01228688
H      65.87961681      81.71365636      92.04096757
C      62.15874570      79.82393006      91.40224007
H      61.07971197      78.20065515      92.07309290
H      62.71243551      79.25890189      89.50117540
C      60.17453307      81.95932079      91.39657089
H      59.84005151      82.43364210      93.37511434
C      60.87751126      84.37061156      90.05297549
H      59.32037678      85.65562546      90.46682555
H      61.31403804      84.14195467      88.05364504
H      62.55936768      85.21153978      90.89390370
C      57.70277105      81.02957545      90.25706593
H      56.14563657      82.35994276      90.48194335
H      56.90341682      79.34771903      91.13767839
H      57.72733749      80.69320416      88.22749986
C      63.79524868      81.53035292      95.58042495
O      62.52724233      80.25478766      97.12055190
N      64.16185559      84.06258618      95.80719210
H      65.04624750      84.89784521      94.33698503
C      63.11494721      85.63672820      97.89722941
H      62.68408961      84.44053143      99.51672486
C      65.25600712      87.33559214      98.83453366
H      64.51523441      88.85682182     100.00805370
H      66.02512573      88.33903682      97.20747931
C      67.25911702      85.88050288     100.30852019
H      68.04524316      84.35738348      99.16712548
C      69.50600160      87.88739223     100.90189424
H      71.11226897      87.04268457     101.87510330
H      68.77278779      89.42751918     102.05840674
H      70.38094489      88.68485674      99.21814810
C      66.54669020      84.70509312     102.92201168
H      68.29846649      84.34982458     103.94813307
H      65.37505988      83.01189834     102.86720960
H      65.79268940      86.28490432     104.00671458
C      60.62050848      86.89717565      97.53440196
O      58.92920343      86.76489481      99.21814810
N      60.57137559      88.49966356      95.56908658
H      62.19087104      88.66218002      94.57698027
C      58.48322802      89.94719392      94.47115561
H      56.69932638      88.94374924      94.70170221
C      57.80670600      92.22431411      96.11710722