 %block lattice_cart
   135.996   0.000   0.000
   0.000 142.663   0.000
   0.000   0.000   160.158
 %endblock lattice_cart

 %block positions_abs
N      90.96667848      42.11066202      83.65436218
H      90.20700849      41.93491748      85.39668984
H      92.78270546      42.66624156      83.85278346
H      90.96667848      40.31920148      82.99673744
C      89.58528853      43.96826299      82.22194964
H      89.83284269      45.92601945      82.80965452
C      90.30905372      44.09109520      79.36468346
H      89.83851187      42.29207575      78.47840181
H      92.34050950      44.38589250      79.17949028
C      89.07695216      46.36254623      78.00785996
H      87.06250390      46.02806467      78.27998055
H      89.51347893      45.96192425      76.03498570
S      90.07472766      49.36910079      79.29854303
C      88.60641030      51.35898260      77.02331256
H      89.36985974      50.74860100      75.20917529
H      89.14309257      53.33563632      77.24441054
H      86.57873398      51.11709763      77.29543315
C      86.71101481      43.63756088      82.32588460
O      85.67166535      41.84043116      81.35267554
N      85.44111874      45.64067078      83.10634156
H      86.45212231      47.00883263      83.97372594
C      82.66133132      45.97515233      83.18759979
H      82.03583191      45.11154741      81.42448513
C      81.62765104      44.52951170      85.49495561
H      82.64810325      42.73994089      85.47416863
H      79.63965896      44.12511027      85.12645898
C      82.11520043      45.78617970      88.01962998
O      82.58385255      47.92157044      88.46938483
N      81.85063873      44.24794248      89.94526108
H      82.15110523      44.89044943      91.71782436
H      81.84307983      42.42057714      89.39157128
C      81.75237297      48.70769658      83.00618606
O      83.22824923      50.49726740      82.79831617
N      79.30706713      48.92501511      83.63924438
H      78.34519643      47.27906349      83.75262795
C      77.86331621      51.17378942      83.03831141
H      78.01827378      51.54606550      81.01819398
C      74.94935825      50.58230508      83.56743477
H      74.38244034      49.18201789      82.16336813
C      74.04417933      49.68846454      86.04675570
H      74.88888701      47.88755536      86.57965852
H      72.00516465      49.41256450      86.13935229
H      74.78495205      51.07363393      87.38090247
C      73.31285525      52.95202188      82.99862715
H      73.33175252      54.20113097      84.63513015
H      71.38533441      52.24904369      82.80020590
C      73.84575807      54.39010361      80.56654939
H      73.28450936      53.11453834      79.05098890
H      75.71469740      55.22347291      80.33789250
H      72.67034831      56.07951893      80.46639389
C      78.81384855      53.42634319      84.77874934
O      78.67778825      55.62409489      84.09655815
N      79.56406989      52.87832255      87.15791477
H      79.60942334      51.00938323      87.53963948
C      80.69601597      54.94946259      88.63001157
H      79.45446577      56.58218613      88.43348004
C      80.76782557      53.95168710      91.32854074
H      81.80528531      55.18378866      92.61544437
H      81.81284422      52.18101355      91.20759827
C      78.15244434      53.72491994      92.46993543
C      76.90900443      55.79228053      93.62077876
H      77.69135113      57.67822739      93.59054314
C      74.44291159      55.68834558      94.60721589
H      73.54151214      57.43445270      95.15712625
C      73.30340663      53.40366647      94.54863438
H      71.48171046      53.30540070      95.45948247
C      74.40889652      51.26827574      93.29574584
H      73.39033403      49.50516109      93.17102390
C      76.87876880      51.42512302      92.34899295
H      77.71024838      49.85853991      91.33798938
C      83.31328691      55.78850108      87.83254706
O      83.73658560      58.00892949      88.25017659
N      85.00648169      54.09341657      86.99728803
H      84.44901241      52.34730946      86.46249549
C      87.41021356      54.96647013      86.01085090
H      88.42499659      56.03794495      87.44704289
C      88.95411995      52.66100403      85.23984257
H      90.44889346      53.17311986      83.91892388
H      87.95823419      51.30229081      84.05120471
C      89.84607077      51.23804012      87.71538403
H      88.21901641      51.18134833      88.97772122
H      91.41076416      52.28683822      88.54875334
C      90.51125444      48.54895957      87.04075174
O      88.90498707      46.88600042      87.19570930
O      92.60507119      47.92346016      86.29430985
C      86.94912034      56.44990529      83.51074299
O      88.29649520      58.36041859      82.95705317
N      85.06506319      55.74692710      82.06888181
H      83.91233014      54.35797826      82.69627094
C      84.28460623      57.06784579      79.60467870
H      85.86630716      57.06406634      78.28564974
C      82.00748602      55.78094217      78.49540936
H      80.22547410      55.72614011      79.52719993
H      82.37031347      53.75515556      78.37257714
C      81.50481883      56.52171489      75.73262949
H      83.04872522      55.88487712      74.52509437
H      81.43489895      58.56072958      75.44917054
S      78.53038961      55.14221468      74.75942043
C      78.96313693      55.12898659      71.32578772
H      79.42234043      57.01304373      70.63603762
H      77.38332573      54.14254946      70.44895471
H      80.62798581      53.98003300      70.93083492
C      83.44934720      59.85708183      80.19427330
O      84.21090691      61.59374031      78.98106902
N      81.82040312      60.37297711      82.10289689
H      81.21569070      58.87064469      83.11201073
C      80.80373037      62.84095968      82.63957916
H      80.46735907      63.61007829      80.75930148
C      78.19023886      62.69734048      84.11734514
H      77.90866965      64.45100650      85.16047407
H      78.29228410      61.02115324      85.31165216
C      75.85831659      62.50269867      82.20683184
H      76.46302901      61.16099298      80.76308092
C      73.49048953      61.43311357      83.49940464
H      71.78406667      61.93200132      82.45816543
H      73.53206350      62.24380616      85.39480013
H      73.71536697      59.39598861      83.69215671
C      75.42367954      65.22390456      81.26952759
H      77.10742569      65.89097795      80.29064935
H      74.97581442      66.36907870      82.92492784
H      73.70402860      65.63019571      80.21506030
C      82.72747175      64.46801403      84.19293418
O      83.13565264      66.60151504      83.36523406
N      84.17689183      63.64787281      86.16958791
H      84.11075141      61.78460267      86.57965852
C      86.24047297      64.91587917      87.27318808
H      85.26537419      66.42954995      88.27663275
C      87.40076491      63.23402275      89.24228290
H      88.20011915      61.60885812      88.25962521
H      86.08551540      62.42333016      90.60477556
C      89.59473716      64.41321197      90.66335709
H      88.91632542      65.95900809      91.84632575
H      90.99313464      65.08217508      89.30653360
C      90.99313464      62.61230279      92.53607586
H      91.80571696      63.83684544      93.97793703
H      92.57105612      61.54460743      91.75561889
N      89.50969948      60.83784979      93.88534044
H      89.37930837      59.10308103      93.10110402
C      88.23980341      61.03249160      96.02073119
N      88.40231987      62.91087955      97.60243211
H      87.25903544      62.88631311      99.13122069
H      89.53993511      64.41132224      97.29251699
N      86.71857372      59.25614886      96.68402511
H      85.93244757      59.34874545      98.42257333
H      86.59952097      57.74247808      95.52562289
C      88.12264038      66.14609100      85.58755220
O      88.21523697      68.37785777      85.39668984
N      89.20734327      64.66076612      83.86790127
H      88.53271098      62.91654873      83.49184573
C      91.10084904      65.52437104      81.95927769
H      92.59184311      66.56561024      82.92492784
C      92.56160748      63.35496523      80.65914598
H      92.63530680      62.02270818      82.22761883
C      90.94400175      62.01514928      78.59745458
H      89.13175423      61.28949437      79.25507934
H      92.03626357      60.38809492      77.96250654
H      90.43377566      63.16977206      76.97228994
C      95.35462298      63.75180776      79.97506506
H      95.68343534      65.46767925      78.88091352
H      96.02736554      62.13042258      78.89414161
C      97.12718625      63.89164751      82.15014005
H      97.09506090      62.20601164      83.33499844
H      96.75679990      65.63019571      83.18948952
H      99.07171462      64.23935715      81.56810434
C      90.08795574      67.30260350      79.93160135
O      91.50336075      68.88430443      78.87146490
N      87.58028892      67.44622270      79.46105950
H      86.39732025      66.27459239      80.39647403
C      86.41432779      69.33027984      77.80565925
H      87.64642935      69.98601487      76.29198847
C      83.73658560      68.64808864      76.73229471
H      83.09029920      70.40553411      75.86868978
H      82.37409293      68.23612830      78.22139904
C      83.85941780      66.70922944      74.71973619
O      85.94567566      66.44277803      73.63692300
O      81.99047849      65.60751900      73.94872785
C      85.78315919      71.75101924      79.30232249
O      85.94945512      73.79570311      78.18927369
N      85.28994063      71.72456307      81.83077630
H      85.17844677      70.02191967      82.68304287
C      84.56617544      73.88640998      83.29153473
H      83.86319726      75.45488282      82.15769895
C      82.36842375      73.18721124      84.99039869
H      82.11520043      74.47978404      86.57587906
H      82.71613339      71.36740480      85.89179814
C      79.87020556      72.69777213      83.98884374
H      78.67589853      72.33872413      85.62723646
H      79.97414051      71.09150476      82.70571958
C      78.78361294      75.05615056      82.43548872
O      79.73603500      77.19343102      82.38824555
O      76.81640785      74.57804981      81.07866522
C      86.70912509      74.94843616      85.01307540
O      86.67511002      77.24445363      85.58944193
N      88.52893152      73.43476539      85.85211390
H      88.48357810      71.60928977      85.29842409
C      90.45456265      74.27758332      87.63601553
H      91.32194702      76.02369044      86.97272159
H      92.07972728      73.01713587      87.50751415
C      89.31883712      74.53458610      90.33454470
O      87.12675461      73.86184353      90.93736739
N      90.96856819      75.51346433      92.01262168
H      92.66932188      75.98967536      91.29074621
C      90.29204617      76.11817675      94.59965700
H      88.26625957      75.82715890      94.84154197
C      91.45422787      74.11695659      96.38922781
H      93.49513228      74.39852581      96.40434563
H      91.07628260      72.21778164      95.68435990
C      90.63975582      74.18309701      99.18224331
H      90.73613187      76.17108909      99.71325640
C      87.96579309      73.49334690      99.89467013
H      86.53338054      74.36829019      98.70225281
H      87.70879031      74.25112715     101.79384506
H      87.80327662      71.44299385      99.98726672
C      92.43310609      72.67698514     100.99827029
H      94.34928858      73.38752223     100.74126752
H      92.61263010      70.69844169     100.45969829
H      91.76414297      72.90942147     102.93335004
C      90.88730997      78.85261073      95.10232419
O      92.95656028      79.86550403      94.95681527
N      88.86719254      80.01857186      96.11521749
H      87.26659435      78.97922239      96.09632024
C      88.75380896      82.56781266      97.15078752
H      90.67188117      83.26512167      97.43613618
C      87.33084504      84.28935333      95.19114133
H      86.30661338      85.76333985      96.19836546
H      85.78693864      83.18197371      94.39934600
C      89.11852613      85.48555009      93.23905405
H      90.32606126      84.07959371      92.33765460
H      90.40165031      86.81213796      94.15557132
C      87.58217864      86.80646878      91.25862088
H      88.87664116      87.71542713      89.94148164
H      86.33306956      88.20864570      92.10521827
N      85.90221196      84.98477261      89.86211313
H      86.06661815      83.15740727      90.38178787
C      84.95545907      85.31358499      87.61711827
N      85.09340909      87.34504078      86.36800917
H      84.04650072      87.58692575      84.79197742
H      85.53938451      88.98154376      87.24295245
N      83.67611436      83.41629977      86.56076126
H      83.21502114      83.42952786      84.70882948
H      83.57595886      81.91963653      87.73995048
C      87.50658960      82.55647430      99.68302078
O      85.32584543      81.68531047      99.90978793
N      88.86908227      83.19331207     101.72959438
H      90.55849758      84.03801973     101.45180461
C      87.86941705      83.06292095     104.29773244
H      86.32929010      81.70609746     104.47158726
C      89.89142420      82.14451396     106.19312792
H      89.17332820      82.18986740     108.12253849
H      91.28415250      83.63361830     105.90588953
C      91.17643810      79.59716289     105.84730801
H      92.03248411      79.47244096     103.97836869
C      93.04348769      79.18898201     108.02805217
H      94.63274752      80.44565001     107.65010691
H      93.49513228      77.18398239     108.12442821
H      92.34050950      79.99022597     109.79305656
C      89.09773914      77.69042904     106.02116283
H      88.55727742      77.20476938     107.94679394
H      89.86118857      75.98589591     105.15566818
H      87.53871495      77.97199827     104.70213387
C      86.54660863      85.63294874     105.08763803
O      84.80428097      85.44019665     106.64477251
N      87.25336627      87.85148743     104.13899543
H      88.73869114      87.85904633     102.93901922
C      85.86819687      90.21742477     104.30718106
H      84.78727342      90.19663778     106.06084709
C      87.86185814      92.30746208     104.50938177
H      88.79349322      92.63060528     102.70091369
H      89.33584466      91.68952157     105.80762375
C      86.72046345      94.90961521     105.34275109
H      85.25970501      94.73387066     106.78461225
H      85.75859275      95.73164615     103.71758646
C      88.80672129      96.62359697     106.39343892
H      90.06149956      96.72753192     104.76260511
H      89.68355431      95.69196190     108.00915491
C      87.70879031      99.34102341     106.99059243
H      86.14598664      99.09157954     108.31151112
H      87.03037857     100.22352560     105.25771339
N      89.55505292     101.12492505     108.09608232
H      90.60574074     100.26509958     109.43589827
H      88.71601444     102.62158829     108.93134136
H      90.69077843     101.65215869     106.65422114
C      83.73091641      90.37049260     102.46658763
O      83.98036029      89.59759454     100.23104140
N      81.70135035      91.74054418     103.21491925
H      81.62765104      92.32824907     105.03094624
C      79.66233567      92.53044978     101.61621080
H      78.73259032      90.78623239     101.03795455
C      77.61765180      94.03089247     103.10342540
H      77.26994215      92.91595395     104.79850991
C      78.41700603      96.67461958     104.05584746
H      78.36787315      98.12970885     102.59886848
H      80.28405563      96.55178737     104.91756267
H      77.12443322      97.21319158     105.56573879
C      75.23470692      94.38994047     101.61243135
H      74.57330271      92.48320662     101.20236073
H      75.33486242      95.19874333      99.72081531
C      73.06530111      95.71085917     103.07507951
H      71.38344470      95.45574611     101.91289783
H      73.44891556      97.72530741     103.27350078
H      72.69491476      94.87371041     104.91945238
C      80.38799058      93.68696228      99.07830836
O      81.96969150      95.46708447      99.02728575
N      79.31084657      92.95374847      96.82008541
H      77.85008813      91.73865446      96.99205050
C      79.69257129      93.85325820      94.24816789
H      80.43901318      95.76944068      94.36155147
C      81.62009213      92.17896069      92.81953481
H      83.38509651      92.17707096      93.88534044
H      81.91677916      93.02744780      90.96571330
C      80.81128926      89.43885753      92.13356416
C      79.73225555      88.76611497      89.78274463
H      79.12376367      90.10026174      88.36356016
C      79.18990408      86.23577143      89.14212740
H      78.22614366      85.91073851      87.37145385
C      79.53950345      84.31769922      90.99027974
O      79.07274105      81.90640845      90.45359747
H      78.48314644      81.59082415      88.76796160
C      80.69034679      85.02256714      93.25417185
H      81.15144001      83.42763813      94.44280971
C      81.29883865      87.50944697      93.91935553
H      82.10008261      87.94597375      95.74672087
C      77.09230788      94.28600553      92.90079304
O      75.08352881      93.95719315      94.10454870
N      77.26238326      95.03244742      90.55375296
H      78.84975335      95.81290439      89.83754669
C      74.93801988      95.09669811      88.99472875
H      73.45458472      94.14805550      90.06620356
C      74.40511707      97.86514716      88.38056769
H      73.01616823      97.77066085      86.86122775
H      76.16256254      98.50576438      87.51318332
C      73.46214363      99.42795082      90.70682079
H      74.87565892      99.37314876      92.20159431
H      71.84642763      98.62103769      91.69892710
C      72.83286477     102.13592863      89.67880967
H      71.73304405     102.13403890      87.93648201
H      74.57519243     102.98441574      88.98528011
C      71.55918923     103.73463709      91.65735313
H      72.60231817     103.71573983      93.43369585
H      69.64678621     103.09590960      92.09199018
N      71.14722890     106.28198816      90.71626943
H      70.36866166     107.45172875      92.00695250
H      70.09654108     106.40859982      89.12700960
H      72.87254903     106.97362799      90.27407347
C      75.28383981      93.56224035      86.56643044
O      77.43056889      93.24476633      85.75762758
N      73.21647921      92.48320662      85.57243440
H      71.52895362      92.91217450      86.35856055
C      73.31474499      90.74276869      83.42381558
H      74.68290684      89.23098764      83.72428206
C      70.60865691      89.52200549      83.22161487
H      69.23293614      90.98843311      82.76997028
H      70.17590957      88.88705745      85.13212816
C      70.40267674      87.34315105      81.51330228
O      71.31541455      85.31925417      82.30131814
O      69.45781357      87.66062507      79.46294923
C      73.90622931      92.09770245      80.91047959
O      74.18590882      94.31057197      80.86890560
N      74.17079101      90.65962073      78.81477311
H      73.47159226      88.88327800      78.81288337
C      74.45424995      91.90117092      76.34868026
H      75.75438166      93.47342321      76.62458030
C      75.37454666      90.29679328      74.30777584
H      74.72259109      91.00922010      72.48796941
C      78.20157722      89.89428157      74.09801622
H      78.69290606      88.26344777      75.25452873
H      79.10108695      91.68385239      74.58556562
H      78.45102110      89.66562469      72.06656043
O      74.18779854      88.06502650      74.29643748
H      74.88510755      86.95953661      75.55121576
C      71.99382629      93.18429508      75.49452396
O      72.12988659      95.18551525      74.36635736
N      69.73938280      92.33202852      76.31277547
H      69.98315750      90.76922486      77.38425029
C      67.25628242      93.61326296      76.10301585
H      67.26195161      94.89260767      74.48729984
C      65.03774373      91.77077980      75.99152199
H      63.25573182      92.78178338      75.78554182
H      64.95648550      90.55946524      77.65637088
C      65.41568900      89.72231648      73.91849222
H      64.22705115      88.10282103      74.36635736
H      67.37911464      89.09870680      73.88447715
C      64.76562315      90.88071871      71.36358225
O      62.90991191      89.91128911      70.34501977
O      65.63489725      92.88004915      70.55099994
C      66.81786591      95.44440776      78.45194564
O      64.70893136      96.11526060      79.12279849
N      68.86632925      96.15683458      79.83522532
H      70.61810554      95.55212216      79.36657319
C      68.75294566      98.10703213      81.78164342
H      67.57186671      99.66227689      81.12779810
H      70.62755416      98.92906308      81.99896193
C      67.70792701      97.43428956      84.38568627
O      67.90256883      99.06512337      85.96360775
N      66.47204601      95.25732485      84.91291992
H      65.86733359      94.04223083      83.57310396
C      65.49694722      94.47686788      87.41491756
H      64.47838474      95.96219276      88.41647250
C      63.55430858      92.38494085      86.71004964
H      62.49417212      91.65739622      88.31820672
H      64.61066558      90.91284406      85.73306113
C      61.60789048      93.23342797      84.76363154
C      61.67592063      91.95597298      82.40336337
H      62.83999203      90.33269808      81.98006467
C      60.03941763      92.96319711      80.47206307
H      59.85044501      91.99376751      78.68438199
C      58.48228316      95.08347003      80.91803848
O      56.84011099      95.89227289      79.03965054
H      55.60045052      97.02610868      79.72751091
C      58.63157153      96.34013803      83.25374022
H      57.53742000      98.04467116      83.49562518
C      60.31153822      95.60692422      85.06598775
H      60.58365881      96.60658944      86.82343321
C      67.45281396      93.84569929      89.52007267
O      69.41434987      92.74020940      89.06275890
N      66.81030702      94.37293294      91.92758398
H      65.30419514      95.32535500      92.60977519
C      68.63389291      93.74932325      93.98549594
H      70.45369934      94.52600077      93.41668832
C      67.66635304      94.80945971      96.45725796
H      68.93246967      94.08002536      97.90856777
H      65.77662671      94.10459180      96.86543884
C      67.71359620      97.65349782      96.62544361
C      65.54985956      98.98008569      95.89222980
H      63.92280521      97.95018485      95.21381804
C      65.49505749     101.65971760      95.99805446
H      63.82075999     102.66127254      95.40468041
C      67.61155096     102.93906231      96.94858681
O      67.43580643     105.51097982      97.13189026
H      65.72182466     106.08734635      96.99582996
C      69.72804444     101.53688539      97.74983076
H      71.46659264     102.37025469      98.42068359
C      69.85843555      98.91394527      97.45503346
H      71.37966524      97.71396906      98.09376094
C      69.02695597      90.87882898      94.50328095
O      67.28840777      89.43129863      94.33131585
N      71.25872276      90.07758503      94.93224883
H      72.55507500      91.46464414      95.12689063
C      72.22626263      87.46598326      94.60154671
H      70.73904802      86.21309472      95.28373792
C      72.69491476      86.85560166      91.81042095
H      74.49204448      87.66440452      91.21326744
C      72.98593260      84.07014508      91.07909688
H      71.20203097      83.04780314      91.21515717
H      74.47314722      83.18008398      92.19403540
H      73.71914642      83.85282655      89.16669384
O      70.82786516      87.50566751      90.01896041
H      70.33464659      89.17618557      90.51784815
C      74.59597942      86.95386743      96.34765384
O      75.97547963      88.67540810      97.00716832
N      74.88321783      84.65218078      97.17913341
H      73.77772792      83.26134222      96.48182440
C      77.28505996      84.02101219      98.68335556
H      78.90455542      85.16807607      98.13155547
C      76.79373112      84.57470200     101.56707791
H      75.89422139      86.42852352     101.57274709
C      74.91156371      82.73977775     102.71225206
H      74.45802940      82.95331683     104.70969276
H      75.51438641      80.78769047     102.44958010
H      73.12577236      83.07803876     101.74282245
C      79.17856574      85.18886305     103.02972607
H      80.25570973      86.40017762     101.76171971
H      80.30295288      83.48999910     103.33775146
C      78.62676565      86.37750091     105.57518742
H      77.68946139      84.98855207     106.77516363
H      77.60442371      88.16707172     105.51849564
H      80.44846182      86.77434343     106.44635125
C      77.94079500      81.23744533      98.23171097
O      76.41389613      79.78046635      97.19614094
N      80.21602548      80.37573014      98.95736588
H      81.49537019      81.61728032      99.63955707
C      81.04939479      77.73767220      99.11799260
H      79.52060619      76.63974121      99.95136192
H      82.66511077      77.54114067     100.37844005
C      81.87142572      76.58304943      96.65567923
O      83.60430476      77.49389751      95.46515165
N      80.57129403      74.64230050      95.88656062
H      79.60753361      73.73334215      97.26039164
C      80.94357010      73.45555238      93.50739519
H      82.40432854      74.40230526      92.40946419
C      81.61631267      70.65686771      93.90612744
H      79.93445626      69.80082169      94.73193783
C      82.35141622      69.50224493      91.42491679
H      84.17122266      70.22789983      90.79185847
H      81.02860779      70.17498750      89.99628370
H      82.24370182      67.44433298      91.43436542
C      83.77060067      70.28837108      95.85632499
H      82.95990808      70.88363487      97.65345471
H      85.42411119      71.47889865      95.55207906
C      84.64554395      67.55393710      96.33064629
H      82.91077520      66.44655748      96.38733808
H      85.71323932      67.23268363      98.06352533
H      85.60930437      66.96434249      94.61099536
C      78.33952724      73.82971819      92.19025595
O      76.78239276      72.16297958      92.23182992
N      77.70646894      76.07282332      91.33798938
H      79.15210956      77.29925570      91.57609489
C      75.28383981      76.87784673      89.91313573
H      75.31785487      76.13518429      87.99128407
H      75.28383981      78.89229498      89.47660896
C      72.83097505      76.57738025      91.34743801
O      70.84298297      76.01991098      90.20226387
N      72.76483462      77.46177216      93.81353085
H      74.39566844      78.13640445      94.54296521
C      70.25149863      77.58460437      95.18925160
H      68.85877034      76.26368568      94.44280971
C      70.89022612      76.92320016      98.01439244
H      71.91067834      78.55403397      98.75138571
H      72.09587151      75.28669717      98.33753565
C      68.38633875      76.72666862      99.51483513
N      66.58920904      74.87851629      99.55640911
H      67.00494882      73.19099069      98.76839324
C      64.64657039      75.53614105     101.05307235
H      62.94014753      74.48923267     101.45747379
N      65.34198966      77.65452424     102.29084309
H      64.33098610      78.59182850     103.60987205
C      67.63233795      78.43687094     101.33275185
H      68.86254978      79.94109308     101.95636153
C      69.11766285      80.20754449      94.95303582
O      70.27228562      82.03113039      95.88656062
N      66.79140975      80.38139931      93.82675894
H      66.20748432      78.68442509      93.17669308
C      65.29663623      82.71899076      93.75116988
H      66.46259738      84.25155880      93.01795607
C      63.07998728      82.17474959      92.02018057
H      62.09355014      80.42486302      92.47938407
H      63.74328121      81.54169127      90.17391797
C      61.57009594      84.61438626      91.66491203
H      60.93325817      85.43263775      93.44503422
C      62.92880917      86.70820301      90.13234399
H      63.51084488      85.94286385      88.30875810
H      64.69381355      87.43007846      90.91280095
H      61.57198568      88.23699160      89.87156176
C      59.36478534      83.81881148      90.08132138
H      58.28575162      82.28813316      90.93547768
H      59.94115187      82.86638942      88.34844236
H      58.10811735      85.41563021      89.75061928
C      64.30264020      83.47110184      96.41379425
O      63.39935102      81.80058378      97.89156024
N      64.22327169      85.96365084      96.92024090
H      64.35744225      87.19764213      95.46893110
C      63.41068938      87.19953185      99.33153169
H      62.87967629      85.72365560     100.66567846
C      65.51395476      88.78690195     100.68646544
H      64.69381355      89.55413084     102.41367530
H      66.12433637      90.42151522      99.59231392
C      67.82131059      87.15039897     101.37999500
H      68.46192781      86.02979126      99.77372764
C      69.99260613      88.85871155     102.33241707
H      71.75005160      87.90817922     102.83697399
H      69.18947245      90.05490831     103.80262414
H      70.50472196      90.04923913     100.73181888
C      67.02762553      85.23988566     103.36798708
H      68.76239430      84.48399514     104.18245912
H      66.04874731      83.68464091     102.43635201
H      65.97315826      86.12238785     104.90055512
C      60.96160408      88.61115741      99.05185219
O      58.99439899      87.87794360     100.13466537
N      60.89735338      90.55001660      97.46448209
H      62.46960568      90.98654338      96.47426549
C      58.53708522      91.86904557      96.70859155
H      57.04420143      90.47064810      96.48560386
C      57.64891385      93.67562393      98.71170145