 %block lattice_cart
   135.996   0.000   0.000
   0.000 142.663   0.000
   0.000   0.000   160.158
 %endblock lattice_cart

 %block positions_abs
N      86.32551064      39.02473895      82.09155852
H      85.52804615      38.44648270      83.72428205
H      88.22090614      39.11166637      82.30887705
H      85.86063798      37.70570999      80.79142683
C      85.68111398      41.58531811      81.13346728
H      86.62219767      42.91001625      82.39769418
C      86.81306004      42.05963941      78.48596071
H      85.87953524      40.80297142      77.14992421
H      88.83884665      41.69114278      78.47840181
C      86.58629287      44.88289052      77.78109281
H      84.59074188      45.12288577      77.33511739
H      87.62186290      45.26272551      76.04065488
S      87.70312112      47.06930387      80.12246371
C      87.22313064      50.09664542      78.45194564
H      87.15510049      51.76716348      79.65381158
H      85.37875777      50.22703654      77.54676674
H      88.72546306      50.12499132      77.04220981
C      82.89565739      41.86310788      81.40936732
O      81.58796677      40.41179807      80.18293494
N      82.07551616      42.94214160      83.57688340
H      83.38131705      43.83976160      84.64457877
C      79.44690687      43.24449781      84.47450340
H      78.16000324      42.28451684      83.18571006
C      79.10675613      42.15412573      87.29397506
H      79.23714725      40.09999323      87.19570930
H      77.22269900      42.56419634      88.01396078
C      80.86609132      43.19914438      89.30464386
O      82.10764151      45.02084055      88.82843284
N      80.89254750      42.17113327      91.56475654
H      82.31929086      42.71348472      92.71182040
H      79.91744872      40.56864535      91.91246617
C      78.78550266      46.05641057      84.40647325
O      80.44279264      47.71559027      84.10789650
N      76.28350502      46.63088736      84.43670887
H      74.97581440      45.24193852      84.35734037
C      75.34809049      49.21603296      84.19104445
H      75.82241180      49.96058513      82.32966405
C      72.39066881      48.98926580      84.34600201
H      71.70469816      47.84031220      82.78130862
C      71.19069260      48.10487389      86.92169898
H      69.13467037      48.22014719      86.95949350
H      72.15445302      49.17634871      88.39379578
H      71.38533442      46.06396947      87.11823051
C      71.19258233      51.53094769      83.63546492
H      71.53462280      52.97280887      85.06409801
H      69.16679573      51.18323805      83.75640740
C      71.79162557      52.64399649      81.02197343
H      73.79095602      53.04650820      80.74607339
H      70.63133362      54.33530154      80.81410354
H      71.27573028      51.30607026      79.54420745
C      76.48192629      51.10386955      86.10722694
O      76.71625235      53.26004727      85.50440424
N      77.11687432      50.23648517      88.36733961
H      76.49137491      48.54895957      89.00039793
C      78.34897588      51.70102306      90.43470019
H      77.38521545      53.48681443      90.78618929
C      78.25259983      49.99082075      92.84032179
H      79.01038008      50.96591953      94.48627341
H      79.53761372      48.38455338      92.75339438
C      75.60131381      48.94958155      93.10677320
C      73.75694094      50.59364344      94.05541581
H      74.36543282      52.50604647      94.43336107
C      71.26439194      49.80373784      94.71115084
H      69.88300200      51.22481203      95.19303105
C      70.60865691      47.36599090      93.99116512
H      68.65467990      46.78017574      94.08187198
C      72.38688937      45.78995916      93.01228688
H      71.82186119      44.01550615      92.17891758
C      74.89455618      46.45703254      92.42458200
H      76.19090843      44.96792821      91.90679699
C      81.09474821      52.40022180      89.93392273
O      81.85252847      54.51293582      90.57642967
N      82.43645389      50.82230033      88.52985607
H      81.62198186      49.11020829      88.30686836
C      84.89309811      51.43268193      87.48672714
H      85.98347019      52.55517936      88.82843284
C      86.27826749      49.06863431      87.08988462
H      85.60363519      47.97448277      85.48172753
H      85.85496880      47.99526976      88.79630748
C      89.14309257      49.49949191      87.05964900
H      89.56450154      50.72403456      88.66213691
H      89.79126871      50.21947763      85.24173228
C      90.53771060      46.96536892      87.54908811
O      91.35218264      45.83909204      85.66314125
O      90.51503388      46.01483659      89.61644870
C      84.57751380      53.22036302      85.17370214
O      86.07417704      55.00804411      85.07165692
N      82.85219369      52.75360062      83.29153473
H      81.54072362      51.37787986      83.45783065
C      82.46857925      54.37120634      81.03898096
H      84.28271650      54.50348718      80.07333082
C      80.39554947      53.31295961      79.30799166
H      78.63432456      53.53594731      80.35301031
H      80.43523373      51.26449628      79.10579095
C      80.38988029      54.49781801      76.67182345
H      82.06417780      53.84019325      75.66648906
H      80.68278788      56.51226626      76.97228994
S      77.59686480      53.70413295      74.83500949
C      78.31685054      54.93245506      71.71885079
H      78.70424442      56.93556495      71.99286110
H      76.59530985      54.83418929      70.59068419
H      79.89099255      53.88932613      70.89493013
C      81.78449832      57.02249236      81.69282628
O      82.98636425      58.76670975      80.74418366
N      79.79461651      57.40232735      83.20838677
H      78.96124721      55.93023055      84.09466842
C      79.01982872      59.93456061      83.71105397
H      78.91778349      60.84540869      81.86479137
C      76.33074817      59.81361812      84.70882946
H      75.87910358      61.71279307      85.36645422
H      76.37421188      58.72135632      86.45115712
C      74.24826977      58.97457964      82.84177988
H      74.63377395      57.02627181      82.29942841
C      71.63288857      58.95757210      84.02474854
H      70.10221024      58.43978709      82.74918329
H      71.29651727      60.86430595      84.72772673
H      71.36265769      57.58374107      85.53275014
C      74.04795879      60.71123812      80.40214321
H      73.73804368      62.70867884      80.79331654
H      72.35665373      60.35596958      79.28153549
H      75.68635151      60.43344835      79.18326973
C      80.97947491      61.78649239      84.94693498
O      81.05128450      64.05605370      84.35734037
N      82.48936622      60.82840115      86.65146812
H      82.46479978      58.94434402      86.95760378
C      84.14098703      62.42899934      88.18214643
H      82.88620875      63.89353723      88.91347052
C      85.23135912      60.90965939      90.41391321
H      86.17055308      59.21457488      89.71660420
H      83.72902670      60.06684145      91.54396954
C      86.97746623      62.13042258      92.39623610
H      85.90599140      63.71590296      93.15590608
H      88.71412471      62.62364115      91.40412979
C      87.71634921      60.31817505      94.51461930
H      88.75002951      58.83285017      93.53007189
H      85.92866812      59.60196878      95.24216393
N      89.47757413      61.46145947      96.38166890
H      88.54971851      61.58996086      98.04462805
C      91.86051901      62.16443766      96.34765384
N      93.21545278      62.23624726      94.34454393
H      95.05037703      62.74458364      94.50517068
H      92.54837939      61.63342456      92.65890806
N      93.11151784      62.63686924      98.42068359
H      95.00124415      62.87308502      98.29785139
H      92.25925127      62.63875896     100.12710645
C      86.22157569      63.57417349      86.57776879
O      87.42344164      65.16343332      87.54530866
N      86.84707511      62.49513976      84.32521502
H      85.93811675      60.88887240      83.84522454
C      88.78404457      63.57039403      82.48462159
H      90.13519890      64.63242022      83.62034712
C      90.35062770      61.41043686      81.29031456
H      91.36352100      60.46368398      82.81343397
C      88.92199460      59.25614886      80.01096985
H      90.27125919      57.80294933      79.45916977
H      87.87508623      59.75314688      78.31021617
H      87.46312588      58.34152133      81.14102619
C      92.28759716      62.62742060      79.60467869
H      92.84695616      64.44533732      80.39269456
H      91.40320524      62.86363639      77.76030581
C      94.62707834      61.00792515      79.43082388
H      95.55493395      60.59785454      81.22228442
H      95.89697442      61.88853762      78.06644147
H      93.95811523      59.31095092      78.47462237
C      87.18533611      65.06516755      80.46261444
O      88.11130202      67.03615209      79.62924513
N      85.01782003      64.30927702      79.77097462
H      84.53405011      62.52726511      80.24529591
C      83.49848008      65.64720325      77.77920307
H      84.92333373      66.02514851      76.33734191
C      81.16277836      63.99180300      77.05354817
H      79.68312266      63.98991328      78.48596071
H      81.87520518      62.06806162      76.86835499
C      80.06484737      64.78548805      74.46462312
O      81.56906951      65.52815049      72.70717765
O      77.78016826      64.46801403      74.09423676
C      82.71046420      68.29093036      78.69194088
O      82.57440392      70.28459162      77.38236055
N      82.37220319      68.55549205      81.15992345
H      82.15299495      67.07961580      82.35045102
C      81.69379145      70.91764994      82.38446611
H      81.29694892      72.34628303      80.95394328
C      79.22391916      70.56238139      83.85656290
H      79.06896160      71.85306446      85.45338163
H      79.16722737      68.55927150      84.33655339
C      76.78428249      70.86095815      82.28620033
H      75.24226581      69.62885659      82.87390521
H      77.16222776      69.78003470      80.57410830
C      76.03406114      73.54059006      81.64936256
O      77.73481483      74.89741355      80.59300555
O      73.90433959      74.33805457      82.34667158
C      83.73091641      71.77747541      84.13246295
O      84.20523773      73.99790383      84.43481915
N      85.27293309      70.02947857      84.96205279
H      84.93656180      68.17376733      84.66914522
C      87.09651899      70.63986017      86.98594968
H      87.89965267      72.51446867      86.71004963
H      88.49491645      69.13185857      86.86311747
C      85.99291881      70.53403550      89.75250899
O      83.86508699      69.60051070      90.12667480
N      87.29116079      71.66220211      91.53452092
H      88.92388433      72.40297482      90.87689615
C      86.68455864      71.83605693      94.16313021
H      84.63987477      71.76991651      94.40501518
C      87.83729170      69.80649087      95.82230991
H      89.87819611      69.65720249      95.59176331
H      87.25525599      68.01125087      95.00027896
C      86.99069431      70.05215529      98.65500966
H      87.34596285      71.94566105      99.37688511
C      84.18256100      69.63074632      99.24271454
H      83.22824922      71.12740956      98.19391643
H      83.91610959      69.74790935     101.28361895
H      83.72524723      67.71267411      98.65689939
C      88.64231510      68.40053449     100.36143251
H      90.64731473      68.85406881     100.23482085
H      88.25492121      66.42199104      99.94191327
H      88.33239998      68.64619891     102.38154994
C      87.54249440      74.40041553      95.18925160
O      89.79693789      74.83316286      95.06075021
N      85.93244757      76.01424181      96.20403463
H      84.15232538      75.37929376      95.93947294
C      86.45590177      78.66741755      97.03551420
H      88.48357809      78.85072100      97.34731904
C      85.61686328      80.57982058      94.92280019
H      85.17088786      82.43931127      95.69380852
H      84.03894181      79.83337868      93.82864865
C      87.77493073      80.93697885      92.95559509
H      88.16232462      79.31370395      91.74805998
H      89.58528854      81.17319464      93.90990688
C      86.79794222      83.02701615      91.11689139
H      86.53715999      84.86949931      92.00317303
H      85.06317347      82.32025851      90.26084538
N      88.59318223      83.77534777      89.04008217
H      89.73457692      85.29468773      89.24039317
C      89.05427545      82.69442432      86.87256609
N      88.02059515      80.56659249      86.20927217
H      88.77459595      79.88818075      84.59166643
H      86.87353128      79.58960399      87.37901274
N      90.76069831      83.91707725      85.53463987
H      91.31060865      83.06670041      83.91703415
H      91.21990179      85.71609670      85.97305637
C      85.10852689      79.29858614      99.55829884
O      82.84085533      79.53291220      99.51483513
N      86.50125519      79.58771426     101.59542380
H      88.40798905      79.55180946     101.53684228
C      85.34285297      79.63873687     104.06907554
H      83.47958282      78.80536757     103.79695495
C      86.85274428      77.93987292     105.94368404
H      85.75103384      77.92097566     107.68412198
H      88.80483157      78.54080589     106.21013545
C      87.16265940      75.11662181     105.36353807
H      88.12264036      75.03725330     103.54184190
C      88.55538770      73.74090105     107.41956029
H      90.25992082      74.83505259     107.80128501
H      89.28104260      71.85873364     107.00571023
H      87.33462449      73.71633461     109.07685027
C      84.58885217      73.95821958     105.09897639
H      84.60208024      71.97778640     104.53583794
H      83.38887596      74.97111288     103.76482960
H      83.52115679      73.88640998     106.85831158
C      84.59074188      82.38828866     104.92134212
O      83.80461575      82.77379283     107.16255751
N      84.84018577      84.43486226     103.26594187
H      85.94378593      84.04935809     101.75416081
C      84.00114729      87.02000785     103.80262414
H      82.65566214      86.95197770     105.35975861
C      86.16488390      88.75288688     104.49804341
H      87.51414850      88.84926292     102.94468838
H      87.22502037      87.81936208     105.99659638
C      85.64898863      91.39472427     105.16511680
H      84.38287200      91.58747635     106.77894308
H      84.58507271      91.96164216     103.49459874
C      88.18311162      92.82146763     105.65455592
H      89.40576454      92.80068064     103.99537621
H      89.24513780      91.67440376     106.99626161
C      87.89398349      95.42173104     106.57296290
H      86.68077919      95.15905908     108.21702480
H      87.01715047      96.61225862     105.14055036
N      90.44511401      96.31368186     107.26838220
H      91.02148053      95.18551525     108.69512555
H      90.33362016      98.15238556     107.77104939
H      91.64886967      95.98864893     105.82085183
C      82.32118059      87.83259017     101.66345395
O      82.67833887      86.75166672      99.55640911
N      80.67711870      89.80168499     102.09998072
H      80.64688308      90.57836250     103.84419811
C      78.75148759      90.62749538     100.19135715
H      77.60064426      88.99288212      99.69057967
C      77.07341062      92.59470048     101.31007512
H      78.14299571      94.03467193     102.32485816
C      75.51060696      93.96853151      99.33153167
H      73.78906629      94.77166519     100.12710645
H      75.12699251      92.54556759      97.89156022
H      76.69357562      95.40850296      98.45469866
C      75.44635627      91.15661875     103.27350076
H      76.86554073      90.66906936     104.68701604
H      74.50149310      89.54279248     102.41178557
C      73.55662994      93.01799917     104.55284548
H      72.64578187      92.15061479     106.18367928
H      71.92768587      93.53011500     103.39822270
H      74.58653079      94.67528915     105.20858051
C      80.14043643      91.44007770      97.71392595
O      81.73725515      93.05201424      98.16934999
N      79.30328766      90.69363580      95.47649001
H      77.95780253      89.34248149      95.39901122
C      80.24059191      91.61771197      92.95559509
H      81.38198662      93.31090675      93.23905404
C      82.02449356      89.59570482      91.87278192
H      83.41911158      89.10059652      93.30519446
H      82.95801836      90.50466317      90.27974263
C      80.93601120      87.17874486      90.90902150
C      80.37098303      86.66095985      88.38623687
H      80.44279264      88.04990869      86.89335309
C      79.80217542      84.12305741      87.67381005
H      79.44312742      83.90573889      85.67825906
C      79.61131305      82.24466946      89.48227814
O      79.12187395      79.77668689      88.81898419
H      78.29984300      79.57070673      87.21460655
C      79.89855146      82.83993325      92.05986482
H      79.49037058      81.37350563      93.41668832
C      80.52972005      85.26445211      92.72693821
H      80.93601120      85.71420697      94.67335631
C      78.17701079      92.02400313      90.82398381
O      75.95280292      91.96353189      91.47593939
N      78.91589378      92.89327723      88.50528963
H      80.75270774      93.03311698      87.99884298
C      76.93357087      93.74554380      86.73083662
H      74.98148359      93.57924788      87.36578466
C      77.26994215      96.63304561      86.07888104
H      75.94146455      97.08091074      84.57087944
H      79.23525752      96.94107100      85.53841931
C      76.53483861      98.29600476      88.28797110
H      77.71402783      97.66105672      89.85266449
H      74.58842051      98.07868624      88.92480887
C      76.78428249     101.22508055      87.76451692
H      78.75148759     101.75231419      87.46027098
H      76.05673787     102.32679099      89.34621784
C      75.09297745     102.17183343      85.56109603
H      73.23726620     101.28177234      85.53652959
H      76.16445226     101.48964223      83.93971086
N      75.07974936     104.89492905      85.48739670
H      76.86743044     105.56200244      85.44204327
H      74.34086636     105.42783187      87.16736340
H      74.18401909     105.60924559      83.96238757
C      77.06396199      92.05612848      84.46883422
O      79.01604927      91.43629825      83.57499368
N      74.85487192      91.28134069      83.64491356
H      73.44324637      91.87471475      84.78252879
C      74.25393895      89.71286785      81.41125705
H      75.88099331      88.45619985      81.26574813
C      71.98248793      87.99321690      82.09155852
H      70.41401509      89.22720819      82.60178462
H      72.44925032      86.92552154      83.78853275
C      70.81652680      86.22065362      80.16025824
O      68.50161207      86.07136524      79.93538080
O      72.36988183      85.18697333      78.68816143
C      74.26905677      91.02622764      78.80910391
O      74.93801989      93.20319235      78.78831692
N      73.88166288      89.84703842      76.60379331
H      73.09931619      88.11037993      76.72851524
C      74.43913213      90.90717488      74.01675798
H      76.37799134      91.58936608      74.13959019
C      74.44291159      88.68863619      72.11002413
H      74.59031024      89.61460208      70.27509988
C      76.87687908      87.05969210      72.25553306
H      76.61042767      85.71987615      73.79754973
H      78.53038960      88.27478612      72.45017488
H      77.07907979      85.88428234      70.57556637
O      72.00327492      87.30913598      72.32545294
H      71.34942962      86.91418318      70.67950132
C      72.61365652      92.98776355      73.20039622
O      73.31285526      94.92095357      71.86624944
N      70.35165412      93.00099163      74.27565049
H      69.89056091      91.55724073      75.43405273
C      68.44114081      95.06457277      74.04699361
H      68.96459501      96.29478460      72.48041050
C      65.74261164      94.14805550      73.53487777
H      64.63523202      95.15716936      74.94461361
H      65.53663147      92.15250452      74.01297854
C      64.93380878      94.56568502      70.81556161
H      66.40968503      93.88160409      69.55133471
H      64.65412928      96.54044902      70.29777660
C      62.43748032      93.29956839      70.07100945
O      60.59877662      94.72253230      69.39448742
O      62.24661796      90.89961597      70.04455327
C      68.66412852      96.83902577      76.39025424
O      67.69280919      98.90260691      76.48096110
N      70.32141850      96.26076952      78.18360450
H      71.30218645      94.62615626      78.09667709
C      71.01494806      97.79522729      80.46261444
H      70.69936377      99.80022691      80.10923562
H      73.03884494      97.44373819      80.61190283
C      69.77150814      97.12059500      83.02886277
O      70.24393973      98.46608013      84.80709523
N      68.37122094      95.05512414      83.02697304
H      68.45814835      93.87215546      81.53408926
C      67.00494882      94.22742401      85.28330626
H      65.92402537      95.82613247      86.00518171
C      64.77696149      92.31880043      84.93748635
H      63.54674966      92.12604835      86.57587906
H      65.62355888      90.47631728      84.57276917
C      63.19337085      92.85737243      82.70194012
C      62.28441249      90.73332006      81.30732210
H      62.70015229      88.86060128      82.00274138
C      60.65168895      91.05646326      79.20783617
H      59.83343747      89.58436646      78.05510313
C      60.25295671      93.46208485      78.27431137
O      59.21360723      94.05734864      76.01797815
H      59.73517169      95.75810232      75.66648906
C      61.24695275      95.47464338      79.70861364
H      60.70460130      97.37003887      79.18326973
C      62.64157076      95.25354540      81.93471125
H      63.11211262      96.89004839      83.06287784
C      68.65090043      93.48665130      87.46971962
O      70.29685206      91.86148667      86.97272159
N      68.22760175      94.13482742      89.89423847
H      66.67424671      95.13071319      90.38367759
C      69.70347800      93.14839029      91.88978945
H      71.61777075      93.52633555      91.22838524
C      69.59765332      94.53544940      94.39745627
H      70.74093774      93.51688692      95.77506675
H      67.63233795      94.34080759      94.97949198
C      70.38566920      97.27744228      94.28218297
C      68.52617851      99.14260215      94.62611315
H      66.59487821      98.52088219      94.86043922
C      69.18758272     101.65404842      94.92657964
H      67.76839825     103.04299726      95.39145231
C      71.74816187     102.33246017      94.55241383
O      72.29807222     104.91571604      94.72248921
H      70.90345421     106.07222854      94.60154671
C      73.69835943     100.57123524      94.25383707
H      75.60509328     101.28744152      94.11966650
C      72.92546135      97.93695676      94.25194734
H      74.38055062      96.52533121      94.02518019
C      69.28206902      90.32324945      92.45292790
O      67.20714953      89.30090751      92.46993543
N      71.44202621      89.02878692      93.00472799
H      73.00860932      90.11726928      92.92913893
C      71.88800162      86.15640293      92.93291838
H      70.11165888      85.16807607      93.26362048
C      72.68168667      85.46287337      90.18147688
H      74.41078624      86.40962625      89.58432335
C      73.22592785      82.64151199      89.96982752
H      74.24826977      81.78924542      91.54207981
H      74.07630468      82.10293999      88.17458752
H      71.36265769      81.76089952      89.98683506
O      70.90156448      86.42285434      88.38245742
H      71.32108372      88.07258541      87.75128883
C      73.89111150      85.35515897      94.95681526
O      75.32730351      86.82725577      95.84876608
N      73.79284574      83.01945725      95.86199416
H      72.52105993      81.92530571      94.95492554
C      75.71280768      81.93097489      97.65534443
H      77.53828329      82.77001337      97.20558957
C      75.11943360      82.59426883     100.48426472
H      74.38999926      84.51989994     100.51261062
C      72.86687984      81.03335489     101.31385459
H      72.23760099      81.76278925     103.13366102
H      73.63599846      79.15496694     101.67290258
H      71.41934948      81.20720971      99.86065505
C      77.48726068      82.61127636     102.19824649
H      78.89132733      83.72054571     101.17779428
H      77.83686004      80.67997607     102.82563563
C      77.06963117      83.86227518     104.82496607
H      75.75249193      82.73221885     105.93423541
H      76.21169541      85.73310423     104.72103112
H      78.84975336      84.15140331     105.82463128
C      75.89422140      79.04536281      97.26606081
O      74.39377871      77.83971742      95.91490650
N      77.85386759      77.93231401      98.30163083
H      79.13699175      79.05103199      99.16523576
C      78.28094574      75.29992526      98.51328018
H      76.38555023      74.72166901      99.07074944
H      79.69824046      74.96166425      99.97025917
C      79.01982872      74.04892644      96.12466612
O      80.79617146      74.96166425      94.86043922
N      77.78772717      71.97400695      95.48593863
H      76.63499411      71.25780068      96.82764432
C      77.68946139      71.01780543      92.86299850
H      79.34297192      71.68298910      91.83120794
C      77.98425869      68.17565706      92.89512385
H      76.42145503      67.14386649      93.75305960
C      78.13165736      67.29882405      90.16635906
H      79.45824522      68.42510093      89.06653834
H      76.18145979      67.22512472      89.50873430
H      78.93479104      65.40153883      90.22683030
C      80.26893782      67.27236788      94.58264945
H      80.06673710      68.16431870      96.42891206
H      81.95457368      67.99235361      93.63967602
C      80.34263714      64.36029963      95.27239955
H      81.02671806      63.29638372      93.64723492
H      78.36598342      63.79905092      95.41790848
H      81.68434283      64.05605370      96.80685732
C      75.34998022      71.94944051      91.51751337
O      73.25049429      71.02536434      91.75372916
N      75.66367478      74.10372850      90.29486044
H      77.41545108      74.84261149      90.46682554
C      73.72481559      75.36228623      88.90591161
H      73.47726144      74.48356349      87.05964900
H      74.64322257      77.17831321      88.58843758
C      71.03384533      75.89329932      89.99250423
O      69.34820944      76.44887886      88.50151017
N      70.73148912      76.01802126      92.44347926
H      72.19224755      75.60606092      93.60377123
C      68.38444902      76.41675351      93.69258836
H      66.91046250      75.43031637      92.64567999
C      68.60176755      75.19599031      96.16624010
H      70.07575408      76.08605141      97.29629644
H      69.65245538      73.42720648      96.05663597
C      66.16780006      74.91631082      97.76116912
N      64.75617451      72.71666939      98.13155546
H      65.33065131      71.02158489      97.47204098
C      62.61889404      73.29114619      99.50538649
H      61.02963422      72.02880901      99.71325640
N      62.79085914      75.83282808     100.12332700
H      61.41891784      76.83060357     101.00016001
C      65.07742798      76.81170631      99.05185219
H      65.71993493      78.74678605      98.92335079
C      67.39801189      79.01323746      93.58865341
O      68.64712099      80.68564525      94.63745151
N      65.37978419      79.54047111      92.15624087
H      64.39901623      78.18364761      91.23594415
C      64.47460528      82.20498521      91.80853122
H      66.15835144      83.22354769      91.19437017
C      62.61322486      82.12561670      89.62589733
H      61.20159931      80.70643224      90.11344672
H      63.51651404      81.70987691      87.82309843
C      61.18459178      84.70320339      89.53330074
H      60.46838551      85.24933430      91.38523254
C      62.92125026      86.76867425      88.48261291
H      64.65223957      86.90095509      89.58999253
H      61.98205628      88.56391425      88.86811708
H      63.57320583      86.30380158      86.58532769
C      58.90180240      84.61816571      87.70971486
H      57.96449813      86.44364133      87.53208058
H      57.45805148      83.41063059      88.54497388
H      59.49895591      84.20620537      85.78219402
C      63.48816815      83.30480592      94.30108024
O      62.04630697      81.99900504      95.60121193
N      64.21571278      85.72743505      95.10799336
H      65.30986431      86.74788726      93.92124524
C      63.24439345      86.90473455      97.36621632
H      62.51684882      85.44964529      98.62666376
C      65.44214516      88.16140255      98.71359117
H      64.61066558      89.44452671     100.09498111
H      66.24716856      89.49176987      97.36054713
C      67.51895437      86.51356120     100.01372287
H      68.27862435      85.15673771      98.66067883
C      69.63355813      88.13872583     100.87354834
H      70.99794053      86.76867425     101.58597516
H      69.21214916      89.45397534     102.40233693
H      70.54062676      89.16484722      99.33720085
C      66.81408647      84.94508836     102.49304380
H      68.25783737      83.59015459     103.05429252
H      64.90735261      84.17219030     102.37588076
H      67.01628718      86.12049813     104.16923103
C      61.06364929      88.64706221      96.37222027
O      58.96038391      88.38250052      97.22070738
N      61.58332402      90.50088372      94.85099059
H      63.40313047      90.79001185      94.35399257
C      59.59533194      92.47753744      94.14990212
H      57.76229742      91.57991745      93.88345071
C      59.30809354      94.47875761      96.10954831