 %block lattice_cart
   135.996   0.000   0.000
   0.000 142.663   0.000
   0.000   0.000   160.158
 %endblock lattice_cart

 %block positions_abs
N      89.58434367      42.13050415      82.30982192
H      91.20950830      42.88828440      82.96366722
H      90.13614376      40.59037720      81.32716423
H      88.58278873      41.56547598      83.83483105
C      88.04421673      43.80291193      80.62796549
H      88.15571058      45.67941016      81.47456288
C      88.81900452      43.96920785      77.84628836
H      88.05555509      42.45175762      76.68032723
H      90.85612948      44.11282705      77.58361641
C      87.76075778      46.48632330      76.64631215
H      85.72174309      46.23498970      76.51403131
H      88.56956064      46.90584254      74.80004954
S      88.69617231      49.26233125      78.42454462
C      86.41527265      51.26355142      77.13953073
H      85.88992873      50.30734990      75.39342361
H      87.04077206      53.21563870      76.93166084
H      84.79766692      51.18418291      78.41131653
C      85.32679029      43.01678579      81.03803610
O      84.73908541      40.79824710      80.79993059
N      83.60147017      44.94997581      81.43109918
H      84.02098941      46.73387745      80.89252718
C      80.92561771      44.60604562      82.18698971
H      80.04878470      43.06591867      81.13819160
C      81.00687594      43.73110233      84.99701273
H      81.73442057      45.22020667      86.21777593
H      82.54700288      42.37427884      85.16519837
C      78.60314407      42.25333636      85.59227652
O      76.71530748      42.08515072      84.27324755
N      78.68440230      40.96832247      87.74278506
H      77.22931304      39.74189009      87.89774262
H      80.16027855      41.18564099      88.93331265
C      79.33446815      47.06457955      81.89975130
O      80.52877518      48.92784970      81.42920945
N      76.76255064      47.06646928      82.19454862
H      75.76288542      45.45642246      82.42887467
C      75.43407304      49.58358473      82.04714995
H      75.74209843      50.36593142      80.16687227
C      72.50688698      49.42106826      82.26068903
H      71.73020947      48.33636536      80.69221620
C      71.61493616      47.88094132      84.60017020
H      72.48609999      46.03656844      84.31860098
H      69.58159065      47.54834949      84.61150856
H      72.11004446      48.68785445      86.42942527
C      71.17274021      52.02322140      82.18321025
H      71.76611427      53.19296198      83.77247008
H      69.17340977      51.53756173      82.26635821
C      71.71320193      53.35169899      79.50924752
H      71.26533680      52.12337689      77.91998769
H      73.70497347      53.87893264      79.47712217
H      70.89872989      55.17339516      79.00091114
C      76.47342251      51.44118569      83.92742764
O      76.72664584      53.71830590      83.39452482
N      77.05923767      50.70986161      86.22911430
H      76.31657523      49.00343875      86.65808216
C      77.91717342      52.37282076      88.33426941
H      76.31846496      53.64082712      88.61772834
C      78.36881801      50.58891912      90.62839714
H      78.71841737      51.83235904      92.23277478
H      80.10358676      49.49098814      90.49044712
C      76.08602862      48.88249626      91.32759588
C      76.30334715      46.35971164      91.01579105
H      78.02866727      45.41484848      90.46588069
C      74.18307422      44.81013606      91.46743562
H      74.16795641      42.78057000      91.24255820
C      71.85115195      46.03467871      91.91719049
H      70.10882429      44.96887307      91.98900009
C      71.59225945      48.61415513      92.18175217
H      69.72709958      49.42106826      92.38584262
C      73.74654744      50.02389096      91.90774186
H      73.75032690      52.06479538      91.85860897
C      80.31901556      53.73153398      87.65963711
O      80.70074028      55.93117541      88.25490089
N      82.15771926      52.32746733      86.61839791
H      81.46229998      50.60025748      86.19320949
C      84.53688469      53.31201474      85.64140940
H      85.27765741      54.57624165      87.08705003
C      86.56834048      51.05757125      85.36361963
H      88.42216199      51.69818847      84.73812022
H      85.77654515      49.74421146      83.98600915
C      87.04644124      49.46831142      87.82593302
H      85.21151699      48.82202502      88.50056531
H      87.95728932      50.66261845      89.23377912
C      88.56956064      47.13260970      87.21177197
O      90.88825483      47.09292545      87.86939673
O      87.60957968      45.22587585      86.15163551
C      84.07579147      55.03355541      83.31326658
O      85.13781766      57.02154749      83.31515631
N      82.36747888      54.43073272      81.55015194
H      81.17317185      52.98320236      81.89030268
C      81.81189935      56.08613297      79.33350298
H      83.53532975      56.17306038      78.20911581
C      79.84658398      54.68584577      77.69322053
H      77.96252685      54.85781087      78.50769257
H      80.53822381      52.75076603      77.53637326
C      79.60847847      55.56645823      75.07594959
H      81.18073076      54.87103895      73.94211380
H      79.63115518      57.62625991      75.03626533
S      76.87971367      54.01499293      73.57550689
C      77.54111788      54.59324918      70.27604476
H      77.05167877      56.55856455      69.90754812
H      76.13327178      53.38571407      69.38409393
H      79.31935034      53.70507781      69.72991385
C      80.90672044      58.68828610      80.17632090
O      81.69095686      60.56856378      79.06516183
N      79.32690925      58.83757448      82.11706983
H      78.45763514      57.24264547      82.70288499
C      78.49731940      61.23752690      83.34161248
H      77.86804053      62.49608462      81.83550062
C      76.10870534      60.70651380      84.82693736
H      75.62682513      62.42616475      85.85116902
H      76.50554786      59.21929920      86.19698895
C      73.74654744      60.02054315      83.19610355
H      74.06402146      58.61647650      81.72211703
C      71.59981835      59.20607111      85.03858671
H      69.73843793      59.21363002      84.15608452
H      71.50911149      60.33801717      86.75634793
H      72.03256568      57.29744754      85.68109365
C      72.68263153      62.39970858      81.99801707
H      73.99599132      63.12347376      80.58639151
H      72.57113768      63.97763005      83.31704604
H      70.76455932      62.18050033      81.28181080
C      80.45696558      62.54521751      84.88362915
O      80.66672520      64.82800689      84.79481201
N      81.93851101      61.21673991      86.44643281
H      81.45852053      59.37047730      86.45210199
C      84.14382162      62.32222980      87.78057959
H      83.44084343      63.75653207      89.08260102
C      85.56300608      60.07156576      89.07693184
H      87.51887281      60.68005764      89.30558872
H      85.42316633      58.50876210      87.74089534
C      84.54255387      59.35346976      91.64695962
H      82.51676726      59.12670261      91.34460341
H      84.81656419      60.81044875      93.07748245
C      85.53088073      56.88170775      92.64851457
H      87.44895294      57.04044476      93.38172839
H      85.69339720      55.70629798      90.96476843
N      83.93973118      55.57590686      94.45131347
H      83.46729960      53.80901276      93.90329284
C      83.18006120      56.29589259      96.61505010
N      84.25909492      58.22341343      97.74699616
H      83.70918457      58.50309292      99.55168479
H      85.47040949      59.36102867      96.80780219
N      81.50009451      54.87670813      97.74699616
H      80.93506634      55.43795684      99.48176492
H      80.71396836      53.34036064      96.93063440
C      85.94851025      63.59212588      85.80014642
O      87.00864671      65.53665426      86.35383622
N      86.41905210      62.48096681      83.62129197
H      85.64615404      60.75942614      83.34161248
C      88.10090852      63.50519847      81.78258827
H      89.92260468      64.25730955      82.38541096
C      88.83034287      61.18083511      79.94388457
H      87.11636111      60.05644795      79.75491194
C      90.07756224      61.88003384      77.42298967
H      91.91815567      62.80033056      77.50802735
H      88.84168123      63.08378951      76.29671278
H      90.34023420      60.17739044      76.29293334
C      90.74841508      59.44039717      81.24968545
H      90.32889584      58.96040669      83.20744191
H      92.51341946      60.50053364      81.34039231
C      91.38147340      56.93650981      79.95711265
H      92.40570506      55.59291440      81.13819160
H      92.37735916      57.24831465      78.18265965
H      89.65237382      55.92739596      79.46767354
C      86.87258641      65.78042895      80.54481755
O      88.23696881      67.54354360      79.88908251
N      84.45751619      65.77475978      80.09695240
H      83.68272840      64.03243212      80.19143872
C      83.08557488      67.75330323      78.56816381
H      84.55767168      68.59990061      77.40409241
C      81.17128213      66.59490100      76.79371080
H      80.35303063      68.28053687      75.93955451
H      79.83146617      65.38736588      77.79337603
C      82.41850149      64.87336032      74.66776871
O      84.65971690      65.25319531      73.81928159
O      81.21852529      63.03276690      73.73802336
C      82.01032061      69.98507000      80.07049623
O      82.15771926      72.19038061      79.09917692
N      80.97475059      69.59200693      82.36840343
H      81.01254512      67.80810529      83.04870490
C      80.00343127      71.63480107      84.12017972
H      79.40816748      73.28264242      83.03736654
C      77.84725354      70.49718583      85.63762995
H      77.24632058      71.84267097      87.07760140
H      78.69574066      68.90792600      86.63729517
C      75.45108058      69.63358091      84.13151808
H      74.06591119      68.96839724      85.50345938
H      75.92540188      68.07644643      82.87107063
C      74.31535506      71.86534768      82.67831854
O      73.99410159      71.89180385      80.34261682
O      73.45175014      73.68704385      83.90664065
C      81.96307745      72.59667177      85.95699371
O      81.64182398      74.66025290      86.95098975
N      84.08901956      71.26819417      86.25179101
H      84.05878393      69.60901446      85.30692784
C      86.44550827      71.95038537      87.61617340
H      86.81211517      73.95349526      87.30058911
H      87.93839205      70.71639408      86.91886439
C      86.34346305      71.64991888      90.51690329
O      84.46696482      70.50852419      91.43342055
N      87.89492835      72.96138894      91.98522063
H      89.08167647      74.07632747      90.98933487
C      87.79666258      73.08611088      94.86894299
H      85.75197871      73.00107320      95.10515879
C      89.00041824      70.79387286      96.17852333
H      91.04699184      70.69560709      95.98577124
H      88.27476334      69.04020684      95.37538964
C      88.63759079      70.66537147      99.21720323
H      89.26875938      72.31321282     100.27544998
C      85.84646503      70.13246865      99.97498349
H      85.19450945      68.40147935      99.06791486
H      84.71829842      71.72550794      99.31924847
H      85.68772802      69.75263366     101.99510091
C      90.17960746      68.47139922     100.33781095
H      89.95473003      68.33722866     102.38060508
H      92.16948927      68.95894861     100.12238214
H      89.75252932      66.57978319      99.64806083
C      88.69617231      75.62023387      95.80813697
O      90.55188355      75.83377294      97.19897554
N      87.23730359      77.55720334      94.99744438
H      85.77843488      77.03374915      93.88061613
C      87.44706321      80.18014346      95.76089381
H      89.42749639      80.63178805      96.10482400
C      86.70629050      81.88656632      93.65951816
H      86.97652136      83.82353579      94.31147373
H      84.78254911      81.49350325      93.03779819
C      88.35035239      81.71271150      91.25200683
H      88.67160586      79.79274957      90.58304372
H      90.28921159      82.26640131      91.67152607
C      87.03699260      83.07142472      88.98433525
H      88.40704418      83.56464329      87.52735626
H      86.22818974      84.78162703      89.79880729
N      85.07167724      81.49350325      87.90341180
H      84.54633332      79.86833862      88.75189891
C      83.57123455      81.87522796      85.87006630
N      83.54666810      84.07297966      84.67764898
H      82.03299733      84.59454413      83.63829951
H      84.91860941      85.31452985      85.15763947
N      82.04811514      80.12723112      85.12551412
H      81.00309649      80.47872022      83.56837964
H      82.15771926      78.36600620      85.85305875
C      85.77654515      80.77540725      98.25533255
O      83.47296878      80.64690586      98.33281132
N      87.08612549      81.26484636     100.29434723
H      88.99096961      81.37634022     100.33025204
C      85.90504654      81.53885668     102.85114693
H      84.25531547      80.37478527     103.25932782
C      87.89870780      80.55430927     104.81079312
H      86.89337340      80.66202367     106.60603312
H      89.52198271      81.79585946     105.08291371
C      89.13836826      77.91814106     104.39505334
H      90.67282603      77.92947942     103.02122230
C      90.30999858      77.07532313     106.94618386
H      88.85112986      76.83343816     108.37670667
H      91.59690220      78.57198637     107.53577846
H      91.37013504      75.32354684     106.73075505
C      87.06722822      76.18904149     103.84325325
H      85.70095610      76.10967298     105.38149047
H      87.98185576      74.34844806     103.93773957
H      86.15449042      76.41769837     102.01210845
C      85.16616355      84.25817284     103.65428062
O      83.88492911      84.68147154     105.55345556
N      85.79922187      86.17057587     102.15761738
H      86.77054119      85.68869566     100.58725481
C      84.68428334      88.76517010     102.49587839
H      83.73186128      88.92390711     104.31757455
C      86.70818023      90.90434029     102.57146744
H      87.97807631      90.61899161     100.97464872
H      87.80800094      90.86843549     104.31379510
C      85.69717665      93.64444344     102.34092083
H      84.08524010      93.75404757     103.61837583
H      85.17939164      93.97892500     100.37560546
C      87.55666734      95.60975881     103.38593948
H      89.34623816      95.45669097     102.37871536
H      87.75508860      95.50393413     105.43440280
C      86.32645551      98.19868385     102.76988870
H      84.76554158      98.80339627     103.96797519
H      85.40993825      97.80373105     100.96897953
N      88.34468321     100.23769855     102.69807910
H      87.60957968     101.61152958     101.59825840
H      89.94339167      99.82762794     101.74187759
H      89.00608742     100.67044587     104.43473758
C      82.59046659      89.08264412     100.43607671
O      83.03455227      88.29462825      98.25911199
N      80.44562722      90.17112648     101.06724529
H      79.86926070      90.55852037     102.84547776
C      78.39338445      90.69269094      99.32491763
H      77.42206512      88.89178176      99.08681212
C      76.69263077      92.70902892     100.88394184
H      76.00477039      91.93235140     102.66406403
C      77.96819603      95.02205392     101.88360706
H      78.24409607      96.36564933     100.34725957
H      79.83902508      94.62899085     102.65083595
H      76.80223489      95.91589447     103.32924769
C      74.20386121      93.64255371      99.46853683
H      74.68952087      94.27939148      97.56936190
H      73.34214601      95.30929232     100.31135477
C      72.03067595      91.91156441      99.44208067
H      71.22943200      91.94746921     101.34125561
H      72.81680210      90.11821414      98.79768399
H      70.55668943      92.74304399      98.27045035
C      79.20596676      91.81518837      96.74733095
O      80.83491084      93.49893451      96.71898505
N      78.07024125      90.91756837      94.75933886
H      76.56223965      89.77050450      94.98610602
C      78.86581603      91.45047119      92.10805284
H      79.92217304      93.21358584      92.24222341
C      80.80278550      89.57775241      91.15563078
H      82.50164945      89.72326134      92.31214329
H      81.30167324      90.26183334      89.27724283
C      80.12248402      86.89056160      90.86839238
C      79.07557565      86.08742791      88.67630986
H      78.84313931      87.41023633      87.13996237
C      78.17984537      83.55141520      88.34560776
H      77.20096714      83.00339457      86.63918490
C      78.48976049      81.74672657      90.28257723
O      77.87559944      79.31275908      89.98777992
H      77.21608495      78.98583643      88.33048995
C      79.80123055      82.44403558      92.39529124
H      80.07146141      80.93414426      93.74266611
C      80.56090053      85.04429899      92.74300089
H      81.56434520      85.45625933      94.47210046
C      76.48287115      91.74337877      90.39785053
O      74.42306946      90.75694163      90.89106910
N      76.79467599      93.06618719      88.27001870
H      78.52566529      93.74837839      87.84294056
C      74.86148597      93.53294959      86.38029239
H      73.00388500      93.65011262      87.26090485
C      75.28856412      96.09919792      85.11039631
H      73.79001115      96.66044664      83.81404406
H      77.01955342      96.01416024      83.99356806
C      75.44541140      98.27994209      86.86028287
H      76.69829995      97.69034748      88.38340228
H      73.62182551      98.28183181      87.81837411
C      76.28256016     100.77438082      85.85116902
H      75.17895999     101.48113846      84.26190920
H      78.07780015     100.32273623      84.94787985
C      76.70963830     102.97402225      87.66152683
H      78.28000087     102.46190642      88.89173866
H      75.09959148     103.33684970      88.89362839
N      77.14238563     105.31350342      86.26690881
H      75.62493540     105.77081719      85.20488262
H      78.54456255     105.05272119      84.99701273
H      77.64505283     106.81583584      87.33271446
C      74.81424281      91.42779447      84.40174894
O      76.76066091      90.41868062      83.64585843
N      72.45208492      90.93268618      83.65719677
H      71.10848951      91.74904795      84.73623050
C      71.87004922      89.49082500      81.30259779
H      73.29679258      88.01494875      81.12874297
C      69.44742008      87.89211654      81.66920469
H      67.89406505      89.23760168      81.80904444
H      69.71576122      86.75639103      83.36617892
C      69.23388101      85.80963815      79.77947838
O      68.10382467      86.37844577      77.85006781
O      70.35826817      83.81219743      80.24624078
C      71.74532728      91.17457115      78.92910154
O      70.86282509      93.32318997      79.24279611
N      72.45586437      90.37710664      76.66142996
H      73.45552959      88.75572147      76.54048748
C      72.28389928      92.06463224      74.35407413
H      73.17018092      93.75404757      75.12886192
C      74.14150024      91.05362866      72.34529507
H      74.32291397      92.42179052      70.81461675
C      76.87782394      90.74182382      73.23724588
H      77.70741380      92.62588096      73.27126096
H      78.07968988      89.66656955      71.95412172
H      76.87404449      89.50594281      74.88697695
O      73.34214601      88.63855844      71.46657233
H      73.93929953      88.48171115      69.76203919
C      69.68363587      92.61454260      73.24291506
O      69.47198652      94.23592778      71.66121415
N      67.62572392      91.38999995      74.25769809
H      67.73721777      89.89333671      75.44066676
C      65.01979133      92.28761995      73.95345217
H      64.88373104      92.88477346      71.98624707
C      63.16596982      90.06908126      74.41454538
H      62.82770881      89.81396820      76.43088335
H      64.18831175      88.50627759      73.54527127
C      60.55247833      90.26183334      73.30149658
H      59.51501858      91.66212054      74.39753785
H      59.61517408      88.53084404      73.90998845
C      60.15563580      90.81363342      70.51415027
O      60.46366119      89.02406260      68.99858976
O      59.38651719      92.93579607      69.72991385
C      64.29035697      94.53639426      75.71278735
O      62.40252039      95.85164377      75.23468660
N      65.77190240      95.12787860      77.63463901
H      67.36305196      94.09797776      77.86140617
C      65.40718522      97.07618642      79.35995914
H      63.91241171      98.33096470      78.69855493
H      67.08904164      98.17978659      79.80782428
C      64.17508367      96.17667670      81.74479374
O      62.91463622      97.56751527      82.93910077
N      64.46043234      93.71436331      82.37596233
H      65.44497975      92.74115426      81.06449227
C      63.76501306      92.62588096      84.77402503
H      62.28346763      93.80129072      85.59227652
C      62.65007453      89.98782302      84.21466605
H      62.06614910      89.40200787      86.10061290
H      64.07870763      88.70469886      83.46444469
C      60.32760090      89.51728117      82.51769181
C      59.39218637      87.04551915      81.83361088
H      60.42775639      85.42980316      82.52525071
C      57.40608402      86.62977937      80.12718802
H      57.02057985      84.82887019      79.25035501
C      56.14185711      88.77839818      79.15775842
O      54.21244655      88.71225776      77.34362117
H      53.36773888      90.31285595      77.45511501
C      56.85050448      91.25204993      79.99868663
H      55.62218238      92.80729468      79.50924752
C      58.96699795      91.64322327      81.64841770
H      59.48289323      93.58397220      82.00746571
C      66.04402299      92.23848706      86.53147051
O      68.20775962      92.93201662      85.97400123
N      65.53568661      91.40511776      88.81425988
H      63.77257196      91.08008483      89.46621546
C      67.47832526      91.23315266      90.78902388
H      69.30191116      91.82463700      90.03691281
C      66.80558270      93.03217211      92.94898105
H      66.94164299      91.91156441      94.67241145
H      64.82137007      93.55562630      92.78457487
C      68.43074733      95.41133754      93.04913655
C      67.40273621      97.81884887      92.82047966
H      65.39206741      98.08530028      92.60127141
C      69.08459263      99.90699644      92.62961731
H      68.44208568     101.83640701      92.79024404
C      71.71509166      99.55361762      92.72788309
O      73.33836656     101.50003572      92.65985293
H      72.56735822     102.98914006      91.96821310
C      72.72609524      97.06106861      93.13795369
H      74.69896951      96.56029114      93.30424960
C      71.07636416      94.99748748      93.43653044
H      71.76044509      93.10209199      93.75400446
C      67.66162872      88.54785157      91.88695488
O      65.85505036      87.58976033      92.80347213
N      70.05213250      87.62566513      92.07025832
H      71.47320669      88.63477898      91.29547053
C      70.67952164      84.98382775      92.61827895
H      68.99766522      84.06353103      93.37416948
C      71.53178821      83.63645289      90.21076763
H      73.04356926      82.30230611      90.63595605
C      69.30002143      82.23616569      88.85961331
H      70.03323524      81.37445049      87.13807264
H      67.54446568      83.25850762      88.52891121
H      68.64428640      80.75462026      90.13139913
O      72.52578425      85.45436960      88.47221942
H      74.15850778      86.04585394      88.99567362
C      72.90750896      84.97815857      94.50233608
O      74.37393658      86.78662665      94.61760940
N      73.26655696      82.81631167      95.69475339
H      72.15161844      81.35933268      95.16751976
C      75.20352643      82.12845129      97.54101599
H      76.85325750      83.23016173      96.98543646
C      74.55157085      83.04118910     100.15072804
H      73.63505359      84.85343663      99.81624648
C      73.01900281      81.18547786     101.72675978
H      74.01110913      79.38456868     101.82502555
H      71.04990800      81.06831483     101.14094462
H      72.86026580      82.05853141     103.58814021
C      77.17073152      83.53818712     101.49243372
H      78.54645228      84.49816809     100.29623696
H      78.14394057      81.82042590     102.06880024
C      76.80601434      85.16146202     103.92073204
H      76.61893144      83.70826249     105.36637267
H      75.31502028      86.58442593     103.87537860
H      78.58235708      86.00427996     104.53300335
C      75.97642449      79.38078923      97.32369747
O      74.32858315      77.84444174      96.69063915
N      78.33291321      78.72316447      98.03990374
H      79.62170655      80.09699550      98.33848050
C      79.44596200      76.20793875      98.39706201
H      78.37637691      75.04197761      99.71609098
H      81.33568832      76.62367854      99.10004020
C      79.92784221      74.62812755      96.01600686
O      81.55111712      75.30275985      94.38706278
N      78.33102348      72.72139370      95.70231229
H      77.17829043      72.61178958      97.21976252
C      78.09480769      70.97339686      93.61038526
H      79.53666887      71.20583320      92.15718573
C      78.63148996      68.18983000      94.41162922
H      76.99876643      67.58511758      95.51333966
C      78.82046259      66.59679072      92.01356653
H      78.98108933      64.62202672      92.57670497
H      80.48153202      67.03331750      90.87595129
H      77.18018015      66.87458049      90.79847252
C      81.00120676      67.91015051      96.05191166
H      80.88971291      69.28776099      97.58070025
H      82.72841661      68.30888276      95.00311356
C      81.07112663      65.28910011      97.36149201
H      82.50542890      65.43271931      98.83358879
H      81.71930276      63.65448685      96.29001718
H      79.28911472      64.78076374      98.26289146
C      75.57202306      71.30598869      92.34804809
O      74.06213174      69.65814735      92.27812821
N      75.05801751      73.58121917      91.38428767
H      76.28256016      75.04008789      91.51467879
C      72.79790484      74.14435762      89.98966966
H      72.51822534      72.66848137      88.57993382
H      73.11159940      76.00195858      89.16007980
C      70.36960652      74.42025766      91.46932535
O      68.42885760      74.07821720      90.31470257
N      70.36204762      74.99095500      94.03746341
H      72.06847048      75.12323585      94.87839162
C      68.00366918      75.54653454      95.46042732
H      66.64684569      74.17270351      94.74044161
C      68.47043158      75.43693041      98.31202433
H      69.27923444      77.24539850      98.87138332
H      69.68174614      73.87034730      98.88272168
C      65.92874969      75.35756191      99.54979507
N      64.42452754      73.24862734      99.74821633
H      64.79680363      71.59700655      98.86760388
C      62.20976830      73.91948018     100.81024252
H      60.59594203      72.67415054     100.92173637
N      62.49133752      76.32510178     101.62282483
H      61.33104557      77.26807521     102.80768323
C      64.77412691      77.31531837     100.71575620
H      65.13884409      79.32409744     100.69496922
C      67.21754303      78.06176026      94.59682240
O      68.72365490      79.86266944      95.21287318
N      64.95554064      78.36600620      93.53101676
H      63.95209596      76.78808473      93.15307150
C      63.84060211      80.76028944      92.91118653
H      65.22388177      82.21159925      92.43497550
C      61.87528675      80.33699074      90.86083349
H      60.49011736      79.01985150      91.62617264
H      62.59905192      79.57354131      89.09015992
C      60.59783176      82.80119386      90.13328885
H      61.68631411      84.35265916      90.93831226
C      60.30870363      83.40401655      87.34783226
H      59.00290275      82.06420059      86.48989652
H      62.04536211      83.05630691      86.29714443
H      59.72855765      85.35610383      87.02657879
C      57.93898684      82.83898838      91.55814249
H      57.96733273      82.38545407      93.56881128
H      56.94121134      81.36689158      90.51879302
H      56.92987298      84.54352152      90.99500405
C      62.59527247      81.51617996      95.37349991
O      61.13073458      80.17825373      96.56780695
N      62.66330262      84.06353103      95.81758560
H      63.71399045      85.18224901      94.68374981
C      61.58048944      85.32964766      98.09281608
H      60.82270919      83.80463853      99.25121831
C      63.55714316      86.83575953      99.56491288
H      62.45543272      87.83731448     100.98787679
H      64.35460767      88.12266315      98.17029486
C      65.80969693      85.29752232     100.67985140
H      66.22543672      83.71015221      99.43641150
C      68.10382467      86.82064172     101.07291447
H      69.40584610      85.94758817     102.41084070
H      67.74099722      88.64422762     101.95919611
H      69.09782071      87.05685751      99.28334366
C      65.05758586      83.99361116     103.10626000
H      66.62227924      82.81631167     103.74687721
H      63.39462670      82.78985550     102.92862571
H      64.48688851      85.60554770     104.25332386
C      59.22022128      86.89812050      97.24999814
O      57.13018397      86.44836564      98.24021473
N      59.34872267      88.18691385      95.30924923
H      61.04380717      87.99227204      94.45320320
C      57.33805387      89.87254972      94.16785453
H      55.55604196      88.85776669      94.34737853
C      57.00546204      92.32730420      95.61538488