 %block lattice_cart
   135.996   0.000   0.000
   0.000 142.663   0.000
   0.000   0.000   160.158
 %endblock lattice_cart

 %block positions_abs
N      88.33617945      41.07131255      78.53792820
H      87.70312113      40.46660013      80.23301270
H      90.23913385      41.21304203      78.62485560
H      87.78815882      39.92424868      77.11496429
C      87.04360665      43.53362594      78.22801308
H      87.83729170      44.95470013      79.49223998
C      87.37241903      44.75627886      75.65798530
H      86.58818261      43.49961087      74.22746248
H      89.37552892      45.19469537      75.43688732
C      85.92299895      47.28851212      75.55594007
H      83.91233015      46.89922850      75.33862154
H      86.44456341      48.27872871      73.82684049
S      86.23291406      49.49193300      78.16376239
C      89.09962888      50.89977911      77.22267869
H      88.91065625      52.79895405      76.45544979
H      90.05394067      49.52972753      76.01514356
H      90.19755987      51.13599490      78.94799880
C      84.22224527      43.17457794      78.89886592
O      82.82195807      42.02562434      77.36062871
N      83.21313141      44.37266442      80.88496828
H      84.34129802      45.44413924      81.99045817
C      80.37854194      44.52762198      81.44621699
H      79.30706712      43.77551091      79.85695717
C      79.76627062      42.76828678      83.57971800
H      80.84719407      41.01840022      83.45310634
H      77.75182237      42.33364973      83.52113648
C      80.04028093      43.89645339      86.29336499
O      78.47558755      45.16068029      87.31570691
N      81.97347095      43.04418682      87.65963711
H      81.77693942      43.62811225      89.46621547
H      83.54194379      42.39412097      86.78847328
C      79.33730275      47.18457718      81.89219241
O      80.84719407      48.97414799      82.03392188
N      76.80129003      47.66267793      82.27202739
H      75.59753437      46.17924278      82.33060890
C      75.62965972      50.27238997      82.34383698
H      76.36287353      51.09631064      80.60339906
C      72.65900996      50.14577831      82.16242327
H      71.97303930      48.71525549      80.84906348
C      71.67824200      49.35776244      84.70032571
H      71.94469341      50.79962361      86.14785606
H      72.38310991      47.53984572      85.36361963
H      69.62977868      49.22926105      84.51702224
C      71.62721939      52.75360062      81.41976082
H      71.73493379      54.12365220      82.95421859
H      69.57308689      52.64588622      81.32338479
C      72.90845383      53.89121586      79.01035978
H      74.68101711      54.78883586      79.55649067
H      71.84642764      55.58252091      78.50391312
H      73.09175728      52.49659784      77.50424790
C      76.48948519      51.95046694      84.54725787
O      76.81262839      54.27294058      84.38852087
N      76.85420237      50.78450580      86.73934039
H      76.75404688      48.88344113      86.62784655
C      77.75182237      52.00148955      89.03724759
H      76.91467361      53.88365696      89.05614486
C      77.30584696      50.63899688      91.49011235
H      77.97669980      51.73503814      93.09826943
H      78.38488068      48.88344113      91.52412742
C      74.64322258      50.09475570      92.20253916
C      73.36954705      51.98448201      93.66707705
H      74.34086637      53.64177199      94.35682716
C      71.00360971      51.41378466      94.63272721
H      70.24016028      52.64966567      96.06702947
C      69.63733758      49.28784256      93.63873116
H      67.84020786      48.74549111      94.43808540
C      70.72581994      47.69480328      91.91530077
H      69.71292663      46.09609482      91.14807189
C      73.38088541      47.97448277      91.35783151
H      74.17834991      46.61576956      90.06147925
C      80.72625159      52.77816706      88.71788384
O      81.53127500      54.18979262      90.39974026
N      82.04717028      51.96936420      86.66942052
H      81.52371609      50.40845027      85.69999093
C      84.55861655      52.91989654      86.03636220
H      84.95923853      54.21435906      87.58593778
C      86.35385655      50.66923250      86.32171088
H      88.06594859      51.37599014      85.42220116
H      85.61686328      49.04595759      85.28992031
C      86.84329566      49.67901591      89.06748322
H      85.06317347      49.29351174      90.02746418
H      87.70501086      51.18890723      90.17297311
C      88.73113225      47.41701351      89.11472636
O      90.27125919      46.99182509      87.38751651
O      88.59885141      45.99404960      90.96854788
C      84.40932817      54.57340706      83.55515156
O      85.47891326      56.64076765      83.50412894
N      82.89943685      53.94034874      81.60495400
H      81.72591681      52.44368550      81.76747047
C      82.59141146      55.33685649      79.16720706
H      84.40554872      55.42000445      78.19399800
C      80.63365500      53.94412820      77.50235818
H      78.86109172      53.86098024      78.54737682
H      81.24970577      51.99393064      77.26047321
C      80.29728371      54.86820436      74.81138791
H      81.99425794      54.44301594      73.72668501
H      80.18201041      56.92422659      74.88130778
S      77.70079976      53.40177675      73.24669452
C      78.10142174      54.68868036      70.27415502
H      79.80784460      54.02538643      69.33118160
H      77.90300047      56.73903341      70.29683174
H      76.64066330      53.89499531      69.06095074
C      81.91866889      58.07506992      79.51113724
O      83.22824922      59.71157290      78.47556722
N      80.09130354      58.56639876      81.18543475
H      78.88754788      57.26248760      81.89030267
C      79.37131782      61.20067724      81.91297940
H      79.30517740      62.28160069      80.16120309
C      76.67467837      61.30272246      82.99768230
H      76.19090843      63.14898507      83.76869063
H      76.54050780      59.94211951      84.54158870
C      74.59408970      60.91343884      80.99457240
H      75.30840625      59.36953244      79.83050099
C      72.16012221      60.04038528      82.29848355
H      70.61054663      59.65110166      80.99646212
H      71.67257282      61.53893825      83.62507142
H      72.62310516      58.32451379      83.34161249
C      74.26716705      63.17922069      79.37507695
H      72.86687985      62.74836309      77.92754659
H      75.98114881      63.64976254      78.33572747
H      73.75127176      64.85918738      80.45033123
C      81.44434758      62.75214254      83.51546730
O      81.73725516      65.14642578      83.60806389
N      82.82573752      61.35185534      85.13307302
H      82.31740114      59.51504137      85.08582986
C      84.74947891      62.36096920      86.69587669
H      84.22791444      64.11841467      87.63318094
C      85.19545432      60.45612507      88.92386401
H      86.18756063      58.77237893      88.27946733
H      83.29249992      59.85141265      89.43597984
C      86.52582164      61.52948962      91.22744038
H      85.33718379      63.08473437      91.86427815
H      88.34940753      62.41766098      90.86650267
C      86.80739086      59.51504137      93.38928728
H      85.14821116      58.45490491      93.99399970
H      87.59729646      60.56572920      94.97287793
N      88.75947814      57.61586642      92.77890569
H      90.44889347      58.33207270      92.26112069
C      89.02026037      55.21780373      93.28724206
N      87.20801284      53.75893502      94.21320797
H      87.34974231      51.90700323      94.65918337
H      85.54316396      54.60364268      94.61194022
N      91.18021755      54.14254946      92.83559747
H      91.57517035      52.32274302      93.25322700
H      92.70900614      55.18945784      92.37828372
C      87.12864433      63.07528574      85.24645660
O      88.47035002      64.86296683      86.08927454
N      87.72012867      61.77893349      83.18854465
H      86.57306480      60.28793943      82.86351172
C      89.75347418      62.53671374      81.39330466
H      91.18588673      63.69700570      82.31171165
C      91.05171616      60.14054078      80.19332844
H      91.76225325      59.05772760      81.79770608
C      89.42277208      58.46246381      78.63241451
H      90.59818185      57.13587594      77.58550614
H      88.24736231      59.68322701      77.46078420
H      87.84296088      57.67444794      79.69444069
C      93.33450555      60.96446145      78.60406861
H      93.98079195      62.87875421      79.01035978
H      92.91687603      61.03249160      76.58773063
C      95.58139013      59.12953720      78.89886592
H      96.41097998      59.07284541      80.78481278
H      97.31804861      59.58118179      77.88597261
H      94.81416125      57.24925952      78.55682545
C      88.75758842      64.55305172      79.46389408
O      90.05583039      66.39742460      78.70044466
N      86.33684901      64.57950789      78.84784332
H      85.24269747      63.12819808      79.42987902
C      85.10852691      66.57883833      77.36629788
H      86.06094897      66.95300414      75.57861679
C      82.40999773      65.79838136      76.59906900
H      81.50103937      67.58228300      76.10962989
H      81.47080375      64.84595930      78.16565212
C      82.33251895      64.15998865      74.20856521
O      83.97280139      64.33006401      72.53426770
O      80.48247689      62.71623774      73.89109120
C      85.15954952      69.16398392      78.64942204
O      86.15543528      71.04615133      77.59117531
N      84.05594935      69.40208944      80.95488815
H      83.23958758      67.99802279      81.95644309
C      83.47958282      72.00991175      82.06415749
H      83.92933769      73.41208867      80.62796550
C      80.64121390      72.24612754      82.60272950
H      80.23303302      74.11695659      83.36050975
H      80.07996519      70.72678758      83.87640502
C      78.97069584      72.01558093      80.15931338
H      77.04317500      72.51824813      80.68465728
H      79.11242531      70.02947857      79.62641056
C      79.79839597      73.86184354      78.18643911
O      80.45413100      76.04069798      78.87996865
O      79.53572401      73.21933659      75.90175999
C      85.16710842      72.75635364      84.37718251
O      86.19511954      74.97489233      84.41308731
N      85.37497832      70.84395061      86.00801631
H      84.28649596      69.31894148      85.63951968
C      86.80172168      70.99323899      88.31915159
H      88.14720682      72.51068922      87.96199332
H      87.83729170      69.27358805      88.77457563
C      85.36552968      71.78314459      90.61705879
O      83.61942257      73.22689550      90.24856216
N      85.86252770      70.74379512      92.83937693
H      87.55194303      69.86318266      92.92819406
C      84.57940354      71.33716918      95.22421153
H      82.53471967      71.44677331      95.01067246
C      85.24458720      69.33405929      97.20842416
H      84.74192000      69.82916758      99.14350391
H      87.27037381      68.98257020      97.33314610
C      83.99169865      66.81694384      96.77189738
H      84.68333849      66.19711361      94.93319368
C      84.65688232      64.77225997      98.52556340
H      84.80617070      65.39964911     100.48143014
H      86.55038808      64.16754755      97.98132222
H      83.57973832      63.01670423      98.49532779
C      81.07963041      66.99646784      96.95142139
H      80.23870220      65.12752852      96.73977204
H      80.19145904      68.03770704      95.41129445
H      80.41444674      68.16620843      98.51233533
C      85.27482282      73.99034493      96.26167129
O      86.94534088      74.11695659      97.94163797
N      84.43389461      76.22589115      95.16563003
H      83.43611912      76.01046235      93.55180376
C      85.22757966      78.60127713      96.38639323
H      87.28549162      78.69954290      96.32781170
C      84.39043091      80.78202129      94.81414093
H      84.67011040      82.55269485      95.82703424
H      82.38921074      80.55714386      94.38139360
C      86.03260307      81.00311927      92.32348164
H      86.00425718      79.20976900      91.31058835
H      87.96579309      81.20154054      93.00567284
C      85.28049200      82.94575792      90.38462245
H      85.28616118      84.74099792      91.39373631
H      83.40021432      82.52623868      89.65707782
N      87.12675461      83.00622916      88.30025432
H      88.80672130      83.85660601      88.60639000
C      86.72613263      82.10293999      86.03069303
N      84.67766931      80.95776584      85.56393063
H      84.50570421      80.35494315      83.76113173
H      83.45879583      80.30203081      86.87918014
N      88.54026989      82.47332634      84.48489690
H      88.34373835      81.92530571      82.66698018
H      90.10874273      83.25756276      85.24267715
C      84.31862131      78.76190387      99.13027583
O      82.19456893      78.00223389      99.74632661
N      85.67922425      79.98644652     100.81591170
H      87.47068480      80.43809111     100.33403148
C      85.24836665      80.42675275     103.51255115
H      83.41722186      79.71054648     104.11915329
C      87.34596286      79.17953338     105.16984113
H      86.75825798      78.88851553     107.12192841
H      89.07884189      80.29258218     105.28700416
C      87.85051979      76.45832749     104.32891291
H      88.58184387      76.41675351     102.40517152
C      89.91977010      75.42842665     105.98620289
H      91.51658883      76.67186656     105.61581653
H      90.19755987      73.49334691     105.33235759
H      89.23379945      75.41519857     107.92884155
C      85.62442219      74.69521284     104.57646707
H      84.04272127      75.31126362     103.41050592
H      85.00837141      74.59694707     106.53989270
H      86.11008185      72.91698038     103.65994980
C      84.90065701      83.19709152     104.24387523
O      84.49625558      83.68275118     106.49264955
N      85.06884265      84.90540411     102.36926672
H      85.00459196      84.12872659     100.62693906
C      84.14287676      87.54346204     102.48265030
H      83.43611912      87.97809909     104.36670745
C      86.52582164      89.31035615     102.51855510
H      87.98469035      88.75288688     103.86026079
H      85.77182084      91.22653863     102.56768800
C      87.94122665      89.29901779     100.02033693
H      86.96423815      90.31758027      98.51989423
H      88.31539246      87.35637914      99.45341902
C      90.44133456      90.78056322     100.55701920
H      91.51847856      89.79412608     102.01021872
H      89.88764475      92.68162789     101.12771654
C      91.81327586      91.08858861      98.13627978
H      90.59251267      91.67440376      96.58292475
H      92.74491094      89.27256162      97.85849002
N      93.97512277      92.95941766      98.18730239
H      95.15053253      92.63060528      96.72087477
H      94.94266264      92.88193888      99.82947456
H      93.33261582      94.75465765      98.07958799
C      82.06417782      88.11226966     100.53623221
O      81.69946064      86.56836326      98.78445591
N      80.70168514      90.20041724     100.70252812
H      81.05317424      91.54212292     102.01210846
C      78.38866014      90.70875362      99.15484227
H      77.36253875      88.93808006      98.92051621
C      76.61042768      92.66084090     100.41151027
H      77.82363197      94.23309319     100.95575145
C      74.54684654      93.58113761      98.61060109
H      73.50560734      92.12226890      97.59581807
H      75.32163433      94.92473302      97.25566732
H      73.15033880      94.68851723      99.64050194
C      75.32730351      91.40606263     102.73020446
H      76.79751058      90.32135972     103.68262652
H      74.02528208      89.86593568     102.30879548
C      73.98559783      93.19374372     104.58024651
H      73.56796831      92.17140178     106.32068445
H      72.12421741      93.60570405     103.79978955
H      75.01171922      94.95118919     104.90527944
C      79.13510203      91.60826334      96.45064392
O      81.06073314      92.95374848      96.11238291
N      77.73481483      90.86560090      94.53068199
H      76.24571050      89.73932402      94.93130397
C      78.48125673      91.27756124      91.82648363
H      78.99526228      93.26177387      91.62806237
C      80.57318375      89.41051164      91.10460818
H      81.90544081      89.13461160      92.65229403
H      81.57851815      90.20419669      89.49078191
C      79.73981445      86.81213796      90.36572519
C      80.06295765      86.23199198      87.80892549
H      80.76215639      87.44708600      86.32738005
C      79.09352805      83.89629026      86.82248835
H      79.16533765      83.49755801      84.82126819
C      77.95024363      82.22955165      88.49678586
O      77.06207227      80.01668214      87.72577753
H      77.35686957      79.94298281      85.93620671
C      77.81607306      82.70387295      91.11972599
H      76.99782157      81.32059329      92.37828372
C      78.65700127      85.05658221      92.11939120
H      78.32251972      85.54602133      94.07336821
C      76.14933446      91.19441328      90.11817104
O      74.06874579      90.71631252      90.99689377
N      76.58397151      91.91628873      87.76924124
H      78.26582793      91.81991269      86.87351097
C      74.64322258      92.63816418      85.94376561
H      72.87065930      92.89138751      86.96421782
C      75.08352882      95.10425702      84.52080170
H      73.65300600      95.21386115      83.04114599
H      76.91656334      94.92473302      83.59861527
C      74.95880688      97.17728679      86.49556570
H      76.52350027      97.08280047      87.83349193
H      73.15411825      96.91461483      87.45176721
C      74.67723766      99.76621183      85.30503813
H      72.92357164      99.87581596      84.22978384
H      76.26460776      99.90038240      83.99734752
C      74.77172397     101.83357242      87.24956650
H      76.33641736     101.62192307      88.57237492
H      72.99727097     101.64271006      88.27946733
N      74.88321783     104.35068787      85.99856768
H      76.18334953     104.30533444      84.60017021
H      75.91122894     105.51853873      87.10216784
H      73.20514086     104.93839275      85.30692784
C      73.68702107      90.49710427      84.23356330
O      75.10809526      88.87004991      83.49657004
N      71.33620154      90.43285358      83.55326182
H      70.35732331      91.85014831      84.37529277
C      70.41968427      89.00988966      81.47456289
H      71.23415632      87.12961198      81.69377113
C      67.54919001      88.69997455      81.87896431
H      66.57409123      90.47820701      81.51046769
H      67.12778104      88.06691623      83.79136734
C      66.70448234      86.48710503      80.18387982
O      64.41791350      86.45120023      79.61129274
O      68.19736613      84.84871232      79.32216461
C      71.23037686      90.19096861      78.88941729
O      71.93902423      92.42462511      78.83461522
N      70.76928364      88.96264650      76.64631216
H      70.32708769      87.13150171      76.96378617
C      71.29273783      90.03979050      74.03282067
H      72.93868945      91.23976671      74.34651523
C      71.79162558      87.82881072      72.14309435
H      70.01717257      86.85749139      71.76703882
C      73.40167240      88.53745808      69.80172346
H      72.29996196      89.62971989      68.44678968
H      74.06118688      86.93497017      68.68300547
H      74.90967399      89.83947951      70.32139818
O      73.51127652      85.93530495      73.07283969
H      72.52861884      84.43486226      73.34307057
C      69.25372314      92.05801820      73.13898012
O      69.55229990      93.25988414      71.27570998
N      67.24872352      92.39438949      74.63375364
H      67.12778104      91.35315029      76.22868264
C      65.30797460      94.35403567      74.49580361
H      65.32687186      95.42173104      72.73457869
C      62.61133515      93.17295673      74.71312213
H      61.21671713      94.66017134      74.41454538
H      62.32220702      92.11470999      76.45544979
C      61.98772547      91.18496465      72.65143073
H      60.13957313      90.43852275      73.17110547
H      63.41635856      89.70530894      72.73835815
C      61.79308366      91.96542161      69.85841523
O      61.82331928      94.17640140      69.17433432
O      61.63245692      90.30246246      68.20868416
C      65.88434112      96.41761681      76.56127448
O      64.19870525      97.92372868      77.12441291
N      67.96870925      96.28533597      78.05415826
H      69.23671560      94.89827685      77.72345616
C      68.56208331      98.00498691      80.18576953
H      67.96115034      99.88337487      79.59239547
H      70.60298773      98.26198969      80.28025586
C      67.46226260      97.58735740      82.77091513
O      68.10476954      99.10291790      84.46033045
N      65.62733835      95.81857357      83.12807341
H      65.07364854      94.94363028      81.52558550
C      64.35933199      95.58802696      85.61495324
H      63.81887026      97.39271559      86.44832254
C      62.01040218      93.82869176      85.18409564
H      61.19593014      93.51499719      87.04925550
H      62.74172627      91.98053943      84.64930309
C      59.94493132      94.62048708      83.36050975
C      58.31976669      92.78556283      82.27958630
H      58.58054892      90.80701938      82.70288498
C      56.34311297      93.54712254      80.57505316
H      55.26218952      92.10715109      79.61507220
C      55.97650606      96.13793731      80.05726816
O      54.20205306      96.64060451      78.23746171
H      53.79765163      98.40749862      78.19966719
C      57.53553027      98.02010472      81.30637724
H      56.99884800      99.95707419      80.95488815
C      59.49706619      97.21886076      82.83894528
H      60.88412530      98.51521302      83.58538717
C      66.27551447      94.21608565      87.47066448
O      68.31641889      93.44696704      86.76579656
N      65.77284727      94.31624115      89.94431622
H      63.98516618      94.71119395      90.49044713
C      67.47171123      93.32602456      91.89640350
H      69.35765809      93.44129787      91.07815200
C      67.44147561      94.75465765      94.44564429
H      68.55641413      93.77766915      95.87616711
H      65.50072668      95.08913921      95.04846700
C      68.85877034      97.29444982      94.02612505
C      67.53029274      99.49220152      94.38139360
H      65.52151367      99.49787070      94.74044161
C      68.70570251     101.96207381      94.03368396
H      67.81375169     103.74975490      94.44942375
C      71.38911387     101.90916147      93.91841066
O      72.69491476     104.21651730      94.14139836
H      71.60454267     105.65648875      94.28879702
C      72.65712023      99.60747482      93.27968316
H      74.66589930      99.53755495      92.93197352
C      71.43068785      97.30767790      93.48377361
H      72.55129556      95.62582148      93.20031465
C      67.12211186      90.55379606      92.45387276
O      65.10955334      89.57113838      93.12850506
N      69.32175329      89.43696781      92.45576249
H      70.79573981      90.65017210      92.43119605
C      69.74883143      86.71009274      93.00378313
H      68.13878462      85.94853303      94.03935315
C      69.93969379      85.23799594      90.46399095
H      70.40456646      83.30102647      90.98933487
C      67.56052836      85.25122402      88.81237015
H      67.21092900      87.20709076      88.27190844
H      65.87300277      84.42352390      89.65707782
H      67.93658390      84.29502251      87.02657880
O      72.10343042      86.11671868      89.09015992
H      73.25049429      87.00677977      90.17675256
C      71.81619202      86.07136524      94.90484779
O      73.40167240      87.58125657      95.47554514
N      71.78595640      83.81881148      95.96120480
H      70.22882192      82.72465994      95.81569587
C      74.03095126      82.68308597      97.12338648
H      75.84130907      83.43897649      96.49599735
C      73.97048002      83.32559291      99.96175540
H      73.70402861      85.33059253     100.34348013
C      71.82564065      81.82703995     101.31857890
H      70.11543834      82.70009350     100.57402673
H      71.75761050      81.76089952     103.37649085
H      71.79162558      79.86928349     100.67229249
C      76.50271328      82.80969763     101.24487957
H      78.00504570      83.60905186     100.08269788
H      76.96002704      80.89540487     101.85526118
C      77.04884418      84.20620537     103.76199503
H      75.72225631      83.53346281     105.18684867
H      76.69924481      86.19986663     103.37838057
H      79.00282119      84.22510264     104.41584033
C      74.37488145      79.79180471      96.71709533
O      72.64578187      78.59560795      95.80435751
N      76.45169067      78.53324698      97.47109613
H      77.74804292      79.52724302      98.45942299
C      76.78239277      75.71944450      97.17818855
H      75.20636103      74.68198476      98.00399895
H      78.56251496      75.07126838      97.98699140
C      77.21702982      75.27913827      94.32092237
O      78.54361769      76.64163094      92.99244476
N      76.05295841      73.17398316      93.54235513
H      75.23848637      72.27825289      95.01823137
C      75.46525353      72.81304543      90.91563554
H      76.69168591      74.05837507      89.82526347
C      76.10965020      70.15231078      90.23155461
H      75.17423568      68.79926674      91.46932535
C      75.09108772      69.66854085      87.58404806
H      73.04262440      69.88396965      87.62562203
H      75.15722814      67.73724056      86.87162123
H      76.10209130      71.04237188      86.42753555
C      78.96502666      69.69121756      90.06714844
H      79.97036106      70.20711285      91.79057883
H      79.88343365      70.78158965      88.58182354
C      79.39021508      66.87930481      89.62495247
H      78.80062047      66.21034169      87.76735150
H      78.43590329      65.66421079      90.98744515
H      81.41978114      66.60340477      89.83471209
C      72.78940107      73.74090105      90.32415120
O      70.98282272      72.39730564      90.93264308
N      72.76672436      75.90274795      88.95598935
H      74.45047050      76.74367616      88.64040507
C      70.53873703      76.76068370      87.52735627
H      70.06441573      75.37740404      86.07982591
H      71.00171998      78.38962778      86.35194649
C      68.38255931      77.50901532      89.25078666
O      66.45314874      78.52568808      88.26434953
N      68.54129632      77.20476938      91.70554115
H      69.98504722      76.45832749      92.70709608
C      66.16591034      77.38051393      93.17952766
H      64.74294643      76.36762063      92.08915558
C      66.33598571      75.93487330      95.59648763
H      67.52084411      76.82304467      97.02701045
H      67.21281872      74.10939768      95.21854236
C      63.75461957      75.28102800      96.92496522
N      62.60944542      72.89619339      97.34259474
H      63.08943591      71.22567533      96.54890969
C      60.46460606      73.19854960      98.66351342
H      59.17581271      71.72078362      99.22665187
N      60.17358821      75.63629654      99.14161419
H      58.89613322      76.38273844     100.34536984
C      62.17102892      76.97989195      98.17974349
H      62.21827208      79.01890664      98.24777363
C      65.21915746      80.11116845      93.74455583
O      66.72148988      81.88562146      94.08281684
N      62.76440298      80.58548976      93.27401399
H      61.74206105      79.17953338      92.48788784
C      61.81953982      83.15173809      93.06047491
H      63.20848866      84.54824584      92.45954195
C      59.56698606      83.28779839      91.28980136
H      57.85489402      82.45064963      92.07214805
H      60.06587381      82.28057426      89.56448123
C      58.84889006      85.91829741      90.53580056
H      59.19659970      87.16929623      92.13450901
C      60.46271633      86.97276470      88.25679063
H      60.42303208      85.55169051      86.76579656
H      62.41102416      87.26945173      88.86150305
H      59.78619431      88.78123278      87.54058435
C      56.04075676      85.97120975      89.76479223
H      54.77464013      85.33059253      91.25767601
H      55.74973891      84.84304314      88.06592826
H      55.40958817      87.89306141      89.36794969
C      61.29419591      84.06258617      95.78734998
O      60.16413957      82.82481544      97.40306598
N      62.18047755      86.40773653      96.35048843
H      63.27462909      87.42818874      95.16751974
C      61.53608088      87.76267029      98.68619015
H      60.87089722      86.21309472      99.87293826
C      63.92280521      89.01366911      99.75766497
H      63.38234349      90.11915901     101.41117549
H      64.69003409      90.27411656      98.31769352
C      65.97882744      87.02567703     100.52300412
H      66.39456723      85.59326449      99.10192993
C      68.25594765      88.53556836     101.32046862
H      68.74916621      89.77333909      99.75199578
H      69.84520748      87.26378255     101.63605291
H      67.82131059      89.66184524     102.98909696
C      65.23049582      85.49121927     102.90216954
H      64.63712176      86.82158659     104.35725880
H      66.74605632      84.16085194     103.31979907
H      63.61855927      84.21754373     102.73398391
C      59.49139701      89.83947951      98.33659077
O      57.70371591      89.80168499      99.78223141
N      59.99595393      91.32480439      96.40529048
H      61.32443153      90.97142557      95.07870261
C      58.28386189      93.46397458      95.89317465
H      56.41303284      92.63060528      95.67207667
C      58.37456876      95.43684885      97.94919688