 %block lattice_cart
   135.996   0.000   0.000
   0.000 142.663   0.000
   0.000   0.000   160.158
 %endblock lattice_cart

 %block positions_abs
N      88.60263086      40.25400592      79.24657557
H      88.35885616      40.04046685      81.12874296
H      90.45834210      39.91196546      78.95177825
H      87.64642935      39.09182424      78.07683497
C      87.91288076      42.86749741      78.75713644
H      88.77270623      44.05613526      80.20466680
C      88.85207474      43.68574891      76.09262234
H      87.85240952      42.57647956      74.67532761
H      90.87597161      43.31347282      76.20033674
C      88.27003902      46.52033837      75.69389010
H      86.23669352      46.83781240      75.61641131
H      89.03348845      47.09103572      73.86652474
S      89.52481729      48.69541336      78.18454937
C      90.02370504      51.53378228      76.81260807
H      91.90398272      51.18985209      76.04726891
H      90.18811124      53.09469622      78.14486512
H      88.55349797      52.12715635      75.49735856
C      85.06695293      43.31158310      79.12941252
O      83.60052530      41.75633834      78.31871994
N      84.41688708      45.13327926      80.77725387
H      85.78126947      46.25388696      81.49912933
C      81.81473395      45.25044229      81.90353075
H      80.57507348      43.92007497      80.93410116
C      82.18134084      44.13928322      84.68331817
H      83.67611436      45.13138953      85.69432174
H      82.49692515      42.10782743      84.56615514
C      79.91555899      44.66084768      86.28391636
O      80.18390013      46.04601707      87.97522141
N      77.73292510      43.58559341      85.59983543
H      76.27405640      43.97298731      86.76768628
H      77.69702030      42.20609320      84.28269618
C      80.74892830      47.96597900      81.69377113
O      82.20023811      49.76688818      81.42165055
N      78.24315121      48.20786397      82.15108491
H      77.20947091      46.75277471      82.82571720
C      77.06018253      50.71931024      82.05659858
H      77.03750583      51.65094531      80.21789488
C      74.10843003      50.31301909      82.59517059
H      73.55096077      49.09225589      81.03047721
C      73.43001829      48.70675172      84.94032094
H      74.24638006      46.83403294      84.67197981
H      71.40234195      48.58014006      85.27858195
H      74.24826978      49.65161488      86.57493421
C      72.63255378      52.84714207      82.68020828
H      72.70436338      53.89971963      84.44899211
H      70.66534870      52.38415912      82.27013766
C      73.01049904      54.68206632      80.33505791
H      74.82652604      55.64960619      80.40686751
H      71.44769539      56.02377200      80.31427092
H      72.97459424      53.67673192      78.53792820
C      77.97292035      52.52021942      84.18254070
O      78.36409370      54.67639714      83.55893101
N      78.86676089      51.61315079      86.39541020
H      78.36220396      49.81791079      86.80359108
C      79.83619050      53.45752367      88.25112144
H      78.71558279      55.15449790      88.58749273
C      80.03839121      52.06101592      90.65485331
H      81.29505921      53.26666131      91.75467402
H      80.76971529      50.15050262      90.40540943
C      77.53639356      51.92495563      91.90396240
C      76.51783109      53.93184497      93.36094139
H      77.43623808      55.74976169      93.47432498
C      74.20102662      53.68996001      94.60060186
H      73.31285525      55.06379104      95.81947533
C      72.85365176      51.48275967      94.31336346
H      71.14533918      51.28622814      95.41318416
C      73.84386836      49.44374498      92.96598859
H      72.84042368      47.68818924      92.70331663
C      76.35153518      49.60248199      91.94742612
H      77.24348599      47.90928722      91.24066846
C      82.41566690      54.26821626      87.45743640
O      83.18667525      56.47352687      87.91475016
N      83.90666097      52.76021466      86.05525947
H      83.35108143      51.23898498      85.04425589
C      86.33495928      53.66917302      84.98756410
H      87.35541149      54.89371567      86.29147525
C      87.94500611      51.32780212      84.41875648
H      89.79504816      52.02511112      83.83861050
H      86.92455390      50.34703416      82.92209324
C      88.49302674      49.50799568      86.62406709
H      86.76392716      48.65005993      87.34972200
H      89.29238097      50.36971087      88.31537213
C      89.93299819      47.24221383      85.55826144
O      88.93711242      45.94586158      83.84805913
O      92.04949165      46.71498019      86.42186638
C      85.98347018      55.21496914      82.56871441
O      87.37052930      57.15571806      82.27958630
N      84.04083153      54.88993622      80.92465252
H      82.94101083      53.42917778      81.47456289
C      83.55139242      56.28455423      78.53603846
H      85.28049200      56.18817819      77.41921021
C      81.51048801      54.90505403      76.97890398
H      79.74737336      54.96552527      78.03904045
H      82.03961137      52.91895167      76.82772589
C      81.24214686      56.08802270      74.27470564
H      82.57062447      55.23953558      72.94811775
H      81.53694418      58.12514766      74.19344739
S      78.00882515      55.51921508      73.00291982
C      78.31307108      56.50187276      69.77148783
H      76.44413176      56.36581247      68.91166236
H      79.46013496      55.26977120      68.58284997
H      79.17856574      58.36325318      69.60708163
C      82.98447452      59.09268754      79.18799405
O      84.17689183      60.79344122      78.25824869
N      81.19301398      59.49519924      80.88685800
H      80.65822144      57.92294695      81.82605198
C      80.54672759      62.13514690      81.68432251
H      80.68089815      63.38992517      80.05915788
C      78.09197310      61.95562290      83.05626380
H      77.80095525      63.67527384      84.15230507
H      78.21102587      60.24731031      84.20332767
C      75.75060221      61.56633928      81.30070807
H      76.14366527      60.04133014      79.97223046
C      73.34120115      60.97863440      82.84272473
H      71.71414680      60.59501995      81.64085879
H      72.87821820      62.70395452      83.86506667
H      73.78528683      59.48197116      84.18632014
C      75.35753913      64.00030677      79.77569893
H      75.16100760      65.69539127      80.93221143
H      73.62466011      63.93983553      78.66453985
H      76.82963592      64.16660269      78.34517611
C      82.48747650      63.22173953      83.50412894
O      82.44212308      65.56688988      83.48523169
N      84.19956855      61.88192357      84.84205518
H      84.10886168      59.97896918      84.93087231
C      86.07984623      63.20851145      86.48233762
H      84.99136387      64.61257810      87.52735627
C      87.32895533      61.38870501      88.43253516
H      88.15287599      59.81267326      87.38940625
H      85.73969550      60.63092475      89.50212027
C      89.14120285      62.40537776      90.44887314
H      88.14909654      63.60724370      91.79813774
H      90.49802634      63.60913342      89.47188464
C      90.60385103      60.44762130      92.13828846
H      91.83784231      61.39248446      93.49133251
H      91.62052378      59.26276290      90.79280334
N      88.66877128      58.82056695      93.41385372
H      88.14342737      57.09524682      92.79024405
C      87.75981293      59.24008619      95.84026231
N      88.40420959      61.21296046      97.20842416
H      87.73902594      61.48697077      98.97720799
H      89.72890774      62.39214968      96.50355626
N      86.19889898      57.65082636      96.88528096
H      85.80394619      57.86247571      98.73910248
H      85.46568518      56.26376724      95.79868834
C      87.92043965      64.46517944      84.76457640
O      89.05994462      66.36624411      85.49401076
N      88.28326712      63.45795532      82.45155138
H      87.41210329      61.76476054      82.31738082
C      90.09740437      64.30833216      80.48812574
H      91.42399224      65.68783237      81.25346490
C      91.84162176      62.15404416      79.57538794
H      92.08917590      60.83501520      81.14008133
C      90.54904896      60.59690968      77.54771160
H      91.81138613      59.19662248      76.71623203
H      90.11630164      61.81767288      75.94522370
H      88.73680143      59.80322463      78.11651922
C      94.37763448      63.04221553      78.52470010
H      94.04504263      63.93227662      76.69544504
H      95.44910928      61.30555705      78.24502061
C      95.84784154      64.71273359      80.35962435
H      95.27336475      66.67804896      80.11962912
H      97.83583362      64.89792677      79.85695716
H      96.01602719      63.91904854      82.25124039
C      88.79727267      65.97129131      78.43777270
O      90.11063246      66.73285102      76.68032723
N      86.33306956      66.55521675      78.63619396
H      85.21435157      65.80121595      79.98923801
C      85.00459195      68.39958963      76.94866837
H      86.28015722      69.25752537      75.57483734
C      82.49692515      67.28654083      75.81294285
H      80.93223176      68.60934925      75.60885240
H      81.77127024      65.94105569      77.19244306
C      82.81061970      66.16782285      73.21456917
O      84.90632619      66.54198866      72.11285872
O      80.97002628      64.88091923      72.30561081
C      84.23547335      70.75985779      78.56060490
O      84.26381925      72.84044646      77.44944584
N      83.76682123      70.62946668      81.05315391
H      83.52871570      68.94194108      81.90919994
C      82.51771213      72.76107796      82.42698494
H      81.76182160      74.01963568      80.98134432
C      80.35775495      71.68582369      84.13340780
H      79.51493701      73.20516364      85.23889769
H      81.17789618      70.30632348      85.42409087
C      78.29417383      70.31766183      82.48178701
H      77.43812780      69.16681851      83.96144272
H      79.07463079      69.14036234      80.98323404
C      76.52539000      72.26596966      81.34795123
O      77.29639833      74.24451311      80.28781475
O      74.26149786      71.71794903      81.17220668
C      84.43200488      74.26907956      84.11640027
O      83.70446025      76.04542229      85.35984018
N      86.71290454      73.44326916      84.33749825
H      87.26092518      71.93904701      83.29814877
C      88.38531234      74.50151589      86.32171088
H      88.10374311      76.54053058      86.24045265
H      90.32984071      73.94215690      85.93998616
C      87.46312589      73.85522949      89.11472636
O      85.81906399      72.30565392      89.39440587
N      88.55160825      74.85300499      91.04035748
H      89.97835162      76.02652503      90.56414645
C      87.80894581      74.91536595      93.72376884
H      85.77937974      74.58088440      93.77857091
C      89.15443095      72.79698276      95.10515878
H      91.09140042      72.76674714      94.40784977
H      88.44389384      71.02252975      94.33792990
C      89.16765903      72.74218069      97.98699140
H      89.85929885      74.56387686      98.65595452
C      86.42377641      72.27163884      98.85437579
H      85.50914889      70.92804343      97.58825916
H      85.17844677      73.90814183      98.70319768
H      86.35763600      71.57999901     100.79512471
C      90.78526475      70.71261463      99.03389978
H      90.91565586      70.72962217     101.08992202
H      92.74869039      70.91292562      98.44241544
H      90.05205094      68.89847737      98.38950311
C      88.40609932      77.49484237      94.79524366
O      90.48857771      78.31309386      95.02201082
N      86.47668875      78.92725492      95.37727936
H      84.82695768      78.01073765      95.08626151
C      86.62030795      81.69192451      95.97821233
H      88.53460072      82.36466708      96.33348089
C      85.63387083      83.29063297      93.80691680
H      85.69812151      85.23894080      94.47021073
H      83.63454039      82.92213634      93.48755306
C      87.12675461      82.95048224      91.36728013
H      87.42911082      80.96626961      90.90429718
H      89.04671655      83.58920973      91.75656376
C      86.11764075      84.42446876      88.98622497
H      87.55005331      85.44870042      87.92230907
H      84.97057688      86.03829503      89.55125315
N      84.74003028      82.45159449      87.42153160
H      84.43767407      80.71304628      88.15285568
C      83.94634522      82.90890826      85.01968945
N      84.06917744      85.08776270      83.94821462
H      83.55139242      85.28618396      82.12273900
H      84.78160425      86.56552867      84.91953395
N      83.14888071      81.06453538      83.71766801
H      82.58385255      81.12122717      81.89408213
H      83.00148207      79.39401732      84.62662638
C      85.18033650      82.23994514      98.53123258
O      82.94290055      81.59176902      98.81091208
N      86.58251343      83.06953499     100.37749519
H      88.26436985      83.88589676     100.00332939
C      85.72646740      82.98071786     102.95697161
H      84.19767882      81.61255601     103.14216479
C      87.80516636      81.79208001     104.72197599
H      87.30627860      82.02640607     106.70618862
H      89.56072209      82.86355483     104.62182050
C      88.79160348      79.21071386     103.97175465
H      89.54560428      79.36567142     102.05935161
C      90.96289903      78.24317399     105.62148572
H      92.55593831      79.51307007     105.32101922
H      91.84540122      76.50462578     104.95630205
H      90.65298391      78.22616645     107.65861068
C      86.93778198      76.94871147     103.91128339
H      85.32017626      77.53074717     102.77555789
H      86.37086408      76.46305180     105.83124534
H      87.98091091      75.37834890     103.07980382
C      84.36586446      85.35232438     103.96797519
O      82.71613339      85.22382299     105.50999186
N      85.15010089      87.51039183     103.16295178
H      86.71290454      87.54062745     102.06880025
C      83.83485137      89.90467507     103.33680660
H      83.08085057      90.01049974     105.25109936
C      85.87197633      91.91534387     103.20452575
H      86.83573675      92.10053704     101.39227823
H      87.45934643      91.71125342     104.50465747
C      84.84774468      94.65733675     103.88860669
H      83.59296640      94.56474016     105.52133022
H      83.67611436      95.09386352     102.25210369
C      86.92077443      96.60564457     104.28922866
H      88.34184863      96.37698769     102.81902159
H      87.81272526      96.05573422     106.06179195
C      85.92110922      99.22291552     104.45930402
H      84.84774468      99.41944705     106.20730087
H      84.61719806      99.51015392     102.88894146
N      87.92610884     101.19201034     104.65583556
H      89.46434605     100.72902739     103.62215528
H      88.51381373     101.54916861     106.43406802
H      87.05116556     102.71701947     103.91695258
C      81.87709491      90.10687578     101.18440832
O      82.06795726      88.64422762      99.46097793
N      79.92122818      91.60164930     101.75699540
H      80.10453162      92.47470285     103.44452100
C      77.68757167      91.92290277     100.07891843
H      76.85042291      90.04829427      99.90884307
C      75.36320831      93.34964614     101.12960627
H      74.88699727      92.61265288     102.99287641
C      75.87154469      96.24092740     101.59825839
H      74.49204448      97.05539944     102.89272092
H      76.08508377      97.27838714      99.83325401
H      77.69702030      96.39399523     102.53745237
C      72.85176204      92.72603645      99.90506361
H      72.45869896      90.71347793     100.10915406
H      73.18624360      93.14366597      97.91707153
C      70.57653156      94.23214833     100.99921514
H      70.91479256      94.25482504     103.03067093
H      68.71326142      93.47814753     100.53434247
H      70.47637607      96.23903767     100.55323974
C      78.60786838      92.96225224      97.49755229
O      80.68467760      94.06396268      97.27834404
N      77.37954629      92.16667747      95.41318416
H      75.92634675      90.96103208      95.69475339
C      77.89355184      92.72225700      92.72977281
H      78.69290607      94.61576277      92.60505087
C      79.73414528      90.83631014      91.42964111
H      81.32151537      90.83064096      92.74300088
H      80.48625634      91.63944382      89.68731345
C      79.01038009      88.15667823      90.77579579
C      78.55873550      87.41023634      88.22277554
H      78.51149234      88.90689958      86.83760617
C      78.15622379      84.77028868      87.90152208
H      77.70646894      83.99361116      86.06848755
C      78.15244434      83.09410144      89.91219087
O      77.84063951      80.55052982      89.57204014
H      77.99370734      80.02896536      87.84294056
C      78.71558279      83.82920497      92.27623848
H      78.80439993      82.40435133      93.73699692
C      79.06896160      86.35576905      92.76189816
H      79.73981445      86.92457667      94.60249158
C      75.40667201      92.93957553      91.17641778
O      73.26183264      93.07185637      92.15151656
N      75.69013097      93.37610231      88.72166330
H      77.42867917      93.03406184      88.00923647
C      73.59253476      93.85798252      86.91508494
H      71.75383106      93.27594681      87.63885011
C      73.42434912      96.72469733      86.40485883
H      71.92201669      96.93823641      85.01402026
H      75.21014048      97.43523443      85.66597584
C      72.59286954      98.12309480      88.75945782
H      74.00071564      97.79428243      90.22777516
H      70.83731378      97.32563030      89.47944355
C      72.25271879     100.91611029      88.33804886
H      73.92323685     101.55483779      87.31570691
H      72.31696949     101.85530427      90.17108337
C      69.96614995     101.71546453      86.77902464
H      68.31641888     101.72869261      88.01112621
H      69.51828482     100.23769855      85.41464225
N      70.20992466     104.03226898      85.42031142
H      71.10943438     105.30972397      86.51824242
H      68.60365728     104.61808414      84.57182431
H      71.46281319     103.62219837      84.03892150
C      74.02528208      92.47848231      84.42064620
O      76.11342966      92.44257751      83.43042962
N      72.00705437      91.42968420      83.27736179
H      70.45558908      91.55062669      84.38096196
C      71.85020710      90.33553267      80.72812100
H      73.58686557      89.27539621      80.40686751
C      69.70914719      88.41368101      80.62040659
H      67.94225307      89.41145650      80.96244706
H      70.05496709      86.88678215      81.96022254
C      69.55985881      87.08898286      78.02770208
O      67.58509480      86.79607528      76.97890398
O      71.58942487      86.70914787      76.88819713
C      71.38533442      92.53517410      78.81004878
O      71.04707341      94.69513127      79.60562357
N      71.67824200      91.96258702      76.33828676
H      72.22815235      90.16356757      76.00947439
C      71.55729952      94.00727089      74.33139743
H      72.72137093      95.62109717      74.86618996
C      72.68924558      93.18335022      71.69144976
H      71.95981122      94.47214357      70.25903722
C      75.51438641      93.34586668      71.51759495
H      76.54050781      92.17801582      72.87063898
H      75.98114882      95.31307178      71.91065801
H      76.16067281      92.63155014      69.69589877
O      71.92012697      90.66245532      71.12264214
H      70.19291712      90.65489642      70.56706260
C      68.81341690      94.83686075      73.96856997
O      68.39578740      96.96280285      72.91032323
N      66.84054263      93.44602218      74.94933793
H      67.30163586      91.72448151      75.63341886
C      64.35555254      94.38899561      75.13453111
H      63.94926137      95.03150256      73.22023835
C      62.52818720      92.16100829      75.85451682
H      60.70271158      93.04540020      76.22301346
H      63.29163663      91.56763422      77.67243354
C      62.15213165      89.87443945      73.99124668
H      60.73483692      88.59131528      74.76036529
H      63.96248946      88.88800231      73.92699598
C      61.25829110      90.75883136      71.43633671
O      59.52541207      89.64200311      70.44612012
O      62.52440773      92.20447199      70.04360841
C      64.20626415      96.62454184      77.09417730
O      62.20126453      97.85286394      77.24913484
N      66.07520349      97.06484807      78.73445972
H      67.59076398      95.91589447      78.57572272
C      66.21126377      98.84119080      80.70355455
H      65.00183893     100.42478145      80.18576953
H      68.14445380      99.38543198      81.16275805
C      65.18703211      97.77160571      83.20366247
O      64.95081633      99.04339152      85.19165455
N      64.69570327      95.27716698      83.19043437
H      65.26640062      94.40222369      81.59361564
C      63.72438394      93.72570167      85.18409564
H      62.30142003      94.84819910      86.16108414
C      62.43181114      91.09142319      84.20521741
H      61.63434665      90.13900113      85.84927930
H      64.13634429      90.06719153      83.66286596
C      60.49673140      91.05551839      82.18132052
C      59.89957788      88.68958105      80.90575527
H      61.20726850      87.16268219      81.25913408
C      57.93993170      88.46848307      79.24657557
H      57.88512964      86.73749377      78.16754184
C      56.41681229      90.54907174      78.73257001
O      54.39669487      90.40545254      77.15464854
H      53.56521529      92.01171991      77.28503965
C      56.94971511      92.87343511      80.05348869
H      55.75540808      94.52694563      79.98734827
C      58.99439898      93.18335022      81.69566087
H      59.31754219      94.98992858      82.58761169
C      65.74072193      92.94524471      87.10216784
O      67.74761126      92.18746445      86.30848280
N      65.26829034      93.32318997      89.63818055
H      63.47305034      93.50838315      90.26179024
C      67.04652280      92.71658782      91.63562126
H      68.92113130      93.53105986      91.38239795
C      66.27740420      94.02805788      94.09226548
H      67.22415707      93.18712967      95.71743011
H      64.26106623      93.77861401      94.44186484
C      66.87077826      96.82296310      94.15840589
C      64.98861085      98.60119556      93.54235511
H      63.08376672      98.06640301      93.04535709
C      65.72182466     101.12020074      93.26645508
H      64.43114159     102.45245779      92.41607823
C      68.26728600     101.96301867      93.93352846
O      69.31230465     104.22124162      93.40251538
H      68.15579216     105.21334793      92.42174741
C      70.02095202     100.10730743      94.49855663
H      71.98248793     100.50037051      94.90484779
C      69.26317177      97.55239746      94.83870737
H      70.78818090      96.24281712      95.18263756
C      67.44903451      89.97648467      92.22332615
O      65.64623561      88.44769608      92.08348641
N      69.76394924      89.26405785      92.82803857
H      71.17557479      90.54907174      92.87150228
C      70.54440622      86.54096223      93.24566809
H      68.89656486      85.45814905      93.83904215
C      71.51194609      85.35043465      90.74178073
H      72.68357639      83.70448304      91.12917462
C      69.50883619      84.67391263      88.77646535
H      70.34976441      84.73060442      86.89618767
H      67.92524554      85.97215461      88.54024957
H      68.79074020      82.83520893      89.36983942
O      73.02372714      86.98315819      89.41141340
H      74.49771366      86.22348821      88.67253042
C      72.46058870      86.23860602      95.29602113
O      73.70024915      88.10943507      95.77979107
N      73.05963193      83.97282417      96.09537536
H      71.90500915      82.53852190      95.59459789
C      75.20825075      83.32464805      97.73187835
H      76.82018730      84.45659411      97.12905567
C      74.45613968      83.90479403     100.56457810
H      73.25427375      85.57909154     100.52489385
C      72.80262916      81.78830055     101.75699540
H      71.91256806      82.54230135     103.45396963
H      73.83064026      80.08754687     102.29934686
H      71.39289332      81.33854569     100.32269313
C      76.84475374      84.55485988     101.99888036
H      78.12031899      85.46003878     100.65717469
H      77.72158674      82.77095824     102.53556264
C      76.51783109      86.13656080     104.41017114
H      75.83752961      88.05652273     104.08891768
H      78.40377795      85.96837516     105.22086373
H      75.08352881      85.32775794     105.64605216
C      75.94524401      80.55997845      97.38038926
O      74.71314245      79.13323508      95.95364589
N      77.91244911      79.66613791      98.73343331
H      79.33919248      80.88690110      99.08681212
C      78.30740191      76.87312241      98.90728813
H      76.50838246      76.00573804      99.39861697
H      79.66233568      76.52352305     100.41717944
C      79.36564864      75.68637429      96.47898980
O      81.03616670      76.70682650      95.14106358
N      78.06929639      73.75318427      95.46609650
H      76.60853794      73.00296293      96.43552611
C      78.40944712      72.67981973      92.93386324
H      79.92500763      73.71916920      92.00411790
C      79.10675614      69.80743573      92.97543723
H      77.59875454      68.74729927      93.89573394
C      79.43934796      68.53942937      90.31092312
H      81.21758042      69.14792125      89.46810519
H      78.07685530      69.04209657      88.85016469
H      79.32596438      66.53254003      90.76445743
C      81.49725993      69.61279392      94.66107310
H      80.97947491      70.34411800      96.51678434
H      82.95423891      70.84300575      93.88061612
C      82.63109571      66.92938256      94.81036148
H      84.38287200      67.06355312      95.88372602
H      83.02982797      66.26419889      92.90362763
H      81.15899892      65.80499540      95.71554037
C      75.87343441      72.97272730      91.48444316
O      74.43913215      71.08489072      91.12350543
N      75.39722338      75.28197286      90.52824165
H      76.70491399      76.62934772      90.86839238
C      73.22970731      76.00762776      88.99756333
H      73.16356688      74.60545084      87.49145147
H      73.44513610      77.79152940      87.99222893
C      70.67479732      75.72983800      90.59060261
O      68.64712099      74.85111526      89.84227100
N      70.81274734      76.75973884      92.98677559
H      72.50027295      77.54775471      93.40818455
C      68.68302579      76.99595462      94.74800050
H      67.10888378      75.72227909      94.37572442
C      69.35009919      76.28919698      97.44275022
H      70.61432608      77.73294789      98.19108185
H      70.58975964      74.64702482      97.51267011
C      67.01061800      76.34021959      98.96586963
N      65.25506226      74.45049328      98.99988472
H      65.24750335      72.76485741      98.10415443
C      63.39179212      75.30842903     100.48331986
H      61.54363978      74.47883918     100.23765545
N      63.80753190      77.74428624     101.06535558
H      62.46582623      78.80442271     101.91384268
C      66.12622609      78.36978565     100.15261777
H      67.30919477      79.99684001     100.49654796
C      67.49249821      79.49606254      94.39273195
O      68.46759700      81.32531761      95.37349991
N      65.40813009      79.57354132      93.01512148
H      64.61255532      77.93892805      92.43497550
C      63.93603330      81.86199988      92.82047966
H      65.05097181      83.39645765      92.01923572
C      61.60978020      81.22894157      91.21043284
H      60.34555330      79.95715576      92.22332615
H      62.17480837      80.36155719      89.42842093
C      59.89201898      83.48338506      90.29958476
H      59.17392298      84.55485988      91.90207267
C      61.10711301      85.03296063      88.16986321
H      61.31498289      83.71204194      86.60139037
H      62.97416260      85.76617444      88.63284616
H      59.79942240      86.52017524      87.60105559
C      57.50340492      82.36466708      89.15441061
H      58.17236803      81.35555323      87.48767201
H      56.44893765      84.03140569      88.55914684
H      56.24295747      81.16469087      90.25801079
C      62.98550095      82.59899314      95.33759511
O      62.33165565      81.00973331      96.92496521
N      63.01384685      85.14823394      95.68341503
H      63.71115587      86.26128274      94.29635591
C      61.68725898      86.38033550      97.79045988
H      61.02018560      84.67580236      98.73532302
C      63.50706543      87.95258779      99.34003545
H      62.46393649      89.09020303     100.70441784
H      64.21004361      89.31697019      97.96620441
C      65.66135342      86.39356358     100.43040752
H      66.66290836      85.31264013      98.99043607
C      67.56052836      88.11699398     101.50755152
H      67.79674415      89.87254972     100.45497398
H      69.39923207      87.19669726     101.64739127
H      67.14100912      88.99760644     103.32168878
C      64.82231494      84.54919070     102.57524689
H      66.46259738      83.53440767     103.29712234
H      63.57131612      83.11677815     101.78534129
H      63.81509081      85.44114152     104.13616082
C      59.32510110      87.79385078      97.03078989
O      57.38246245      87.18346918      97.95297633
N      59.56509633      89.51728117      95.22421153
H      61.27340891      90.08419907      94.58359431
C      57.43915423      90.91000947      94.13194972
H      55.97083688      89.46814829      94.02990450
C      56.40736366      93.12665843      95.89317465