 %block lattice_cart
   135.996   0.000   0.000
   0.000 142.663   0.000
   0.000   0.000   160.158
 %endblock lattice_cart

 %block positions_abs
N      91.16887920      41.41713247      80.90858986
H      90.95345039      40.33431929      79.35523482
H      89.99913860      40.69903647      82.23328800
H      93.01703152      41.36233040      81.38669061
C      90.33362016      43.99660888      80.33222333
H      91.18021754      45.14745221      81.81754821
C      91.17454838      45.00383301      77.69983458
H      90.53582087      43.93424792      76.06144187
H      93.22868087      45.10398850      77.57133318
C      90.10874273      47.75338479      77.25385916
H      88.05083077      47.79495877      77.34267630
H      90.37141468      48.34675886      75.29799243
S      91.25202714      50.08152761      79.26263823
C      89.49080222      52.74982117      78.31588536
H      87.52737658      52.66667321      78.93949503
H      89.45489742      52.96147051      76.26931175
H      90.46401127      54.41844950      79.02831217
C      87.39131629      44.17424316      80.42670964
O      86.23102434      42.38278261      79.36657318
N      86.22157570      45.97893179      81.77786395
H      87.33840395      47.08820113      82.85689769
C      83.42478076      46.01483659      82.17281676
H      82.49692514      45.12099604      80.56276994
C      82.91077520      44.35943634      84.51985684
H      84.20712745      42.75883815      84.48773149
H      81.03805642      43.50339032      84.55765136
C      83.09218893      45.61988379      87.07287708
O      81.33663318      46.70836614      88.12734436
N      85.32962489      45.71625983      88.14624163
H      85.31639680      46.36065650      89.94148162
H      86.88486964      45.25894606      87.13901750
C      82.31362169      48.81541098      82.34856131
O      83.71390888      50.62576879      81.79109204
N      79.85697749      49.11020829      83.14791554
H      78.90266569      47.53228682      83.63357519
C      78.56818413      51.50449153      83.31988062
H      78.82896636      52.67234239      81.64369339
C      75.59753437      51.23048121      83.53341971
H      74.76038561      50.13255022      82.00274139
C      74.94746852      49.76405359      86.06376324
H      75.81296317      47.89322454      86.09021940
H      72.91223328      49.47492547      86.18470572
H      75.67123369      50.60120235      87.80042171
C      73.85709644      53.63799253      83.55042724
H      74.33519719      54.95891123      85.05842884
H      71.94091395      53.03139039      83.99829238
C      74.17457045      55.10253043      81.11834948
H      73.54907104      53.89310559      79.57633280
H      76.16256255      55.42756335      80.68182269
H      73.43568747      57.00548482      81.39991869
C      79.48659112      53.26949590      85.49306588
O      79.76627061      55.53905720      85.11512063
N      80.48814607      52.27738959      87.63034634
H      80.20468712      50.45758315      88.12734436
C      81.14577082      53.97436382      89.58621308
H      79.84185967      55.55039556      89.83187750
C      81.16277836      52.53250264      92.06364428
H      82.47991760      53.74381721      93.08598621
H      81.94890451      50.62765852      92.09199018
C      78.62298619      52.26605123      93.33354037
C      77.68757168      54.34663990      94.79240907
H      78.75715676      56.07762920      94.93224882
C      75.14211033      54.28994811      95.59365303
H      74.41456571      55.76204491      96.80874705
C      73.65300600      52.11487312      95.14200844
H      71.86154545      51.98826146      96.10954832
C      74.69046574      49.96625431      93.92502469
H      73.67190325      48.20124993      93.82108976
C      77.14899967      50.04562281      93.06897868
H      77.91244910      48.45258353      92.04474702
C      83.74414450      55.17056057      88.91158079
O      84.15799457      57.33051775      89.51629321
N      85.27293309      53.76838365      87.43192508
H      84.56428572      52.27738959      86.47005440
C      87.80138691      54.50159746      86.39257561
H      88.79727266      55.51638049      87.88356967
C      89.34151384      52.27927931      85.41558711
H      91.02903944      52.80651296      84.35734038
H      88.19256024      51.18890723      84.10033760
C      90.11819137      50.46136260      87.55475730
H      88.51948290      49.98326184      88.76229241
H      91.39186689      51.53850660      88.76607186
C      91.45989704      48.23148555      86.47761329
O      90.09362491      46.41734829      85.72928168
O      93.79748849      47.95936496      86.40202425
C      87.36863957      56.39888268      84.19482392
O      88.76325759      58.17144596      83.99073348
N      85.61308383      55.89243602      82.47706270
H      84.78916315      54.17278508      82.54887229
C      85.08962965      57.57240272      80.23773701
H      86.72046346      57.93145072      79.03020190
C      82.94290055      56.21746895      78.81666283
H      81.19301398      56.04739358      79.89191709
H      83.57595886      54.45624403      77.95494762
C      82.23425319      57.55728491      76.37135697
H      83.88020480      57.26248760      75.17138077
H      81.94890451      59.56795370      76.71717689
S      79.58296716      56.24959430      74.62902931
C      80.65633171      56.42533884      71.46373775
H      82.12464905      55.02127219      71.12736645
H      81.07207150      58.40199257      71.05555685
H      79.17100684      55.67511750      70.25053345
C      84.24681170      60.09896680      81.11268029
O      85.28616117      62.01892873      80.16970686
N      82.56684501      60.20857092      82.99673742
H      82.03205246      58.57017821      83.81687865
C      81.61064350      62.61419252      83.83388619
H      81.43867840      63.95967765      82.28431061
C      78.97069584      62.14931985      85.02063431
H      78.61164784      63.89731669      86.04864542
H      79.20880135      60.61675181      86.37745781
C      76.77294413      61.79216157      83.23106350
H      77.09041815      60.47313261      81.68148791
C      74.22937253      61.14776490      84.65402740
H      74.10276085      62.38553564      86.29430984
H      74.14811429      59.29394339      85.54786795
H      72.69680449      61.17800052      83.27830665
C      76.31374064      64.44722704      82.04998455
H      75.76194056      65.80594026      83.49751491
H      74.76605480      64.34518182      80.69316105
H      78.03528131      65.17855113      81.18826935
C      83.49659036      64.07684069      85.53086042
O      83.56084105      66.42577049      85.50818370
N      85.20301322      62.72379665      86.73083662
H      85.01593031      60.82651143      86.67981402
C      87.13053406      63.81227900      88.48261292
H      86.28582640      65.40342856      89.48416786
C      88.03760269      61.74302869      90.28730154
H      89.32639604      60.52604494      89.24228289
H      86.47857848      60.77926827      91.23216471
C      89.62686252      62.71434801      92.75528410
H      88.54971852      63.89164751      94.05730554
H      91.17643809      63.90298586      92.10143880
C      90.84384626      60.54683193      94.22549119
H      91.51280938      61.41043686      95.97159830
H      92.47656980      59.94589897      93.12567047
N      89.33773439      58.39632339      94.90012347
H      89.88764475      56.74848204      94.11210761
C      87.49714096      58.13176171      96.59520797
N      86.97368677      59.81550785      98.17123972
H      85.51859751      59.47157766      99.35798784
H      88.06216913      61.33295808      98.57942060
N      86.13086884      56.05873194      96.61788469
H      85.01970977      55.81684697      98.15045273
H      86.53904972      54.61876049      95.43302629
C      89.20167410      65.16721277      86.97650104
O      89.77804063      67.33661858      87.69081759
N      90.18622150      63.99936191      84.99795760
H      89.44922825      62.30616713      84.51796712
C      91.78304024      65.50736350      83.32366009
H      93.10962811      66.33506363      84.66347604
C      93.34206445      63.74613858      81.59645023
H      94.33983994      62.43655825      82.83422096
C      91.68666420      62.29104932      79.72751091
H      92.58239448      60.80194499      78.62580046
H      90.90998668      63.52504060      78.27053193
H      90.15031670      61.38020124      80.75363229
C      95.32627709      65.15587441      79.97884451
H      94.28692761      66.50891845      78.82800119
H      96.12374158      63.85385298      78.59556485
C      97.45410890      66.74891369      81.07110632
H      98.79392486      65.41287719      81.88368863
H      96.54515055      67.71834329      82.64335861
H      98.24401450      67.74479946      79.44783141
C      90.44700374      67.62763643      81.82510712
O      91.56761144      69.52303192      81.24118168
N      88.01492597      67.38008228      81.16559263
H      86.99636349      65.84751424      81.67959819
C      86.64487440      69.29815449      79.64814240
H      87.85807869      70.16742859      78.22706822
C      84.51515284      67.91865428      78.45383538
H      83.08463002      69.25280106      77.81132842
H      83.68745271      66.78859794      79.96561643
C      85.32773515      66.40309378      76.10868501
O      87.27037380      66.86607672      74.86713484
O      83.53438488      64.99902713      75.34712531
C      85.55828176      71.49590619      81.17693099
O      85.85307907      73.79003393      80.39458429
N      84.18634047      71.24646232      83.25940938
H      83.74792396      69.48145794      83.83577591
C      83.52493626      73.44043457      84.86378702
H      82.92022384      75.00323823      83.66381082
C      81.20246262      73.05115095      86.55509208
H      81.04183588      74.62151351      87.87790050
H      81.34608181      71.26913903      87.57743401
C      78.72881087      72.68454404      85.20204803
H      77.18868392      72.84895023      86.55887153
H      78.57574304      70.77969992      84.43292942
C      77.73481483      74.55726282      83.12901827
O      79.03494653      76.41297406      82.42037090
O      75.76572001      73.94877094      81.94793932
C      85.73780576      74.50246075      86.45871604
O      85.63953999      76.70966109      87.11256134
N      87.61430400      72.87729613      87.00484693
H      87.37430876      71.05937941      86.47383385
C      89.87063722      73.45366265      88.54308416
H      90.91943532      74.93709781      87.57365455
H      91.09329013      71.80204185      88.41458277
C      89.29427069      74.12451549      91.25673115
O      87.38942656      73.41775785      92.20537376
N      91.01959082      75.46055200      92.55875257
H      92.65231434      75.85928425      91.65546339
C      90.53393115      76.19187608      95.15334681
H      88.56483633      75.80259246      95.61444002
C      92.10240399      74.53080665      96.92591008
H      93.94488714      75.25268210      96.35899219
H      91.87563683      72.58249882      96.29852095
C      91.65831830      74.57804981      99.76994819
H      91.25013742      76.50557065     100.36521197
C      89.32639604      73.13429890     100.62788392
H      89.50025085      73.12485027     102.68201644
H      89.41143372      71.20110889      99.92490574
H      87.68422388      74.02058054      99.75483038
C      94.09795497      73.35539688     100.90378398
H      93.82961384      73.20610850     102.94090894
H      95.80437783      74.50057103     100.72803942
H      94.40598036      71.49212674     100.07986329
C      91.01392164      79.00378883      95.53885096
O      93.18332744      79.88251157      95.61632975
N      89.03159873      80.42108357      96.15112229
H      87.29305052      79.65763414      96.36088191
C      89.23001999      83.16685590      96.95614571
H      91.23312988      83.64495666      96.98260188
C      87.85618897      84.81469724      94.85288031
H      87.17021831      86.56269408      95.70136744
H      86.10441267      83.86794436      94.32564668
C      89.64764950      85.43641720      92.60977518
H      90.62463802      83.73944297      91.96726824
H      90.81361064      87.07292019      93.06330949
C      88.16610409      86.43041324      90.38178787
H      89.50403031      86.97276469      88.91158079
H      87.26470462      88.21053543      90.88823451
N      86.47101957      84.40084718      89.32732057
H      85.53749477      83.22165796      90.50273035
C      85.93433730      84.13061632      86.89902227
N      86.63542576      85.73310423      84.90347127
H      86.21212707      85.30602609      83.09311347
H      87.32706559      87.46409354      85.30787272
N      84.70034603      82.04813792      86.32076602
H      83.74981368      81.78168651      84.68615275
H      84.93278236      80.55147468      87.48294770
C      88.03193351      83.44464567      99.68680023
O      85.74725439      83.00244971      99.93624410
N      89.58150908      83.81692175     101.60487244
H      91.46367650      83.72243544     101.30251623
C      88.69900690      83.81503203     104.19946666
H      87.29305052      82.32592769     104.41489547
C      90.81927982      83.07614904     106.17045121
H      90.03882285      83.42952786     108.04505970
H      92.31783280      84.44431089     105.81329293
C      91.83406285      80.37195068     105.90399980
H      92.67310133      80.08282256     104.04639883
C      94.01102756      80.24344929     107.90521996
H      93.25891649      80.14896298     109.81951272
H      95.36218188      81.78168651     107.68034252
H      95.05037703      78.47844492     107.67845281
C      89.89331393      78.23844968     106.30084232
H      88.25681094      78.89040525     107.37042741
H      90.86274352      76.59438778     107.06996094
H      89.22813026      77.72255439     104.42056465
C      87.31383751      86.35860364     104.87220923
O      85.81717427      86.23577143     106.59374990
N      87.82784307      88.56958343     103.82152139
H      89.40009536      88.64139303     102.74059794
C      86.48613738      90.94496940     104.06529610
H      85.48269271      91.14905985     105.85297718
C      88.63664593      93.10681631     103.91222827
H      89.45300769      93.08980877     102.02250194
H      89.98780025      92.39249976     105.29172848
C      87.84107115      95.72030780     104.53205850
H      87.22124092      95.58235778     106.48981495
H      86.10441267      96.23053390     103.55129053
C      89.97079270      97.74420468     104.28261461
H      91.54493472      97.32468544     105.54306206
H      89.07506243      99.55456249     104.68890577
C      90.93455312      98.02010472     101.46314297
H      89.40576454      98.14482666     100.08742220
H      92.00035877      96.39494009     100.77717230
N      92.68632942     100.21785642     101.16078676
H      91.87185738     101.87325667     101.65211559
H      93.34962335     100.50698455      99.39389264
H      94.26047143      99.89660295     102.19257731
C      84.47924804      91.13394204     101.96769989
O      84.63798506      89.92451719     100.04206877
N      82.33818813      92.41328675     102.57241231
H      82.41566690      93.60948351     104.05773719
C      80.23870220      92.97831492     100.80551820
H      79.22013972      91.27189206     100.25938730
C      78.45669028      94.71497340     102.12643690
H      77.86520594      93.73231572     103.83852893
C      79.59241579      97.17917651     103.15255828
H      80.06862682      98.40749861     101.56896764
H      81.02860779      96.84091550     104.58686055
H      78.29984300      98.27332805     104.32418860
C      76.11909884      95.31401664     100.40867568
H      75.61265219      93.64916776      99.30696524
H      76.58775096      96.88248948      99.15578713
C      73.78528683      96.27588733     101.70124847
H      72.83664423      94.83591588     102.82752536
H      72.38122018      96.92028401     100.34064553
H      74.22370334      97.63460055     103.18657336
C      81.38954553      94.10081235      98.26761576
O      83.13754237      95.60881394      98.31485893
N      80.40121867      93.15594919      96.17190928
H      79.13510204      91.75944144      96.46670658
C      81.20057289      93.89294245      93.59999178
H      81.98102986      95.79589685      93.69447808
C      82.98069507      92.04101067      92.38678748
H      84.46413023      91.71975719      93.77951577
H      83.71957806      92.86304161      90.64823928
C      81.73914489      89.60704317      91.71026546
C      81.00215162      89.01366911      89.13834794
H      81.41411196      90.33080835      87.63601553
C      80.25382000      86.63828314      88.42403140
H      79.86831584      86.22821253      86.46249549
C      80.18578986      84.65973969      90.14179261
O      79.68501238      82.28435371      89.58243364
H      79.53383428      82.17852904      87.77774500
C      80.78105365      85.26445211      92.75150465
H      80.92089339      83.72243544      94.07998226
C      81.57473871      87.70597850      93.56975615
H      82.16055385      87.84392852      95.51995371
C      78.81951773      94.49387542      92.01262167
O      76.69168590      93.97420068      92.99905881
N      79.12754313      95.79589685      89.78463435
H      80.86042215      96.20596746      89.09677397
C      76.96947567      96.21730582      87.98561489
H      75.30273707      95.81290439      89.12700958
C      77.05829282      98.86481238      87.18248121
H      75.76194056      99.30889807      85.64802345
H      78.96502666      99.50920905      86.74595443
C      76.23248241     100.56556606      89.45015279
H      77.15844830     100.23108451      91.26051059
H      74.22370334     100.28399684      89.79786244
C      76.25515912     103.40582471      88.55064307
H      75.53706313     103.81967477      86.66469621
H      78.25826902     103.86124875      88.71504925
C      74.57897189     104.88359069      90.43470020
H      75.43879736     104.71351532      92.29986006
H      72.70247366     104.03132412      90.42903101
N      74.56196436     107.58400959      89.66369187
H      73.31285526     108.69138921      90.58965775
H      73.80796356     107.77676167      87.91947447
H      76.29106392     108.38147409      89.79408298
C      77.58552645      94.58458228      85.68392825
O      79.73792472      94.30490279      84.89024320
N      75.64666725      93.34681155      84.67859384
H      73.91945741      93.65105748      85.43259464
C      75.58241657      91.49676949      82.58288737
H      77.43812780      90.60292894      82.53186475
C      73.71158751      89.39917328      83.21972514
H      71.90689888      90.20608642      83.79798138
H      74.29929239      88.51478137      84.98661924
C      73.51694570      87.38472503      81.28464539
O      71.34187071      86.79324069      80.46261444
O      75.44635626      86.48521531      80.35678978
C      75.25171445      92.61926692      80.01285959
O      74.90967399      94.87937959      79.85223285
N      75.50304805      91.26433315      77.95305791
H      75.79595563      89.39161437      78.18927368
C      75.50115833      92.27155728      75.39247875
H      77.36820792      92.92540258      74.81800194
C      74.76983424      90.36671315      73.53676751
H      72.78940108      89.80735416      73.53109832
C      75.52761449      91.17173656      70.84201778
H      77.39466409      92.01644422      70.64926571
H      73.96859029      92.19785795      69.97085395
H      75.61265219      89.41051164      69.77621214
O      76.23815159      88.31447038      74.05455252
H      77.94835390      88.88138827      73.83723399
C      73.75505121      94.62426654      74.80099441
O      74.55818490      96.59903053      73.98274291
N      71.35320907      94.61481790      75.77609319
H      70.80707816      93.26366359      77.01008447
C      69.55985880      96.83902577      75.45294999
H      70.37622056      98.20718762      74.14525937
C      67.03329472      95.89038317      74.27187105
H      65.68214040      97.43806902      74.13770048
H      66.43047203      94.41450691      75.57767193
C      67.22604680      94.72631176      71.63570283
H      68.29563189      92.97075601      71.77932204
H      68.42791275      95.99809756      70.55099993
C      64.83743275      94.29734388      70.06534027
O      63.89823877      96.25321062      69.04866752
O      64.15713127      92.07691547      69.47196621
C      69.20081080      98.33001984      77.94171955
O      67.48304958      99.88337486      78.36501824
N      71.04518368      98.23175407      79.65381158
H      72.60231816      97.29067036      79.07177587
C      71.43446730      99.91927966      81.83077629
H      70.67290760     101.80711625      81.52464063
H      73.41867994     100.31234274      82.21628047
C      70.29874179      99.29000080      84.38379654
O      70.75983501     100.49564619      86.27730231
N      68.94191829      97.06012375      84.55198218
H      68.46570726      96.37415310      82.83422096
C      67.55107974      96.10014279      86.75351334
H      66.68936453      97.84624990      87.43381482
C      65.31364378      94.37860211      86.03730706
H      63.86800315      94.44663226      87.50562441
H      65.93536373      92.41517648      85.98817418
C      64.05319633      94.86615150      83.52775052
C      64.29697103      93.13516220      81.41125705
H      65.41001981      91.44007770      81.63802422
C      62.86077902      93.62649104      79.20594644
H      62.81353587      92.20541685      77.73951883
C      61.45104319      95.82046329      78.89414160
O      60.30208959      96.43462434      76.65292619
H      59.36856479      97.98797937      76.76630977
C      61.26585001      97.50042998      80.96906110
H      60.10555806      99.17661722      80.88024395
C      62.58865843      96.99776278      83.27074774
H      62.37700908      98.47741849      84.65969659
C      69.13656011      95.05512413      88.88134516
O      71.14911863      94.07624590      88.45804648
N      68.16146133      95.20630224      91.20003936
H      66.42858230      95.98109003      91.40790925
C      69.76961842      94.72253230      93.46015203
H      71.71414679      95.22519950      93.00094853
C      69.15356764      96.47241887      95.74861058
H      69.70536773      95.54456325      97.50227660
H      67.12778103      96.84658468      95.75050032
C      70.37622056      99.08780009      95.61821947
C      68.85688061     101.20996274      95.76183868
H      66.86132962     100.91894488      95.43491603
C      69.90378899     103.54944391      95.98104692
H      68.79451964     105.25397705      96.14923257
C      72.60987707     103.78754943      95.91490651
O      73.53584297     106.23474500      95.93002431
H      72.28862359     107.45928765      96.41190453
C      74.15378346     101.67105596      95.56908659
H      76.19090843     101.77877036      95.45759273
C      73.03506549      99.29378025      95.46515164
H      74.12732730      97.57223958      95.37633450
C      69.98126777      91.87282502      94.09887951
O      68.16902023      90.44797138      93.87589181
N      72.25649825      90.93552077      94.79618852
H      73.62088064      92.22809357      95.12311118
C      72.93113055      88.25966831      94.66012824
H      71.42312895      86.95197770      95.16468516
C      73.75505121      87.71731686      91.95404016
H      75.42178982      88.67918755      91.21893661
C      73.97992865      84.89406575      91.49861612
H      75.66745425      84.00211493      92.27529362
H      74.09142250      84.65218078      89.45771170
H      72.25649825      83.84715737      91.91624562
O      71.93524478      88.33903682      90.22494058
H      71.06975012      89.69775004      91.05642016
C      75.24226582      87.59259492      96.37977918
O      76.86554073      89.21209037      96.75583471
N      75.55785013      85.34948979      97.51172524
H      74.07252524      84.15518276      97.43802591
C      77.69891003      84.67296777      99.18791247
H      79.37320754      85.62727956      98.46414731
C      77.35120039      85.48366036     101.96014099
H      76.40444750      87.30535653     101.80329370
C      75.58808575      83.77912723     103.74404262
H      75.30840625      84.76178491     105.53361344
H      76.62176603      82.00845367     103.95569196
H      73.84008891      83.27834975     102.77650274
C      79.79461652      85.99010701     103.40389189
H      81.06451259      86.89528592     102.05840675
H      80.84530435      84.24399990     103.70435836
C      79.53383428      87.64550726     105.80384431
H      81.35742018      88.46753821     106.29139369
H      78.90266569      86.52112011     107.41011166
H      78.16189298      89.17996503     105.67345318
C      78.29795327      81.84215775      98.89311517
O      76.87498936      80.48155481      97.83108899
N      80.40499811      81.03146517      99.93435437
H      81.67111474      82.33348660     100.52205925
C      81.17789618      78.43120176     100.07041466
H      79.63210005      77.35594749     100.90756343
H      82.86542178      78.20254488     101.23070663
C      81.84119011      77.21988719      97.68369033
O      83.56273078      78.04569759      96.48371413
N      80.18956931      75.43598555      96.84654158
H      78.57952249      75.09016564      97.81408144
C      80.61097829      74.17364838      94.45225834
H      82.28527579      75.03158412      93.61321986
C      80.99648244      71.21811642      95.07019884
H      79.25604451      70.39041630      95.79207429
C      81.38954553      69.86129293      92.61544437
H      81.37442771      67.84684468      93.04063279
H      83.17533688      70.42443137      91.76128807
H      79.85130830      70.08428063      91.26240032
C      83.22258005      70.68332388      97.09031627
H      82.85597314      71.63574594      98.87988709
H      84.79105288      71.69621718      96.21726272
C      83.96902194      67.92054401      97.67613142
H      85.61308383      68.03770704      98.91201244
H      84.72869191      67.11552060      95.93947295
H      82.48369705      66.88308426      98.65311994
C      78.07874502      74.81426560      93.05575060
O      76.44413176      73.28169756      92.75717384
N      77.93701554      77.21610774      92.03907784
H      79.43556851      78.39718669      92.11088743
C      75.87343441      77.91908593      90.25517619
H      75.60320355      76.34683364      88.95315476
H      76.45735984      79.49511767      89.06275890
C      73.40734157      78.51623944      91.41735789
O      71.39478305      78.49734218      90.25517619
N      73.28261963      78.76190386      93.90423770
H      74.88699727      78.69009426      94.93791801
C      70.96581517      78.64852029      95.47271055
H      69.62977867      77.29925570      94.68091523
C      71.30029673      77.55247902      98.11643765
H      72.69869420      78.65418946      99.15011796
H      71.92768587      75.60039174      97.89911914
C      68.82475526      77.58838382      99.63766735
N      67.06730979      75.66275271      99.83041943
H      67.11833240      73.98656547      98.91579190
C      65.03396428      76.51312955     101.17968401
H      63.30297499      75.52669242     101.61432107
N      65.48938832      78.89418471     101.83919850
H      64.11744703      80.00534378     102.56674312
C      67.87800239      79.61039098     101.04740317
H      68.47893535      81.46043304     100.43513185
C      69.58631497      81.00878845      95.40657013
O      70.38755892      82.87394832      96.65567921
N      67.42446806      81.08815696      94.13478431
H      66.72904878      79.56881700      93.20881843
C      65.87489249      83.41818950      93.73038289
H      66.93313922      84.94697809      92.84599098
C      63.74706066      82.92497093      91.84254631
H      62.46204678      81.52846319      92.64190053
H      64.75050533      82.48655443      90.09832891
C      62.22961043      85.45531446      91.40601953
H      61.67403090      86.38317008      93.15968555
C      63.68469970      87.27701063      89.75439872
H      64.19303607      86.23199198      88.05364504
H      65.52340340      87.63416890      90.61044474
H      62.73038791      89.08169926      89.48416786
C      59.74651006      84.78446162      90.05108576
H      58.63724072      86.43986187      89.52574184
H      58.80731608      83.58259569      91.43625514
H      60.08477106      83.99455602      88.17836697
C      64.99616975      84.38194992      96.23993943
O      63.94359221      82.81914626      97.62888828
N      65.30797460      86.74410781      96.80874705
H      66.10165964      87.86471551      95.48215917
C      64.25350731      87.94597375      99.06885973
H      63.70359695      86.66095985     100.58253049
C      66.42291312      89.78656717     100.08553248
H      65.86355414      91.15661875     101.51794502
H      67.09187624      90.85993172      98.46036785
C      68.85310116      88.49210465     101.06630043
H      69.86977391      87.59637438      99.51483513
C      70.70125349      90.24577067     102.51572051
H      69.87733282      91.32102494     104.06718581
H      71.41745976      91.56102018     101.10220524
H      72.37744073      89.23665682     103.16389664
C      68.31641888      86.40395707     102.95791647
H      67.52651328      87.40551202     104.57552219
H      69.96426023      85.44019665     103.73081454
H      66.98038238      84.92619110     102.43824173
C      61.97071793      89.48799042      98.49249320
O      59.97138750      88.93808006      99.50727622
N      62.07087343      91.34559138      96.75772445
H      63.68469970      91.87471475      95.89222979
C      59.77674568      93.02366835      96.08309214
H      58.21016257      91.71597774      95.80152293
C      59.28919629      95.17606662      98.05785614