 %block lattice_cart
   142.669   0.000   0.000
   0.000 146.65   0.000
   0.000   0.000   162.396
 %endblock lattice_cart

 %block positions_abs
N      91.64905787      41.71176851      78.23774373
H      93.54067391      41.50011916      78.07711700
H      90.95741804      41.78357811      76.45951127
H      90.94230023      40.30203268      79.31488773
C      91.35992974      44.09660312      79.68905354
H      92.41439702      43.89818185      81.44460929
C      92.49376553      46.34915688      78.13758824
H      91.77000035      46.18853015      76.21573658
H      94.55167748      46.36427469      78.03554302
C      91.46008524      48.89650795      79.38669733
H      92.05723875      48.66974079      81.34256406
H      89.40595273      48.94186138      79.53976516
S      92.48053745      51.95030567      78.48529788
C      91.60937362      52.12227077      75.11969532
H      91.04056599      54.03467380      74.61135894
H      90.02956242      50.86182332      74.72663224
H      93.36303963      51.92384951      74.05955885
C      88.48943547      44.20620724      80.46195160
O      86.76978453      43.67519415      78.87836095
N      87.95086347      45.23043890      82.69938756
H      89.38894520      45.85593831      83.78598019
C      85.37705623      45.62728143      83.55354385
H      84.19408756      44.93564160      82.01530663
C      84.77045409      43.85471815      85.95916545
H      85.78145767      42.08593432      85.66814759
H      82.77868255      43.33693314      86.03097505
C      85.53957270      44.95075941      88.54620077
O      83.89929026      45.62350198      90.01640784
N      87.93574566      45.06036354      89.20004607
H      88.22487379      45.78790817      90.94048401
H      89.26611299      44.26856821      88.08321782
C      84.57581228      48.30502362      84.18282271
O      86.16507211      49.94152660      84.41903850
N      82.07759409      48.85493397      84.40581042
H      80.72266033      47.51889747      84.26597067
C      81.21776862      51.49299191      84.64580566
H      81.78468651      52.39628108      82.88458074
C      78.33782572      51.29646037      84.36990562
H      77.91452702      50.02656429      82.80143278
C      77.08115772      50.17774239      86.78875530
H      77.61972972      48.21053730      87.07410397
H      75.02891494      50.05302046      86.69993816
H      77.54225094      51.46275629      88.33455142
C      77.29847625      54.01955599      83.63102263
H      77.80681262      55.23842946      85.21083383
H      75.25379238      53.84759089      83.43449109
C      78.02224142      54.75843897      80.99863388
H      77.47988997      56.73509270      80.78509480
H      77.09627553      53.62460319      79.54921379
H      80.04424858      54.87371228      80.62068861
C      82.15129342      53.09547982      86.75662995
O      82.10593999      55.42173291      86.64135665
N      82.93175039      51.88605498      88.82210081
H      82.78435173      49.98310058      88.86178506
C      84.11660878      53.04067776      91.01418333
H      83.08481822      54.78489514      91.38079024
C      83.76511969      51.15473090      93.26295765
H      84.91029384      51.94652622      94.77851815
H      84.52856912      49.33681418      92.66958358
C      81.13651039      51.04512677      94.29096876
C      79.52646357      49.04768606      93.63145428
H      80.32770753      47.44519814      92.65635550
C      76.84116248      49.21965115      94.27396122
H      75.45788282      47.89117355      93.57854194
C      76.01535208      51.32102681      95.63645390
H      74.05948535      51.58558850      96.16557726
C      77.66697288      53.32035725      96.17691562
H      76.89785427      55.01166230      97.01784383
C      80.10471982      53.26744491      95.41346619
H      81.34060083      54.86993283      95.67046897
C      86.79435097      53.83247308      90.63812780
O      87.56913876      55.76566310      91.65291083
N      88.03968061      52.75532908      88.74273231
H      87.09670718      51.43818984      87.73739791
C      90.56435496      53.48476344      87.61645542
H      91.56590991      54.59214306      89.03752961
C      92.20085795      51.20197405      86.71883542
H      94.01688494      51.89550361      86.03664423
H      91.24843589      50.11538142      85.25051808
C      92.79045256      49.25555595      88.76540902
H      90.98198448      49.03445797      89.72538999
H      94.19829866      50.00955675      90.06932018
C      93.47453349      46.63828501      87.59566843
O      92.27833673      45.79735680      85.68515513
O      94.77844464      45.18697520      88.89013096
C      90.31113164      55.29890070      85.31854823
O      91.86637639      56.95052150      84.84422692
N      88.49132520      54.83402803      83.62157400
H      87.41040175      53.34492369      84.11668229
C      88.19841762      56.30234537      81.28209282
H      89.94074528      56.27022003      80.18038238
C      86.04223990      55.09858971      79.73062752
H      84.33392731      55.54267539      80.78887425
H      86.33136802      53.06335447      79.63047202
C      85.89295152      55.96219464      77.06044424
H      87.43118874      55.26110617      75.88314475
H      85.75500150      58.01632714      77.15871001
S      82.77112365      55.11181780      75.92282900
C      82.95820655      57.03366946      73.02965801
H      83.52323472      58.93095467      73.60035536
H      81.23855561      56.91461670      71.89960168
H      84.57959173      56.25132276      72.02810307
C      87.69764015      59.13315539      81.77720112
O      89.16406777      60.78666591      80.94572154
N      85.72665560      59.86636920      83.20016503
H      84.84604314      58.40183131      84.04676242
C      85.18241442      62.39860246      84.07888777
H      84.76289518      63.54755606      82.42159779
C      82.56892293      62.39671273      85.61901471
H      82.10027081      64.36391782      86.01018806
H      82.89962504      61.40649614      87.39346772
C      80.41841439      61.07579404      84.12991038
H      81.01556790      59.23520061      83.42504246
C      78.25845721      60.53911177      86.04231340
H      77.49689751      62.37592574      86.58466486
H      79.00300938      59.57724107      87.70338283
H      76.76368370      59.42984242      85.15981122
C      79.53969165      62.89749020      82.09089568
H      77.82759961      61.99609075      81.38602777
H      80.78691102      62.73686347      80.45817215
H      79.45843342      64.78532679      82.90725745
C      87.43685792      63.76865404      85.39791673
O      87.66740453      66.07978932      85.31854823
N      89.14706023      62.47608124      86.48261964
H      89.21886983      60.56934739      86.45805319
C      91.29000987      63.69117526      87.50118212
H      90.83269610      65.33145770      88.65958435
C      92.42573538      61.91483252      89.52696873
H      94.18885003      62.64993606      90.30364624
H      92.85281353      60.15171787      88.55564940
C      90.80812966      61.20618515      91.88345744
H      89.11115543      60.10636444      91.49984300
H      90.25821930      62.95040254      92.83398977
C      92.18951959      59.51676983      93.86578034
H      93.60303488      60.68084124      94.80497432
H      93.15516974      57.87459767      93.08343365
N      90.43396385      58.41127994      95.70448404
H      89.54012330      56.80501257      95.18480931
C      89.43429863      59.49409312      97.73971928
N      89.78200827      61.72774962      98.20270223
H      88.95619787      62.53277303      99.72582164
H      91.28434069      62.57812646      97.38823019
N      87.80913400      58.09947510      98.99638728
H      87.36126886      58.59836284     100.78406837
H      87.68819152      56.23620495      98.60521393
C      93.46130540      64.37147673      85.66814759
O      94.99576317      65.93050094      86.51852444
N      93.55579172      63.42850330      83.28331299
H      92.17629151      62.15671749      82.94316225
C      95.00143235      64.44328633      81.27831337
H      96.39605037      65.70940296      82.11924158
C      96.51888258      62.46852233      79.72684807
H      97.42217175      63.56645332      78.23396428
C      98.81112059      61.54633589      81.18949623
H      99.69740223      63.24897930      81.94160731
H     100.04322215      60.40305147      80.00274811
H      98.12326022      60.32935215      82.70127728
C      94.97875563      60.13093088      78.72529312
H      93.39327525      60.71674604      77.54799363
H      93.99609795      59.42417324      80.39203173
C      96.54155929      57.95774562      77.27776277
H      97.66783617      58.77599712      75.75653308
H      95.34158308      56.45541320      76.53887978
H      97.70563070      57.12059687      78.75552874
C      93.48209239      66.22907769      79.52275762
O      94.54600831      67.96762590      78.51931295
N      91.01788928      65.79822010      79.07678222
H      90.07113640      64.40549180      79.97251249
C      89.35681985      67.30622169      77.34768264
H      90.33569808      67.76164573      75.59212689
C      87.15528870      65.59035020      76.78265447
H      86.10082141      65.18216932      78.50419514
H      87.86393606      63.78944102      76.07778656
C      85.66807409      66.61647159      74.57167468
O      86.93230099      66.93772506      72.56100589
O      83.26056276      66.90182026      74.76820622
C      88.27022722      69.85924194      78.25475127
O      87.86393606      71.56944426      76.80722091
N      87.99621690      70.03309676      80.76241809
H      88.39494916      68.54021298      81.88491552
C      87.48977025      72.41037246      82.13435939
H      88.04157034      73.89569735      80.81910988
C      84.58148146      72.44438754      82.97717733
H      84.24511017      70.79465647      84.16392545
H      83.38528470      72.31210670      81.30665926
C      83.92196697      74.60812417      84.69682827
H      85.23721649      74.55899128      86.28041892
H      82.08137354      74.38513646      85.59255854
C      83.84637792      77.17248277      83.55732330
O      85.01611851      78.79008850      84.67037210
O      82.74844693      77.50885406      81.32555653
C      89.32658423      72.91303966      84.30565492
O      90.62104675      74.81977351      84.33967000
N      89.69508086      71.14992501      86.10467437
H      88.51589164      69.65704123      86.24073467
C      91.49976949      71.37102299      88.19660140
H      93.10981631      72.46706425      87.52763829
H      92.27077782      69.50019394      88.57454666
C      90.32435972      72.73918484      90.42836818
O      88.45731013      74.08278025      90.10333525
N      91.08591943      71.97006623      92.68281167
H      92.56557513      70.78331811      92.88690211
C      90.03334187      72.95650337      95.01473394
H      88.02267307      73.29098493      94.71993663
C      90.81190911      71.24063188      97.29185415
H      92.85092380      71.15559419      97.56586446
H      90.10137202      69.40948708      96.66635474
C      89.84247951      72.03431693      99.83731549
H      90.82513720      73.76908568     100.35132105
C      86.90017564      72.17037722      99.87699974
H      86.05168853      70.30143790     100.05463402
H      86.01578373      73.26263903      98.37088787
H      86.51656120      73.25319040     101.58531233
C      90.40183850      70.13514198     101.90656580
H      89.67240414      70.86079689     103.69235717
H      92.44463265      69.91971318     102.05396445
H      89.49665960      68.34746089     101.43224450
C      91.16717766      75.62101747      95.60999773
O      93.36870881      76.03675726      95.33787714
N      89.60815345      77.35200677      96.47738211
H      87.75433194      77.15925469      96.07298067
C      90.52467071      79.72550302      97.82097751
H      92.51077307      79.54786875      98.33309334
C      90.10515147      81.89679856      95.94258956
H      90.48687619      83.61455977      97.01595410
H      88.13983610      82.34466369      95.51362169
C      91.64149896      81.84955540      93.50673234
H      90.62104675      80.42848121      92.42013971
H      93.50098965      81.05020117      93.88845706
C      91.63582978      84.30808933      91.86833963
H      93.51043829      85.15279699      91.95904649
H      90.24310149      85.63467720      92.60533289
N      91.25410507      83.86967283      89.29264266
H      90.26955766      82.28797190      88.88446178
C      91.23331808      85.54586007      87.42748279
N      91.65283732      87.94392276      87.73739791
H      91.91550928      88.82642495      86.06499012
H      92.21975521      88.67146739      89.40791597
N      90.67395909      84.69926268      85.18248793
H      90.02389324      85.92191560      83.86912814
H      90.36026452      82.81520554      85.20327492
C      88.99966158      80.11478664     100.25872446
O      86.82080714      79.35133721     100.41935119
N      90.25443985      81.08043679     102.22781928
H      92.12337917      81.31854230     101.93302197
C      89.33792259      81.34310875     104.93390736
H      87.81102373      79.98250580     105.17390260
C      91.41284208      80.54753397     106.68379392
H      90.77978376      80.78752921     108.62832230
H      92.96808683      81.89490883     106.58363843
C      92.46164018      77.85467397     106.23781851
H      93.44240814      77.65625271     104.43879906
C      94.44774254      77.42003692     108.37887842
H      95.80834548      78.96583304     108.30139965
H      95.20174334      75.50952362     108.23525922
H      93.45563622      77.58255338     110.17789787
C      90.35270562      75.86290244     106.19435481
H      89.18674448      76.16714837     104.52572647
H      89.07525063      76.14636139     107.78739409
H      91.05190435      73.92404324     106.18868563
C      88.46675876      83.94337215     105.50838415
O      87.40851202      84.32698659     107.50204542
N      88.63683412      85.81798066     103.73393115
H      89.64783770      85.34176962     102.18813502
C      87.75244221      88.47115640     103.95691885
H      86.61293724      88.74516671     105.65389308
C      90.02578296      90.20970461     103.93424214
H      91.25977425      89.85821551     102.32230559
H      91.21631054      89.54452094     105.47625881
C      89.51366713      93.05563243     104.12699422
H      88.23054297      93.60554279     105.64255472
H      88.82958621      93.67357294     102.28451106
C      91.85314831      94.71670186     104.41612235
H      93.56901980      94.31796961     103.35220643
H      92.35392578      94.46725799     106.40033497
C      91.01977901      97.30940636     104.05707435
H      89.86515623      97.93868523     105.63877527
H      90.07869530      97.44168721     102.22592955
N      93.27233277      99.07252101     104.25171616
H      94.74065012      98.55851546     103.15189544
H      93.86003765      99.33519297     106.04884588
H      92.76777584     100.73548017     103.45992083
C      86.07058579      89.02484621     101.68168837
O      86.41829543      87.91368714      99.60298943
N      84.17708003      90.67457728     102.02750829
H      83.89929026      91.37566574     103.78117430
C      82.30247152      91.35487875     100.00361141
H      81.21776862      89.63144836      99.69747574
C      80.48077536      93.30129685     101.16390336
H      81.69020020      94.73937858     102.00483157
C      78.88206690      94.48993471      98.94725440
H      80.22377258      95.53684308      97.78507271
H      77.40619065      95.77683832      99.59165107
H      78.09216130      92.80996801      98.05341385
C      78.65907919      92.00116515     103.01205570
H      79.62850879      90.85977046     104.42746070
H      77.53280231      90.55741425     102.06908227
C      77.23611528      94.00994422     104.46336550
H      75.90385823      95.04173479     103.28039683
H      78.56648260      95.31007593     105.34775742
H      76.15519183      93.13122149     105.98081573
C      83.55536007      92.09943092      97.51295212
O      85.34493089      93.64144759      97.68113777
N      82.72954967      91.16779585      95.34921550
H      81.43130769      89.76750865      95.34354632
C      83.84637792      91.78762608      92.89068156
H      84.47565678      93.72648528      93.19303777
C      86.04412962      89.90923812      92.33510203
H      87.47465244      90.04151896      93.80908855
H      87.09481745      90.58387042      90.69859904
C      85.32414390      87.17291442      91.57165260
C      85.23910621      86.59654790      89.03563988
H      85.55091106      87.92691522      87.52007938
C      84.67029859      84.07565299      88.25896237
H      84.43219308      83.42369742      86.33900044
C      83.95220259      82.30875889      89.99940030
O      83.28512921      79.85778386      89.34177555
H      83.64039775      79.52519203      87.59377871
C      84.09204234      82.87000761      92.64312742
H      83.35693881      81.49428685      93.95837693
C      84.83470478      85.30397510      93.40846657
H      84.70053421      85.89356971      95.35677440
C      81.76012007      92.20903505      90.76473946
O      79.62850879      91.36999656      91.13134637
N      82.48955443      93.57719690      88.85989534
H      84.27156634      94.24804974      88.98272755
C      80.69998361      94.38033058      86.75851968
H      78.85372100      94.78473201      87.57677117
C      81.63539814      96.77083437      85.45460852
H      80.41841439      97.20358169      83.85023088
H      83.54969089      96.76516519      84.69115909
C      81.24611451      99.20480186      87.07032452
H      82.20609548      98.95535798      88.87501315
H      79.22788681      99.47692245      87.37834991
C      82.69931405     101.50081933      85.70405239
H      81.99066668     101.77671937      83.79164937
H      84.62872461     100.84886375      85.40358591
C      82.42341401     103.97825052      87.22906153
H      82.77490310     103.65510732      89.23217142
H      80.49589317     104.69823625      87.10811905
N      84.14873413     105.95301452      86.17648397
H      85.97420975     105.38987608      86.16514562
H      83.92385670     107.37030926      87.43315197
H      83.66496420     106.38576185      84.38124398
C      80.42408357      92.23360149      84.72517416
O      82.15507287      90.92780061      83.95416583
N      78.26979557      92.00872406      83.70850141
H      77.01123785      93.09153723      84.64958511
C      77.51201532      90.59142932      81.38980722
H      78.41908395      88.78296124      80.99674415
C      74.66041831      90.03207033      81.54287505
H      73.46611128      91.67424250      81.88491552
H      74.20499427      88.82075577      83.14725269
C      73.69476817      88.66957766      79.33378499
O      72.31337823      89.69947850      77.76153270
O      74.45632787      86.47938486      78.82922807
C      78.01279279      92.40745631      79.16559935
O      78.20554488      94.69402515      79.43771994
N      77.97688799      91.23393627      76.97540655
H      77.98066745      89.32531269      76.93005312
C      78.24711886      92.47548646      74.51687262
H      79.86661431      93.73782363      74.67938908
C      78.84238264      90.39867724      72.54777780
H      78.98978130      91.50605686      70.81678850
C      81.34249056      88.93602907      73.07123199
H      82.11916807      87.94581248      71.44228791
H      81.01367818      87.36755623      74.36947397
H      82.74844693      90.15868200      73.94995473
O      76.78447069      88.88878591      71.98463936
H      76.33660555      89.45192436      70.31790075
C      76.07204387      94.09120245      73.55878138
O      76.41030488      95.72581571      71.87314551
N      74.08972097      94.12710725      74.90048706
H      73.82515928      92.78540157      76.23274411
C      72.04314737      95.92423698      74.73608087
H      72.11495697      97.11287483      73.05233473
C      69.41264834      94.53339841      74.63025620
H      67.82338851      95.84297875      74.54710824
H      69.07060788      93.43168797      76.33667906
C      69.36351546      92.74193787      72.43817368
H      70.55404304      91.11677324      72.87847991
H      70.38207794      93.35798864      70.75631726
C      66.74813424      91.78573635      71.65960644
O      65.71823340      92.65312073      69.71885751
O      66.03381769      89.92435593      72.92761279
C      72.15842068      97.90278043      76.85824352
O      70.58238893      99.49959916      76.87147161
N      73.93098396      97.73270506      78.75174929
H      75.28780745      96.40044801      78.57789447
C      73.95932985      99.62432110      80.90036811
H      73.19021124     101.43089945      80.27864815
H      75.90763768     100.10242186      81.36902023
C      72.73478720      98.72292165      83.30032052
O      73.01635642      99.87565470      85.21272355
N      71.27591849      96.74626792      83.19827530
H      70.89041432      95.89778081      81.53342642
C      70.26113546      95.65589584      85.52074894
H      69.35973601      97.24704540      86.47128128
C      68.39219613      93.61121197      84.99351530
H      67.30749323      93.54696128      86.74151214
H      69.31060312      91.83297951      84.50596591
C      66.63664039      94.09120245      82.82033004
C      65.65587243      92.12210764      81.30665926
H      66.27381294      90.17946899      81.41626339
C      63.95700848      92.56241387      79.37724870
H      63.11796999      91.07519926      78.25853072
C      63.23891248      95.14755946      78.91237603
O      61.43233412      95.54629171      77.05288533
H      60.30038806      96.82185698      77.67082584
C      63.84929408      97.10531592      80.61312971
H      63.15765425      99.01204977      80.38825228
C      65.40075938      96.53083912      82.61623960
H      65.68232860      97.91978796      84.08644667
C      72.22645082      94.63544363      87.34244511
O      74.13507440      93.73215445      86.43537648
N      71.69354800      94.70914296      89.83877357
H      69.95311007      95.30062729      90.35655858
C      73.44721402      93.76616953      91.71149234
H      75.28024854      93.97214970      90.79308536
C      73.45477293      95.38377525      94.07742969
H      74.83616286      94.60709774      95.39078948
H      71.61040004      95.21747934      94.98071887
C      73.97822711      98.08230443      93.51051179
C      72.00346312      99.81329373      93.60310838
H      70.02680939      99.35409024      93.81097828
C      72.70266185     102.40410850      93.34799533
H      71.10395339     103.67400459      93.41980493
C      75.17064442     103.09574834      92.56186918
O      75.66386299     105.51459802      92.28785887
H      74.21444290     106.47268926      92.80375415
C      77.03391456     101.22113983      92.17825474
H      78.90663334     102.00537625      91.95337731
C      76.52368846      98.73048055      92.71115756
H      77.92964484      97.27161184      92.95871171
C      72.93698792      90.98827185      92.35966847
O      70.66553689      90.30230120      92.71871647
N      74.90608273      89.56152848      92.87367403
H      76.66730766      90.23994023      92.56942809
C      74.90797246      86.90835274      93.55397550
H      73.10517356      86.44914924      94.43836741
C      75.58449448      85.20570933      91.22772241
H      75.62228901      83.19315081      91.66991836
C      73.68154008      85.63089775      89.02808098
H      72.07527272      86.80819724      89.55909407
H      73.16942425      83.82431940      88.17959386
H      74.61506488      86.84599177      87.65236022
O      78.00901334      85.67814091      90.28663870
H      77.71988521      87.18425278      89.31720911
C      76.76557343      86.27340470      95.67424842
O      78.36239216      87.85132617      96.25817385
N      76.52935764      83.98116668      96.62856021
H      75.36528623      82.69048361      95.84054434
C      78.56081342      82.90969186      98.16868716
H      80.22755203      84.07754272      97.86255149
C      77.72933385      82.93992748     100.89745195
H      77.36272694      84.93169901     101.26594858
C      75.09694509      81.60578070     101.26594858
H      74.47144568      81.59822180     103.22937422
H      75.47489035      79.63668589     100.79162728
H      73.53792088      82.37111986     100.16045869
C      79.51701494      82.37678904     103.11221119
H      80.02346159      80.39068668     102.89867212
H      78.69309427      82.58465893     104.98870942
C      82.09460163      83.90935708     102.90812075
H      83.07347986      83.67125156     101.11288075
H      83.46465321      83.32354192     104.32919494
H      81.55225018      85.87278272     103.21803586
C      79.28079915      80.23572913      97.41846581
O      77.74823111      78.94315633      96.18069507
N      81.39540289      79.24740227      98.37277760
H      82.17397013      80.41525313      99.66535040
C      81.90940845      76.49407103      98.44080774
H      80.20298559      75.46228046      98.95292358
H      83.36638744      76.04809562      99.82786686
C      82.74088803      75.58700240      95.89534640
O      84.56447392      76.42037170      94.79363596
N      81.46910222      73.59145141      95.00717503
H      80.08015338      72.74485402      96.00306080
C      81.55036045      72.71083895      92.33132257
H      83.20954015      73.46106029      91.36945188
C      81.85271666      69.84223441      92.11589377
H      80.04046913      69.11657950      92.77162881
C      82.12294752      69.21484527      89.31342965
H      81.91885708      67.16638195      89.20382553
H      83.90684916      69.86491112      88.51785487
H      80.50912125      69.97262552      88.28163909
C      83.81614230      68.45706502      93.78263238
H      83.19820180      68.08100948      95.71204295
H      85.24099594      69.94050017      93.87333925
C      85.11816373      65.99664136      92.70548838
H      83.67441283      64.54533155      92.93792472
H      86.71120301      65.57523239      93.94136939
H      85.56413914      65.92483176      90.69670931
C      79.23544572      73.76152678      91.07276485
O      77.08871663      72.56533002      91.12567719
N      79.31670395      76.17281755      90.29041816
H      80.95698639      77.04587111      90.72316548
C      77.44776463      77.67703970      88.91658713
H      77.27202008      76.87012656      87.02686081
H      78.40396614      79.49684614      88.81832136
C      74.74167655      78.07577195      89.89924481
O      72.98990025      78.33088500      88.44226582
N      74.32404703      77.98884454      92.34644038
H      75.79803355      77.66192189      93.51429125
C      71.80126240      78.23072951      93.53696796
H      70.27436354      77.31232252      92.50517740
C      71.92220489      77.14035743      96.21848960
H      72.72155912      78.58977751      97.44492198
H      73.09383520      75.44716265      96.27329166
C      69.29548531      76.65658749      97.29185415
N      67.95000018      74.43804880      97.24461099
H      68.52069752      72.67115470      96.80430476
C      65.56327584      74.79331735      98.19325360
H      64.21401126      73.26452876      98.30285772
N      65.49146624      77.23673347      98.76584067
H      64.00803109      78.08522058      99.61432778
C      67.75724809      78.40647406      98.40301322
H      68.18432624      80.39635586      98.55419132
C      70.69388278      80.87256689      93.67869744
O      71.84094665      82.45237809      95.05441819
N      68.63975028      81.29208614      92.28218969
H      68.01047142      79.93526264      91.09922102
C      67.42843571      83.86211392      92.37478628
H      68.95533457      85.11689219      91.79841975
C      65.32706005      83.90368790      90.18648321
H      63.73024132      82.74339594      90.77796755
H      66.30404856      83.11945148      88.55186995
C      64.09684822      86.36033211      89.22650224
H      62.99513778      85.74995051      87.59755816
C      62.29593905      87.44125556      91.23150186
H      60.89376212      86.02585055      91.75117660
H      61.44178275      89.29318734      90.94426346
H      63.43922347      87.80786246      92.90579937
C      65.98279508      88.40879543      88.45549391
H      66.92387879      87.87778234      86.70182789
H      67.51536312      88.66390848      89.80853795
H      64.86029765      90.13033610      88.31376443
C      66.18310607      84.65201952      94.91646817
O      64.45022704      83.44826386      95.80274981
N      67.12230005      86.77607190      95.83109571
H      68.66620645      87.41101994      94.90512981
C      66.18877525      87.99116592      98.18380497
H      65.10596208      86.75906436      99.42913461
C      68.47912354      89.13256061      99.41590652
H      67.82716797      90.27395530     101.00138690
H      69.39942026      90.38733888      98.06475221
C      70.67687525      87.60566175     100.40045393
H      71.23812396      86.25261771      98.95103385
C      72.98045162      89.18736267     101.02028416
H      74.09727987      89.51239560      99.32142021
H      74.02358055      88.08565223     102.41490218
H      72.34739331      90.88433690     102.00105212
C      69.69610729      86.18836701     102.72103784
H      67.87630085      85.29452647     102.35632066
H      69.17454283      87.53007269     104.19313464
H      70.91876021      84.64068116     103.31441191
C      64.24613660      89.95459155      97.44492198
O      62.03515682      89.34987913      97.69436585
N      65.00958603      92.15423298      96.32053482
H      66.80671576      92.28084465      95.68936623
C      63.11230082      93.86065584      95.25283945
H      61.39831905      92.84209336      94.73316472
C      62.19767328      95.82030203      97.25405962