 %block lattice_cart
   142.669   0.000   0.000
   0.000 146.65   0.000
   0.000   0.000   162.396
 %endblock lattice_cart

 %block positions_abs
N      90.13066278      41.77601921      78.86985719
H      91.63866438      41.26957256      77.81350018
H      88.69825024      41.91774868      77.61129945
H      89.81507849      40.21888473      79.92621420
C      90.36309911      44.01723461      80.46478619
H      91.72559179      43.52401605      81.92743436
C      91.20969650      46.30758291      78.76592224
H      89.62043668      47.02378918      77.66610152
H      92.56652000      45.64428897      77.36752477
C      92.44368778      48.52045242      80.30415945
H      94.23892779      47.95920371      81.14319793
H      91.16434306      48.69430724      81.90664736
S      92.49848984      51.77645086      78.82450375
C      95.92456366      52.47753932      78.86229828
H      96.86564736      52.39817082      80.69344308
H      96.29117056      54.35592728      78.10073858
H      96.79761720      51.04701650      77.66421179
C      87.99338232      44.65974156      81.86507338
O      85.94680872      44.82036830      80.74635542
N      88.23904674      44.97343612      84.35762239
H      90.03428673      44.64273403      84.91698139
C      86.32286425      45.67452459      86.23601035
H      84.80919348      44.27612712      86.26057679
C      87.34520620      45.36460948      88.95343679
H      89.17068181      46.32081099      88.97422378
H      87.73637953      43.37472767      89.32382315
C      85.59720936      46.00900615      91.21165974
O      83.38433984      46.72521242      91.06615081
N      86.52317525      45.81814379      93.46799295
H      85.57831209      46.41151785      95.01756853
H      88.40723238      45.53846430      93.55681008
C      85.31375041      48.35226678      85.72011506
O      86.81608282      50.18530130      85.70121780
N      82.86655482      48.78879356      85.70121780
H      81.71760124      47.29779949      86.02247128
C      81.60988683      51.28134257      85.30626501
H      82.25995269      52.04857145      83.50724555
C      78.75073092      50.82969798      85.09461566
H      78.99639534      49.54468407      83.50346611
C      77.54130607      49.38405735      87.32449271
H      78.37467539      47.56236117      87.80448319
H      75.59677771      48.76989630      87.03347486
H      77.53563691      50.57647465      89.00445941
C      77.01218271      53.09736954      84.27069499
H      77.55453417      54.83402803      85.23256567
H      75.04119816      53.04067776      84.86028960
C      77.19170671      53.72286896      81.48145895
H      76.00495858      52.38305301      80.45911702
H      79.05497686      53.15973051      80.80871638
H      76.81565117      55.67684597      80.94666641
C      82.26373213      53.14650244      87.29803653
O      82.51695546      55.40472538      86.68954466
N      82.49616848      52.40006054      89.63751772
H      82.22782734      50.53490067      89.94743284
C      83.14245487      54.12538067      91.69542968
H      82.12767184      55.91684121      91.73511393
C      82.54341163      53.10114901      94.35616432
H      83.25394873      54.31435330      95.86227619
H      83.40323711      51.24921722      94.61694654
C      79.76362423      52.90272774      94.92119249
C      78.34066031      50.72576303      94.15018416
H      79.28552346      49.14595183      93.27146142
C      75.87645720      50.47631916      95.00434044
H      74.74451113      48.83225726      94.57726229
C      74.72372415      52.36604547      96.44809134
H      72.86045400      51.97109267      97.18319489
C      76.03141476      54.74332117      96.85249278
H      75.05442625      56.12282138      97.99577719
C      78.56742746      54.83969721      96.19486803
H      79.65024064      56.47997965      96.74288866
C      85.90145528      54.88505064      91.65574542
O      86.50049852      57.03555919      92.19053797
N      87.53228909      53.25799629      90.68253637
H      86.77072940      51.55913233      90.26490685
C      90.16845731      53.81357583      90.30459111
H      91.01694441      54.87371229      91.85416668
C      91.62921574      51.21142269      89.97955817
H      93.59075166      51.49866109      89.42019919
H      90.64088888      50.09648416      88.55470454
C      91.65567191      49.63539095      92.40407704
H      89.73382025      49.54279436      93.13918058
H      92.88588375      50.55190821      93.77979780
C      92.59297616      46.94442068      91.82393106
O      93.92334349      46.71009461      89.88129241
O      91.92590277      45.11705533      93.14107029
C      90.60498408      55.41039456      87.89519006
O      92.46258504      56.82202012      87.65141536
N      88.87588451      55.17417877      86.07727335
H      87.80629941      53.60003675      86.23223090
C      88.96848110      56.54423035      83.68299010
H      90.94891428      56.54989953      83.11985166
C      87.43969250      55.14016370      81.76680763
H      85.49894359      54.84158694      82.39230703
H      88.22014947      53.23909903      81.62129870
C      87.46425894      56.34769881      79.08150653
H      88.82297216      55.25165755      77.98924472
H      88.21637003      58.26388129      79.05316064
S      84.39156397      56.01510698      77.40153983
C      82.64167740      58.33191144      79.39331137
H      83.55252549      60.17628432      79.27047917
H      82.73994316      57.73853737      81.36240620
H      80.65935450      58.30167582      78.83584211
C      87.96881588      59.29000268      83.84361684
O      89.31430101      60.95863101      83.27480922
N      85.74838745      59.63204314      85.03036496
H      84.97170995      58.01254769      85.67665136
C      84.64100783      62.10758460      85.27036021
H      84.56541879      62.72363539      83.30504484
C      81.93303004      61.96207569      86.44954943
H      81.46248818      63.87636844      87.04481322
H      82.02184716      60.67895152      88.05770652
C      79.69937352      61.17405981      84.78847999
H      80.03196535      59.34480474      83.90597780
C      77.33154645      60.92461594      86.29648159
H      77.44681977      59.46763695      87.74590167
H      75.50796057      60.67328234      85.36862598
H      77.18225808      62.78977581      87.15252761
C      79.40646596      63.09402175      82.71733995
H      78.92269601      64.85902612      83.66220312
H      77.82476503      62.68773059      81.46256168
H      81.09021209      63.47196701      81.59295281
C      86.29073890      63.90282460      86.93142964
O      86.13011218      66.17805509      86.87662758
N      88.17290632      62.86725459      88.33738601
H      88.06897136      60.98130773      88.61706550
C      90.11932441      63.96329585      89.83026979
H      89.70358463      65.66782898      90.90741379
C      91.06796703      61.94317842      91.75401118
H      92.09408842      60.45029464      90.77702268
H      89.35398527      61.26854613      92.67808736
C      92.78005907      62.76709910      94.02168277
H      92.01471992      64.44517606      94.93820003
H      94.59797579      63.23008204      93.16941619
C      93.24682146      60.50320697      95.85849673
H      94.67167511      61.33657628      97.08870856
H      94.01216063      58.93851359      94.75678630
N      90.94135537      59.71519110      97.21154078
H      90.20625182      58.08435729      96.55013657
C      90.11932441      60.43139737      99.42063083
N      90.81663343      62.45340453     100.58281253
H      90.33097376      62.48930933     102.42907512
H      92.07330142      63.74030815      99.94597476
N      88.42801936      59.04811771     100.69808582
H      87.74582817      59.75487535     102.33458881
H      87.76661515      57.33980513     100.15384464
C      92.47203368      64.80422406      88.31848874
O      93.90633594      66.31033593      89.34649986
N      92.70635975      64.06156162      85.92042606
H      91.58008286      62.61781072      85.38752324
C      94.52427646      65.00264531      84.11006825
H      95.31607177      66.65615585      85.04926223
C      96.51604799      63.04866832      83.49023801
H      97.70468584      63.89337598      82.03514875
C      98.23758865      62.67072305      85.72767397
H      98.08074138      64.33368221      86.93142964
H     100.16510949      62.58379564      85.00201907
H      97.59886117      61.05311733      86.83127415
C      95.52394168      60.49942752      82.33750496
H      93.96302773      59.94951716      83.56582707
H      97.06217890      59.13504512      82.22412138
C      94.49404084      60.94540293      79.64464498
H      94.75860252      59.11047868      78.74891469
H      95.87543077      62.22096819      78.80182704
H      92.61187342      61.77877223      79.68243950
C      93.28083654      66.23285714      81.86129393
O      94.52238673      67.67660806      80.50258071
N      90.81096424      65.87758860      81.55515827
H      89.87554972      64.59824389      82.62096392
C      89.32563937      67.34779568      79.86196349
H      90.35931967      67.44417172      78.08373103
C      86.87088488      65.67727762      79.27236888
H      85.54051757      65.80766872      80.84084172
H      87.23749179      63.65338074      79.14764695
C      85.40256754      66.37647635      76.82517332
O      86.47404237      66.03821534      74.78804834
O      83.17458022      66.99630658      76.95178498
C      88.74738312      70.05010430      80.71423007
O      88.34109195      71.75652716      79.27047917
N      88.51116733      70.59056603      83.01402699
H      89.29918319      69.39814872      84.27636416
C      88.05574329      73.14547601      84.01180249
H      89.18202016      74.39836454      82.82694409
C      85.31375041      73.64436374      84.03636893
H      84.39723315      72.21573066      85.20044033
H      84.49360918      73.57444388      82.14664261
C      84.60888250      76.35990047      84.91131221
H      85.55752510      76.64902858      86.71600083
H      82.61333151      76.50351966      85.40264104
C      85.21359492      78.49340147      83.02725507
O      83.49772341      80.08077157      82.47923445
O      87.27150687      78.65402821      82.02192067
C      89.34453663      73.33444864      86.62529398
O      90.36120938      75.33188935      87.09394610
N      89.46547912      71.42393534      88.10683940
H      88.17857550      70.03309677      87.87440306
C      90.86009714      71.35212574      90.43498221
H      92.84053031      71.74140936      90.01924243
H      90.71458820      69.43594325      91.17386520
C      89.69413599      73.10390202      92.44376130
O      87.45858978      73.88435900      92.11872837
N      91.24371158      73.70294527      94.42797391
H      93.10320227      73.27208767      94.39584858
C      90.33664294      74.51741731      96.91863320
H      88.35243032      74.97662080      96.61060782
C      90.75616219      72.40092384      98.85749240
H      92.79706660      72.14392105      98.99166296
H      90.14956004      70.72284687      97.82948129
C      89.39744896      72.49541016     101.38783592
H      90.03050728      74.17726656     102.39694979
C      86.50427799      72.62769099     101.30279824
H      85.81452787      72.18360531     103.19441428
H      85.79374089      71.22740380      99.97054120
H      85.94113954      74.57410910     100.94186052
C      90.22325937      70.20317214     102.96575741
H      89.80185040      70.51119753     104.95752893
H      92.23392816      69.83278577     102.71442380
H      89.28973457      68.42493967     102.50466418
C      91.57252395      76.98539988      97.75767168
O      93.92523322      77.29342526      97.72365661
N      89.85854219      78.68237410      98.36805329
H      88.06708165      78.19293498      97.91829842
C      90.29884841      81.07476762      99.79668638
H      92.31896584      81.14657722     100.19730835
C      89.73759971      83.24795288      97.99199774
H      89.35587498      85.06209014      98.89339720
H      88.07086109      82.74339595      96.89217704
C      91.75771714      83.51440429      96.02290293
H      92.28117133      81.75884853      95.08181923
H      93.33941805      84.40635510      96.99422226
C      90.88844303      85.24917304      93.73633409
H      92.59675562      85.85955463      92.76123531
H      89.96058740      86.93480891      94.47332736
N      89.37855171      83.95093106      91.82771052
H      88.42801936      82.42970138      92.48344554
C      89.41445651      84.35722222      89.40886084
N      90.39711419      86.27718416      88.21077435
H      90.55585120      86.24127935      86.30781996
H      92.01660963      86.96693426      88.94965734
N      88.70013995      82.56765140      87.86495443
H      88.38455567      82.76040349      85.99412538
H      88.19936248      80.88957444      88.62651414
C      88.77761874      81.42625671     102.16073399
O      86.64600746      80.50029081     102.48576691
N      89.87743946      82.39757604     104.19974869
H      91.62732601      83.10622340     103.90306165
C      88.88533313      82.49017262     106.71875385
H      87.14867466      81.39413136     106.90016758
C      90.89978138      81.53775056     108.77099663
H      90.06641208      81.50940467     110.65316405
H      92.50415903      82.83032335     108.70107677
C      91.73881986      78.76363234     108.34391848
H      92.43990833      78.41592268     106.43907437
C      93.76082702      78.08522059     110.27332906
H      93.02383377      77.98128564     112.19518071
H      95.43701427      79.28330707     110.22797562
H      94.41845179      76.19360454     109.78577967
C      89.54673734      76.82855259     108.74454047
H      90.44057790      74.97851052     108.60092127
H      88.28062071      77.12523961     107.14772174
H      88.55085157      77.05720946     110.53222156
C      88.02172821      85.22838605     107.46708548
O      87.03718081      85.57609569     109.52121798
N      88.26550291      86.98016233     105.69641193
H      89.14044619      86.53229720     104.05801920
C      87.30552194      89.48593944     105.75688317
H      85.94869845      89.52751341     107.30645875
C      89.41823596      91.35109930     106.18207158
H      88.47904198      93.17657492     106.36537503
H      90.64277861      91.23960544     104.53045078
C      90.85442796      91.01283829     108.67273087
H      91.55551641      89.10988389     109.04689667
H      89.51839145      91.45314452     110.17506328
C      93.18446049      92.79485020     108.91083639
H      92.78950769      94.76772447     108.47619933
H      94.67923402      92.06163639     107.69763209
C      94.07074214      92.64367209     111.65282927
H      92.54195356      93.07830915     112.96240959
H      95.47480879      94.13844561     111.83613271
N      95.48236770      90.31552928     112.17817318
H      96.93178778      90.08876213     110.95929971
H      94.45057712      88.74327698     111.85502998
H      96.27794248      90.66701837     113.87703713
C      85.86366077      90.09443131     103.29079032
O      86.21514986      88.89634482     101.34437223
N      84.09487694      91.78762607     103.47976296
H      83.63945290      92.52272962     105.18240636
C      82.29207804      92.56997277     101.46153526
H      81.40579639      90.95992595     100.52990019
C      80.10377496      94.10065109     102.73143133
H      80.84076823      95.82408148     103.58369791
C      78.12145206      95.11165467     100.76422625
H      79.00773369      95.79762532      99.03512667
H      77.23517041      96.69902476     101.73176611
H      76.72683403      93.63388869     100.44108304
C      78.58443501      92.89500570     104.84225563
H      80.05275235      92.25249876     106.13671816
H      77.55264444      91.27551024     104.09203429
C      76.95171147      94.58064158     106.32380105
H      78.02318628      96.27761580     106.78489427
H      76.54919976      93.43735716     107.99053967
H      75.10922831      94.93968957     105.47531395
C      83.69614469      93.87577365      99.45086646
O      85.51406139      95.20614098     100.19730835
N      83.04607882      93.17657492      97.11705446
H      81.64579163      91.88211240      97.03768596
C      84.32164409      94.06285657      94.79647055
H      85.32697848      95.79195613      95.29346857
C      86.36443823      92.23360149      94.04058002
H      87.61921650      91.88589185      95.63550904
H      87.49260485      93.01216873      92.50234281
C      85.26461753      89.70703740      93.20721073
C      84.37833588      89.21381884      90.72411035
H      84.44636603      90.63300331      89.25957246
C      83.51662069      86.73449791      90.03813970
H      82.87222401      86.38678828      88.13518530
C      83.33142751      84.78996954      91.82771052
O      82.33743146      82.52607742      90.90363435
H      82.09554650      82.60544592      89.10650463
C      84.16290709      85.31909291      94.21821429
H      83.91724265      83.91691599      95.67897274
C      85.02084283      87.71904532      94.98355345
H      85.55941483      87.94392276      96.93942018
C      82.36766709      94.63166419      92.74989695
O      80.17936402      93.98726751      93.06170180
N      83.23505146      95.74471297      90.65608019
H      85.09076269      95.81274312      90.21577397
C      81.49839298      96.31730006      88.53958672
H      79.57465160      95.79384587      89.05548201
C      81.46248818      99.17456624      87.86306470
H      80.03574482      99.62621083      86.44576997
H      83.20481584      99.30117791      86.77269262
C      81.37178132     100.97358568      90.21577397
H      83.15001378     100.94712952      91.25512344
H      79.87511808     100.39910889      91.50834676
C      80.76517917     103.66077651      89.37295603
H      80.25306334     104.43178485      91.21354946
H      79.23828031     103.78549845      87.99534554
C      83.10655008     105.13476303      88.31470930
H      83.75283647     104.60563967      86.42876244
H      84.72226606     104.98169520      89.58271565
N      82.81553222     107.92399907      88.30904011
H      84.52384480     108.69500741      87.94243321
H      82.21270952     108.41721764      90.05136777
H      81.66279916     108.39832037      86.86528921
C      81.83476427      94.56174430      86.15475212
O      83.91724265      93.78317706      85.45744311
N      79.69937352      94.05718738      84.86595877
H      78.20648974      94.79607037      85.79948358
C      79.21371387      92.94224886      82.46222690
H      80.27007088      91.18102394      82.28648236
C      76.44526482      92.13155627      82.45655773
H      74.99395501      93.56585854      82.17309877
H      76.01062776      91.35676849      84.31415870
C      75.88212637      90.02451143      80.52147798
O      74.34199944      90.56497315      78.81316539
O      76.98761626      88.00628373      80.78414993
C      79.68614544      94.65245118      80.21912177
O      80.06787015      96.85587205      80.54604442
N      79.69748381      93.46003387      78.01003171
H      79.60866667      91.55330001      78.05727487
C      79.88456670      94.64489227      75.41165803
H      81.45303954      95.97903905      75.45323200
C      80.56108873      92.58509058      73.37453307
H      80.39290309      93.66034486      71.62464650
C      83.05552746      91.11677324      73.74302969
H      83.35599394      89.87522305      72.12920343
H      83.11410898      90.14356419      75.55905669
H      84.44447630      92.63422346      73.84507491
O      78.58443501      90.81630675      73.10430221
H      79.11166864      89.76183948      71.72858145
C      77.58665952      96.13399660      74.74836409
O      77.71327118      98.13332704      73.43500431
N      75.41158452      95.58219651      76.02203963
H      75.28308313      93.85309693      76.81761441
C      73.07021363      97.00138097      75.66866081
H      73.04753691      97.75538177      73.75436806
C      70.84411603      95.22503825      75.89542797
H      69.02619931      96.17746031      75.71023479
H      70.88002083      94.38033058      77.77381593
C      70.73829136      93.33909138      73.85452355
H      68.95816917      92.38666933      74.26648389
H      72.22928542      91.94258364      74.11341605
C      70.54931873      94.67512788      71.27315741
O      68.50841431      94.76961421      70.24703601
O      72.51274437      95.49904856      70.09396818
C      72.95305060      99.22936831      77.60752000
O      71.14269278     100.62209660      77.81538990
N      74.70482689      99.22747857      79.42354700
H      76.05787093      97.90655989      79.16843395
C      74.77663648     101.01138022      81.54759936
H      73.22517119     102.28694548      81.09595479
H      76.52274359     102.09986256      81.41153908
C      74.23050557      99.94368485      84.16676004
O      74.99584474     100.98303431      86.06026581
N      72.91336634      97.80451466      84.14408332
H      72.88313072      96.77839328      82.53403650
C      71.63780107      96.82374670      86.37018092
H      70.66270231      98.49048532      87.08449746
C      69.65169873      94.81685735      85.56326778
H      68.47250951      94.24804973      87.15630706
H      70.58144406      93.01405845      85.20610952
C      67.77142105      95.48771021      83.38630308
C      67.24796686      93.72648528      81.52114320
H      67.86212790      91.80085417      81.81216105
C      65.86279746      94.51261142      79.38386274
H      65.53398508      93.20681054      77.85129471
C      65.24107750      96.99193235      78.72245853
O      64.14692598      97.64010848      76.54360410
H      64.12046980      99.44290738      76.34329311
C      65.53398508      98.68890658      80.71800952
H      65.13525284     100.66933976      80.42699167
C      66.82088871      97.91033934      82.93654821
H      67.43316004      99.38810531      84.20644430
C      73.15525131      95.90722945      88.54147646
O      75.01474199      94.58820048      88.13140584
N      72.41825805      96.49115488      90.92631106
H      70.71561464      97.32263446      91.14929876
C      73.92625965      95.71825681      93.17508538
H      75.80653733      96.28706443      92.55147569
C      73.24595817      97.14311045      95.57692751
H      73.97161308      96.17368086      97.24366613
H      71.20694348      97.42090021      95.56936862
C      74.35900697      99.73392523      95.83582003
C      72.60345123     101.69168168      95.92274743
H      70.57199543     101.49703988      95.92841662
C      73.36123147     104.25037112      95.91707826
H      72.04031278     105.79994670      95.78290768
C      75.99739969     104.72847187      95.89818099
O      76.69659841     107.16432908      95.64117821
H      75.22639134     108.22635528      95.72999534
C      77.81909585     102.78205377      96.04557965
H      79.80708793     103.24125727      96.10605089
C      77.05564641     100.25548969      95.90385016
H      78.28018907      98.63977370      95.66763438
C      73.66358768      92.78540158      93.50578748
O      71.54142504      91.66668359      93.68342176
N      75.76307361      91.38133493      93.44342650
H      77.47138621      92.23171177      93.40185253
C      75.91236199      88.52028928      93.85349712
H      74.04720212      87.96093029      94.52812941
C      76.63045800      87.32976171      91.28535906
H      78.50317678      88.01195291      90.76757406
C      76.44148537      84.61233527      90.96599532
H      77.49217320      83.48227894      92.33226744
H      77.48839374      84.14935232      89.25390327
H      74.46861109      84.06998382      90.71844117
O      75.07143378      88.21604335      89.32382315
H      74.63490701      89.95270182      89.62617936
C      77.69626363      87.55085969      95.83204056
O      79.23072140      89.08909690      96.66540987
N      77.18414780      85.41735868      96.98099416
H      76.11834217      84.10210917      96.10227144
C      78.91891657      84.17769821      98.95953761
H      80.74817164      85.12634082      98.96142735
C      77.66791774      84.28352290     101.65239762
H      77.08966150      86.24883826     101.86593669
C      75.20371463      82.67914526     101.84703942
H      73.92814936      83.26307069     100.33903782
H      74.20404942      83.16102546     103.57991846
H      75.62890305      80.66280728     101.81680381
C      79.33843581      83.69959747     103.81802397
H      80.36455720      81.91380610     103.71975819
H      78.14412877      83.76384816     105.49610093
C      81.25083883      85.84065738     104.22431513
H      82.77584796      85.68758955     102.85048410
H      82.22971707      85.45137375     105.99498869
H      80.48738941      87.75117067     104.08447538
C      79.43481184      81.49806631      98.12427859
O      77.99106095      80.30186955      96.74099893
N      81.54752586      80.30564900      98.88205884
H      82.82120140      81.35255738      99.84203981
C      81.91035331      77.66192190      99.20520204
H      80.10566469      77.00807658      99.95353366
H      83.37867067      77.50885406     100.64139403
C      82.73427399      76.27108333      96.87327977
O      84.52951398      77.25941019      95.75078233
N      81.38122995      74.39080565      96.04368991
H      79.99417084      73.84467474      97.23610722
C      81.31886898      73.42326578      93.44342650
H      82.80419387      74.33978304      92.34738524
C      81.66657862      70.63214000      93.23177717
H      79.92047150      69.67971794      93.76845944
C      82.19003281      69.84601385      90.41419523
H      84.16857626      70.20695159      89.97010955
H      80.98627715      70.77953866      89.02902585
H      81.68736562      67.87691904      90.07404450
C      83.74905702      69.49074531      94.99678153
H      83.04229937      69.32822885      96.92430237
H      85.17202094      70.91181951      95.43708777
C      85.06997571      67.02465248      94.26734719
H      86.22648822      66.24041605      95.78290768
H      86.38711496      67.58401147      92.78391203
H      83.66779879      65.64137282      93.66452448
C      78.90190902      74.23206863      91.99400643
O      76.89312996      73.08689449      92.32659825
N      78.88112204      76.49218131      90.77324322
H      80.50817640      77.48995680      90.71088227
C      76.91958612      77.22728484      88.83438403
H      76.52085388      75.40180922      87.96888939
H      77.74350680      78.73339670      87.69487907
C      74.45538301      78.17403773      90.01735271
O      72.91525606      78.87134674      88.52257919
N      74.39302204      78.38757680      92.51935034
H      75.95393598      77.91325549      93.51145665
C      72.04598196      78.77497068      93.99711631
H      70.56443653      77.77530547      92.97288466
C      72.17070390      77.76585683      96.68052768
H      73.45193833      78.82977275      97.89373198
H      72.94171223      75.85534354      96.70887358
C      69.64980900      77.73184177      97.92585733
N      67.99818820      75.83077710      98.08081488
H      68.25708070      74.19805356      97.12839282
C      65.88358446      76.62446214      99.33937260
H      64.16393351      75.52653116      99.40551303
N      66.37302357      78.96205360     100.22187479
H      65.03131788      80.03919759     101.04957491
C      68.65203350      79.77274619      99.20331232
H      69.46272609      81.64168550      99.33559315
C      71.26741472      81.54153002      93.94231426
O      72.15180663      83.02118572      95.56747889
N      69.45138773      82.36356095      92.19431742
H      68.98462534      81.14657722      90.79780967
C      68.20038891      84.89012504      92.13195645
H      69.66303708      86.33765540      92.16975097
C      66.42971535      85.28696756      89.73200403
H      65.10123777      83.72227417      89.88885132
H      67.49741073      85.14334837      87.97644829
C      64.85179389      87.77384739      89.58271565
H      63.72173756      87.81164191      91.30614604
C      66.40514891      90.05096760      89.42775810
H      65.27698231      91.73471374      89.06304091
H      67.41993195      90.02640116      87.63629754
H      67.73173679      90.28340393      90.98489258
C      63.13592240      87.80786246      87.27724955
H      64.18094104      87.53574188      85.52358354
H      61.83957015      89.40468119      87.34716943
H      61.77531946      86.29986086      87.61173110
C      66.87191132      85.31531345      94.74166848
O      65.43005014      83.84321665      95.82637139
N      67.38969633      87.64345628      95.61283231
H      68.62746706      88.75650508      94.67930752
C      66.30310370      88.90957291      97.85026827
H      65.24296724      87.59621312      99.03323694
C      68.57455472      89.85254633      99.37905685
H      67.87913545      91.01283829     100.93430162
H      69.71594942      91.00905883      98.11294022
C      70.28097759      87.85321590     100.62627622
H      70.94616124      86.66268831      99.08614929
C      72.45227311      89.35176886     101.73932502
H      73.82799388      89.69002987     100.24455152
H      73.63335206      88.21982281     102.99221357
H      71.84567098      91.08464789     102.67284983
C      68.96761779      86.38678828     102.67096009
H      70.43404541      85.10744357     103.34370266
H      67.35568126      85.27184976     102.04546068
H      68.48573759      87.72471451     104.16195415
C      64.31700134      90.96937458      97.13406199
O      62.20617705      90.54229643      97.73121552
N      65.07667131      92.90256461      95.70164945
H      66.93994147      93.03106600      95.31047610
C      63.32300531      94.88299779      94.96654592
H      61.51642694      94.05529766      94.42041502
C      62.88458879      96.74248848      97.18130515