 %block lattice_cart
   142.669   0.000   0.000
   0.000 146.65   0.000
   0.000   0.000   162.396
 %endblock lattice_cart

 %block positions_abs
N      92.35109119      44.32242541      77.28532167
H      91.00749578      43.01473480      76.92816340
H      93.94602020      43.84810410      76.35179687
H      91.44780201      45.75672768      76.40659893
C      92.64210904      44.78540835      79.95550495
H      93.29028517      43.27740676      81.20272432
C      94.56396070      46.92646827      80.31833240
H      96.44990756      46.31419694      79.76275287
H      94.90789089      47.47259917      82.27419914
C      93.94224075      49.27917753      78.56088693
H      94.69057237      50.85142982      79.65881792
H      92.00905073      49.39256111      77.85979847
S      95.76771636      49.69491732      75.57511936
C      98.61364419      50.77017159      76.91682504
H      98.63254146      52.82619382      76.80911064
H     100.27849307      49.89900776      76.07211738
H      98.61175447      50.14845163      78.88214040
C      90.03239700      45.48649682      81.17437842
O      88.33731250      46.62789151      80.01219674
N      89.77539423      45.27862692      83.68204524
H      91.33630816      44.82131315      84.68171046
C      87.33953701      45.99483320      84.90847762
H      85.77295390      45.20492760      83.83133362
C      87.40189798      44.77784945      87.50685130
H      88.99304753      45.56208587      88.55564940
H      87.70614391      42.74450394      87.38212936
C      85.06052708      45.36177488      89.02241180
O      85.12288804      46.98127033      90.72316548
N      82.96860005      44.18069593      88.60100283
H      81.60988683      44.38667610      89.92381125
H      82.94025415      42.99583754      87.10433959
C      86.75939103      48.87855555      85.11823724
O      88.47148307      50.55663251      85.25996671
N      84.18936324      49.36232548      85.03697901
H      82.95159251      47.93180267      84.78564541
C      83.40323710      52.00038342      84.75540979
H      83.83787415      52.67312599      82.85812457
C      80.46660241      51.94180190      85.00107421
H      79.62000502      50.88355517      83.44771918
C      79.23639058      50.55852224      87.31598894
H      77.19170671      50.46025647      87.07977315
H      79.72582969      51.34275866      89.15847209
H      79.92047150      48.61777332      87.23851016
C      79.58032077      54.74426602      84.67415155
H      79.97716329      55.60220177      86.50529635
H      77.53563690      54.61198518      84.87068309
C      80.12267222      56.25226762      82.24207379
H      79.66157900      55.14677773      80.56777628
H      82.09365676      56.84375196      82.13624912
H      79.22883167      58.10608914      82.12302103
C      84.62966948      53.75215971      86.66025391
O      85.71815183      55.77038741      85.84011269
N      84.98493802      52.85453971      89.08666249
H      84.03629541      51.31819222      89.70460300
C      86.10932518      54.10742826      91.20504569
H      84.96793049      55.81196139      91.38645942
C      85.85988131      52.35943142      93.62956455
H      87.31875002      52.91123150      94.97315996
H      86.21514985      50.37710852      93.20248640
C      83.28040489      52.35187251      94.78796678
C      81.71571150      50.17868725      94.56308935
H      82.30341638      48.34754245      93.87711870
C      79.48016527      50.19947424      95.97093545
H      78.64868570      48.33809382      96.06731149
C      78.80742271      52.22337112      97.54129802
H      77.06509504      51.98337588      98.58064749
C      80.34377020      54.34931322      97.69436585
H      80.03952426      55.85353537      99.04174071
C      82.53774245      54.52505777      96.18447453
H      83.86055087      56.07841280      96.21659987
C      88.86076669      55.00693798      90.61356136
O      89.52784008      57.14421844      91.01418333
N      90.34420185      53.21169798      89.58743997
H      89.42201541      51.67346077      88.93170494
C      92.94824471      53.72192409      88.56887748
H      94.08585995      54.59686737      90.04664346
C      94.37120862      51.27661824      87.93770890
H      96.23447876      51.68857858      87.16103138
H      93.44335300      50.35632153      86.34844907
C      94.70380045      49.44358372      90.03719483
H      92.79706660      48.88422473      90.58143601
H      95.46158070      50.40356468      91.69259508
C      96.25148630      47.04363130      89.52318927
O      98.45868663      47.20992721      88.49139871
O      95.28583615      44.96493235      89.47594612
C      92.98037005      55.44535449      86.32955180
O      94.82474293      56.87209785      85.91570174
N      91.20402732      55.45669284      84.56265770
H      89.65256202      54.44379954      85.01808174
C      91.54228833      56.56407246      81.87168743
H      93.56051603      56.54139575      81.46161682
C      89.99082303      55.04473251      79.83267274
H      87.96881587      55.42645722      79.90448234
H      90.16845730      52.99815891      79.98574057
C      90.94513481      55.43590585      77.04910588
H      92.92745772      54.90678249      76.86958188
H      90.72781629      57.43523629      76.60313047
S      89.54484762      53.41011925      74.70395553
C      86.10743545      54.13766388      74.74552951
H      85.10588051      52.87721643      73.45862589
H      85.79752034      56.01794156      73.96507254
H      85.35532438      54.12632552      76.66360171
C      90.94891427      59.50070715      82.07955733
O      92.34731174      61.13721014      81.10823800
N      88.72092694      60.05439696      83.26063627
H      87.72504118      58.52560838      83.82566444
C      87.86299120      62.65466037      84.06188023
H      87.68724665      63.83951877      82.38758272
C      85.44414152      62.51671035      85.58499964
H      85.00005583      64.30817089      86.49962717
H      85.46303878      61.11075397      87.09111151
C      83.09521171      61.87609313      83.92959939
H      83.46937752      60.32273810      82.62946768
C      80.84076822      61.27138071      85.60956608
H      80.80486342      62.88520698      86.88891079
H      81.19414704      59.47992016      86.56576759
H      79.14946317      61.24681427      84.43226659
C      82.36577735      64.10219073      82.14191829
H      84.00605979      64.64832164      81.02320032
H      81.96893483      65.68578138      83.40047602
H      80.60833188      63.62786942      81.17626815
C      89.78295313      64.17777978      85.82877433
O      89.68657709      66.43978218      85.96483463
N      91.68401780      62.88898643      86.93237450
H      91.56874450      60.98414231      86.89646970
C      93.89688731      64.00392496      88.27785963
H      93.13910706      65.52893409      89.43815159
C      95.24237245      62.16900071      89.99751058
H      97.01682546      62.94189877      90.70615794
H      95.53528003      60.38320934      89.01296317
C      93.53594959      61.70601776      92.25006434
H      91.65945136      60.94067860      91.88723689
H      93.53028041      63.66755367      92.87556375
C      94.80584567      59.85030652      94.15490847
H      96.48770209      60.86886900      94.76906952
H      95.09308407      58.15333229      93.02485213
N      93.15611460      59.22858657      96.29407865
H      92.72714673      57.37098560      96.17124644
C      92.53061519      60.38131962      98.39545431
N      93.22414475      62.72458024      99.08709414
H      92.82730222      63.22346799     100.88422387
H      94.32774491      63.63353860      97.82286724
N      91.03584168      59.30228589      99.98849359
H      90.33475321      60.08841204     101.57964315
H      90.21192100      57.63554728      99.55574627
C      95.84708487      65.18689363      86.42592785
O      97.20012891      66.79883018      87.31598894
N      95.88298967      64.54816614      84.01841652
H      94.46569493      63.36141801      83.54409522
C      97.28516659      65.92388689      82.05121143
H      98.41333320      67.45078575      82.85056566
C      99.35819636      64.31006063      80.66604204
H     100.14810196      65.69145056      79.35835144
C     101.31028364      63.47480159      82.74285126
H     102.02460019      65.30405666      83.36268149
H     102.54805438      62.06695549      81.89247442
H     100.24069855      62.39198841      84.12991038
C      98.35664141      62.34852471      78.91237603
H      97.26626933      63.25370361      77.41760251
H      97.12831931      61.06351082      79.95928440
C     100.45990680      60.77816214      77.58389843
H      99.56039707      59.39110303      76.35557632
H     101.71657480      59.71991541      78.83111779
H     101.57673505      62.04427877      76.40281948
C      95.52394167      67.35251998      80.34100912
O      96.32518563      69.21012096      79.26764457
N      93.26004955      66.49836369      79.89314398
H      92.79517687      64.79194083      80.61123998
C      91.50638353      67.63786866      78.13002933
H      92.50604875      68.08384408      76.38581195
C      89.26138867      65.99191704      77.45350731
H      87.52473019      66.52104041      78.42482664
H      89.76594559      64.00770441      77.67271556
C      88.38455566      66.39820821      74.64159456
O      90.01727919      66.27159653      72.93895115
O      86.09798682      66.67788769      74.18428079
C      90.55018201      70.11718959      79.06733358
O      89.84153465      71.74235422      77.67460529
N      90.40278336      70.34962592      81.54098533
H      90.64844778      68.79627089      82.62568823
C      89.49571473      72.59462078      82.84300676
H      89.27839621      73.95522372      81.31232844
C      86.69703006      72.23557278      83.65180962
H      86.67624307      70.67465884      84.99729475
H      85.57642236      71.84628917      81.96617375
C      85.39122918      74.63741493      84.62879812
H      86.21514985      75.44054861      86.33900044
H      83.56197411      73.90609084      85.22973109
C      84.80352430      76.71989332      82.81088141
O      82.59821369      77.06382351      82.06632924
O      86.56096977      78.22411546      82.17215392
C      91.12465881      73.28059143      85.01052284
O      92.14322130      75.42165134      84.99162557
N      91.60842875      71.62708090      86.85678545
H      90.73348547      69.93199641      86.83410873
C      93.46413999      72.23746250      88.85989534
H      95.05717927      73.04248591      87.83377395
H      94.25971477      70.48001704      89.58366052
C      92.58541725      73.85128879      91.09733129
O      90.64088888      75.16464856      90.82710043
N      93.86665169      73.65664696      93.29508299
H      95.69212731      73.09728799      93.31775971
C      92.92556799      74.46733955      95.82353680
H      90.86954576      74.58261286      95.78385255
C      93.40177902      72.32627964      97.58476172
H      95.36331493      71.82550217      97.19925756
H      92.32841447      70.75969653      96.78918695
C      92.66289603      72.60784886     100.42879983
H      93.79106264      74.13852718     101.22059515
C      89.90389562      73.51491749     100.80863481
H      89.88499835      74.12907854     102.77395018
H      88.53762349      71.97668028     100.85965742
H      89.21414551      75.06449308      99.63700450
C      93.13154816      70.15687383     101.84231511
H      92.03550690      68.65454141     100.95981292
H      92.88210428      70.42143552     103.86999144
H      95.10820188      69.81294364     101.37366298
C      94.26349422      76.92776321      96.57753760
O      96.58407813      77.03925707      96.81753284
N      92.71013919      78.89307858      96.73060543
H      90.93946563      78.82315870      96.02006834
C      93.24304201      81.34216388      97.88900766
H      95.18946011      81.47255501      98.54852214
C      92.69124193      83.50590052      96.00872998
H      92.54195355      85.17641857      97.20492674
H      90.81852315      83.12795525      95.23772164
C      94.89655253      83.83093343      94.03018653
H      95.17812175      82.20387908      92.79619525
H      96.68234390      84.21454789      94.98260859
C      94.33341409      86.18742216      92.33321230
H      96.00960133      86.97165857      91.42803340
H      93.51327287      87.69542374      93.47082754
N      92.46447477      85.53546657      90.45671407
H      91.72937123      83.78180055      90.28852843
C      92.08086033      87.06803461      88.44037610
N      92.79139742      89.41696443      88.29108772
H      92.59108643      90.46387279      86.70749707
H      93.45280163      90.20498029      89.89735508
N      91.02261359      86.11372282      86.43348675
H      90.38388610      87.37039082      85.14847286
H      90.45191625      84.29202666      86.45616347
C      91.51961161      81.79191875     100.25872446
O      89.22926332      81.47444472     100.11888471
N      92.56274054      82.25301196     102.53017549
H      94.44301822      82.57993461     102.56797001
C      91.30985199      82.68197985     104.90556146
H      89.69791545      81.40641457     105.06618820
C      93.12776871      82.13773867     107.05418028
H      92.31896584      82.56481680     108.89855316
H      94.65844702      83.51723888     107.04662137
C      94.34475245      79.41275332     106.96914259
H      95.36709439      79.22000123     105.18902041
C      95.93401228      79.15197108     109.39933063
H      94.96080323      79.41275332     111.19457063
H      97.13776794      80.81304051     109.19524019
H      96.91478024      77.34161328     109.38988200
C      92.31518639      77.43043041     106.95969396
H      92.98414951      75.50857876     107.26771935
H      91.56496504      77.10539750     105.06807792
H      90.84119987      77.84805994     108.33730445
C      89.86232164      85.30491996     105.14744643
O      88.05574328      85.40696518     106.75371379
N      90.53506420      87.24755862     103.59409140
H      91.77661439      87.21921271     102.14278159
C      89.46358938      89.86293983     103.89455788
H      88.23148783      90.13506041     105.52161224
C      91.74070959      91.64684146     104.23092917
H      92.85564812      91.71487161     102.50182959
H      93.08052555      90.94197356     105.62743691
C      90.85064850      94.38505489     104.91501009
H      89.26327840      94.34348091     106.22836988
H      90.30262787      94.94063443     103.00827624
C      93.09942281      95.90250513     105.96191847
H      94.83419157      95.18818859     105.10776218
H      93.49626534      95.58881056     107.95746946
C      92.89344264      98.64449801     105.24760192
H      91.08875401      99.38716045     105.90333695
H      92.72336727      98.92228778     103.21614614
N      94.88332445     100.21486057     106.44379868
H      94.92489843      99.78589270     108.30328937
H      94.63010112     102.08379989     106.14900137
H      96.39510550      99.68195775     105.40633893
C      87.80818913      90.66796324     101.53617944
O      88.36565840      89.46042812      99.58220244
N      85.85043267      92.19864155     101.92357334
H      85.23249217      92.58036627     103.69046744
C      84.21959887      93.12649717      99.90156618
H      83.44103162      91.30669073      99.33275856
C      81.94436839      94.81024332     100.98815881
H      82.94781306      96.37115725     101.88577881
C      80.13023112      95.77211401      98.95481330
H      79.52551870      94.23576651      97.72082202
H      81.04674839      97.03445118      97.61121789
H      78.33688085      96.50532782      99.65212231
C      80.49872776      93.27011637     103.02339405
H      81.88578687      92.49343885     104.33297439
H      79.35355361      91.79990930     102.14656104
C      78.81876106      94.97842895     104.52950592
H      77.04619778      95.36015367     103.55062769
H      79.64457146      96.77744841     105.09831354
H      78.28963770      93.78979111     106.12632466
C      85.61421688      94.28300967      97.60932817
O      87.35087537      95.81368799      97.80774943
N      84.74683251      93.48176571      95.50606278
H      83.12733706      92.49154913      95.69125596
C      85.63122442      94.14694938      93.04563912
H      86.35876905      96.07258049      93.08721310
C      87.64378295      92.24966416      92.16691638
H      89.03651124      91.96242577      93.65791045
H      88.49415979      93.15295334      90.52474422
C      86.57608758      89.60026787      91.66802864
C      85.66712922      88.96531984      89.18114881
H      85.41390590      90.46198308      87.81676641
C      84.73171470      86.60127221      88.58399530
H      84.18936324      86.27057010      86.64324637
C      84.94525377      84.66430274      90.34899967
O      84.12322282      82.34749829      89.74239753
H      83.55063575      82.30214485      88.02274658
C      85.96759571      85.09138089      92.76406990
H      86.19625259      83.62117381      94.16057765
C      86.74238349      87.53290728      93.45759946
H      87.59842951      87.81825595      95.28874425
C      83.39189874      94.42095969      91.20882514
O      81.26406691      93.82191646      91.86644990
N      83.76606455      95.22787283      88.86367479
H      85.53106893      95.92707157      88.67281243
C      81.77618274      95.16740160      86.84166763
H      79.88645643      94.74032345      87.54275610
C      81.63445327      97.96608627      85.68515513
H      80.69525929      97.77711362      83.86156924
H      83.63000426      98.31379591      85.30909960
C      80.50439693      99.87282011      87.70338283
H      81.69303479     100.01265985      89.38145980
H      78.61089117      99.22086454      88.18526304
C      80.07353934     102.33702322      86.36167715
H      78.86411449     102.03277729      84.71950499
H      81.77429302     103.11559046      85.49240305
C      78.90568847     104.28911050      88.19660140
H      80.25684279     104.62170234      89.71594136
H      77.16902999     103.53888915      89.01107344
N      78.12145205     106.74764443      86.94749231
H      77.56209307     108.14604191      88.11912262
H      76.79108473     106.34702246      85.63980170
H      79.51229062     107.54510894      85.91192229
C      82.27507049      93.10004101      84.83855774
O      84.18369407      93.16240197      83.55543358
N      80.36833664      91.39361815      84.55698852
H      79.08521247      91.20653523      85.95727572
C      80.12645167      89.86105011      82.26286078
H      81.76862384      88.62894854      82.09467514
C      77.74539652      88.30391563      82.43293615
H      76.23739492      89.59837814      81.89058469
H      77.60744650      87.51212029      84.32833164
C      77.55831361      86.03246459      80.61312971
O      79.24205976      84.42241777      81.10823800
O      76.39991138      86.09671528      78.54576912
C      80.12645167      91.57503186      79.85912891
O      79.89212561      93.88805687      79.92526933
N      80.40991062      90.43552690      77.56878062
H      80.33999075      88.52879305      77.55933199
C      80.47416131      91.52778871      74.99875283
H      81.65901971      93.20397596      75.15371039
C      81.77051356      89.70609254      73.16004913
H      81.95381702      90.45631389      71.24953583
C      84.38211533      88.86705406      74.04633077
H      84.32542354      87.54235592      75.62425224
H      85.46681823      90.49788788      74.68505826
H      85.28918396      88.38706357      72.26053940
O      80.08676742      87.66896758      73.28666079
H      80.76706889      86.30836464      74.27687738
C      77.90980271      92.41029090      74.17672189
O      77.79074995      94.09403704      72.54399835
N      75.91236199      91.58825995      75.50708921
H      76.08432709      90.16718576      76.76942639
C      73.29131160      92.44997516      75.33134466
H      73.07210335      93.13783553      73.40193410
C      71.32977568      90.44497553      75.95495435
H      69.43249047      91.21409414      76.15904479
H      71.77386137      89.68341584      77.81822449
C      71.24284827      88.22643684      74.07656639
H      70.48695775      86.52757288      74.96284803
H      73.12879513      87.74644635      73.40193410
C      69.43815965      88.80091365      71.84290989
O      70.16003510      90.05758164      69.96641166
O      67.20828260      88.00155942      71.90905031
C      72.71494507      94.50410765      77.31555729
O      70.74018108      95.71542222      77.31366756
N      74.71994469      95.30157216      78.63458626
H      76.25818191      94.19419253      78.41726773
C      74.86545362      97.62404580      80.07455771
H      73.86389867      99.04700972      78.97095754
H      76.85155597      98.06246230      80.40525981
C      73.50863012      97.50688277      82.57277589
O      73.09289033      99.39660907      83.75952402
N      72.87935126      95.21275503      83.43449109
H      73.15336158      93.87860824      82.09656486
C      71.72472848      94.55324053      85.80987707
H      70.55687762      96.08958803      86.52419361
C      69.92570903      92.36871693      85.56988183
H      69.13391371      91.88683671      87.41047526
H      71.08033181      90.77378791      84.97461804
C      67.89236352      92.86382521      83.54787467
C      67.40292441      90.99488589      81.73940659
H      68.28353687      89.15429246      81.66948672
C      65.72673717      91.49377363      79.77220150
H      65.45839603      90.09159672      78.31333278
C      64.47951780      93.76711439      79.60023640
O      62.77120521      94.05435279      77.73885599
H      61.94728454      95.63794344      78.05633001
C      64.95761856      95.61148728      81.49563190
H      64.03732184      97.41806562      81.26886474
C      66.54120921      95.11259953      83.52897741
H      66.95505927      96.53178399      84.93871324
C      73.62579316      93.98065346      87.93959862
O      75.33032629      92.37438610      87.60511707
N      73.14580267      95.07858445      90.24884418
H      71.85322987      96.47320247      90.42647845
C      74.89379951      94.57780698      92.53352329
H      76.81376145      95.04267966      91.94770813
C      74.26830010      96.32202437      94.74072362
H      75.11489749      95.49810369      96.42824922
H      72.22928541      96.54312235      94.93914489
C      75.43048178      99.07346587      94.59521470
C      73.73350756     101.11059084      94.67836265
H      71.72472848     100.80067572      94.85410720
C      74.75962894     103.61447820      94.64812703
H      73.34800339     105.03177295      95.04307983
C      77.46382730     103.92817278      94.59521470
O      78.30664523     106.35458137      94.56308935
H      77.00462380     107.59613155      94.79174623
C      79.09466111     101.90616562      94.48561057
H      81.11288881     102.09891770      94.26451259
C      78.08176780      99.50621320      94.41380097
H      79.19481660      97.80356979      94.21915916
C      74.69159880      91.76589422      93.23272203
O      72.63557657      90.77756736      93.61444674
N      76.95738065      90.65284542      93.48972480
H      78.48805896      91.72998942      93.10988982
C      77.59799787      88.01667722      93.66546935
H      75.98606132      86.98677638      94.43458796
C      78.30097605      87.01890173      91.02174224
H      80.08865715      87.89573473      90.49828805
C      78.47483087      84.17864309      90.95371209
H      78.91891656      83.59282792      89.03186043
H      76.70037787      83.31125871      91.54141698
H      80.12645167      83.53991558      92.00439992
O      76.61345046      87.76912307      89.31153993
H      76.21660793      89.51711991      89.03941934
C      79.59165913      87.52534839      95.78574227
O      81.17713950      89.18263835      96.20904097
N      79.41024540      85.24444872      96.88556299
H      78.15924658      83.84983070      96.52273554
C      81.29052308      84.26934994      98.70725915
H      83.08009390      85.28791243      98.65623654
C      80.06598043      84.76445824     101.33208900
H      79.32331799      86.68442017     101.22626433
C      77.79641913      83.02968949     101.79507195
H      76.58699429      83.08071209     100.12644362
H      76.77974637      83.44164982     103.53739961
H      78.57687610      81.13051454     101.96514732
C      81.97649373      84.54336025     103.47503864
H      83.86810977      85.11972678     102.89300294
H      81.93869921      82.67253120     104.33675384
C      81.02029222      86.20820914     105.62932664
H      79.29119264      85.35972202     106.35498154
H      80.69903874      88.14139915     104.99059914
H      82.46593285      86.24033449     107.09575426
C      81.89901495      81.41208375      98.23860703
O      80.32109348      80.12140068      97.04996918
N      83.97582417      80.44265415      99.19858800
H      85.50839221      81.34027416      99.89967646
C      84.32164409      77.65341813      98.95292357
H      82.53018354      76.76713649      99.45370105
H      85.84476350      77.11106667     100.22848884
C      84.89801061      76.76713649      96.31108619
O      86.09420737      78.11451134      94.72560581
N      84.20826051      74.40308887      95.70448404
H      83.25016927      73.43554900      97.04052055
C      84.19503242      73.35429075      93.14768434
H      85.61610661      74.34072789      92.03085609
C      84.94903322      70.43466360      93.07398502
H      83.55063575      69.37263741      94.14734956
C      84.92257705      69.63341965      90.19026266
H      83.19536720      70.05104916      89.14713374
H      85.20036682      67.59251523      90.15435786
H      86.52884442      70.46300951      89.20382553
C      87.60976787      70.11341013      94.24750506
H      87.50772265      71.05260412      96.07676013
H      89.07619549      71.12252398      93.21004531
C      88.45447553      67.25047476      94.68592156
H      88.70769886      66.39631847      92.82832059
H      86.91434859      66.23758147      95.60432855
H      90.16467785      67.18433434      95.83298543
C      81.68547588      74.18954980      92.05353281
O      79.86566944      72.80815985      91.90802388
N      81.54185668      76.63674536      91.20693542
H      83.14245487      77.67609483      91.22016350
C      79.57087214      77.33216465      89.39468788
H      79.41024540      76.02636376      87.80920751
H      80.32298321      79.06882314      88.58210557
C      76.92903475      77.99356886      90.60600245
O      75.02985981      78.39608057      89.26429677
N      76.77029774      78.30915315      93.11933845
H      78.42380826      78.46977989      94.05475297
C      74.48372890      78.31671205      94.65001676
H      73.11556705      77.05815433      93.76184539
C      75.02230090      77.30192902      97.30697196
H      76.53408195      78.23734355      98.35199061
H      75.74606608      75.39519517      97.01406438
C      72.68281973      77.05437488      99.11355031
N      71.45638735      74.73379096      99.40267844
H      71.84945042      73.09350853      98.51072762
C      69.38335758      75.24401707     100.84831907
H      67.79787721      74.00624633     101.19602871
N      69.32666579      77.72900717     101.30374311
H      68.12291013      78.72300322     102.40167410
C      71.37323939      78.98000599     100.13967170
H      71.43937981      81.00768232      99.89589701
C      73.47272532      80.96421863      94.63111950
O      74.36278642      82.57615516      96.12589301
N      71.46016680      81.62751255      93.27807546
H      71.00285303      80.51635348      91.79464030
C      70.49073720      84.29580612      93.24406038
H      72.13290937      85.49578232      92.90957883
C      68.30054441      84.79280413      91.30520119
H      67.70339089      86.76000923      91.43748203
H      66.91537502      83.36984021      91.84566291
C      69.06021438      84.30147529      88.58399530
H      69.19249522      82.25679142      88.37990485
C      67.02686887      85.42019326      86.97016902
H      67.16103944      84.97610758      84.96138995
H      67.24796685      87.46298741      87.12323686
H      65.17493708      84.68697945      87.49362321
C      71.56977093      85.25011790      87.61267597
H      72.07243813      84.53958080      85.74562637
H      73.18170747      84.72288425      88.78430628
H      71.54898394      87.28724286      87.91692191
C      69.33044525      85.02901993      95.69503541
O      68.09645396      83.50779023      96.85343764
N      69.69705215      87.34582438      96.60588349
H      70.83466739      88.48154990      95.57787238
C      68.45172251      88.32659233      98.78662766
H      67.50874908      87.02268118     100.07164155
C      70.46617076      89.63428294     100.45714572
H      69.53075623      90.70764750     101.94625005
H      71.51874832      90.94575301      99.26661814
C      72.47117038      87.87872720     101.76861578
H      73.01730128      86.62583865     100.22848884
C      74.72561387      89.46798703     102.57363919
H      73.93759800      90.89662012     103.83408664
H      75.51929892      90.27867961     100.85587797
H      76.12968052      88.21887793     103.41267767
C      71.44504899      86.44442492     103.93802159
H      72.79620330      85.35594258     105.04540121
H      69.90492204      85.17641857     103.42590576
H      70.69671737      87.74455664     105.35153687
C      66.41648727      90.22009811      98.13845153
O      64.50408424      90.40340155      99.39889898
N      66.76041746      91.59392913      96.05030396
H      68.22873481      91.25188868      94.87867364
C      64.78376374      93.45530955      95.39078947
H      62.94317031      92.53312311      95.39267920
C      64.56833494      95.85337225      97.13311714