 %block lattice_cart
   142.669   0.000   0.000
   0.000 146.65   0.000
   0.000   0.000   162.396
 %endblock lattice_cart

 %block positions_abs
N      90.51994639      42.42608505      84.90280843
H      92.39644462      42.12372884      85.08044272
H      89.60153941      40.80092042      84.50785563
H      89.76027642      42.89095773      86.59222376
C      89.69224627      44.60493949      83.21528285
H      90.37065802      46.36805414      84.03920351
C      91.06418757      44.42163604      80.57911463
H      90.75616218      42.65663166      79.56433161
H      93.09564336      44.55202716      80.90036810
C      90.35931966      46.61749802      78.85568423
H      88.38455566      46.51356307      78.28120743
H      91.62165684      46.33592880      77.25130660
S      90.85253823      49.80546631      79.88936453
C      89.81696821      51.62716247      77.19083536
H      91.17379170      51.16040007      75.71495911
H      90.21947991      53.59247784      77.65192857
H      87.79685078      51.35315216      76.89414833
C      86.91056914      44.76556623      82.68993893
O      85.67846758      43.28968998      81.27831337
N      85.68035731      46.27356783      84.25652204
H      86.76506021      47.32047620      85.42815236
C      82.93647470      46.65907199      84.25085286
H      81.97082455      45.59704581      82.77308688
C      82.00483963      45.17941629      86.63568747
H      83.15001377      43.50700850      87.00040465
H      80.00550919      44.81280939      86.29364700
C      82.15223828      46.95953848      88.99028646
O      80.19070237      47.93652698      89.80853794
N      84.44636602      47.62283241      89.92759071
H      84.38967424      48.54879831      91.59432931
H      85.96948543      46.60993911      89.38712897
C      82.14089992      49.46720530      84.21305833
O      83.66401933      51.16417952      84.16392545
N      79.70126325      49.87916563      84.32266247
H      78.50695622      48.39762020      84.16581518
C      78.81876106      52.55501809      84.17148436
H      79.53685706      53.22587093      82.36301628
C      75.97094351      52.65517359      83.92204048
H      75.30953930      51.54401451      82.31955257
C      74.65758372      51.64794946      86.30120591
H      74.82198991      52.94430171      87.89424519
H      75.48906330      49.85837864      86.89269024
H      72.62990739      51.37582887      86.06687985
C      74.94671185      55.31779796      83.46094727
H      75.30009067      56.68784954      84.95950022
H      72.90769716      55.04378765      83.56299248
C      75.53630646      56.45919265      80.87769139
H      74.98072692      55.11937670      79.41315350
H      77.56209307      56.81446120      80.79454344
H      74.63868646      58.25065320      80.39770091
C      79.83732355      54.38238344      86.30309564
O      80.38534418      56.51021526      85.53586676
N      80.19637155      53.45452782      88.63312819
H      79.72582969      51.66495700      89.09611113
C      81.34343542      55.01544175      90.58710518
H      80.28329896      56.75776941      90.88190250
C      81.14501416      53.65105935      93.16847134
H      82.42813832      54.58836360      94.47805166
H      82.02562662      51.79156866      93.14390488
C      78.57876582      53.53578605      94.49127976
C      78.25751235      54.86993282      96.69659035
H      79.74661668      56.07935766      97.39578909
C      75.88590583      54.95686024      97.86066177
H      75.61945442      56.07746794      99.54440792
C      73.89035484      53.42240247      96.99894656
H      72.23684432      53.02555994      98.12333373
C      74.29286655      51.90495224      94.78418733
H      72.75462933      50.75599864      94.09443723
C      76.72872376      51.82747346      93.75239677
H      77.00084435      50.73521165      92.04975336
C      83.94747828      55.93384874      90.06365100
O      84.62400030      58.07868810      90.53230312
N      85.56886345      54.27844849      89.06398578
H      84.96793049      52.46998041      89.06209605
C      88.01605903      54.77166706      87.80731779
H      89.09320303      55.88093640      89.16981046
C      89.36910307      52.31124340      87.12134714
H      90.83364096      52.95941952      85.82310516
H      87.87243983      51.08481102      86.41836894
C      90.82608206      51.34748298      89.37012144
H      89.69413600      51.03945759      91.06142650
H      92.40400353      52.54745919      89.92381126
C      91.57441368      48.65462298      88.76351930
O      93.86287224      48.21620648      88.64635627
O      90.06074290      46.83859599      88.40825075
C      87.60787815      56.34769880      85.48673387
O      88.91367903      58.20907922      85.18248793
N      86.05830257      55.65605897      83.68393497
H      85.23816135      53.94396693      83.87668706
C      85.92413200      56.96374958      81.24051884
H      87.79874050      56.77855640      80.41092900
C      83.99850089      55.48409388      79.56811106
H      82.10688485      56.09069602      80.10857279
H      84.31786464      53.45074836      79.66448709
C      84.53140371      56.13038028      76.82422845
H      86.50238825      56.13038028      76.22140576
H      84.01361870      58.10514427      76.54832841
S      82.82309112      54.24254369      74.44506302
C      80.79352506      56.68218036      73.13359297
H      79.49339336      55.74676583      71.83724072
H      81.99539100      58.12404154      72.28510585
H      79.87133862      57.76310381      74.62458702
C      85.38367028      59.83991303      81.42949148
O      86.49860880      61.26287694      80.15770567
N      83.86433032      60.72619467      83.28142327
H      82.66435411      59.55456435      84.19416107
C      83.59409946      63.64204237      83.86912815
H      83.33709668      64.77209870      82.16648473
C      81.16769087      64.05778216      85.28831261
H      81.39634776      65.67916734      86.54120115
H      80.94092371      62.55922919      86.68293062
C      78.69970831      64.21840890      83.84834115
H      78.58065555      62.49497850      82.72773346
C      76.29786616      64.18061438      85.71728047
H      74.53097206      64.04455407      84.66281319
H      76.28652781      65.76987420      87.02497109
H      76.37156549      62.61025180      87.04764780
C      78.49561787      66.56544898      82.22506626
H      78.37467538      68.28887937      83.34945341
H      77.01218271      66.38592499      80.80966125
H      80.23227635      66.86402573      81.16115034
C      85.71248265      64.89493092      85.33366604
O      86.04129503      67.18338948      84.92548516
N      87.12032876      63.32834780      86.87001353
H      86.39467385      61.56334343      86.90024915
C      89.52784008      64.01620818      88.14935825
H      89.27650648      65.63948308      89.39090844
C      90.81852315      61.70507290      89.51940982
H      91.71425342      60.45407408      88.14935825
H      89.33508800      60.53911176      90.34710994
C      92.84808921      62.11136406      91.38645942
H      92.06763225      62.99197652      93.07587475
H      94.34664218      63.20173614      90.48883943
C      94.03861679      59.61125614      92.16502666
H      95.68267868      59.84558221      93.38390014
H      94.51104837      58.59836284      90.43403736
N      92.36620900      58.19018196      93.91869268
H      90.60687381      58.79300465      94.34766056
C      92.76305153      56.23431522      95.33976687
N      94.91922925      55.10425889      95.20748603
H      95.32552041      53.68318470      96.41124169
H      96.25715548      55.90550284      94.10577559
N      90.96025263      55.24976781      96.83076093
H      91.22859376      53.54145523      97.64145352
H      89.34831608      56.24943303      97.03863082
C      91.30796227      64.95351243      86.00073943
O      92.82730222      66.59190514      86.51096553
N      91.17568143      63.92550132      83.69149388
H      89.97192576      62.45340452      83.54409521
C      92.86887620      64.16927601      81.61657439
H      94.64143948      64.94406380      82.32900120
C      93.58508247      61.63515303      80.47140024
H      91.89377742      60.88871113      79.56055215
C      95.73181157      61.76554414      78.61757873
H      97.57051527      62.14726886      79.46417612
H      95.25749026      62.95607172      77.00375245
H      96.12109519      59.91550208      77.79932722
C      94.36364972      59.55645408      82.53876082
H      93.05217965      59.61692532      84.12613092
H      96.29117055      59.86825892      83.19827530
C      94.38254698      56.75587969      81.66381754
H      95.02316420      55.66739733      83.29087190
H      95.80740062      56.68595981      80.17849265
H      92.52116656      55.98865080      81.22162159
C      91.80873974      65.87947832      79.57755968
O      93.10131254      67.59534982      78.62324790
N      89.32185991      65.88703723      79.10134865
H      88.20314194      64.57178772      79.91771042
C      87.85354257      67.55377584      77.46862513
H      88.87210505      67.63503407      75.68094403
C      85.24383053      66.43694759      77.00753191
H      83.99094198      67.11913879      78.49285679
H      85.35343466      64.38848426      77.18138672
C      84.15156872      67.27976552      74.47151919
O      85.36855247      66.64859694      72.48919629
O      82.12956157      68.42116022      74.40159931
C      87.81007886      70.31466599      78.46262117
O      88.30140770      71.98518404      77.00942163
N      87.44914114      70.71906741      80.98351607
H      87.10143149      69.02020347      81.78476002
C      87.02017326      73.22862396      82.30632449
H      87.56063499      74.68182350      80.95139072
C      84.20448106      73.76908568      82.62001906
H      84.09865638      75.09378383      84.19605080
H      83.37489121      72.05699365      83.40992465
C      82.89490072      74.75930227      80.15959539
H      80.86155521      74.61946252      80.46195160
H      83.12544733      73.45161167      78.58545338
C      83.61299672      77.52208214      79.47551447
O      81.93491975      79.27007898      79.29976993
O      85.88066830      78.10033839      78.93316302
C      88.44880636      73.65759184      84.84989610
O      89.55240652      75.67581953      85.31854823
N      88.46203444      71.74896825      86.54876006
H      87.34520619      70.26364337      86.11412300
C      89.97570522      71.78676279      88.92036658
H      91.72937124      72.78831772      88.51029598
H      90.47648269      69.84979331      89.40980570
C      88.58108720      73.14736572      91.16536145
O      87.38489044      75.12779890      90.77796754
N      88.60943309      72.00786077      93.39712822
H      89.82452711      70.53765369      93.46893782
C      87.51717128      72.93193693      95.82920599
H      85.57075318      73.34956644      95.30008262
C      87.68535693      70.68694206      97.63767406
H      89.63744421      70.32978379      98.18947415
H      87.07686505      69.01831373      96.59454514
C      85.95625735      70.70205988     100.01494976
H      85.95247790      72.59178619     100.83131153
C      83.17269049      70.42049066      99.32330993
H      81.91980194      70.94772431     100.87099579
H      82.75317125      68.44761639      98.90757015
H      82.66624384      71.46361959      97.62066653
C      86.85198762      68.99941648     102.10120762
H      85.51784084      69.13358704     103.66590101
H      88.71336804      69.59845971     102.74560428
H      87.19780754      67.11346961     101.34909655
C      88.56596939      75.35456607      97.09721234
O      90.67868341      75.34133797      98.10632619
N      87.24127124      77.50885406      96.82887120
H      85.61232716      77.46916981      95.83865461
C      88.08786863      79.88801949      98.10821592
H      90.13633195      79.81432016      98.32553445
C      87.56441444      82.33143562      96.52273553
H      88.33731250      84.11722697      97.20114729
H      85.52917920      82.61111510      96.38289579
C      88.70202968      81.88734992      93.83554473
H      87.91401381      80.15258117      93.05130831
H      90.71080875      81.80042252      94.28718930
C      88.14267069      84.07565299      92.09132734
H      88.41857073      85.97671766      92.83210005
H      86.23404712      83.97927695      91.31842927
N      89.68657709      83.64857485      89.83310438
H      90.96970126      84.99594971      89.41358514
C      89.73570997      81.84199649      88.04731303
N      88.05196383      80.11667637      88.00384931
H      88.22014947      78.55009326      86.92481559
H      86.82553145      80.26596475      89.45704885
N      91.40622804      81.73806154      86.34466962
H      91.38166159      80.46816546      84.91792625
H      92.67234467      83.16669465      86.36167715
C      87.03718080      80.09966883     100.89367250
O      84.66368455      80.12612501     101.16012391
N      88.72281667      80.25273666     102.88166458
H      90.48971077      80.46627573     102.19191448
C      88.02550766      80.33399489     105.54617869
H      86.20570122      79.37401393     105.64255472
C      90.20436210      79.11323169     107.09575426
H      89.62988530      79.07921662     109.07429771
H      91.77283494      80.44926821     107.10142344
C      90.89411220      76.49407102     106.22081098
H      91.97125620      76.46005596     104.46336550
C      92.53817410      75.17315233     108.27494348
H      94.32585519      76.18604565     108.39777568
H      93.23926256      73.37791233     107.54928858
H      91.56118559      75.00496670     110.08152184
C      88.65289680      74.56843991     105.95058012
H      87.77984324      74.74985365     107.80629135
H      89.19146880      72.61068345     105.61042937
H      87.32819865      75.08055574     104.45580659
C      87.53606855      83.00228845     106.43435005
O      87.45103086      83.57865498     108.69446272
N      87.05796779      84.80508735     104.65044841
H      86.84820817      84.04163793     102.91378993
C      86.49860880      87.52251380     104.72792718
H      85.45359015      87.91368714     106.45891649
C      88.99493726      88.99272086     104.34053330
H      89.56752433      88.58265026     102.40356383
H      90.49726968      88.23494061     105.52917115
C      88.83808998      91.98793706     104.75627309
H      87.55496581      92.36210288     106.32285619
H      88.02928711      92.93657967     103.11599064
C      91.51016298      93.14255984     105.38555195
H      92.71202892      92.91579268     103.73015170
H      92.42668024      92.15234326     106.94457616
C      91.54795751      95.81652257     106.53261581
H      93.27327763      96.05840754     107.63432626
H      89.83586547      95.95069315     107.67212079
N      91.90322606      97.83852974     104.50682921
H      90.32341486      98.11631951     103.47314891
H      93.37910231      97.38310569     103.38622151
H      92.26038433      99.55818067     105.25327110
C      84.73927360      88.36344200     102.64166934
O      84.92635651      87.41857884     100.53462450
N      83.22749255      90.18324845     103.14055708
H      83.04607883      90.63678275     104.98681970
C      81.53807723      91.19803147     101.10532185
H      80.37589555      89.63144836     100.45147655
C      79.88267698      93.32208385     102.20514257
H      81.20548540      94.75638611     102.87032622
C      78.25373290      94.62788473     100.20959158
H      77.16525054      93.27106123      99.10599140
H      79.66346873      95.62377050      99.08520442
H      77.01785189      95.96959041     101.16390336
C      78.53152267      92.43013303     104.52005730
H      79.77118313      91.43235753     105.82963763
H      77.14446355      91.11488352     103.75471814
C      77.07454368      94.53717786     105.93357257
H      76.03141475      93.88711201     107.58708311
H      75.52874755      95.11543411     104.70336074
H      78.16491576      96.26060827     106.22836989
C      83.14245487      92.21092477      98.85276809
O      84.93580514      93.64711678      99.12110922
N      82.06909032      91.59298427      96.67958282
H      80.50628666      90.50261219      96.79863558
C      83.14623432      92.32241862      94.14545983
H      84.22148859      94.03262094      94.54986127
C      84.91123870      90.27584504      93.13445626
H      86.04885394      89.62011000      94.72371609
H      86.24916493      91.00905883      91.74928687
C      83.45048026      88.13100567      91.95148758
C      83.25772817      87.79085492      89.33799610
H      83.88511731      89.29696680      88.10967400
C      81.89901495      85.75184024      88.30809525
H      81.88956632      85.38334360      86.29931619
C      80.53274283      84.01329202      89.94081879
O      79.24394949      82.12545545      88.95816111
H      79.23072140      82.04419721      87.14780330
C      80.76517917      84.43659073      92.62800961
H      79.84866191      83.02496516      93.78074265
C      82.24294514      86.42647253      93.55397550
H      82.50372738      86.41135471      95.57976211
C      80.91824700      92.71926115      92.31809449
O      78.73372338      92.15234326      92.75084182
N      81.51162106      94.22348329      90.32821268
H      83.32764805      94.71670187      90.01262838
C      79.58976940      94.65623063      88.30809525
H      77.64335130      94.82063682      88.96194055
C      80.00361946      97.19035360      87.03441971
H      78.87545285      97.15633854      85.31098933
H      81.96326565      97.75916122      86.74151215
C      78.71482612      99.22369912      88.43092746
H      79.83543382      99.66400536      90.10333526
H      76.74195185      98.71347302      88.73328367
C      78.80364325     101.67845360      86.73395324
H      77.56776225     101.46680425      85.09745025
H      80.70659765     102.20190779      86.14813808
C      77.77563214     103.75337310      88.53297269
H      79.15324262     104.13698754      90.01262838
H      76.10133463     103.01071065      89.47594611
N      77.24650877     106.43867418      87.38212936
H      76.76084911     107.70479081      88.72761449
H      75.88212637     106.21568648      86.06876958
H      78.80931243     107.08307085      86.49584773
C      79.61244612      92.53973715      86.34089017
O      81.39445803      91.85565622      85.14658314
N      77.41658414      91.34165067      86.02152641
H      75.91236200      92.08242338      86.93237450
C      77.20871425      89.17791404      84.32644192
H      79.06253576      88.37478035      83.93904801
C      75.47772494      87.06142057      85.37901946
H      73.58610890      87.87022343      85.29965096
H      76.19771067      86.69670339      87.27441497
C      75.92370035      84.50840032      84.02597542
O      77.76051433      82.97961173      84.41714878
O      74.42892684      84.06242492      82.22317652
C      76.38668330      90.03207033      81.61279493
O      75.86889829      92.29218300      81.29154146
N      76.32054288      88.37855981      79.64747956
H      76.54164086      86.50584104      79.94227686
C      76.21093875      89.20814967      76.93572230
H      77.48839374      90.81441702      76.74297021
C      77.46004785      87.30141581      75.20095355
H      76.81376145      87.49038845      73.25453545
C      80.45526405      87.46960146      75.04410626
H      81.46815736      87.09354591      76.79588256
H      81.00517441      89.39901202      74.57356442
H      81.26406691      86.16758003      73.66838551
O      77.03863888      84.66713734      75.65826732
H      75.27174478      84.34210440      75.41260290
C      73.67114659      90.09065186      75.93983653
O      73.44626916      90.50828136      73.65704716
N      71.71716958      90.62922385      77.55744227
H      71.99306962      89.94136348      79.31866718
C      69.53642542      92.41690494      76.99430382
H      69.22084112      92.76083514      74.98741448
C      67.04387641      90.96748486      77.74074572
H      65.55666180      92.39044878      77.73696627
H      67.25174630      90.47804575      79.73062753
C      66.03476256      88.60532696      76.16849343
H      64.42471574      87.65668436      77.03398807
H      67.65992719      87.34487952      76.17416259
C      65.14470146      89.23271611      73.58523756
O      66.77364555      89.74483194      71.94117566
O      62.92427305      88.92280099      73.05233474
C      70.04665152      95.03228616      78.34356840
O      68.37613346      96.57808228      78.37380402
N      72.25763131      95.59920406      79.40181515
H      73.48028423      94.13844561      79.26953429
C      72.83210811      97.77994821      80.87202222
H      72.16503472      99.56196013      80.08400635
H      74.89002006      97.71758725      80.89658866
C      71.89480385      97.94435440      83.58566920
O      71.82488398      99.86998553      84.80454268
N      70.88380028      95.74660270      84.49651728
H      70.81199068      94.28206481      83.27197464
C      69.65358845      95.68991091      86.87757244
H      69.11501645      97.59286531      87.45204924
C      67.22717986      94.25182919      86.95505121
H      66.42026673      94.49560389      88.83721863
H      67.75630323      92.28084465      86.69426899
C      65.04265624      95.07386013      85.27697425
C      63.84834921      93.42790852      83.67448633
H      64.31511161      91.44180617      83.71417059
C      61.74886328      94.27072645      82.23829434
H      60.89848644      92.85154199      81.04398731
C      60.75864669      96.73492956      82.58789370
O      58.67049912      97.31129609      81.32555652
H      58.41538606      99.10464637      81.23484966
C      62.18161061      98.49615449      83.90314322
H      61.71484821     100.48225684      83.90881239
C      64.20361776      97.63443929      85.34689413
H      65.17493708      99.15944842      86.29364700
C      71.31465788      94.68268679      88.96383029
O      72.61856903      92.72682005      88.56509804
N      71.26174554      95.94502396      91.22205322
H      69.95405493      97.33019336      91.33921627
C      72.59778204      95.10787522      93.49539399
H      74.60845084      94.97748409      93.06831584
C      72.45416284      97.04862413      95.68936624
H      72.92092524      96.20202674      97.50917268
H      70.46428103      97.57207833      95.79897036
C      74.20215968      99.23503747      95.34921549
C      73.36312120     101.77105019      95.37378193
H      71.33544487     101.99592763      95.38512030
C      75.07710297     103.81006489      95.35866413
H      74.22672612     105.66577613      95.40401757
C      77.69059446     103.41889154      95.03741066
O      79.20615496     105.44467814      94.76906951
H      78.06476027     106.83362698      95.01851339
C      78.44837471     100.90933499      95.19425793
H      80.48927913     100.90177608      95.14701478
C      76.86289433      98.86276140      95.37756140
H      77.68114582      97.02594742      95.71960186
C      71.87779632      92.38666932      94.41191124
O      69.68571379      91.75928018      94.97127024
N      73.84311168      90.88622663      94.70481883
H      75.61378524      91.46637261      94.28529959
C      73.62957261      88.16880019      94.83143048
H      71.69827232      87.58676449      95.24528054
C      74.11901172      87.18614250      92.16880611
H      75.97283324      87.74928095      91.46393819
C      73.86200895      84.25328727      91.81920675
H      75.19048654      83.32165219      93.08910282
H      74.42514739      83.59755223      89.94648797
H      71.99684907      83.39346180      91.96282595
O      72.15369636      87.96282002      90.37545585
H      72.20093952      89.75239085      90.08254826
C      75.53063728      86.89701439      96.63422940
O      77.33343618      88.27651460      97.21248565
N      75.16025092      84.72004967      97.70003503
H      73.43871025      84.00006394      97.29752333
C      77.19737589      83.33299056      99.06819689
H      79.04741795      83.84132693      98.31986527
C      77.03107997      83.89612899     101.97648568
H      76.31487370      85.81042175     102.24293709
C      75.20938381      81.99128487     103.20669751
H      74.11712200      82.88323569     104.71091965
H      76.09944490      80.18281680     103.63566538
H      73.58610890      81.42814644     102.06908227
C      79.62567420      83.80353240     103.29362491
H      80.93714426      84.97516272     102.22215010
H      80.34565993      81.87601156     103.26338929
C      79.36300224      84.97138326     106.02049999
H      78.92647546      86.98394179     106.00160272
H      81.15824224      84.52729758     106.92756861
H      77.98539176      84.09077081     107.27338854
C      77.28430330      80.56643123      98.56552969
O      75.61378524      79.49306669      97.43169390
N      79.29119264      79.30976323      99.32519966
H      80.67447230      80.36989969     100.10187717
C      79.85433108      76.66792585      98.82631192
H      78.13656987      75.64936336      99.32897911
H      81.35288405      76.14258194     100.13589225
C      80.41180035      76.13124357      96.05030396
O      82.27129104      77.00051769      95.03552093
N      78.46916170      74.98040026      94.66891403
H      76.84021762      74.50796868      95.54952649
C      78.14601850      75.21283658      92.02707664
H      79.31953854      76.78319916      91.39401833
C      78.92458574      72.75430266      90.58710518
H      77.72460953      71.16315310      91.11244910
C      78.89057066      73.06610749      87.69393421
H      78.96804944      71.14236611      86.96261012
H      80.67258258      73.98640421      87.22528207
H      77.20304507      74.09033916      87.10811905
C      81.69303479      72.07967036      91.27118612
H      81.58343066      71.48251684      93.24028094
H      82.96104114      73.66704046      90.92158674
C      82.84387811      69.83089605      89.95593659
H      84.52384480      69.51720148      91.10300048
H      83.14812405      70.60379411      88.06998974
H      81.58532039      68.20195197      89.87467837
C      75.39268726      75.69849626      91.61511631
O      73.84500141      74.52308648      92.76973908
N      74.58388440      77.49562597      90.16569623
H      75.93692844      78.58032887      89.37012144
C      72.08755594      77.81121026      89.08477276
H      71.37134967      76.09344906      88.20416031
H      71.99306962      79.14724677      87.52007939
C      70.09011522      78.80520631      90.81954153
O      68.29676495      79.97683663      89.82176603
N      70.20727826      78.36112062      93.34610561
H      71.50174078      77.09122454      93.94514885
C      68.39881017      79.18315157      95.33031824
H      66.58089346      78.47072475      94.67458321
C      69.26997401      78.11545620      97.81908779
H      70.80065232      79.25874063      98.58820640
H      70.03909261      76.23895798      97.45815006
C      67.10056820      77.78286438      99.82030796
N      65.73429607      75.59645104     100.23037857
H      65.98185022      73.99585285      99.22126472
C      64.09212391      75.86479216     102.24482681
H      62.68238808      74.60245499     103.00827625
N      64.44361300      78.24017814     103.08197557
H      63.27954159      79.09433444     104.33297438
C      66.32200096      79.39669065     101.68735756
H      67.32355590      81.10500323     102.17679666
C      68.07188752      82.10844790      95.47582716
O      69.51563843      83.47849948      96.69848008
N      66.39759001      83.01740627      93.92058241
H      65.21084188      81.89112937      92.93792473
C      65.80043649      85.78396559      93.87144953
H      67.37079906      86.83276369      93.04941858
C      63.44016833      85.91057724      92.16502666
H      62.00019688      84.66335788      92.94926308
H      64.09023418      85.56286761      90.24128527
C      62.17594143      88.43903105      92.06865061
H      61.76587082      88.97949277      94.01317900
C      63.86913620      90.48560466      90.97260936
H      62.74852850      92.21470422      90.97071963
H      64.32644997      89.88089224      89.06020632
H      65.57177961      91.02417664      92.00062048
C      59.76654038      88.22171252      90.51529559
H      58.53254909      89.85443606      90.74206274
H      58.71963200      86.59843763      91.22394295
H      60.34857608      87.85699535      88.57454666
C      65.20517271      86.78741025      96.63044994
O      63.99574787      85.49861691      98.14790016
N      65.88925363      89.11366334      97.31264114
H      67.06655312      90.06608540      96.14856973
C      65.27698231      90.18135871      99.93369154
H      64.60423974      88.66012903     101.15067527
C      67.63536074      91.44180617     101.10910130
H      67.39914496      92.51139126     102.85331869
H      68.24196289      92.79673994      99.68046820
C      69.83689190      89.52184424     101.33964791
H      70.04098234      88.42958243      99.60487916
C      72.43904503      90.79174031     101.85932265
H      72.42203750      91.69880894     103.70747497
H      73.04753690      91.99738570     100.30407788
H      73.63146234      89.12878115     102.07664118
C      69.44193910      87.72471451     103.49582564
H      67.48607237      87.16913497     103.16512352
H      69.54776377      88.77540233     105.26460947
H      70.86490301      86.23749989     103.42401604
C      63.12647376      92.08620283      99.56330517
O      61.22351936      91.49849796     100.64989781
N      63.38914572      94.10821000      98.24616594
H      65.00486172      94.41812511      97.27673633
C      61.44272762      95.84297874      97.61688708
H      59.62670063      94.88110805      97.75105765
C      61.31044677      98.18434964      99.34976611