 %block lattice_cart
   142.669   0.000   0.000
   0.000 146.65   0.000
   0.000   0.000   162.396
 %endblock lattice_cart

 %block positions_abs
N      88.95619787      45.91263011      76.64186986
H      87.43685792      46.28301645      75.54771833
H      88.59903960      44.19486888      77.39398094
H      90.55301661      45.73877529      75.61196902
C      89.00722048      47.78912832      78.84340102
H      90.74576869      47.53590501      79.91676556
C      89.09981707      50.51600339      77.74169058
H      87.26111337      51.44196929      77.73980085
H      89.82358225      50.46120133      75.81605946
C      90.87993926      52.26588996      79.24024354
H      90.93474132      54.16884436      78.45600712
H      92.82824709      51.60070631      79.12874969
S      90.51522208      52.40195026      82.63608173
C      93.10225740      54.48820810      83.22756606
H      93.60492460      54.47498002      85.22500678
H      92.45408128      56.41383923      82.90064341
H      94.61970763      54.30490466      81.84806586
C      86.70931329      47.35638101      80.67454582
O      84.52856912      47.63039131      79.88841967
N      87.04946402      46.77812475      83.02158590
H      88.79935059      46.35104660      83.65464421
C      85.00855960      46.95386930      84.96422455
H      83.70842790      45.47232388      84.36329158
C      85.99688647      46.58159321      87.59661330
H      87.33103324      48.06502837      88.11439831
H      87.00600032      44.79202240      87.74401195
C      83.81992175      46.74599940      89.35405877
O      83.62527994      48.66596133      90.64474184
N      82.12294752      44.87328062      89.45610399
H      80.51668016      45.27957179      90.39907742
H      82.49522361      43.32748451      88.40163671
C      83.67630255      49.44641830      84.91131221
O      84.81769725      51.46464600      84.83194370
N      81.14973847      49.66562656      85.13996909
H      80.26156711      48.00833658      85.47256092
C      79.72488483      51.99187964      84.67131697
H      80.07448420      52.70997565      82.77214202
C      76.82982412      51.31535763      84.70533204
H      76.60305696      49.73743615      83.40331061
C      75.88874042      50.24955198      87.24701393
H      73.91208669      49.78089986      86.90686320
H      75.81504109      51.64417000      88.76257444
H      76.96210496      48.57714420      87.78180648
C      75.20276977      53.57169084      83.80771204
H      75.09883482      55.03811846      85.24957322
H      73.34327907      52.80257223      83.36740581
C      76.33093637      54.87371228      81.43610552
H      77.08871663      53.43374083      80.17187862
H      77.92397566      56.10959329      81.86129394
H      74.84561149      55.92251038      80.46856565
C      80.32392807      54.01766625      86.65552960
O      80.45620892      56.24376385      86.13585486
N      80.64329182      53.32980587      89.07248955
H      80.62250483      51.50999944      89.64318690
C      81.07981860      55.08725135      91.11717342
H      79.73055401      56.64627556      91.13418096
C      80.79446993      53.74176621      93.73255464
H      81.55225018      54.91339652      95.24622542
H      81.73555363      51.90873170      93.68153203
C      78.11105856      53.21453257      94.58860066
C      76.99045086      50.90339730      93.82326150
H      78.00712361      49.57114024      92.65919009
C      74.51868884      50.30057460      94.48655544
H      73.54925924      48.71698394      93.63806832
C      73.12596055      51.92762896      96.00400567
H      71.16253491      51.52700697      96.38950983
C      74.29759086      54.15183683      97.00556061
H      73.19588042      55.51432949      98.05246899
C      76.74289671      54.75654925      96.17975021
H      77.46288244      56.58580432      96.72777084
C      83.75189161      56.23809467      90.72788980
O      84.17519030      58.56245804      90.63151376
N      85.66051518      54.66017320      90.34994454
H      85.45831447      52.78367497      90.63340349
C      88.15873337      55.48220416      89.72444513
H      88.78045332      56.84469682      91.13985014
C      89.95397336      53.24665792      89.67153279
H      91.89094284      53.80223745      89.24445464
H      89.47965206      51.85581935      88.22967161
C      89.99743707      51.70464125      92.16597152
H      91.62827088      50.45364243      92.10361056
H      88.25699914      50.60859998      92.05636740
C      90.11460010      53.54712440      94.45254036
O      88.71053345      53.07280310      96.31392078
O      91.56779964      55.38771784      94.49033489
C      88.34959573      57.18484756      87.29614682
O      89.62516099      59.21630335      87.29236736
N      87.03434621      56.44785429      85.32894172
H      86.20475636      54.73198281      85.41964859
C      86.61293724      57.82924424      82.89875369
H      88.55368617      57.89538466      82.20900358
C      85.05958221      56.37982415      81.00524792
H      83.04702369      56.21352823      81.40020072
H      85.70964807      54.42773686      80.95233558
C      85.66240491      57.47397568      78.34640300
H      87.71653741      57.63838187      78.37663862
H      84.84982259      59.36181227      78.18010708
S      84.57581228      55.70897130      75.68755808
C      81.35760837      56.72186462      75.71401424
H      81.01556790      58.25821210      74.38553665
H      80.80580828      57.26232633      77.62263782
H      79.97999788      55.26866508      75.22835458
C      85.52067543      60.56934739      83.27858867
O      86.72632082      62.37970519      82.31860771
N      83.40418196      60.97185908      84.59572791
H      82.31947906      59.50354174      85.14941772
C      82.34026605      63.35102451      85.24012459
H      81.72988445      64.36391783      83.55448872
C      80.01779241      62.70473811      86.83127414
H      79.42819780      64.50564730      87.63818728
H      80.45053974      61.43673177      88.39785726
C      77.73311330      61.54255643      85.28736775
H      78.28869283      59.68684520      84.58438956
C      75.53914105      61.22319269      87.12796117
H      74.09727987      60.11581306      86.16042130
H      74.80781697      63.03166077      87.79692429
H      76.13440484      59.99676032      88.67186757
C      76.76179397      63.18094914      83.16142564
H      74.77380189      62.81056279      82.77025230
H      77.80870235      62.88048267      81.41531853
H      76.92053098      65.16705151      83.67921065
C      84.29235333      64.91571790      86.91442210
O      84.50400268      67.14181550      86.47411587
N      85.83814946      63.57212250      88.38273945
H      85.39973295      61.73152907      88.63596277
C      87.73354495      64.69839937      90.03058079
H      86.86616057      66.26498249      91.04725355
C      88.78423278      62.84457787      92.04691877
H      90.22420423      61.51610026      91.40819127
H      87.14017088      61.71641125      92.57226268
C      89.69508086      63.84424309      94.54702668
H      88.18329981      64.79477542      95.57503779
H      91.06891189      65.33334741      94.17853005
C      90.77600431      61.77877222      96.36872284
H      91.29000987      62.70851758      98.13372722
H      92.54667787      61.24775913      95.46165421
N      89.13005269      59.51488011      96.80713935
H      89.63460962      57.96152507      95.81881249
C      87.22898802      59.18984717      98.48332659
N      86.57514272      60.58635492     100.32014057
H      85.19753223      59.89093563     101.44263800
H      87.53512368      62.23419626     100.37683235
N      85.82681110      57.28311333      98.20553682
H      84.46431843      57.12248659      99.53212469
H      86.69041602      55.73731720      97.48933055
C      89.93507610      65.84924270      88.41486479
O      91.08591943      67.67660804      89.26524163
N      90.32813917      65.08390354      86.06971444
H      89.30012806      63.60235812      85.44232530
C      92.05723875      66.25742358      84.09495044
H      93.15705947      67.75786627      84.98312181
C      93.94318561      64.25620342      83.11040303
H      95.26032485      65.01776313      81.72145419
C      95.84047083      63.61558620      85.29870610
H      96.80612098      65.35413440      85.84105756
H      97.35603133      62.36836684      84.67509642
H      94.96363782      62.82568061      86.98623170
C      93.06068342      61.62381466      82.22601112
H      91.45819551      60.96618992      83.34094964
H      94.55167748      60.19896103      82.23734948
C      92.00999559      61.86569963      79.53693058
H      90.22231450      62.83134979      79.86952241
H      91.77377980      59.90038426      78.97190241
H      93.35926018      62.95796144      78.42388178
C      90.83080637      67.54810665      81.91609600
O      92.00432641      69.19594800      80.88241571
N      88.41762587      66.95662232      81.36996510
H      87.68063261      65.49397416      82.34884333
C      87.03812566      68.18683415      79.35929630
H      88.27589640      68.45328557      77.73413167
C      84.92163219      66.47852156      78.45033795
H      83.27946003      66.90937917      79.61629908
H      85.25800348      64.44706577      78.51080919
C      84.26778689      67.19472783      75.64787382
O      85.87783371      67.04543945      74.00003248
O      82.05302765      67.78243272      75.40220940
C      86.10649059      70.84945853      80.06605394
O      86.26333788      72.52186631      78.48246329
N      85.33359253      71.26330859      82.50758034
H      85.23532676      69.78365288      83.71133600
C      84.84793287      73.70672472      83.67732093
H      84.73265956      75.18260097      82.24301866
C      82.35538386      73.70294526      85.17965335
H      82.70120378      72.51430740      86.82749469
H      80.90407405      72.84878896      83.99479495
C      81.35949809      76.29942922      86.27380488
H      82.82025653      77.17626223      87.43409684
H      79.54158138      76.02919836      87.20732968
C      80.69809388      78.28364185      84.15542168
O      78.40207641      78.69182273      83.54881954
O      82.44420100      79.47416942      83.12552084
C      87.01733867      74.50607894      85.19477116
O      87.72220659      76.64524913      85.04548278
N      88.08125459      73.04154105      86.91631183
H      87.13261198      71.39747915      87.10717418
C      89.69130141      73.98073503      88.94965734
H      90.93096187      75.45094210      88.21077435
H      90.81379884      72.29131971      89.30492589
C      88.19085871      75.07866601      91.30614605
O      86.27089678      76.53186555      91.25890289
N      89.34926094      74.67426459      93.53035392
H      90.87993926      73.54420825      93.36216828
C      88.92407252      75.73251133      96.07392554
H      86.90017564      76.11423604      96.03235156
C      89.77633909      73.66137129      97.87483472
H      91.74921336      73.41192741      97.33626272
H      88.70864372      71.98707377      97.32681409
C      89.26233353      74.28120152     100.72265227
H      90.44152275      75.86290243     101.30846743
C      86.51845093      74.67237486     101.40862292
H      86.48254613      75.28842563     103.37393829
H      85.53579324      72.86768622     101.27256263
H      85.74366314      76.30131895     100.41273715
C      90.21286587      72.03620666     102.07002713
H      89.13572187      70.47907217     101.26122427
H      90.09381311      72.12313407     104.12604936
H      92.19140932      72.07967036     101.49555033
C      90.25066040      78.27230348      96.40462764
O      92.59581075      78.50851927      96.05691800
N      88.61037796      80.12423528      97.12650310
H      86.73576945      79.76896672      97.03957569
C      89.48532124      82.55442332      98.10538133
H      91.50354894      82.32387669      98.44742179
C      88.95430815      84.50840032      95.96810087
H      89.46264452      86.35277319      96.73532975
H      86.92285236      84.75406474      95.75078234
C      90.29790355      84.19470575      93.37917582
H      89.96153227      82.28608218      92.68375653
H      92.32746961      84.36289140      93.69098066
C      89.36626848      86.02018136      91.47433169
H      87.33481269      85.78018613      91.22488782
H      90.15239463      85.57987513      89.62239991
N      89.86515623      88.64690094      92.11872837
H      89.70830894      89.31586406      93.90074028
C      89.91050966      90.63678275      90.50301237
N      90.10137202      90.52717863      88.02369145
H      90.46419947      92.13722544      87.06182075
H      89.77066991      88.94925715      87.00134951
N      89.78200827      92.93657968      91.44031662
H      89.83870006      94.40678675      90.22711233
H      89.60626372      93.19925163      93.32248403
C      88.00566554      83.12890010     100.57903307
O      85.69264053      83.50495564     100.48076730
N      89.21886983      83.45582277     102.69552654
H      91.11426532      83.25929122     102.78056422
C      87.97920937      84.12667561     105.10492759
H      86.25577897      82.99661927     105.07658170
C      89.43618835      82.82843363     107.28189230
H      88.37794162      83.22527616     109.00343297
H      91.21442082      83.79597349     107.65983757
C      89.83870006      79.89179893     107.11748611
H      90.71553307      79.38724201     105.32224612
C      91.78322844      79.11890088     109.12059601
H      91.14450094      79.52708175     111.03677849
H      93.59925542      79.94093181     108.60848017
H      92.09125382      77.09122453     108.94296173
C      87.45386545      78.51229873     107.46897521
H      86.21420499      79.06598854     105.91750990
H      86.38428036      78.81465494     109.20185424
H      87.83747989      76.49218129     107.33858409
C      87.09859691      86.82142533     105.68696329
O      85.74177341      87.22393702     107.46897521
N      87.93763539      88.69603383     104.16384389
H      89.12627324      88.37667009     102.70686490
C      87.07592019      91.29818696     104.60603984
H      86.04035017      91.45314452     106.37860312
C      89.36815821      93.13311121     104.70241589
H      90.21097614      93.14822903     102.82402793
H      90.84970364      92.33375698     105.89105374
C      89.04123556      96.08864317     105.16917828
H      87.50299834      96.32674868     106.51466342
H      88.61226768      97.15444881     103.45897597
C      91.58480717      97.04484468     106.11593117
H      92.14227644      95.86943491     107.71463963
H      91.30701740      98.90811482     106.95119020
C      93.54823281      97.31696527     104.09392401
H      92.89249778      98.58308190     102.60670940
H      93.97531096      95.48771020     103.25110608
N      95.97086195      98.29962296     105.01044127
H      96.77588535      97.20169196     106.34836750
H      95.66094683     100.07029651     105.65105849
H      97.37303887      98.71158329     103.78022944
C      85.18997333      92.04084941     102.35915526
O      85.44697611      91.07519926     100.29179467
N      83.41741005      93.73782363     102.87882999
H      83.19064289      94.37277167     104.66273163
C      81.40485152      94.71103269     101.08547972
H      80.43164247      93.05185298     100.34848646
C      79.35071902      95.98281850     102.61426831
H      79.11450323      94.90945394     104.35470624
C      80.26723628      98.53205929     103.48543214
H      82.11160917      98.28828460     104.36793433
H      78.92364088      99.21991967     104.88949879
H      80.06881502     100.00793554     102.06246823
C      76.71077136      96.18312948     101.24232701
H      76.16275073      94.32363878     100.55068718
H      76.73911726      97.53050434      99.68330280
C      74.72844846      97.21492004     103.10370742
H      74.91364164      99.22747856     103.50054995
H      74.81726560      96.24738018     104.91973441
H      72.80470707      96.91067410     102.43663404
C      82.61238664      96.13966577      98.73843964
O      84.71943148      97.27161184      98.87638966
N      81.37083645      95.90911917      96.55391602
H      79.77401772      94.86599023      96.58982082
C      82.04357902      97.07508030      94.06325674
H      83.16796617      98.77772370      94.35994377
C      83.84259847      95.41401088      92.60627776
H      85.52067543      95.22692797      93.78546698
H      84.29802251      96.51194186      90.92442134
C      83.04324424      92.72493033      91.90140984
C      82.16263178      91.99360624      89.56192867
H      82.31758933      93.34854001      88.04447844
C      81.40863098      89.48593942      88.89107582
H      80.82848500      89.04941265      86.98434197
C      82.02468176      87.54519051      90.64096239
O      81.69020020      85.08854630      90.12695683
H      82.46876744      83.77329678      91.10205561
C      83.09048740      88.13667484      92.97288466
H      83.51567582      86.67024722      94.32592870
C      83.40418196      90.70292317      93.66074504
H      83.98999712      91.02795610      95.59015560
C      79.67008277      97.54940160      92.42864348
O      77.66130370      96.43635280      92.85950108
N      79.88173212      99.30873680      90.60694732
H      81.66941321      99.92289786      90.34994454
C      78.07704349      99.68857180      88.69076484
H      76.28180349      98.79473125      89.16319641
C      77.50256669     102.56473524      88.50557166
H      78.86505936     103.29416959      87.14118926
H      77.89940921     103.57006963      90.25734795
C      74.82293478     103.11086615      87.45110437
H      73.28280783     102.40032905      88.61895524
H      74.84183204     102.38143179      85.52547326
C      74.57727036     105.97002206      87.19788105
H      75.06481974     107.03582769      88.89296555
H      72.64974952     106.51048377      86.71222139
C      76.35172336     107.04338660      85.08516703
H      75.50890543     106.18167141      83.41653870
H      78.26790585     106.31962143      85.30437528
N      76.41219461     109.75703359      85.09272594
H      77.48177970     110.44300424      86.51757958
H      74.65663886     110.37497409      85.51035545
H      77.21154884     110.63197686      83.59606270
C      78.96710458      98.36387364      86.30781995
O      81.24611451      98.08797361      85.71255617
N      77.11895225      97.63632902      84.83950261
H      75.36717595      98.05017908      85.48011983
C      77.50823587      96.02061301      82.66631735
H      79.42630808      95.28361976      82.54537487
C      75.78669520      93.70758801      83.17276400
H      73.94610177      94.41245593      83.76991752
H      76.55203435      92.54351661      84.69021423
C      75.73756231      91.92746582      80.94666640
O      73.81949010      92.08620283      79.55393811
O      77.64240644      90.61788549      80.78226022
C      76.98289195      97.35475980      80.30793891
O      76.38573844      99.71691768      80.31738754
N      77.22477692      96.11887879      78.19333517
H      77.84460715      94.31985934      78.34451327
C      76.75234534      97.07319057      75.56850532
H      78.15641199      98.47914694      75.02804359
C      77.11517279      94.94913820      73.58429269
H      75.66953216      93.51483592      73.88097972
C      77.58004547      95.61243214      70.80639501
H      76.87895701      97.48326119      70.30372781
H      76.60305696      94.39733811      69.45902015
H      79.58693481      95.73904380      70.35097097
O      79.35638820      93.83986886      74.43277980
H      79.57748618      92.34887480      73.42555568
C      74.18231756      98.14088594      75.23402376
O      74.06704425     100.17801091      74.01326056
N      72.17353849      96.99760153      76.33951365
H      72.44943853      95.44046703      77.41098847
C      69.60351070      98.13521676      76.21668144
H      69.38430245      98.96102715      74.34207294
C      67.68165904      95.91478835      76.29793967
H      65.76358683      96.44391171      76.82895277
H      68.31660708      94.83575461      77.93444266
C      67.66654123      94.22348330      74.00948111
H      67.21300691      92.32052889      74.66143669
H      69.61484906      94.26505728      73.34051799
C      65.98090536      95.17779508      71.87031092
O      66.57049997      97.15066936      70.50781825
O      64.24613660      93.72459554      71.22024507
C      69.15186611     100.16478283      78.32183656
O      67.12796923     101.16444805      78.41254342
N      70.98679036     100.67878837      79.95644982
H      72.62518307      99.69991015      79.95456009
C      70.63341154     102.53827908      81.98034670
H      69.70555592     104.28627590      81.40775962
H      72.58171937     103.12598395      82.29593099
C      69.38430245     101.53861386      84.43699090
O      69.28603668     102.94834968      86.30026105
N      68.45266738      99.11031553      84.47667516
H      68.71722906      98.03506126      82.91954068
C      67.78937344      97.88388317      86.87662757
H      66.61396367      99.07441074      88.07849351
C      66.09995812      95.61621159      86.17742884
H      65.18533058      95.00582999      87.91786677
H      67.12041032      93.91167846      85.63885684
C      63.96267766      96.29084388      84.40675528
C      63.56016595      94.90000532      82.15609124
H      64.86029765      93.39578316      81.69688775
C      61.53626907      95.56707871      80.52525744
H      61.35107589      94.60520801      78.73379689
C      60.08117981      97.72892561      80.97123285
O      58.52026587      98.46024969      79.11363188
H      57.63398423      99.95313348      79.63897580
C      60.47991206      99.12543335      83.25213251
H      59.31206120     100.67500893      83.88141137
C      62.38475618      98.34119693      84.90186358
H      62.85718776      99.66022589      86.38340901
C      70.17987723      97.44357693      88.55659427
O      72.24156863      96.98437343      87.61362084
N      69.75657853      97.74593314      90.99434121
H      68.06149403      98.19190855      91.75212146
C      71.73134253      96.96358645      92.80469902
H      73.45477293      97.26594266      91.71810639
C      71.73134253      98.45458050      95.14606992
H      72.91998038      97.56829887      96.57848247
H      69.81704977      98.32040994      95.89440154
C      72.62896253     101.10964598      94.85127262
C      70.80348691     103.08440997      94.41663556
H      68.81171537     102.72158253      94.15018415
C      71.77669596     105.60341514      94.20309649
H      70.38207794     107.05283524      93.85538685
C      74.31648812     106.16844332      94.55080613
O      75.34071979     108.51926286      94.45254036
H      74.10105933     109.83829182      94.33915678
C      76.03613907     104.15021562      94.99111236
H      78.02602088     104.59052184      95.06670142
C      75.23489511     101.61042346      95.17819527
H      76.63518231     100.20824653      95.66574466
C      71.63307676      94.00616477      93.44720597
O      69.75279908      92.82508583      93.64751695
N      73.95555040      92.97626392      93.90451973
H      75.58071503      93.97403942      93.96310125
C      74.21066345      90.18702789      94.05191839
H      72.43810017      89.22326747      94.46198900
C      75.12529099      89.24405445      91.45921388
H      76.98667140      90.00561416      91.01890765
C      75.40686021      86.30553004      91.16063713
H      76.50101174      86.07309371      89.42964782
H      73.48500855      85.58365459      90.99434121
H      76.51235010      85.45704292      92.67808736
O      73.36406606      89.88278195      89.56948757
H      72.45888716      91.31897394      90.20632534
C      76.15897128      89.59176410      96.14951459
O      77.53847149      91.15078831      97.08870857
N      76.16653019      87.22204731      97.16051817
H      74.60750598      86.19970536      96.74855783
C      77.62917835      86.25639716      99.23543766
H      79.45087452      87.18236305      98.97654516
C      76.33093637      86.60599652     101.84514970
H      75.45410337      88.46359750     101.70908941
C      74.34294429      84.60288664     102.34214772
H      74.98356151      82.65268907     102.16640317
H      72.81793516      84.86366887     100.98154477
H      73.62106884      84.70682159     104.26777883
C      78.15263254      86.57765063     104.13738772
H      78.64774083      84.60666609     104.47375900
H      77.14162896      87.21070895     105.81735441
C      80.56770277      88.16124129     104.00699660
H      81.65996458      88.04029879     105.74932426
H      80.01779241      90.14356419     103.90117193
H      81.84137830      87.62266929     102.48009774
C      78.34538462      83.53708099      98.50600330
O      76.75423507      82.25206710      97.27012230
N      80.04613831      82.40135548      99.92329804
H      81.31225494      83.48038921     100.86060229
C      79.93464445      79.66125233     100.43919332
H      77.99200580      79.04331183     100.73210090
H      80.78502129      79.19448992     102.25899976
C      80.91163296      77.83388699      98.13183749
O      82.98088327      78.30064938      97.23988668
N      79.56236837      75.75518804      97.32681409
H      78.02980033      75.22417495      98.33214848
C      79.85149650      74.63458033      94.80591918
H      81.60327279      75.44527292      94.08593346
C      80.35983287      71.80566004      95.09126786
H      78.89529498      70.86079688      96.19297830
C      80.44298083      70.46773382      92.56848323
H      80.39573767      68.42304995      92.82359628
H      82.18908794      71.02142362      91.62550980
H      78.90474361      70.96851129      91.29102824
C      82.93741956      71.06488733      96.59360028
H      82.70498323      71.60534906      98.56836427
H      84.60226845      71.84345457      95.66574466
C      83.79724504      68.19628278      96.87139004
H      82.32136879      67.03977029      97.72365661
H      85.63972819      68.07345057      97.78412785
H      84.07314508      67.42338472      94.98166373
C      77.61406054      75.43960374      93.27524087
O      75.58071503      74.25474535      93.39996281
N      77.82570989      77.59956091      91.82582079
H      79.33560121      78.76174260      91.93920437
C      75.77724656      78.70316109      90.20254589
H      75.21977730      77.18571085      88.92509090
H      76.56526244      80.13557363      88.94965734
C      73.36217634      79.67448040      91.34772003
O      71.58583360      79.98061608      89.84349789
N      72.99178998      79.75006946      93.83837931
H      74.60750598      79.57621465      94.83804453
C      70.51624851      80.39257640      94.90985413
H      69.07627706      79.28708651      93.93853481
C      70.57105057      79.77652563      97.69342099
H      71.64063567      81.16358475      98.77812389
H      71.59339251      78.00396235      97.92207787
C      67.82527824      79.57810437      98.63450469
N      66.62908148      77.30854306      98.66851977
H      67.16009458      75.72873187      97.73499497
C      64.34062292      77.59011229      99.81747337
H      62.87230557      76.21250181     100.15384465
N      64.25936469      79.97683661     100.59037143
H      62.80616515      80.80075729     101.51066814
C      66.39853487      81.19759982      99.99888709
H      66.83317193      83.11378230     100.54879745
C      69.83972649      83.22149669      94.50734243
O      70.85261979      84.80130790      95.94542415
N      68.03314813      83.81298104      92.72533051
H      67.23757336      82.37867877      91.74645228
C      67.16765348      86.35466292      92.36817224
H      68.54148451      87.87778234      92.15841262
C      65.61807791      86.45670815      89.89452050
H      63.98346465      85.23972441      90.19120753
H      66.76325205      85.71215598      88.35439355
C      64.75258325      89.04752292      89.00445940
H      66.25869513      90.44214095      89.18398340
C      64.04393589      88.97760304      86.13774459
H      63.70000570      90.81819648      85.27602939
H      62.45089661      87.69825834      85.88452126
H      65.52926077      87.97226864      85.12296156
C      62.61908225      90.06041622      90.58427060
H      61.71957252      91.67991167      89.68098142
H      63.51292279      90.85221155      92.26234757
H      61.39642932      88.48438449      91.09638643
C      65.53304022      87.02740549      94.70387396
O      63.60551938      85.92947451      95.16118773
N      66.14531155      89.13256060      95.98321868
H      67.58906245      90.13600528      95.24622542
C      65.08895454      89.88656140      98.33592794
H      64.29715921      88.25572759      99.31291644
C      67.18655075      91.20181091      99.79857610
H      66.37963761      92.36966177     101.29145989
H      68.03692759      92.60776730      98.55702592
C      69.24446270      89.51995450     101.00989067
H      70.05515529      88.26139678      99.59448566
C      71.27402876      91.23393626     102.31758128
H      70.18743613      92.75138650     103.18685538
H      72.52880703      92.06352612     100.90595572
H      72.37951865      90.16246145     103.68574313
C      68.01992005      87.87211316     103.11126633
H      67.32450077      88.97949277     104.70430561
H      69.38997163      86.56442254     103.91817947
H      66.40798350      86.81008696     102.39128060
C      62.75325282      91.48338014      98.33970739
O      61.31139164      91.40023219     100.20297753
N      62.33373357      92.97248448      96.37250230
H      63.64709336      93.03862489      94.99111236
C      59.83362566      94.25182919      95.93975497
H      58.49191998      92.73059951      96.29502352
C      59.39898861      96.34375621      97.99199775