 %block lattice_cart
   142.669   0.000   0.000
   0.000 146.65   0.000
   0.000   0.000   162.396
 %endblock lattice_cart

 %block positions_abs
N      91.78700788      45.18508547      77.40626416
H      93.53122527      45.47232388      76.69194760
H      90.56246524      46.40584867      76.59746129
H      91.20497219      43.45031671      76.86580242
C      91.75488255      45.41752182      80.20872827
H      92.62415664      43.72999621      81.00808251
C      93.53878418      47.51889747      81.15359144
H      95.47764337      47.23165907      80.52053312
H      93.64649859      47.50000020      83.21150338
C      92.59392103      50.10404306      80.29754542
H      93.54256363      51.31157818      81.66759698
H      90.56624469      50.40828901      80.49974613
S      93.42918006      51.35882133      77.11902575
C      96.76265727      50.96197881      76.83367709
H      97.26721419      51.04323704      74.83812610
H      97.46752518      49.14973128      77.51397855
H      97.82846292      52.42462698      77.82011421
C      89.12816297      45.58570745      81.30099008
O      87.27434145      46.17530206      80.03676319
N      88.93352115      44.99422311      83.69149387
H      90.44341248      44.27423740      84.61179058
C      86.87560921      45.89184312      85.27130507
H      85.20698086      44.68808745      85.14091396
C      87.83370044      45.88995338      88.00573905
H      89.22642873      47.39984472      88.16447605
H      88.61415741      44.01723461      88.36856650
C      85.77200903      46.17908152      89.88790646
O      83.50811692      46.61371856      89.36445227
N      86.43152351      46.13750753      92.23494654
H      85.04257467      45.88428421      93.51618097
H      88.26644776      45.68019376      92.50706712
C      85.90995906      48.71509422      84.74974060
O      87.65228672      50.24199308      84.28297821
N      83.49866827      49.34626281      84.85556528
H      82.20420576      48.01589549      85.29965097
C      82.55002568      51.89928306      84.32833164
H      83.05836204      52.64761469      82.47828957
C      79.59260400      51.71597961      84.22817614
H      79.00867856      50.32325132      82.82599921
C      78.47010656      50.77678563      86.68293063
H      76.42164324      50.58403355      86.77363748
H      78.94820732      52.01455637      88.25896237
H      79.00678883      48.87761069      87.26874578
C      77.98822635      54.10270394      83.44771918
H      78.46821683      55.53889595      84.84422692
H      75.95677056      53.77011211      83.52141850
C      78.48711409      55.03244929      80.83233795
H      80.50534181      54.86048419      80.45817214
H      77.75956946      56.93162423      80.49218723
H      77.62539890      53.64350045      79.57944941
C      83.53079363      53.70019224      86.42592784
O      83.61016213      56.02455560      85.91948120
N      84.21109510      52.79690306      88.69548915
H      84.20353619      50.89772811      88.88446178
C      85.33548226      54.46364167      90.64379697
H      84.07503481      56.08313713      90.81387234
C      85.36382815      52.98965515      93.08910282
H      86.78301262      53.82869364      94.32309410
H      85.93074604      51.02056032      92.88879184
C      83.03190589      52.88572020      94.67836266
C      81.03446517      51.16228981      94.01317900
H      81.20831999      50.00388758      92.34455066
C      78.84427238      50.94875072      95.49661414
H      77.27202008      49.66940601      95.26417782
C      78.57971068      52.55312836      97.64523296
H      76.89785426      52.27722832      98.76962012
C      80.42975275      54.27655876      98.32175499
H      80.00834378      55.51055004      99.89211755
C      82.70876268      54.42773687      96.89123216
H      83.99944575      55.95085629      97.32208976
C      87.91117922      55.20252466      89.81609686
O      88.67084920      57.39271745      89.68381601
N      89.53823357      53.28256272      89.32287829
H      89.04690473      51.46086656      89.60633724
C      92.12526889      53.69263333      88.38557403
H      93.19107453      54.76221843      89.78586123
C      93.63893968      51.27567338      87.95660616
H      95.33213446      51.75377414      86.88513134
H      92.56368541      50.06624855      86.68293063
C      94.39671992      50.03412319      90.43970653
H      92.52967032      49.53901490      91.14835390
H      95.43228994      51.52511725      91.41669504
C      95.87448591      47.66062694      89.96160578
O      98.30845340      47.69653174      89.69893382
O      94.67073025      45.59515608      89.89924480
C      91.98920861      55.34236440      85.88546612
O      93.58035815      56.86548381      85.44138044
N      90.03901104      54.97575750      84.33967000
H      89.28123079      53.25232710      84.65714402
C      89.51933632      56.22297686      81.89436414
H      91.24465643      56.11904192      80.77375645
C      87.30646680      55.17039931      80.44305433
H      85.62083092      55.65227952      81.52397778
H      87.37449695      53.11437708      80.31644267
C      86.97198524      56.24754331      77.77854024
H      88.53289917      55.45574798      76.69572705
H      87.19497295      58.29033745      77.88814436
S      84.07314507      55.21575274      76.12125026
C      82.37050167      58.17506415      76.64281472
H      83.29457783      59.48653421      75.35024193
H      82.54246677      58.74954094      78.61379927
H      80.41841438      57.97853261      76.00975640
C      89.39083492      59.17661909      82.42348752
O      90.86860090      60.61848027      81.39358667
N      87.58803602      59.82290550      83.99385008
H      86.39750844      58.46041282      84.59856250
C      86.85104275      62.43261753      84.56076798
H      86.50711257      63.30000191      82.72206428
C      84.35282457      62.76709909      86.09333602
H      84.10716016      64.67950212      86.81899092
H      84.53801775      61.55578452      87.75062600
C      81.92830571      62.11703323      84.52486318
H      82.04357901      60.44462546      83.32866641
C      79.65496495      61.58790987      86.15569698
H      79.97243898      60.11203362      87.55787391
H      78.13751473      61.05500705      84.86690363
H      78.86127991      63.28488410      87.01552245
C      81.18375355      64.37903563      82.79198414
H      79.47166151      63.88203761      81.75830386
H      82.54813594      64.74753226      81.29532091
H      81.11194394      66.00797972      84.04865215
C      88.92029308      63.94817803      85.98751135
O      89.26233353      66.23663661      85.69271403
N      90.41128713      62.54033193      87.48039513
H      89.91239939      60.70918714      87.67692666
C      92.68651761      63.51732043      88.77674738
H      91.98164970      65.14059534      89.82932493
C      93.77877942      61.42350369      90.47561133
H      95.76299205      61.85625100      90.81954153
H      93.76555133      59.64716094      89.43437213
C      92.38983058      61.20240570      92.96438088
H      90.44530221      60.61659054      92.62423015
H      92.48998608      63.04866832      93.87144951
C      93.79389724      59.26543623      94.58954551
H      95.31890637      60.32179324      95.48527580
H      94.50065487      57.66672777      93.49917343
N      92.15361479      58.22041758      96.63989857
H      91.44874687      56.45919265      96.43202867
C      91.23709754      59.47519585      98.57497832
N      91.98164970      61.71452153      99.30252294
H      91.48654140      62.05467227     101.11477048
H      93.50098965      62.63670798      98.61088312
N      89.63271989      58.45474365     100.22281965
H      89.39083492      59.34480473     101.89144799
H      88.99777185      56.66895227     100.00361140
C      94.53278022      64.67005348      86.82654983
O      95.30000911      66.87725382      87.38779854
N      95.28867075      63.26598683      84.82343994
H      94.34758704      61.61814550      84.64391593
C      96.79100316      64.29021850      82.82410949
H      98.38215272      65.32578851      83.62724317
C      98.29522531      62.22852709      81.48240381
H      99.37803849      63.35669370      80.14069813
C     100.16227491      61.02855088      83.36646095
H     101.22997027      59.44684995      82.58222452
H      99.06812337      60.06856991      84.82343994
H     101.71562993      62.19829147      84.04487270
C      96.81367988      60.19140212      79.95739467
H      96.10503251      61.16839063      78.28687662
H      95.23953787      59.39582735      81.02131059
C      98.43695478      58.01254768      79.05599523
H      97.20485322      57.02422083      77.73318681
H      98.93395281      56.59525295      80.46573105
H     100.19817971      58.63048819      78.18483140
C      95.33402417      65.98719272      80.87769139
O      96.59069218      67.65960051      79.79676793
N      92.81690873      65.56200430      80.45250297
H      91.89472229      64.18817327      81.40492503
C      91.32213522      66.88292300      78.54198966
H      92.44085320      66.74497299      76.81666954
C      88.94108006      65.48830498      77.86168819
H      87.47276272      65.69995432      79.29221101
H      89.34548150      63.51165125      77.44594840
C      87.88094359      66.65426611      75.44472824
O      88.91462389      66.31411538      73.33579367
O      85.87216453      67.87691904      75.41638234
C      90.50199399      69.60979807      79.35457199
O      90.02389324      71.23496270      77.81066559
N      90.02767269      70.05577349      81.77153194
H      90.18829942      68.69706027      83.10378898
C      89.03367665      72.42171082      82.82033004
H      89.45508562      73.92215351      81.47295518
C      86.20475636      72.28942998      83.47417534
H      85.93074604      70.59812493      84.61934949
H      85.20320141      71.82644704      81.73373742
C      84.85171232      74.55899128      84.62123922
H      86.04035018      75.50196471      86.01585723
H      83.09426684      73.80310076      85.38468865
C      84.01645328      76.55832172      82.74663072
O      81.71287691      77.08177592      82.43671560
O      85.59437476      77.51074378      81.27642364
C      90.54545771      73.49885482      84.98784613
O      91.11426532      75.74384968      84.87635227
N      91.33158384      72.03998610      86.92670531
H      90.44908166      70.35623996      87.09111150
C      93.32902456      72.64469852      88.74840148
H      94.80112135      73.77097542      87.85078148
H      94.30979251      70.86268662      89.06209606
C      92.44652238      74.24529671      91.05953676
O      90.62860566      75.71739351      90.90457921
N      93.51232801      73.60656922      93.28185490
H      94.62915626      72.05699365      93.29508300
C      92.46164018      74.36812893      95.63645389
H      90.50577345      74.92370847      95.32086961
C      92.44274291      72.12502380      97.57531310
H      94.41750692      71.54676754      97.68491722
H      91.39961399      70.53765369      96.78162804
C      91.82480241      72.50107933     100.23604775
H      93.16461838      73.90892543     100.91634921
C      89.36437876      73.55176715     100.72359712
H      88.95619788      73.75774732     102.73237621
H      88.00188608      72.22706901      99.92802235
H      89.34359176      75.50952362     100.08486963
C      92.20085796      69.97829470     101.67035001
H      91.20875163      70.20695158     103.46181055
H      94.21341648      69.99530223     102.10876652
H      91.48843113      68.36257871     100.61021356
C      93.75043352      76.92114918      96.63044994
O      95.90094208      76.91359027      97.52051102
N      92.31235180      79.01307621      96.43391840
H      90.93663104      78.97528167      95.11299970
C      92.91517450      81.47727932      97.27106715
H      94.88426931      81.46594096      97.87955902
C      92.46164018      83.53519127      95.24150109
H      92.22731411      85.38523334      96.11266492
H      90.81568857      83.05520079      94.10010640
C      94.87482069      83.55219880      93.55964467
H      94.85214396      81.96671843      92.24439516
H      96.58313327      83.53519127      94.70859827
C      95.36614952      86.05986562      91.96471566
H      97.32957516      86.04663755      91.33732653
H      95.15261046      87.64534600      93.26295765
N      93.94129589      86.12978549      89.58555025
H      93.41784169      84.37989893      89.02808097
C      93.84491984      87.82864946      87.76574380
N      94.95040973      90.05285732      88.15691714
H      94.63671516      91.36432738      86.80954228
H      95.67606464      90.32686764      89.90113454
N      92.53344979      87.37322542      85.73995719
H      92.26132920      88.66579821      84.36234672
H      91.61504279      85.74239160      85.36768112
C      91.28245096      81.82876841      99.66535039
O      88.95241841      81.71538484      99.72393192
N      92.50132444      82.32009726     101.64578357
H      94.37404322      82.50906989     101.31697120
C      91.69252158      82.41647330     104.19313464
H      90.01633433      81.22972516     104.34620248
C      93.68996228      81.05020117     105.78617392
H      93.28934030      81.23728407     107.79873245
H      95.56646052      81.67381085     105.21547657
C      93.93184725      78.15325074     105.36476495
H      94.43262472      77.75829794     103.40700850
C      96.12204005      77.34633759     107.16756385
H      96.46408051      75.33755852     106.86142820
H      95.61181394      77.52208214     109.15744567
H      97.81901428      78.49907064     106.97670149
C      91.51299757      76.80965532     106.33986373
H      90.92340296      77.73940067     108.08219139
H      91.76622090      74.76875090     106.45135759
H      90.00688571      77.11768072     104.96792243
C      90.69096663      84.92036065     105.28350672
O      90.08058502      85.26618057     107.52661185
N      90.41695631      86.81386642     103.53928934
H      90.57191386      86.35655266     101.69302673
C      89.28501026      89.33287160     103.97959557
H      88.02267308      89.18547294     105.60098074
C      91.57157908      91.11677324     104.46525522
H      92.61848747      90.54796562     106.14522192
H      90.78356322      92.97059476     104.90556147
C      93.40461362      91.60432263     102.29395970
H      93.21186153      93.44869550     101.39633969
H      93.46697459      90.01128335     100.99004853
C      96.15227567      91.73282402     103.36921397
H      96.39038118      92.92524133     105.03217312
H      97.40138477      92.27517546     101.82341784
C      96.79289289      88.93413935     104.03628736
H      96.86092303      87.95337140     102.22592954
H      95.43606940      88.24249951     105.42334647
N      99.36481041      88.90579346     105.15878478
H     100.38526262      90.50828136     104.96981215
H     100.60636059      87.72660423     104.31596685
H      99.31567752      88.58831943     107.04095219
C      87.79590591      90.15868199     101.63633494
O      88.18518953      89.01161812      99.69558602
N      86.47309750      92.26194738     101.88577882
H      86.34837556      93.01027901     103.63755510
C      84.80068970      93.11799340      99.83353604
H      83.57803678      91.56841782      99.24394143
C      83.09048739      95.46314376     100.70847932
H      84.17519031      96.79351109     101.84420483
C      81.81492214      96.82563644      98.58064749
H      80.88139734      98.51694148      99.30063322
H      80.62061510      95.60298350      97.43169389
H      83.21520933      97.43223857      97.19925756
C      80.91541241      94.45025046     102.40167410
H      81.87350365      93.14255984     103.67345990
H      79.44520533      93.33909138     101.47948765
C      79.40930053      96.22848292     103.93802159
H      78.39262779      95.18724371     105.39689030
H      78.00523388      97.20547142     102.79473716
H      80.76612404      97.57207833     104.71658883
C      86.41829544      93.96081133      97.51862131
O      88.47431767      94.99260190      97.69625558
N      85.23721649      93.50160784      95.23583192
H      83.54969089      92.62855429      95.40401755
C      86.10082141      94.50127306      92.84532813
H      87.02489758      96.31352059      93.16658161
C      88.03401143      92.63611320      91.93825950
H      89.59303563      92.35454397      93.25539875
H      89.00722048      93.50538729      90.34333050
C      87.10615581      90.08876212      91.14835390
C      86.28790431      89.65979426      88.79942410
H      86.45608995      91.15456776      87.41803415
C      85.66807409      87.24094457      87.93014999
H      85.11438427      87.00472878      85.97806271
C      85.73232479      85.09421547      89.61200640
O      85.06336167      82.76796239      88.88635150
H      84.34904513      82.79630829      87.21961290
C      86.81513795      85.54586006      92.06109172
H      87.03812566      83.94715160      93.31209054
C      87.25922364      88.00061454      92.78674661
H      87.83559016      88.33320638      94.71426745
C      83.73677379      95.19102316      91.16914089
O      81.53902209      95.10220603      92.04219445
N      84.10149098      95.82030203      88.81643163
H      85.90051042      96.07163564      88.23250620
C      82.06058656      96.53461857      86.89646970
H      80.13873489      96.18312948      87.55031500
C      82.30058179      99.41267175      86.66025390
H      84.18841838     100.01738417      86.10656410
H      82.33837632     100.15155474      88.58210557
C      80.36361232     101.11720489      85.21461328
H      78.60805658     100.75437744      86.22561685
H      80.12739654     100.51627192      83.25874655
C      80.79069047     103.97258135      85.00107421
H      81.18753299     104.87776025      86.80954228
H      79.13717994     104.95901849      84.27163985
C      82.95253737     104.44879238      83.22851092
H      82.29302289     103.67400459      81.43516066
H      84.69864449     103.48503196      83.74440620
N      83.63850802     107.13031402      82.86001430
H      84.06936563     107.83896139      84.57966523
H      82.10971944     108.03738265      82.16270528
H      85.11060482     107.43833940      81.68649425
C      82.31569960      95.37243689      84.19983024
O      84.44164172      94.96047655      83.18315749
N      79.96676980      95.15889782      83.22095201
H      78.59293877      95.83353012      84.36045699
C      79.04080391      93.72459556      81.07422292
H      80.23322122      92.07108503      80.78887425
C      76.31014939      93.08586805      81.39547641
H      75.24245401      94.81685735      81.07044347
H      76.01913153      92.05029803      83.15103214
C      75.50701571      91.26606161      79.36024116
O      75.91330686      88.89823455      79.61157477
O      74.56404227      92.11076927      77.44783814
C      79.63984715      95.26472250      78.66293215
O      79.94598281      97.54184270      78.79710271
N      79.59071427      94.07230519      76.44439346
H      79.01434774      92.25627821      76.31589207
C      79.86850404      95.29495811      73.92349856
H      81.54280155      96.48359597      73.76665127
C      80.49211372      93.38444481      71.81834345
H      79.08048816      91.90289938      72.06022842
C      80.74722676      94.39355867      69.13682181
H      81.99066668      96.03006165      69.00832041
H      78.89529498      94.81118818      68.33557785
H      81.49555838      92.97437421      67.84424900
O      82.82592571      92.26761656      72.43817368
H      82.31758933      91.06953008      73.70240058
C      77.46666188      96.91823301      73.20351283
O      77.61972972      98.94212991      72.08857431
N      75.22355676      96.23037264      73.98774926
H      75.21977730      94.61654637      75.01009118
C      72.88029613      97.71758725      73.97830063
H      72.93509819      98.99504223      72.36447435
C      70.54459440      96.01116439      73.63814988
H      68.85517909      97.16767689      73.84601978
H      70.69577250      94.59197993      75.12536450
C      70.65419853      94.61654637      71.11158581
H      71.58961306      92.86477007      71.66338588
H      71.78992404      95.90533971      69.97586029
C      68.21645158      93.72459556      69.94562466
O      67.70244603      91.40590137      69.88893289
O      66.81805411      95.43479787      69.09524783
C      72.64219062      99.54684233      76.18739068
O      70.94332665     101.08507954      76.27431810
N      74.40908471      99.42589983      77.99963822
H      76.00023427      98.37710173      77.87869574
C      74.72844846     101.59152620      79.77598095
H      73.62484829     103.18078603      79.07111303
H      76.73344807     102.04128105      79.91204125
C      73.74768050     100.87343019      82.48017931
O      73.59461267     102.44001331      84.14691791
N      72.79903789      98.66245040      82.86379375
H      72.60439609      97.40767213      81.43705038
C      71.72567335      98.01994347      85.40547563
H      70.81860471      99.61865192      86.33144153
C      69.66587166      95.88833217      85.22973108
H      69.24824215      95.12299302      87.09489096
H      70.78458964      94.43135319      84.29620629
C      67.46811996      96.36643294      83.56110276
C      66.87474590      94.71292242      81.62602301
H      68.02180978      93.03295572      81.45594765
C      64.95667370      95.29306840      79.80054739
H      64.55605171      94.13088670      78.16971359
C      63.31072208      97.31696528      80.45439269
O      61.13375737      97.48515091      78.98418563
H      59.86764073      98.67567849      79.50763982
C      63.86441188      99.03661622      82.41025944
H      62.62475142     100.40288835      83.28520271
C      66.05838413      98.57930244      83.97117336
H      66.43443967      99.63754918      85.67381678
C      73.70421679      97.12988236      87.31976840
O      75.73756231      96.34564595      86.42214839
N      73.23178522      97.20547142      89.81042767
H      71.48945756      97.64010848      90.45860379
C      75.08749647      96.09242262      91.67936700
H      76.96966387      96.61398708      91.02741141
C      74.47144568      97.27917074      94.18136463
H      75.27268963      96.14344524      95.70070459
H      72.47211524      97.71947697      94.40246261
C      75.75456984      99.99470745      94.13979066
C      74.25034770     102.26615849      93.85822143
H      72.22834054     101.99214818      93.83554471
C      75.40308075     104.61130884      93.52751932
H      74.21633264     106.25726045      93.30075217
C      78.02413115     104.86453216      93.76562484
O      79.11639297     107.24369759      93.52940906
H      78.04680786     108.51548340      92.79808497
C      79.54158139     102.67433937      94.03585570
H      81.56925771     102.85197364      93.87144951
C      78.33026682     100.30840202      94.39490370
H      79.57559645      98.69457575      94.49127974
C      74.88151629      93.08019888      92.16313694
O      72.76313310      92.17879942      92.36911710
N      77.06603992      91.83486923      92.55431028
H      78.66096891      92.86288035      92.76784936
C      77.35138858      89.14389897      92.67147331
H      75.62417874      88.10454949      93.08721310
C      78.33782571      88.45414887      90.04664346
H      80.25967737      89.19681131      90.02018729
C      78.30381064      85.62333885      89.70460299
H      80.01968213      84.85799969      90.55120038
H      78.63262303      85.42680731      87.68070611
H      76.50101174      84.79185926      90.25640308
O      76.90730290      89.58420520      88.11156371
H      76.19109663      90.95992595      89.05075769
C      79.47544095      88.48438448      94.64812703
O      81.02312681      90.13978474      95.31331070
N      79.42819780      86.16758003      95.61944636
H      77.93720374      85.05642095      95.19992712
C      81.22910697      84.98461135      97.51862131
H      83.02623671      85.91246698      97.12744796
C      80.47132672      85.66302309     100.23037856
H      79.51701493      87.48093981     100.40423338
C      78.30759009      83.80542213     101.24138214
H      79.01245801      81.96104926     101.82908703
H      76.99234058      83.40668988      99.70881410
H      77.31170434      84.97705244     102.61143372
C      82.80135927      85.74995050     102.00105211
H      84.21865401      86.98394179     101.15634446
H      83.84448819      83.98494614     102.19758365
C      82.11727835      86.91213219     104.48982168
H      81.55602964      88.87366811     104.20447300
H      83.57236760      86.64946023     105.92412394
H      80.45809864      85.94648205     105.23626357
C      81.63917758      82.08766091      97.18036029
O      80.04991775      80.63446139      96.30163756
N      83.62905939      81.17114366      98.27073237
H      85.13895071      82.14435270      98.91512904
C      84.27534579      78.34978226      98.44269747
H      82.71443186      77.32366089      99.30630239
H      86.03657071      78.05498496      99.47070859
C      84.94997808      77.35578623      95.86322105
O      86.00444538      78.63702066      94.19081327
N      84.27534579      75.03331259      95.42669427
H      83.49488883      74.09978779      96.89501161
C      83.95976151      73.96939667      92.89824046
H      85.50177817      74.64591870      91.71338206
C      84.31314032      71.01008526      92.86800485
H      82.89584559      70.12002417      94.06798105
C      83.85204710      69.98585360      90.14112977
H      85.46965282      69.95939743      88.86367479
H      82.21365438      70.73985440      89.14524400
H      83.32103401      68.00353071      90.31120515
C      86.91718318      70.10112692      93.86767006
H      87.16473733      70.65292700      95.83676489
H      88.29479367      70.91559896      92.57320755
C      87.28379008      67.32700868      93.59932893
H      87.69386069      66.68828120      91.68314645
H      85.52256517      66.35002019      94.03585570
H      88.73698961      66.71662708      94.92591680
C      81.51823511      74.71772830      91.66235946
O      79.51134575      73.55554661      92.00439993
N      81.54469127      77.03075330      90.60978191
H      83.15473809      78.05687468      90.60033327
C      79.68142112      77.93971165      88.89957958
H      79.39418272      76.50918884      87.44449033
H      80.35416369      79.68581878      88.03786439
C      77.04903237      78.86378783      89.95971606
O      75.44087529      79.55353793      88.44982473
N      76.67108711      79.01307621      92.39557326
H      78.21310379      78.50662955      93.40090767
C      74.06515452      79.50251532      93.64468236
H      72.66108787      78.51040900      92.50895685
C      74.11995658      78.33466445      96.27896085
H      75.58827394      79.09055499      97.51106240
H      74.53569638      76.33155457      96.04463477
C      71.72378362      78.38001789      97.47326788
N      70.06271419      76.30320868      97.39767882
H      70.45766699      74.60434471      96.62478075
C      68.06149403      77.12523961      98.73749477
H      66.44199857      75.90825588      98.96804138
N      68.41676258      79.53842012      99.57842299
H      67.28292679      80.52107781     100.75950192
C      70.74868484      80.30942845      98.77528931
H      71.54048017      82.12923489      99.25339006
C      73.40752976      82.31064862      93.42358438
O      74.09161069      83.93770298      95.04307983
N      71.51213427      82.80386719      91.70960261
H      70.82616362      81.29775531      90.75529083
C      70.41798275      85.26618057      91.48850463
H      71.86362338      86.71749038      91.26929638
C      68.34117352      85.17736343      89.42870296
H      66.76136232      83.94715160      89.91247290
H      69.16887364      84.40257564      87.71094174
C      67.07316717      87.65857408      88.60100284
H      67.11096170      88.94736743      90.20727020
C      68.13141390      89.08342773      86.50907581
H      67.53615011      91.04685337      86.69804844
H      67.71378438      88.37667009      84.61934949
H      70.18176696      89.20059076      86.67915117
C      64.14409138      87.27495964      87.97172396
H      63.35040633      86.30175059      89.60633724
H      63.97212628      86.17513894      86.24073466
H      63.25025083      89.13067089      87.89046573
C      69.19532982      86.02585056      93.90357486
O      67.87063167      84.45170853      94.91268872
N      69.46178122      88.41635433      94.75584144
H      70.66931634      89.52184424      93.77318375
C      68.00858170      89.40657093      96.97815958
H      67.77047617      87.75306040      98.18002552
C      69.81893951      91.35865820      98.39923376
H      68.74746468      92.21848367      99.93369154
H      70.32727587      92.86854953      97.09532261
C      72.20944328      90.16246145      99.40456817
H      73.16375507      88.95870579      98.03262685
C      74.14830249      92.11643846     100.01872922
H      75.78102601      91.11677324     100.77839919
H      73.11462219      93.22759754     101.41145750
H      74.45065870      93.32397357      98.37466732
C      71.75779869      88.51839956     101.71948289
H      70.35940122      87.01984659     101.51917191
H      71.44977330      89.81664154     103.28984547
H      73.45666266      87.56219805     102.38466655
C      65.41020801      90.33442654      96.17880535
O      63.52237142      89.05886129      96.55486089
N      65.18722030      92.57186250      94.95048324
H      66.71789863      93.64711678      94.58576607
C      62.63986923      93.73593390      94.45537494
H      61.31895054      92.21659396      94.01884817
C      61.97090612      95.57841706      96.60210405