 %block lattice_cart
   142.669   0.000   0.000
   0.000 146.65   0.000
   0.000   0.000   162.396
 %endblock lattice_cart

 %block positions_abs
N      97.37114915      43.20465230      80.03865291
H      97.21430187      42.53757891      81.82066482
H      99.16449941      43.04402556      79.40370487
H      96.23164418      41.97821992      79.12213565
C      96.11448115      45.63106089      79.83267274
H      97.06123403      46.88961861      81.15926061
C      96.14849623      46.71576379      77.10390794
H      95.11292621      48.49588598      77.14926138
H      94.99387344      45.54224375      75.86613721
C      98.75253907      47.07481179      75.85101940
H     100.03188379      48.15195579      77.05477506
H      98.45018286      48.27667772      74.20695751
S     100.56289688      44.15518464      74.88914871
C     103.53921583      45.43074990      74.00286706
H     104.36124678      45.76901091      75.86046803
H     103.28410278      47.16362893      72.91816416
H     104.63903655      44.05502914      72.93706142
C      93.38571635      45.30035878      80.85312495
O      92.20841685      43.26323382      80.41659817
N      92.38983058      47.17118783      82.31577312
H      93.44996704      48.73399149      82.58033480
C      89.96531172      47.24677688      83.66881716
H      88.54990671      46.12616918      82.67860057
C      90.50766318      45.71609857      86.13868945
H      92.07424628      46.58348295      87.15725193
H      91.06513244      43.74889348      85.88924557
C      88.31747037      45.71231912      87.99062123
O      87.01922841      47.49622076      88.45171445
N      87.62772028      43.43708864      88.59722338
H      86.27278650      43.22354956      89.92192153
H      88.68218756      41.94231512      88.04542330
C      89.19430339      49.94530606      83.95605555
O      90.81190911      51.57613987      84.34344945
N      86.69608521      50.53868012      83.65936852
H      85.66618436      48.95131002      83.41559383
C      85.66618436      53.11815654      83.41559383
H      86.41829544      54.27655877      81.89247442
C      82.75600583      52.90272774      83.37968903
H      82.16452151      51.33614463      82.18160255
C      81.39162344      52.21864681      85.79853871
H      79.40930053      51.95975431      85.30154069
H      81.47666112      53.72475868      87.20071563
H      82.00578450      50.56891574      86.86812380
C      81.65618513      55.48031443      82.40459025
H      82.08326328      57.04122836      83.68015551
H      79.64362661      55.50110142      81.96617375
C      82.70309350      56.08313712      79.80810630
H      83.13584083      54.38238344      78.73285203
H      84.45109035      57.17350921      79.70606108
H      81.29335768      57.33224622      78.97473699
C      86.43530298      54.76410816      85.78531063
O      86.88883728      57.07713316      85.55665374
N      86.70364410      53.44696892      87.89991437
H      86.28034541      51.58747822      87.80731778
C      87.29701818      54.55623826      90.36222776
H      85.91751797      56.06990904      90.58143601
C      86.59215026      52.31313313      92.34077121
H      87.41796066      52.71942429      94.18325436
H      87.39906340      50.65773288      91.42047449
C      83.84259847      51.98243102      92.81131306
C      82.49711333      49.91129099      92.16313693
H      83.33426210      48.25589073      91.31464982
C      79.90251911      49.61271423      92.77918771
H      78.86127991      47.88172492      92.49383904
C      78.71388125      51.68007481      93.90924405
H      76.72210972      51.47031519      94.29852767
C      80.04424858      53.89672378      94.75017225
H      79.04836281      55.23653974      95.92558202
C      82.65585035      53.91184159      94.15868792
H      83.69897927      55.46141717      94.97882914
C      90.08247475      55.61637472      90.50206750
O      90.53978853      57.33224622      91.94581841
N      91.83236132      54.42017797      89.08855222
H      91.15394958      53.01800104      87.98495205
C      94.28900552      55.57669047      88.48383980
H      94.84080561      56.72753380      90.10144552
C      96.07290717      53.28634218      88.42714801
H      95.28867074      51.86715772      87.15914166
H      96.06345853      52.34147902      90.25640308
C      98.89993774      53.92884913      88.04731302
H      99.56890085      55.16661986      89.55153517
H      98.86214320      55.02300066      86.30120591
C     100.37203453      51.53456589      88.01896713
O      99.93928720      50.06435882      86.22750658
O     101.81767515      50.96197882      89.81798658
C      94.36081512      57.23398045      86.12357164
O      95.40583377      59.26732596      86.15191753
N      92.94541011      56.41572895      84.09778503
H      92.22542440      54.64694513      84.10156448
C      93.00210190      57.91617165      81.72239905
H      95.00710152      58.16372579      81.31043872
C      91.66984486      56.42895704      79.55299325
H      89.65539660      56.18518234      79.90637207
H      92.48053745      54.53545127      79.54543434
C      91.60370443      57.59113872      76.97729628
H      92.80746010      56.47997965      75.72818719
H      92.22731412      59.53188764      77.26453468
S      88.51967110      57.41917363      75.52598647
C      87.16095788      60.54100150      76.45762155
H      87.16473733      61.14193446      78.42860609
H      85.17485552      60.27832954      75.97385161
H      87.93007649      61.94884760      75.16882820
C      91.91739900      60.59013438      82.05121143
O      92.91517450      62.33435177      80.94950099
N      89.97665008      61.11736802      83.55921303
H      89.20942120      59.55078491      84.33400082
C      89.16784721      63.81967665      84.03353433
H      88.99399239      64.75698090      82.20805872
C      86.53167902      63.74408760      85.30532014
H      85.95531249      65.55822486      86.08955656
H      86.59970917      62.20585038      86.67348199
C      84.19030811      63.16961080      83.51385960
H      84.71943147      61.45184958      82.50852520
C      81.77523788      62.71985593      85.20327492
H      80.41274522      61.73719825      84.01085762
H      81.23288644      64.59068498      85.87223804
H      82.32514825      61.48019547      86.75474022
C      83.45520458      65.33145770      81.72806823
H      85.00100069      65.43539265      80.37124474
H      83.17552509      67.20417648      82.54065055
H      81.72988445      64.66627404      80.82288933
C      91.22575918      65.42405429      85.32421741
O      91.40717291      67.74274847      84.99729475
N      93.01344027      64.16549656      86.60356212
H      92.89627724      62.26632162      86.46372237
C      95.18095634      65.33145770      87.79597942
H      94.45719117      66.96418123      88.82021108
C      96.46785997      63.82345610      89.90680371
H      97.53555533      65.29555290      90.87623331
H      97.76988139      62.46852233      89.06587551
C      94.56868503      62.70851758      91.66613891
H      93.44051842      61.41405505      90.52852367
H      93.17973618      64.14659930      92.16313693
C      95.58157833      61.48586465      94.01506872
H      96.75131892      62.79922444      95.08654354
H      96.80423125      60.00053977      93.28374464
N      93.59358625      60.16494596      95.50417305
H      92.75832722      58.60214230      94.79363596
C      92.85848271      60.68084124      97.81152888
N      93.77688969      62.60647236      98.84142972
H      93.35737045      62.89182103     100.68202315
H      94.79356245      63.83479446      97.79263162
N      91.10103724      59.43362188      99.00205646
H      90.36026452      59.86070002     100.71036905
H      90.43963303      57.79900862      98.26695292
C      97.13493335      66.33301264      85.93837846
O      98.57868426      68.01486906      86.70182789
N      96.98942443      65.44862073      83.55354385
H      95.74787424      64.03132600      83.26063627
C      98.52577192      66.50497774      81.36713051
H      99.77110157      67.93928001      82.16270528
C     100.31156329      64.51698566      80.14069813
H     101.52476759      65.73396940      79.00686234
C     101.94239709      63.34157589      82.22128680
H     100.74053116      61.98853185      83.20583421
H     102.46207183      64.79855488      83.58188975
H     103.65259940      62.61025181      81.34067434
C      98.88481992      62.59324427      78.49474651
H      97.65649781      63.64960128      77.22296070
H      97.77555058      61.27799476      79.62858230
C     100.67061129      61.09658103      76.82800790
H     101.97641216      60.01187813      77.99396904
H     101.74397583      62.42883808      75.67905430
H      99.55189330      59.76621371      75.72629746
C      97.04044703      68.03376633      79.38291788
O      98.26309997      69.41326654      77.89948272
N      94.58758228      67.76542519      79.16370963
H      93.50854857      66.61458187      80.23707417
C      92.97375601      69.07878498      77.30610866
H      94.01877466      69.13736649      75.52976593
C      90.57002414      67.42527445      77.08501068
H      89.35493013      67.30811142      78.74230066
H      90.98387421      65.43350292      76.77698529
C      88.84848347      68.28321020      74.75308841
O      89.70830894      68.28887938      72.56856479
O      86.73765919      68.96351167      75.33134466
C      92.09314356      71.76786552      78.09790398
O      91.79078735      73.61979731      76.53887978
N      91.80779488      72.21573066      80.58856327
H      91.92306819      70.63214001      81.64681000
C      90.42640495      74.36057002      81.73751686
H      90.55112689      75.94794013      80.43171598
C      87.70897851      73.52153154      82.06632924
H      87.75433194      71.89825664      83.33433560
H      86.80568933      72.84311979      80.34478857
C      85.88539262      75.40936813      83.28898217
H      86.50144339      75.53975924      85.25051808
H      83.94653342      74.72339747      83.42882191
C      86.00066592      77.94727056      82.10790322
O      85.29957745      79.79164345      83.34378423
O      86.71876191      78.35167200      79.81755493
C      91.85881749      75.19393933      84.09589530
O      91.77377981      77.51830269      84.53809126
N      93.25532523      73.58011306      85.35823248
H      93.40839307      71.70928401      85.01241256
C      94.87482069      74.24529672      87.53708692
H      95.82535302      76.02163945      87.10433959
H      96.52455176      73.01697461      87.63157323
C      93.42540060      74.87268585      89.98995167
O      91.05379408      74.98984888      90.13357087
N      94.91450493      74.95394408      91.93636977
H      96.79100317      75.03331259      91.60377794
C      94.10570208      75.58511267      94.54797154
H      92.07235657      75.44149347      94.84654830
C      95.22442005      73.30043356      96.16368754
H      97.09902855      73.08311504      95.33787714
H      94.13593769      71.55999563      95.99361217
C      95.32079609      73.53853908      99.12488867
H      95.82535302      71.65637167      99.79574151
C      97.12548473      75.32622017     100.42502037
H      96.99320389      77.25185128      99.70314492
H      98.99253433      74.47773305     100.24171692
H      96.78344427      75.40180922     102.45458643
C      92.77344503      74.06388299     100.28896008
H      91.48276196      72.51430741      99.86755111
H      91.98920860      75.84022573      99.59732025
H      92.98698409      74.05821381     102.33553368
C      95.15638990      78.16647882      95.17725040
O      97.25209638      78.83355221      94.40624207
N      93.73720545      79.62723726      96.74761297
H      91.92684764      79.07921663      96.99894657
C      94.38916102      82.11411708      97.48082678
H      96.39038118      82.14057325      97.97026589
C      93.79578696      83.98494613      95.34732577
H      91.78700789      84.15124205      94.91646817
H      94.78222410      83.34999809      93.65413099
C      94.87293095      86.49828213      96.24305604
H      96.90249701      86.52851775      96.59265541
H      93.94885479      87.15212744      97.96459671
C      94.46852953      88.62044478      94.31742493
H      92.45975046      88.74894617      93.87333925
H      95.31134747      88.14801320      92.49761849
N      95.57590914      91.02039720      95.33409769
H      96.52077231      90.93535951      96.98949794
C      95.81968385      93.19925164      94.03963516
N      95.29433993      93.07075025      91.64535192
H      95.67795437      94.52394978      90.46805243
H      94.73687066      91.52495412      90.67781205
N      96.78155453      95.28361976      95.08843326
H      96.61714835      96.99760153      94.26262287
H      97.56201150      95.32897319      96.82887120
C      92.71675323      82.63946100      99.79574151
O      90.49443510      81.86467321      99.78629288
N      93.70508009      83.74684062     101.89144799
H      95.52110709      84.32131742     101.76294660
C      92.38227167      83.77896597     104.35187165
H      90.74576870      82.54497468     104.14589148
C      94.30979251      82.92480967     106.48537266
H      93.82413285      83.58621388     108.37509897
H      96.18251130      83.70337691     106.12254521
C      94.77466520      79.97683662     106.70080146
H      96.09747361      79.58188383     105.17201287
C      96.19384966      79.43826463     109.11587169
H      95.08458031      79.93526265     110.77883084
H      98.06467871      80.29620037     109.09508470
H      96.59825108      77.42003692     109.01004701
C      92.26699838      78.53119600     106.56663089
H      92.57880321      76.53564501     106.96158369
H      91.52244620      78.45560694     104.64666896
H      90.95552832      79.15669541     108.02738933
C      91.01599956      86.28096361     104.87343611
O      90.36971315      86.76851299     106.94646588
N      90.81568856      87.96093030     102.91190020
H      91.42418044      87.43558638     101.18280062
C      90.11082065      90.59520878     103.21425641
H      89.07714036      90.68213619     104.99437860
C      92.49376553      92.28273438     103.33519889
H      93.71641845      91.84620760     101.73649043
H      93.32335539      91.58164591     105.08319573
C      91.60559417      95.09464713     103.60542976
H      90.00310626      95.25149441     104.89044365
H      90.97253585      95.62754995     101.71948290
C      93.56713007      96.98626317     104.76194226
H      95.48520229      96.56863365     104.13833258
H      93.44240813      96.78406245     106.80851586
C      93.18162591      99.88132388     104.28006205
H      94.48931652     101.06996173     105.34019851
H      91.34292221     100.44635205     105.01327586
N      93.31768621     100.69579592     101.60231987
H      95.06379331     100.25359996     100.97304100
H      93.24209716     102.59875032     101.66846029
H      91.86448666     100.28950476     100.43068955
C      88.27967585      91.25094381     100.94280538
O      88.47998685      90.20592516      98.87355507
N      86.32947830      92.88555707     101.31319174
H      86.24255089      93.75861063     103.00827624
C      84.46998761      93.49404894      99.29307431
H      83.56291898      91.69691922      98.86410644
C      82.34782495      95.17212591     100.41557174
H      83.17552509      96.99004262     100.91823894
C      80.32203835      95.85809656      98.31797553
H      79.89118075      94.27639564      97.07264589
H      81.44264606      97.16956662      97.18980892
H      78.65341001      96.84453369      99.01717427
C      81.29902685      94.03640039     102.87599540
H      82.44987018      94.66189980     104.46336550
H      80.88139734      92.02006242     102.80985498
C      78.80080867      95.31385538     103.59220167
H      79.02568609      97.35853925     103.69991607
H      78.39262779      94.89433614     105.56885540
H      77.27957899      94.51072170     102.46025561
C      85.67752272      94.49182444      96.91012943
O      87.06269210      96.35131513      97.03296164
N      85.26556239      93.21436945      94.69725992
H      84.16574167      91.66290414      94.51773592
C      86.51656120      93.81152296      92.38045546
H      87.48410108      95.61243214      92.63367878
C      88.40061833      91.95581172      91.64724165
H      89.82169253      91.69880894      93.11744872
H      89.32469450      92.82508583      90.02585647
C      87.39150449      89.28373872      90.93481483
C      86.86805029      88.77540234      88.30809525
H      86.93419071      90.42702314      87.11000877
C      86.16318238      86.31686840      87.49929239
H      85.79090630      86.12978550      85.50185168
C      86.36160365      84.21549274      89.17170018
O      85.40540214      81.91758555      88.45927336
H      84.97076508      81.70971565      86.71127652
C      86.85671193      84.72760858      91.72283070
H      86.71498246      83.18748163      93.05508775
C      87.30268735      87.23716512      92.63934796
H      87.71464768      87.58865421      94.60655306
C      84.56825338      94.31041071      90.18648321
O      82.46876744      93.15578793      90.10711470
N      84.99722124      95.99793631      88.42714801
H      86.73954890      96.77461382      88.44604527
C      83.20954016      96.76705492      86.53175252
H      81.29524739      96.78973163      87.28953277
C      83.68197173      99.66778481      86.34655934
H      85.60760285      99.95502321      85.68137568
H      83.34182100     100.60130960      88.15124797
C      81.86594475     100.95657815      84.42848713
H      79.89496020     100.56540480      84.87446254
H      82.22688247     100.37454245      82.48395876
C      82.23633111     103.80250598      84.53809126
H      82.13806533     104.72280269      86.37868469
H      80.91730213     104.79839175      83.31165888
C      84.93108083     104.35052661      83.75763429
H      85.30902608     103.80628543      81.80743674
H      86.20664608     103.37542783      85.04642764
N      85.57736722     107.13976265      83.81054663
H      85.09170757     108.09974361      85.38468865
H      84.97076508     108.04494155      82.24207379
H      87.46142435     107.44589831      83.83700280
C      83.47788130      95.35542936      84.00707817
O      85.56980831      94.92079231      82.98851568
N      81.30091658      94.91701286      82.83544785
H      79.82126088      95.36676772      83.95227610
C      80.66218908      93.80963324      80.33911939
H      81.92452626      92.26005766      79.82889329
C      78.07893322      92.56241387      80.70383657
H      76.60683642      94.00238532      80.64714478
H      78.02224143      91.61377126      82.53120191
C      77.54980984      90.90134444      78.43616499
O      76.11172813      91.74416238      76.79966201
O      78.64774084      88.83398385      78.29443552
C      80.62061511      95.76172052      78.18105194
O      80.38439931      97.97836948      78.69883695
N      80.96454529      95.12299302      75.80944542
H      81.15351792      93.38633454      75.04032681
C      81.04580352      96.80484944      73.57578892
H      82.36105305      98.32796885      74.01420542
C      81.85838584      95.48959993      71.08890909
H      80.95698638      96.44580144      69.50342871
C      84.75155682      95.04362452      71.05111456
H      85.22020896      93.96081134      72.73864016
H      85.86082617      96.76138574      71.28922008
H      85.17863497      93.89467092      69.39571431
O      80.70187333      93.08397833      71.17772623
H      81.21965834      92.06919530      69.76799040
C      78.47955519      98.14088595      73.16949776
O      78.61183604     100.34241710      72.28510585
N      76.46132750      96.96736591      74.10113283
H      76.67297684      95.25905332      74.92316378
C      73.85539490      98.09175306      73.97830062
H      73.90641751      99.34275188      72.33990791
C      71.96755831      95.99982603      73.47374370
H      70.03436830      96.67823778      73.68728277
H      72.23212001      94.59764911      74.95906858
C      72.26424536      94.61654637      71.06056320
H      70.77136157      93.19547218      71.04544538
H      74.16153056      93.81152296      71.03221730
C      71.80315212      96.04517946      68.72486147
O      70.85261980      94.83953408      66.85403242
O      72.41542345      98.28450515      68.41494636
C      73.32627153      99.78683756      76.36313523
O      71.19843970     100.47280822      77.00753190
N      75.26324100     100.40666779      77.94294643
H      76.90730290      99.48259163      77.65570803
C      74.89285466     102.11309066      79.99896866
H      73.81382092     103.80628543      79.54354461
H      76.66541793     102.58930169      80.93627291
C      73.35650716     100.88476855      82.20049981
O      71.93354325     102.21324615      83.59889728
N      73.66075309      98.34686611      82.46128204
H      75.07426838      97.60420367      81.41626339
C      72.44187963      96.74248847      84.46628166
H      71.08694586      97.92734687      85.47161606
C      71.35528700      94.44458128      83.16237050
H      70.58616839      93.14633930      84.56265770
H      72.92753928      93.46570305      82.26286078
C      69.47122985      94.65812035      81.00808251
C      69.00257774      92.45092002      79.53220626
H      69.82460868      90.61788549      79.87424672
C      67.19221993      92.61721593      77.55933199
H      66.88230481      90.90134444      76.49919552
C      65.88452932      94.88299778      77.10579767
O      63.88897833      94.74126831      75.38803645
H      62.99513778      96.31352060      75.22363026
C      66.25113623      97.01649879      78.71206504
H      65.26469909      98.78906207      78.50230542
C      67.97456662      96.80295972      80.68493931
H      68.18999541      98.44891133      81.87168743
C      74.58482926      96.12832742      86.31821345
O      76.84305220      96.43446308      85.86278940
N      73.73634215      95.31007593      88.54242132
H      71.86929255      95.23826633      88.92981521
C      75.35772733      94.57686212      90.57765656
H      77.26257144      95.09086768      89.97861331
C      74.69065394      95.94502397      93.08721310
H      75.65630408      94.95858683      94.61600169
H      72.68943377      95.69558010      93.50862207
C      75.69220889      98.65867096      93.16091243
C      74.04058808     100.65800139      93.15335352
H      72.00913230     100.48225685      93.17791996
C      74.98545125     103.16188876      92.87934320
H      73.69287844     104.72847187      92.68281167
C      77.58760438     103.54739293      92.70359866
O      78.66852783     105.88309465      92.31431504
H      77.38162421     107.10763730      91.94959786
C      79.26946079     101.65577689      92.77351853
H      81.25745288     102.00348653      92.47116232
C      78.37184079      99.15755870      93.09288228
H      79.87606293      97.78750712      92.93225554
C      75.52969241      91.61188153      90.89891003
O      73.52469281      90.45347930      90.91591757
N      77.83137906      90.58198069      91.29008338
H      79.32237313      91.68558086      90.83465933
C      78.61372576      87.94014331      91.73983824
H      76.94131798      86.74961573      91.90235470
C      79.98566707      86.90835274      89.30209129
H      81.96043106      87.49227817      89.27185567
C      79.83448896      84.03596875      89.07721386
H      77.87484277      83.41613851      88.93926384
H      80.82281582      83.20259944      90.68159150
H      80.90974324      83.40668988      87.43315197
O      78.84049291      87.61700011      87.02119163
H      80.23889039      87.90612823      85.90247366
C      80.33715616      87.40346103      94.11333449
O      81.47099195      89.27995926      94.95426270
N      80.60171784      85.12256138      95.17158122
H      79.68709030      83.64290567      94.38734480
C      82.19853657      84.47060580      97.38256101
H      83.70275872      85.87845190      97.40901718
C      80.66218908      84.93736820      99.88455865
H      80.13684517      86.92347055     100.03006757
C      78.10538938      83.34621864     100.13589225
H      76.97155359      83.96793860      98.53151461
H      77.05281182      83.98683586     101.78751304
H      78.33404627      81.32421149     100.44391764
C      82.08893245      84.35911194     102.32608504
H      82.69364487      82.39946576     102.51883713
H      80.75667541      84.51973868     103.89077843
C      84.18463894      85.99561493     102.97615090
H      84.97454454      85.39279224     104.78083952
H      83.28134976      87.83431863     103.19157970
H      85.73043505      85.77829641     101.63255549
C      83.05269287      81.77774580      97.09154316
O      81.79791460      80.15447090      95.90479503
N      85.11816373      81.06342925      98.20081250
H      86.14806458      82.34088424      99.17213183
C      85.92885631      78.43481995      98.72615642
H      84.37550129      77.28964581      99.44803187
H      87.37071750      78.38757680     100.19447376
C      86.96253662      77.18193141      96.39045469
O      88.50266355      78.21939115      95.10544080
N      85.69075080      75.04654067      95.79897036
H      84.27534579      74.44749743      96.93091642
C      85.86271590      73.84656447      93.33854670
H      87.40284285      74.77064063      92.33321230
C      86.55813518      70.94961403      93.60310838
H      85.06525139      69.98018443      94.64056813
C      86.82647632      69.92916182      90.88946140
H      88.68407729      70.44694683      90.16569622
H      85.50933707      70.80788455      89.57421188
H      86.76789480      67.87124986      90.92158674
C      89.05068418      70.45261601      94.91079899
H      89.02422803      71.28031613      96.79485613
H      90.56624469      71.09323323      93.67302826
C      89.57791783      67.75786628      95.51929086
H      91.26733315      67.78999163      96.69659036
H      90.03145215      66.78087778      93.76562485
H      87.89228195      66.82812094      96.25628413
C      83.37772580      74.35490084      91.87778826
O      81.29146794      73.38736097      92.41258081
N      83.62527994      76.30320867      90.25640308
H      85.32036444      77.17815196      90.15624759
C      81.58059607      77.03642248      88.45360418
H      81.58248579      75.61345857      86.96449985
H      82.25144891      78.73339671      87.49551294
C      78.89907443      77.39547048      89.46460776
O      77.20587965      77.24051292      87.72794928
N      78.48711410      77.96616783      92.03085609
H      79.90629856      77.91514522      93.30453163
C      75.88496097      78.29875966      93.07965419
H      74.60372653      76.94760535      92.20093146
C      76.12684594      77.87357124      95.93125120
H      77.51579477      79.13401869      96.78162804
H      76.96966387      76.02541890      96.27140194
C      73.54170034      77.86034315      97.15012467
N      71.97700696      75.90825587      97.46948842
H      72.47589469      74.11301588      97.05752808
C      69.85484431      76.71516901      98.58253722
H      68.24857694      75.66448118      99.27606677
N      70.02491966      79.21149747      98.98126947
H      68.85328936      80.28108256     100.03951620
C      72.44565908      79.95227018      98.13467208
H      73.32438182      81.79286361      98.15167962
C      75.04403275      80.98784020      92.49761849
O      75.80937192      82.82654390      93.70515360
N      73.09194547      81.37334437      90.76284973
H      72.49857141      79.81054071      89.84255302
C      71.76157815      83.80920159      90.43403736
H      73.23934413      85.20192988      90.08443799
C      69.95311007      83.52385291      88.12479180
H      68.34306326      82.29931026      88.51596515
H      70.96033420      82.56009249      86.60734157
C      68.89864278      86.20537455      87.20071563
H      70.42554165      87.54519051      87.54653555
C      68.51124889      86.16758003      84.37935425
H      70.22901011      85.96159986      83.26252600
H      68.03314814      88.10077004      83.85401033
H      67.09395416      84.89012504      83.60078701
C      66.39853487      87.19937059      88.25896237
H      66.95978358      87.53196242      90.21104965
H      64.91509971      85.78774504      88.03219521
H      65.92610329      89.01728731      87.41425471
C      70.57860948      84.64446062      92.94926308
O      69.25580106      83.20070971      94.12845230
N      70.79214856      86.95370617      93.77318375
H      71.71433500      88.20659472      92.66958358
C      69.76413744      88.15557211      96.12967246
H      68.98368047      86.68158558      97.34098703
C      71.94677133      89.66735316      97.30697196
H      71.27591849      91.38133492      98.22915840
H      73.12785028      90.44214095      95.80841899
C      73.51146471      88.13289539      99.19102909
H      74.01224218      86.40379582      98.18758442
C      75.73378286      89.65034562      99.96014770
H      74.97600260      91.40401164     100.73304576
H      76.69376382      90.10765939      98.19703305
H      77.10761390      88.78485097     101.22626433
C      72.06204464      87.56786722     101.61743768
H      73.32438182      86.61733489     102.93835637
H      70.34995259      86.43592116     101.41712669
H      71.52725208      89.35365859     102.49238096
C      67.31127269      89.67491206      95.62133609
O      65.51036351      89.29507707      97.05752808
N      67.46245079      91.30196642      93.79397074
H      69.12352021      91.52684385      92.87745348
C      65.33650868      92.98760229      93.16091243
H      63.61685774      91.87455349      92.92280691
C      65.09084427      95.06063206      95.14323533