 %block lattice_cart
   142.669   0.000   0.000
   0.000 146.65   0.000
   0.000   0.000   162.396
 %endblock lattice_cart

 %block positions_abs
N      93.39799957      41.73916955      79.71928916
H      91.76905549      41.42736471      78.77631573
H      93.97247637      39.99495216      80.23518444
H      94.73781552      42.36844841      78.51364377
C      92.96147279      43.56653489      81.79231892
H      93.72681195      42.73694503      83.51763905
C      93.84208525      46.34254284      81.55421341
H      95.89810748      46.42380108      81.63169219
H      93.27327763      47.12111008      83.37779930
C      92.66100631      48.12266503      79.73818643
H      90.59931490      48.10943694      79.72684807
H      93.43579409      47.77684512      77.86168819
S      93.45847081      51.43157581      80.32211186
C      92.60620424      52.72603832      77.32689565
H      93.14099679      54.69135369      77.02453944
H      90.58230736      52.54273488      76.98485518
H      93.43012492      51.56007719      75.84346049
C      90.07586071      43.63456504      82.28553749
O      88.71714749      42.69537106      80.62068862
N      89.28406539      44.63611999      84.53242209
H      90.53695393      45.57531396      85.62468390
C      86.63277937      44.95548373      85.44704961
H      85.36099356      44.22038019      84.00329871
C      86.17357587      43.53063008      87.98117261
H      87.20536644      41.75428736      87.82621504
H      84.13645091      43.36811362      88.22872675
C      86.93702530      44.84587961      90.30931542
O      85.94869844      46.77340045      91.11055938
N      88.82108244      43.88022945      91.56976288
H      89.59964968      44.70037068      93.10800009
H      89.73948943      42.31742579      90.97260936
C      85.91279364      47.74849923      85.72483938
O      87.49260484      49.53618032      85.56232292
N      83.44859053      48.29651985      86.11412301
H      82.20893007      46.86599703      85.86089968
C      82.19759171      50.79095858      86.08577712
H      82.64545685      51.54117994      84.22061724
C      79.40268649      50.57364005      86.01585723
H      79.01529260      49.19980903      84.52864263
C      78.27829934      49.45492208      88.51596516
H      77.86822873      50.92890860      89.89546535
H      79.47260637      47.94881021      89.25484814
H      76.48116961      48.51572811      88.14935825
C      77.92303079      52.95469522      85.43382153
H      78.45026443      54.07530292      87.07788343
H      75.91992090      52.55029379      85.17303931
C      78.81876106      54.39844611      83.09623009
H      80.69903875      55.16000581      83.45716781
H      77.55075471      56.00471348      82.85245539
H      78.78474599      53.32886103      81.33689488
C      83.12922678      52.50494036      88.38179458
O      83.77551318      54.72536876      87.83566368
N      83.43914190      51.26716962      90.56064903
H      83.24072064      49.36799467      90.54364148
C      84.49360918      52.68257463      92.81698224
H      83.45614944      54.44379954      93.06642612
C      83.96448581      51.06307917      95.08087436
H      84.84509828      51.96825808      96.70792872
H      85.02273255      49.30752342      94.89379146
C      81.15257306      50.60765514      95.49472442
C      79.85433108      48.51950755      94.47805167
H      80.72360519      47.11355117      93.28185491
C      77.19359643      48.20392327      94.81820240
H      76.41691892      46.58064836      93.85444198
C      75.82165513      49.85932351      96.39423415
H      73.78830962      49.79696254      96.55297115
C      77.06698477      51.96447862      97.38634046
H      76.00684831      53.23248498      98.58064749
C      79.76362422      52.26116565      97.11044043
H      80.81809150      53.66523230      98.15167963
C      87.15245410      53.37799390      92.60911234
O      88.01227958      55.00315853      94.02829680
N      88.74738311      52.33108552      90.90646893
H      88.11621452      50.82497366      89.91814207
C      91.23993212      53.29295622      90.27530035
H      91.86543153      54.61576464      91.72283071
C      93.05217965      51.10087369      90.29608734
H      93.09375363      50.51694826      92.27274106
H      95.01182584      51.67724022      90.02585648
C      92.46447477      49.00516722      88.45360418
H      92.64966795      49.85365434      86.58655458
H      90.56907928      48.34376300      88.91091794
C      94.27861203      46.70348056      88.75218094
O      93.89688732      45.01406524      87.19504646
O      96.18156643      46.67324495      90.16569623
C      91.43457393      54.63844135      87.73361845
O      93.26004955      55.99904430      87.40480608
N      89.53161953      54.48159407      86.11412301
H      88.17857549      53.25327197      86.67348200
C      89.48437637      55.89132990      83.66881715
H      91.28339582      55.91967580      82.67104166
C      87.41701579      54.96914347      81.94538676
H      85.63311415      54.71592013      82.94883143
H      88.02361793      53.12288085      81.26508528
C      87.01450408      56.50360122      79.46984529
H      88.88344341      56.47903479      78.60435064
H      86.73293486      58.48970359      79.93660769
S      84.48605028      55.01449690      77.62358269
C      84.92635651      56.63777179      74.69072744
H      86.30018754      58.16656038      74.84757472
H      83.06686582      57.29917600      74.10491229
H      85.45736960      55.19213116      73.32445533
C      88.95147355      58.64466115      84.12613093
O      90.36687856      60.19990590      83.26063627
N      87.08064450      59.34574961      85.56043320
H      86.29073891      57.90577816      86.53364225
C      86.23215739      61.95735137      86.18782233
H      85.78807171      62.86630973      84.39447207
C      83.66212960      61.92711575      87.54842527
H      83.27851516      63.81306260      88.28541854
H      83.79252072      60.51926965      89.04508852
C      81.31508952      61.19201221      86.01774697
H      81.87633824      59.61409073      84.81966049
C      79.11355837      60.33218674      87.69771366
H      78.64112679      61.74381229      89.12067758
H      79.76551395      58.71647075      88.79375491
H      77.35989235      59.88999079      86.70938680
C      80.64045723      63.47102214      84.44927412
H      80.31542430      65.02059773      85.76830309
H      78.97371862      62.80583849      83.44016028
H      82.22026843      63.81117288      83.17370887
C      88.33731250      63.31228514      87.74495681
O      88.13700151      65.62719986      88.13990961
N      90.36120938      62.15766235      88.60478228
H      90.37821692      60.26793604      88.34777951
C      92.58541725      63.39165363      89.91814207
H      91.85031372      64.98658264      90.99528607
C      94.02349898      61.66633351      91.71338207
H      95.52205194      62.59418914      92.77729798
H      94.66600592      60.05439698      90.60600246
C      92.00527128      60.75926489      93.56909332
H      90.46892378      59.70479761      92.68848084
H      91.38922050      62.31073018      94.77851816
C      93.22414475      58.78261116      95.36811277
H      94.83230184      59.61787020      96.34699099
H      94.07263186      57.17823353      94.39301399
N      91.24371157      57.78294595      97.24839045
H      90.18357511      56.28061352      96.73438488
C      90.74671355      58.62009469      99.54818736
N      91.85598290      60.60052787     100.43446901
H      91.46480955      60.97091424     102.26750354
H      93.07674610      61.69467942      99.45559077
N      88.90045094      57.68090073     100.82375262
H      88.14078097      58.94134818     102.03884665
H      87.81385831      56.16345049     100.42502038
C      94.44679767      64.50659217      87.93959863
O      96.00204243      66.05805746      88.56509804
N      94.35231136      63.54850092      85.60578663
H      93.07485637      62.17655962      85.24862835
C      96.07574175      64.14754416      83.60456647
H      97.48358786      65.26437241      84.61179058
C      97.58941253      61.84207807      82.91481635
H      99.24292305      62.60552749      81.94916621
C      98.95001548      60.58541006      85.36201193
H      97.57429472      59.53472223      86.47695046
H      99.79661286      62.06506576      86.51663472
H     100.47880406      59.50637633      84.49651729
C      96.36298015      59.71046679      81.28398255
H      95.14599641      60.55895390      79.85534946
H      95.04395119      58.62198443      82.43293615
C      97.95223998      57.83963773      79.99518921
H      96.99225902      56.20124501      79.19961442
H      99.19945935      56.99681980      81.39925586
H      98.85174971      58.82796459      78.42860609
C      94.82096348      65.40232244      81.26697502
O      96.30250891      66.55127604      79.87613645
N      92.33786311      65.16043747      80.92493455
H      91.48937599      63.74125300      81.87924634
C      90.89978138      66.76292539      78.99363425
H      92.04684525      67.08795831      77.31366757
C      88.55841048      65.27571077      78.26231018
H      87.04662943      65.40988135      79.65692820
H      89.09320303      63.29338788      78.12436016
C      87.41323634      66.12797735      75.67149541
O      88.86454614      66.28482462      73.81767389
O      85.15123394      66.69111578      75.42205153
C      90.17412648      69.44066756      80.05943989
O      90.06074290      71.27937126      78.53065132
N      90.09286825      69.62964019      82.65214441
H      90.21381073      68.08006463      83.75763430
C      89.04218042      72.02203372      83.75385485
H      89.16312290      73.48090242      82.30443475
C      86.26239301      71.70455970      84.37935426
H      85.95814707      70.14553548      85.69271403
H      85.20981545      71.40031375      82.63513686
C      85.04918872      73.99112852      85.49618251
H      86.21137040      74.94355060      86.90591833
H      83.32197887      73.38263665      86.43915594
C      84.23471668      75.88274456      83.52708768
O      85.88255802      76.39486039      81.83767237
O      82.08987731      76.99012418      83.54220549
C      90.48215187      72.74579888      86.24829357
O      91.41567667      74.78859304      86.60923131
N      90.69380121      70.83150613      87.78464106
H      89.62988530      69.27815111      87.47283623
C      92.08841923      70.90142601      90.22049828
H      94.09152913      71.02992740      89.75940507
H      91.58953149      69.16665726      91.21260459
C      91.37599241      73.02925783      92.10644515
O      89.32563936      74.19521898      92.11967323
N      93.02194403      73.02736810      94.02073791
H      94.54884289      71.88786314      93.90546460
C      92.48526176      73.94577510      96.51706635
H      90.45947515      74.01569498      96.88556299
C      93.58130302      71.92187822      98.29907827
H      95.58819237      71.83495081      97.84176451
H      92.52494601      70.16254301      98.11577482
C      93.32052079      72.57572353     101.11666020
H      94.40900315      74.29915392     101.41901641
C      90.70891903      73.46767435     102.31663642
H      89.86421136      71.67810352     102.89300293
H      89.44658185      74.40119913     100.98248964
H      91.03395195      74.64308410     103.97581611
C      94.41467232      70.32128002     102.63411043
H      93.04273102      68.78682226     102.55663165
H      94.68868264      70.94866916     104.57485936
H      96.17211780      69.66743473     101.78184387
C      93.48114753      76.57627412      97.00083629
O      95.63354580      77.24334751      96.46604375
N      91.87676989      78.18443122      98.02128851
H      90.03806618      77.74034554      97.76995490
C      92.56274054      80.58249391      99.24205170
H      94.59797578      80.80170216      99.47637776
C      91.55551641      82.78780452      97.49783432
H      90.86576631      84.46777121      98.46915365
H      89.96058741      82.02057564      96.44525676
C      93.67012016      83.71754986      95.81030871
H      94.60364496      82.13773867      94.87489419
H      95.13654778      84.68886919      96.88367326
C      92.42479052      85.40696519      93.77129403
H      91.51016298      87.03968873      94.63111950
H      90.90923001      84.36761571      92.83776922
N      94.29939902      86.24789340      91.90424443
H      94.82096348      85.02713019      90.53230312
C      95.22347519      88.58737457      91.77952250
N      95.15733477      90.29190770      93.63523374
H      95.41055809      92.07391961      93.00217542
H      94.13121338      89.92719053      95.19992712
N      96.20613287      89.38294935      89.72727972
H      96.45746647      91.26322703      89.50429202
H      96.16455889      88.33793069      88.13235070
C      91.29284446      80.76390763     101.98026513
O      89.20658661      79.73589653     102.35821040
N      92.60053506      82.06403934     103.75093868
H      94.15766955      83.02779976     103.21047696
C      91.75204795      82.32293184     106.31529729
H      90.30451759      80.94343163     106.80851587
C      93.84019553      81.88451534     108.14833182
H      93.17123241      82.44954350     110.01160197
H      95.37843274      83.16008059     107.65700298
C      94.51860727      78.97244708     108.27116402
H      95.32552041      78.49056689     106.44001923
C      96.37620824      78.70032651     110.42545202
H      97.13587822      76.79737210     110.64088083
H      95.79039308      79.32393618     112.29817080
H      98.13176398      79.72266844     110.09474991
C      92.29439940      77.18854545     108.83619219
H      90.91111974      77.14886119     107.31118305
H      91.51205271      77.71955854     110.66733699
H      92.93312690      75.24779652     109.09508469
C      90.25727444      84.81548084     106.84820011
O      88.76628038      84.84004730     108.68312436
N      90.43490871      86.88284144     105.29295536
H      91.63299519      86.79213458     103.80952021
C      89.21225579      89.36216235     105.67279035
H      87.94235970      89.43208223     107.29417553
C      91.30229309      91.31802909     106.05262533
H      92.34542201      91.45219966     104.28006206
H      92.50982820      90.38261456     107.43401526
C      90.23837717      93.78790138     107.09953372
H      88.92501739      93.42129447     108.64344012
H      89.25571949      94.50221794     105.43657455
C      92.45880559      95.57180302     108.16722907
H      93.19012967      96.71886690     106.61954323
H      93.90444622      94.48332066     109.14988676
C      91.22292458      97.51633139     110.05317594
H      90.07397098      96.41273123     111.35897683
H      90.13444223      98.93551586     109.03083401
N      93.26949818      98.87315489     111.45913232
H      92.80084605     100.51910652     112.30383997
H      94.90411144      99.22653372     110.54072533
H      93.72114277      97.56924374     112.77816129
C      87.41134661      90.03868438     103.39000097
O      87.74204871      88.97287873     101.50972327
N      85.67090867      91.90951343     103.69991608
H      85.46870796      92.41973954     105.52728143
C      83.84921251      92.87894302     101.89144799
H      82.94781306      91.07614412     101.46625958
C      81.85744097      94.80268442     103.02528378
H      82.71159727      95.63416399     104.70525048
C      80.85210658      96.58091687     101.04863005
H      80.25495306      95.49432425      99.40456817
H      82.29774721      97.73553965     100.14345116
H      79.32520772      97.76766500     101.75727743
C      79.70882216      93.33625679     104.21959082
H      80.61778051      92.59737381     105.91656504
H      79.00962342      91.85849081     102.96859199
C      77.52996772      94.93685498     105.39878003
H      76.29786616      95.70408387     103.93613186
H      78.26507125      96.59981414     106.37009936
H      76.19204149      93.85593153     106.53261582
C      85.27028670      93.56869314      99.41212708
O      86.69703006      95.39983792      99.35165582
N      84.79407567      92.24210525      97.36555348
H      83.52228986      90.82858997      97.53184938
C      85.68413676      92.67107314      94.80119487
H      86.79340610      94.40584189      94.73505445
C      87.52473019      90.48843924      94.21915917
H      88.76628038      90.04057411      95.80086009
H      88.79273654      91.21598388      92.76973908
C      86.40979166      88.00533886      93.39334877
C      85.89200665      87.57637100      90.84599769
H      86.56285949      88.96343011      89.50618174
C      85.07753461      85.14996240      89.95971606
H      84.66746400      84.99122540      87.96605479
C      84.56730851      83.13173470      91.71527180
O      84.07220021      80.66942131      90.90079976
H      83.85866114      80.70721584      89.09989058
C      84.85643663      83.67408615      94.34766056
H      84.56730851      82.11695167      95.63645389
C      85.79563061      86.07025913      95.21126548
H      86.16412724      86.29513655      97.20681647
C      83.61110699      93.26066775      92.89446101
O      81.38122994      93.42507394      93.54830632
N      84.31408518      93.87482879      90.60033327
H      86.15278888      93.85404180      90.09199689
C      82.60199314      94.50410765      88.43848637
H      80.66502367      94.55702000      89.14146455
C      83.09899116      97.07413544      87.42181361
H      81.85177180      97.15539367      85.78531062
H      85.04918872      97.39538891      86.85300599
C      82.40924106      99.33424811      89.09611112
H      83.47693643      99.36259401      90.85922577
H      80.42880788      98.93929531      89.50429202
C      82.62278013     102.01954921      88.08699727
H      81.63634300     102.12537387      86.28041892
H      84.58620577     102.53166504      87.72983901
C      81.48327516     103.80534056      90.04475374
H      82.52451436     104.14927076      91.78897112
H      79.58410022     103.17795143      90.54175176
N      81.27918472     106.35647110      88.87123370
H      79.95070713     106.27899231      87.50496158
H      82.80419386     106.93094790      87.87534794
H      80.70092847     107.60746991      90.19215239
C      82.69836918      92.58414572      86.32010318
O      84.65801537      91.65251066      85.45082908
N      80.41369007      91.87738809      85.43571127
H      78.91324738      92.53312311      86.41836894
C      79.67480708      90.67741188      83.13024516
H      80.68581066      88.89162051      82.96772870
C      76.75329020      90.44497553      83.06221501
H      76.11834216      92.38383473      82.77875607
H      76.08810654      89.72687953      84.87446255
C      75.74795581      88.65918417      81.04587703
O      74.67459126      89.63050349      79.21851169
O      76.31487370      86.42741740      80.80210235
C      80.69147984      92.28745869      80.83233796
O      80.93525453      94.57213780      81.08556129
N      80.68581066      91.46353801      78.45884172
H      80.09432632      89.66262885      78.23774374
C      81.24139020      92.82981014      76.17227288
H      82.83442948      94.10726514      76.43494484
C      81.76295466      90.96654000      74.06711777
H      81.92547112      92.01911755      72.30211339
C      84.21015023      89.35649317      74.52821098
H      84.04385432      88.30202589      76.29132563
H      85.73137992      90.74544201      74.48096782
H      84.53329343      88.07336901      72.95217923
O      79.73527833      89.10893904      73.96696227
H      80.32298321      88.00155942      72.65549221
C      79.12678645      94.64016795      75.39748508
O      79.58410022      96.79823540      74.37514315
N      76.88557105      94.12238294      76.17983177
H      76.80620254      92.43485734      77.06800315
C      74.74640086      95.87037978      76.16282424
H      74.52341315      96.62816003      74.26175958
C      72.29731556      94.43985697      76.85068463
H      70.70805573      95.72865031      77.08123123
H      72.58266423      93.40617667      78.61001981
C      71.52819695      92.54635119      74.82489802
H      70.40003034      91.15362291      75.84346049
H      73.28753215      91.74699696      74.11247120
C      69.99751863      93.91451305      72.82934703
O      67.74496487      93.02256223      72.37014354
O      70.91214617      95.62849481      71.53110505
C      74.99206528      98.12671300      78.13191907
O      73.54642465      99.95218861      78.00152794
N      76.99517517      98.14183080      79.69661244
H      78.07609862      96.56957852      79.76086315
C      77.42603277      99.88604820      81.82444427
H      76.83454843     101.68317792      81.01564142
H      79.42914266      99.71597282      82.27797860
C      75.82354486      99.18684946      84.16392545
O      76.17692368     100.68918188      86.01207779
N      74.24373366      97.28200533      84.12235147
H      74.10200419      96.11982366      82.61623961
C      72.76785741      96.83602993      86.43726621
H      72.14613745      98.58024731      87.34244512
C      70.64002558      95.21464475      85.94404764
H      69.38335758      95.05779746      87.56921227
H      71.22962019      93.33625679      85.33933522
C      68.67093076      95.85904143      83.88235624
C      67.33300453      93.96553565      82.58033481
H      67.46528538      92.06258127      83.30409998
C      65.90815089      94.38127544      80.50163585
H      65.02375898      92.76177999      79.63047202
C      65.61335359      96.78878676      79.54543434
O      64.10913144      96.91917788      77.35902100
H      64.41904656      98.47064319      76.47084964
C      66.65459279      98.85047818      80.84178660
H      66.16893312     100.68918188      80.10290360
C      68.37235401      98.31946509      82.95072115
H      69.39658567      99.74998790      83.98629117
C      74.38924259      95.61148728      88.59911310
O      75.88779555      93.86538017      88.03975411
N      74.01696650      96.07824967      91.05575731
H      72.64502520      97.32546905      91.50929164
C      75.28875231      94.90283990      93.19303777
H      77.28997248      95.08803309      92.74517263
C      74.79742347      96.51855590      95.62322582
H      75.60055715      95.50944205      97.22949317
H      72.78108549      96.66784429      96.02573752
C      76.00873804      99.04700972      95.49472442
C      74.62167892     101.21074635      95.35866412
H      72.58833341     101.04256070      95.34354631
C      75.64969004     103.66361109      95.44559155
H      74.43459602     105.27932709      95.71582241
C      78.21404864     104.10391732      95.80841900
O      79.32142826     106.36969917      95.94069984
H      78.03452464     107.63770553      96.08998822
C      79.68803517     101.83246630      95.73849911
H      81.70815260     102.11592524      95.82920598
C      78.70348776      99.44763169      95.49850388
H      79.77118313      97.70908348      95.43047373
C      74.68215016      92.08336825      93.79019128
O      72.48250874      91.12527701      93.40468713
N      76.76462856      90.71331668      94.28340986
H      78.31042469      91.83203464      94.24750506
C      77.11989711      87.90896283      94.65757566
H      75.31520848      86.96409967      94.96560106
C      78.00428902      86.59938249      92.22360818
H      80.00739891      87.06614488      92.09321707
C      77.52429854      83.74778548      91.85889099
H      75.62512359      83.22244156      91.25795804
H      77.93625888      82.43820514      93.39523850
H      78.80742271      83.06748402      90.39813255
O      76.70982650      87.55747372      90.10711470
H      76.95738065      89.35271373      89.99562085
C      79.01340287      87.21543327      96.81564312
O      80.36266746      88.81603146      97.90223575
N      79.02285151      84.95910004      97.73971929
H      77.52240881      83.93864785      97.14823495
C      80.64612641      83.86494851      99.82975659
H      82.41679996      84.91941580      99.75983672
C      79.54441597      84.19943007     102.50182960
H      79.15513235      86.21954750     102.58686728
C      77.15958136      82.62339832     102.89867212
H      76.02952503      83.03535867     104.57107991
H      77.52996772      80.61839871     102.60576454
H      75.92181063      82.94087235     101.28484585
C      81.33209706      83.58526901     104.73548609
H      81.63067382      81.59160775     105.16445397
H      80.55352982      84.46210202     106.42868087
C      83.85110224      84.87973154     104.17990656
H      85.09454215      84.51123492     105.77861502
H      83.63000426      86.92252568     104.03439764
H      84.86399554      84.25990131     102.49616041
C      81.28863335      81.13429399      98.97560029
O      79.97527357      79.89085407      97.53562884
N      83.12733706      80.04014245     100.26061419
H      84.26684202      81.18153714     101.28106640
C      83.64323234      77.36806945     100.18313541
H      81.82909508      76.53281042     100.68580260
H      85.13422640      77.00335227     101.56074588
C      84.47093247      76.35706588      97.74538846
O      86.23971629      77.35484136      96.70414927
N      83.50339259      74.06293813      96.98571849
H      82.39790270      73.09539826      98.20270224
C      83.59787891      73.14264141      94.44592632
H      85.00194556      74.30671283      93.48972481
C      84.33676190      70.21356563      94.44403660
H      82.75695070      69.04571476      95.06008737
C      84.78273731      69.61830185      91.56409369
H      86.38522522      70.70111501      90.85733605
H      83.10466034      70.03971080      90.44915517
H      85.33642712      67.64920703      91.32598817
C      86.62899992      69.58239704      96.09754711
H      86.23404712      70.45923004      97.91735356
H      88.25605427      70.54615746      95.27929563
C      87.25260960      66.80260964      96.48872047
H      88.56974884      66.65143152      98.06475220
H      88.40534265      66.09396227      94.93536543
H      85.53295865      65.70089920      96.75328215
C      80.99572578      73.84184015      93.11744873
O      79.22505222      72.32250020      93.22327340
N      81.01840249      76.12651926      91.90802389
H      82.68892055      77.03358789      91.74739715
C      78.98694671      76.55359741      90.15624759
H      78.48994869      74.87741017      89.07154468
H      79.48583445      78.11640107      88.91280768
C      76.39991138      77.28303177      91.35811352
O      74.69915770      77.75168389      89.93892906
N      76.27329972      77.60239551      93.80908855
H      77.92114106      77.50601948      94.77095925
C      73.88468566      78.05592983      95.17158123
H      72.41825804      76.86918171      94.34577082
C      74.41191930      77.08272077      97.96081727
H      75.72905854      78.34883740      98.91323933
H      75.17158928      75.18165611      98.17813578
C      71.91181139      77.15264065      99.39134008
N      70.24885223      75.25724516      99.70881410
H      70.62490777      73.50735859      99.04740989
C      68.21550672      76.06793774     100.93335676
H      66.56766538      74.90197661     101.23571297
N      68.51975266      78.57371484     101.49838493
H      67.16103944      79.69810200     102.22970900
C      70.80443177      79.20299370     100.70281015
H      71.62457299      81.06815357     100.80485537
C      73.10233897      80.88485012      94.97315997
O      74.14924734      82.45710241      96.26951221
N      70.98962495      81.43853993      93.64846181
H      70.03342343      79.98911985      92.85477676
C      70.12790975      83.82904371      92.67336303
H      71.82866343      84.91752607      92.26707189
C      68.72195337      83.13740388      90.37545585
H      66.88891885      82.42497706      90.98772716
H      69.60067611      81.51790843      89.45704886
C      68.31377249      85.21799255      88.16825550
H      66.63191607      84.65107466      87.12512659
C      67.62969156      87.99022106      88.81076246
H      65.97240159      87.94486763      90.03341538
H      67.30276891      88.85571570      86.97016902
H      69.14147261      88.93886366      89.83688384
C      70.96505851      85.43342135      86.67726144
H      71.28820171      83.66841697      85.66625788
H      72.36534570      85.94931664      88.10022537
H      70.77041670      87.04913735      85.41303454
C      68.26086015      85.24822817      94.61789142
O      66.35979548      84.08604650      95.35677441
N      68.63880542      87.70865183      95.21315520
H      70.09389468      88.62138964      94.37978589
C      67.26686411      89.05035752      97.18602947
H      66.41270782      87.58770936      98.35577007
C      69.25107674      90.22576729      98.98693865
H      68.26274988      91.00055507     100.61777245
H      70.42459678      91.62983393      98.03829605
C      71.10111880      88.33226151     100.20014295
H      72.41069914      87.64062168      98.76962012
C      73.00407320      89.59459870     102.02750829
H      72.04409223      90.44119609     103.64133456
H      74.05476103      90.99299616     100.94091565
H      74.33633025      88.08659710     102.46592480
C      69.70272133      86.15718653     101.74971852
H      68.15314575      85.38806793     100.63289027
H      69.15092125      86.93197432     103.57708386
H      71.13324415      84.72666372     102.14089187
C      65.28265148      90.96087082      96.42069032
O      63.06411279      90.58292556      97.05185890
N      65.91193035      93.06980538      95.23016275
H      67.71472925      93.20397596      94.61222223
C      64.10913144      94.94819334      94.17380574
H      62.51420244      93.89939524      93.40279739
C      63.03954635      96.63571893      96.52273554