 %block lattice_cart
   142.669   0.000   0.000
   0.000 146.65   0.000
   0.000   0.000   162.396
 %endblock lattice_cart

 %block positions_abs
N      92.09692301      43.36622390      77.54232444
H      90.97820503      44.00684112      76.13447834
H      91.35615028      41.74672845      78.22640538
H      93.81279450      43.18292045      76.72785240
C      92.04212093      45.42980503      79.32055691
H      93.20619235      45.10288238      80.98729551
C      93.06068343      47.89022869      78.09790399
H      91.98353943      48.34754246      76.40470920
H      94.99954261      47.56897522      77.48185320
C      92.99832246      50.20136397      79.74763505
H      93.71830818      49.71381458      81.61468465
H      91.06891189      50.91190107      79.87424671
S      95.01277071      52.72792805      78.64781435
C      93.47264376      53.20224936      75.64314950
H      94.01121575      54.96158456      74.72096307
H      91.41473181      53.18146237      75.72062829
H      94.18129113      51.74716010      74.36947398
C      89.34359176      45.73405097      80.30321460
O      87.64472781      45.41090777      78.87080205
N      88.91273417      46.38033737      82.77497662
H      90.48687618      46.64678878      83.82188498
C      86.36916254      46.90001210      83.66503771
H      84.86683013      45.88522907      82.68615948
C      86.25199952      45.74538933      86.30876481
H      87.89417169      46.29529968      87.42370335
H      86.39183927      43.71771299      85.97806271
C      83.71031763      46.17246747      87.63913214
O      83.25678330      48.16423901      88.87501314
N      81.88106255      44.43580899      87.54464583
H      80.43920137      44.44525762      88.79375491
H      82.12294753      42.88056424      86.46372238
C      85.63594873      49.76861665      83.70094251
O      87.33292297      51.23504427      83.83511308
N      83.33048263      50.39033660      83.58944866
H      81.97743859      49.04296174      83.57244112
C      82.27790508      52.97548220      83.72361922
H      82.86938942      53.96569879      82.01719636
C      79.36205738      52.82052464      83.54031577
H      78.90474362      51.76794709      81.83200318
C      78.21310378      51.44102443      85.64547088
H      78.97466349      49.59665155      86.16703535
H      76.24589869      50.92890860      85.31476878
H      78.32837708      52.64100064      87.31598895
C      77.97121882      55.26016131      83.21339312
H      78.16397090      56.58108001      84.78186596
H      75.98133701      54.97670237      82.76741771
C      78.68553535      56.62832316      80.86446331
H      80.13684516      57.95491104      81.47673464
H      77.00556866      57.59586304      80.16715430
H      79.37150601      55.20346952      79.54732406
C      83.33426209      54.55529340      86.05365177
O      83.50244772      56.92878965      85.77019282
N      84.24511018      53.45358296      88.11723290
H      84.23566154      51.54684911      87.99818014
C      85.38650487      54.84253180      90.33955105
H      84.47187733      56.67934577      90.49450860
C      84.96698563      53.15500620      92.77351853
H      86.47876668      53.75215972      94.03774544
H      85.32981308      51.16890385      92.37100682
C      82.39317838      53.43279597      94.14357011
C      80.41274521      51.78117517      93.53885769
H      80.69809389      50.54907361      91.93636978
C      78.08082294      52.01550123      94.84654829
H      76.46132748      50.78339968      94.70859828
C      77.75390029      53.69546793      96.91768834
H      76.26668568      53.59153298      98.31230636
C      79.79480471      55.38110380      97.38067129
H      79.46032315      56.82863415      98.77717903
C      82.10971944      55.18079281      96.10510602
H      83.51756554      56.53005740      96.71170817
C      88.15306419      55.57574561      89.95404688
O      89.02611775      56.98737116      91.63023412
N      89.40217327      54.59686738      88.07376920
H      88.34581626      53.67090148      86.78497584
C      91.94952435      55.15622637      87.48039513
H      92.83580599      56.22770119      88.99973508
C      93.36303964      52.66367736      87.43882115
H      92.90950532      51.58842309      85.74184693
H      92.98320465      51.59598199      89.16036182
C      96.24676199      53.01894591      87.32354785
H      96.81367988      54.52883723      88.60289256
H      96.63793534      53.63499668      85.39791673
C      97.66594645      50.54718389      88.05109247
O      98.13270884      50.23915850      90.39246338
O      97.88515469      48.85398911      86.46372238
C      92.16117370      56.73792729      85.06532491
O      93.52366636      58.59930771      84.97839749
N      90.52656044      56.11620733      83.27764380
H      89.99554735      54.29451117      83.50630069
C      90.33758780      57.60342194      80.88902975
H      92.04590040      57.40878013      79.75519396
C      88.21731489      56.47336561      79.26575485
H      86.35404474      56.63966152      80.13313923
H      88.51967110      54.45135845      79.00875207
C      88.24944023      57.77916649      76.58234348
H      89.46831370      56.76249373      75.27276314
H      88.81635813      59.75204076      76.75619830
S      85.16351716      57.84908636      75.17260766
C      83.73866351      60.05439697      77.26453469
H      81.73177417      59.61598046      77.41949224
H      83.79913477      61.96113082      76.49163662
H      84.65329105      60.13565520      79.10890757
C      89.60059455      60.35108400      81.54287505
O      90.94607968      62.05750686      80.72840301
N      87.70330933      60.87642792      83.03008966
H      86.53545847      59.42700783      83.44771918
C      86.90017565      63.56550846      83.49685207
H      86.73199000      64.19478732      81.54287505
C      84.20920537      63.58629545      84.45872275
H      84.35093484      64.55383532      86.27097029
H      83.54780116      61.73247393      85.06532491
C      82.10971944      64.74658740      82.87324237
H      82.18908794      63.67133313      81.11768664
C      79.53402248      64.31195035      84.13557955
H      77.84082770      64.55950450      82.98851569
H      79.31859368      65.52326492      85.78909007
H      79.40363136      62.35419389      84.75540979
C      82.57648183      67.49991864      82.21561762
H      81.66941320      67.96857077      80.42793653
H      84.46620814      68.25580917      81.89814361
H      81.74311254      68.71123321      83.65936852
C      88.86549100      65.11319431      84.99918449
O      88.62171632      67.33362273      85.02942011
N      90.69663580      63.77148863      86.25207303
H      90.65128238      61.86853423      86.40136141
C      92.91895394      65.13587102      87.23851017
H      92.32746961      66.77048429      88.34400006
C      94.36837403      63.30283650      88.95060220
H      95.89905235      64.41966475      89.75562562
H      95.42473104      61.82696025      87.97739315
C      92.71108406      62.29750210      91.16536143
H      91.16528793      61.08051836      90.54931067
H      91.90417092      63.84896741      92.25006434
C      94.34569731      60.83674366      92.96060144
H      95.90283179      62.02349179      93.60688784
H      95.05245496      59.27960918      91.81353756
N      92.87737997      59.80306337      95.05063874
H      92.23676275      58.01916173      94.81820240
C      92.50132444      60.92745053      97.23327263
N      93.07391150      63.27638033      97.73216038
H      92.57313403      63.95668181      99.44236270
H      93.88460410      64.50281271      96.51328691
N      91.56024072      59.67078253      99.09087360
H      91.53945373      60.47013676     100.82564236
H      91.26544343      57.79050485      98.93780577
C      94.83513643      66.14687460      85.34500439
O      96.20329828      67.89865089      85.91192229
N      94.84647478      65.23413679      82.94694171
H      93.75421298      63.71290711      82.57655535
C      96.32802021      66.34529587      80.81155098
H      97.58657795      67.77014951      81.60523603
C      97.93239786      64.33840652      79.53031653
H      98.76198770      65.04516416      77.78231970
C      99.96574337      63.68078176      81.39169695
H      99.26654464      63.22346800      83.27386436
H     101.06745380      65.40043271      81.65814836
H     101.30366960      62.17844934      80.94950099
C      96.44518324      61.88176231      79.13725346
H      94.71797340      62.06884522      78.03365329
H      95.87070644      61.32051360      81.03453867
C      98.11570131      59.70479760      78.01475602
H      99.36481041      60.59485869      76.64092500
H      97.05934430      58.06262544      77.36280045
H      99.15127132      58.91867145      79.61346449
C      94.56112612      67.67377346      78.88780959
O      95.29056048      69.28571001      77.31933675
N      92.09503328      67.09173776      78.92749384
H      91.61315307      65.60074370      80.01786592
C      90.25066039      68.45800988      77.46862513
H      91.19930301      68.84162432      75.68094404
C      88.10960049      66.67221852      76.87714078
H      86.93419071      66.66088016      78.56655611
H      88.77478414      64.72580041      76.77320585
C      86.73576945      67.39409397      74.41860686
O      87.88850251      67.10118639      72.45518122
O      84.60604790      68.37486193      74.48852673
C      89.35493012      71.03181712      78.29821498
O      89.16406776      72.76658588      76.73541131
N      89.35681985      71.48913089      80.75863864
H      89.76122127      69.94333476      81.80554702
C      88.81824785      73.84750933      82.07577787
H      88.92974170      75.37440819      80.70005711
C      86.11215977      73.81349425      83.08678145
H      85.98932756      72.26013922      84.43226659
H      84.76667464      73.08783935      81.70917096
C      85.07281029      76.20777749      84.40203096
H      86.18963855      76.45722137      86.11601273
H      83.07725930      76.10951172      84.90091872
C      85.29957746      78.75134911      82.83733757
O      84.33959649      80.84327614      83.78598018
O      86.61482697      78.75701829      80.79265370
C      90.73254060      74.39552996      84.26030149
O      91.48654140      76.58761248      84.66848237
N      91.50921811      72.49635501      85.74751611
H      91.02922763      70.70111502      85.31476878
C      93.15328002      72.77792423      87.91692191
H      94.78222410      73.85884769      87.26685606
H      93.80145613      70.94866916      88.60478228
C      91.69441129      74.15364499      90.08632772
O      89.70641921      75.08905952      89.73294889
N      92.65439226      74.10073265      92.43903697
H      94.42884528      73.56594011      92.89446101
C      91.10859613      74.82638756      94.62356060
H      89.08847872      74.72812179      94.24561533
C      91.66417567      72.90453590      96.73249516
H      93.68240338      72.73446053      97.10666097
H      90.87427007      71.17165687      95.94258956
C      90.41506659      73.16342840      99.29874349
H      90.46230974      75.05693417     100.10187717
C      87.74677302      72.27903649      99.36677364
H      87.72598604      70.23057316      99.15134484
H      86.58837080      73.25224554      97.96648645
H      86.92285236      72.87052082     101.16012391
C      92.02511340      71.46456445     101.17902118
H      94.01310548      72.00313645     101.24894105
H      91.91928873      69.49735936     100.57052930
H      91.12560368      71.61007337     103.02528378
C      91.64905787      77.50601947      95.48716552
O      93.71830818      78.43954427      94.97693942
N      89.91428910      78.75134911      96.84776847
H      88.18141008      77.95010515      96.89879107
C      90.20719668      81.34783306      97.78885217
H      92.21408604      81.77302148      97.97971452
C      89.09414788      83.14118333      95.67802787
H      87.05135375      82.88040110      95.67424843
H      89.72531647      82.35127774      93.88278787
C      90.13727682      85.83971251      96.09376767
H      89.80846444      86.42930712      98.04018576
H      89.22831846      87.28535314      94.94292434
C      92.88871832      86.06836939      95.65913062
H      93.48776156      85.54302548      93.75806594
H      94.09058427      84.87595209      96.83265066
N      93.91294998      88.54013141      96.22415878
H      94.12081989      89.09382122      98.03640631
C      93.93751644      90.51489541      94.71804690
N      92.79801147      90.32214332      92.50895685
H      93.30634785      91.72620997      91.31842927
H      92.49754497      88.54580059      91.87778826
N      95.04489605      92.57280736      95.25472919
H      94.99198372      93.94474867      93.93003104
H      96.46030106      92.72776492      96.52462526
C      88.87493964      81.95065576     100.34565187
O      86.62427560      81.85238999     100.39478475
N      90.30168301      82.49867639     102.26183435
H      92.18385041      82.62717778     101.97648567
C      89.30957668      83.03535866     104.78272925
H      87.65228672      81.81837492     104.92445872
C      91.34670166      82.29080649     106.73670626
H      90.55868579      82.57615517     108.62076340
H      92.90383614      83.62117382     106.52694664
C      92.49565526      79.61684376     106.60631514
H      93.17973618      79.35984098     104.67879430
C      94.83702616      79.25401631     108.38643734
H      96.48675723      80.20076919     107.59086256
H      95.26599402      77.23956806     108.46202639
H      94.61025899      80.12518014     110.23647940
C      90.69285636      77.43420987     107.21102756
H      89.19997256      77.65341812     105.80885063
H      89.85381786      77.54381400     109.08752580
H      91.62638114      75.68243358     106.65922749
C      88.47998684      85.73577756     105.38555195
O      87.15339897      86.11939200     107.19779948
N      89.11871434      87.49511276     103.69802635
H      90.34703644      87.07937297     102.29773915
C      88.13416693      90.08214808     103.54495851
H      87.11749416      90.55080021     105.27783755
C      90.40372822      91.90762370     103.28417629
H      89.70263977      93.75766576     102.71158922
H      91.70385993      91.17440989     101.86499183
C      91.78700789      92.14761894     105.85987325
H      92.79234229      90.43552690     106.40222471
H      90.47553783      92.53123338     107.40188993
C      93.80334586      94.12805212     105.59153212
H      95.36425979      93.43641229     104.44068878
H      94.64238434      94.36048846     107.45858172
C      92.78289365      96.76799978     104.80351624
H      91.07269134      97.23665190     105.85042462
H      92.33502852      96.71886689     102.79284745
N      94.78222410      98.75221241     105.25138137
H      96.51132367      98.20986095     104.65233814
H      94.93718164      99.08480424     107.12410016
H      94.36648431     100.32068525     104.24415726
C      86.18396936      90.21253920     101.46625958
O      86.21420498      88.82736981      99.70881411
N      84.37172184      92.02289701     101.58531232
H      84.22432319      93.07169511     103.17268244
C      82.96765518      92.79768479      99.41401680
H      82.18341876      91.01756261      98.74316395
C      80.92297131      94.81591250     100.16990732
H      82.10405026      96.36548807     100.83698071
C      79.62472933      96.19163325      98.04396522
H      78.19042707      97.56357456      98.59954476
H      78.92175115      94.68552138      96.82887121
H      80.89084596      97.20074710      96.77217942
C      79.09938543      93.71231233     101.93491170
H      80.14440407      92.91106837     103.51850235
H      78.00523388      92.29312787     100.91823895
C      77.17186459      95.49054479     103.24071259
H      76.03424935      96.52044563     101.86688155
H      78.11294829      96.99098748     104.29329014
H      75.81315136      94.46442340     104.40289427
C      84.43030334      93.68585616      97.11610960
O      86.01767346      95.25432900      97.37689184
N      83.89740052      92.63894778      94.82765104
H      82.42341400      91.42763322      94.86922502
C      85.05769249      93.41751503      92.46171370
H      86.03468099      95.20897557      92.74139318
C      86.93419071      91.67518736      91.24284022
H      88.47998684      91.40873595      92.58265618
H      87.71653740      92.60304298      89.57799134
C      86.01389400      89.00122463      90.55120039
C      86.00255565      88.15273752      87.95471643
H      86.67340848      89.27334522      86.38435387
C      85.28445964      85.69420358      87.37457045
H      85.54902132      85.02146102      85.46405716
C      84.26778689      84.03880333      89.24539950
O      83.28701894      81.79380847      88.60667202
H      83.57236760      81.76735231      86.81521147
C      84.30369169      84.85894455      91.78519167
H      83.42307922      83.59093820      93.11933845
C      85.17107607      87.25511752      92.43714725
H      85.17107607      87.77668198      94.41191124
C      82.94308874      93.65751027      90.59088465
O      80.78880075      92.81658206      91.05575731
N      83.55158062      95.05212829      88.55186994
H      85.37138705      95.53400850      88.23628565
C      81.80358378      95.90439485      86.63379775
H      79.92708554      96.19730243      87.42937252
C      82.59159965      98.46497401      85.62846335
H      83.54591144      98.29111919      83.81243636
H      84.03157110      99.34558647      86.80765257
C      80.39951713     100.30556744      85.41681400
H      79.25056353     100.03344685      87.10811904
H      79.19009229      99.56290499      83.92393021
C      80.82659528     103.12881855      85.06721462
H      82.32892768     103.51810217      83.71417059
H      81.66563376     103.51810217      86.90780806
C      78.46443738     104.71807838      85.05776600
H      77.36083722     104.48375231      86.78119639
H      77.24178446     104.20407282      83.48362398
N      79.04269364     107.47896852      84.83288856
H      80.20487531     108.06100422      83.43638082
H      79.82126088     108.20651315      86.41647922
H      77.38162421     108.35580153      84.49651729
C      81.45965358      93.92774113      84.62501868
O      83.09237712      92.41596008      84.06754940
N      79.39985191      94.06191170      83.20205476
H      78.01279279      95.31102079      83.60267674
C      78.67608673      92.37060665      81.10634828
H      80.00834378      90.81158244      80.91359619
C      75.89629932      91.49755309      81.68271480
H      74.31648813      92.81469233      81.77531140
H      75.94354248      90.76244956      83.60456647
C      75.22355676      89.43964114      79.77598095
O      74.59049844      90.18797276      77.65570802
O      76.07015415      87.27968396      80.32589130
C      78.90096415      93.75577604      78.46829035
O      78.60049767      96.03856542      78.33223005
N      79.54347110      92.58603545      76.27242836
H      79.87984239      90.71331667      76.12125027
C      79.53402248      93.94096921      73.89137322
H      80.78880075      95.55290576      74.16727325
C      80.47132672      92.24966416      71.78432838
H      80.23700066      93.23421157      69.99097811
C      83.15851754      91.31613937      72.13770719
H      84.48321569      92.70886766      71.39504476
H      83.35504907      89.47554594      71.23630775
H      83.56291898      90.90039958      74.11436091
O      79.03324500      90.12939124      71.29110980
H      79.30158614      89.74577680      69.53933352
C      77.15674678      95.27889544      73.01454021
O      77.32493242      96.80957376      71.29866871
N      75.05726084      94.80646387      74.23152394
H      75.22922594      93.38538968      75.49386112
C      72.66864677      96.24643532      74.03499242
H      72.49290224      97.22909300      72.23219350
C      70.18176695      94.57213780      74.14837600
H      68.52258724      95.76833456      74.40726850
H      70.48601289      93.50255271      75.87936530
C      70.03814775      92.78256698      71.78999756
H      68.70400097      91.33692635      72.40226888
H      71.80315212      91.82258602      71.34213242
C      68.72667768      94.12049321      69.51287734
O      69.01391609      96.43729767      69.19918277
O      67.14119731      92.96776016      68.19006893
C      72.46077689      98.49709935      75.98330025
O      70.55593276      99.68006803      75.95495435
N      74.36562101      99.17362137      77.41760251
H      75.97188838      98.15694862      77.24563742
C      74.46955596     101.08791413      79.46417611
H      73.61917912     102.76977055      78.63269654
H      76.42731242     101.56034571      79.89314398
C      73.13918863     100.28478045      81.92082032
O      73.18643178     101.71152381      83.75952402
N      71.92031515      98.01710887      81.84334154
H      72.03369874      97.06846626      80.19361047
C      70.67309579      97.00799502      84.04865215
H      69.34272847      98.35348015      84.86123446
C      69.23123462      94.64205768      83.26441572
H      68.36385024      93.87860825      84.97083858
H      70.70144169      93.32491844      82.67671085
C      67.26402952      94.73087481      81.17815788
C      66.61585340      92.40651145      79.90259262
H      67.49268641      90.59804337      80.25975089
C      64.79793668      92.63894778      77.88058546
H      64.34251264      90.95520164      76.82044899
C      63.70000570      94.88961182      77.13981275
O      62.00681092      94.83858921      75.18016655
H      61.19422860      96.45241548      75.00253229
C      64.21212153      97.03067174      78.64214517
H      63.14442616      98.73142542      78.28309717
C      66.09239920      97.05523818      80.61123998
H      66.61963284      98.81079392      81.50319081
C      72.67620568      96.45619494      86.05176203
O      74.96655397      96.54879153      85.50752085
N      72.02047065      95.68140715      88.40825075
H      70.19121558      95.80045991      88.94115357
C      73.83838737      94.76488989      90.27719007
H      75.77913629      95.24299064      89.78586123
C      73.63429693      95.99321199      92.84910759
H      74.96844370      95.15606323      94.17380574
H      71.64063567      95.67573797      93.26295765
C      74.21066345      98.80890420      92.60911234
C      72.16975903     100.58713666      92.61289179
H      70.25924572      99.88982765      92.44281642
C      72.56093238     103.14582608      92.53919247
H      71.02458488     104.47808314      92.70737812
C      75.03080467     104.08124061      92.55620000
O      75.26513073     106.60591496      92.64312742
H      73.67020172     107.46385071      92.74328292
C      77.10950362     102.39182529      92.35777874
H      78.94253814     103.28755556      92.32187394
C      76.70132272      99.78211325      92.50139795
H      78.31325928      98.54434251      92.68848085
C      73.78736475      91.84904219      90.80064427
O      71.72756308      90.87205368      91.01229360
N      76.04180824      90.66229406      91.18425870
H      77.64240643      91.65629010      90.87434358
C      76.60872613      88.05447175      91.72283071
H      74.82104505      87.14740312      92.19715200
C      77.66886261      86.87528253      89.25673786
H      78.62884356      85.09893980      89.66491874
C      75.60528147      86.23844476      87.35378346
H      74.07460316      85.17830830      88.23628565
H      76.34605418      85.17263912      85.75696473
H      74.64530051      87.99589023      86.87190326
O      79.43575671      88.33604097      88.03219522
H      80.70754252      88.64028691      89.29075294
C      78.12428664      87.48755385      94.13790094
O      79.61339098      88.99744518      94.94481407
N      77.94854210      85.18775693      95.24717028
H      76.53313709      84.04825197      94.65757566
C      79.50000739      84.21832733      97.39767883
H      81.15162820      85.45042889      97.47137815
C      78.01468252      84.91563634      99.74471891
H      77.76523864      86.95465103      99.91290455
C      75.46355200      83.54558477      99.87699975
H      75.67709106      81.49901117      99.92046344
H      74.32026758      83.96888346      98.21782004
H      74.46010732      84.11061293     101.58342261
C      79.54347110      84.27690885     102.12577405
H      80.29747190      82.36072637     102.07664117
H      78.35483326      84.34871845     103.80763047
C      81.81492214      86.01545706     102.74371455
H      83.58748542      85.56003302     101.80074113
H      82.11349888      86.09293584     104.78083953
H      81.40485152      87.94108817     102.13711241
C      80.15385271      81.40830431      96.97815958
O      78.83104429      80.24423290      95.53440868
N      82.17208041      80.44265416      98.05719330
H      83.43630730      81.61428447      98.87733453
C      82.86560997      77.80648595      97.71326311
H      81.30280631      76.61217892      98.32931390
H      84.44920061      77.20744271      98.88867289
C      83.65362583      76.95610911      95.09032300
O      84.90651439      78.32805042      93.75995567
N      82.71065241      74.76402659      94.26640231
H      81.87161393      73.62830108      95.55141621
C      82.90718394      73.71900794      91.60755740
H      84.54935611      74.66198137      90.79308536
C      83.16040727      70.78804243      91.71716152
H      81.68831047      69.99057792      92.91524800
C      83.25111414      69.46712373      89.05642687
H      83.37961551      67.44889603      89.44948995
H      84.78746163      70.04726971      87.81487669
H      81.54469126      69.42932921      87.90180410
C      85.77956794      70.09640260      92.84910759
H      85.97987893      71.53259459      94.31364548
H      87.21387021      70.34395674      91.39401832
C      86.42396460      67.46968302      93.86389062
H      85.19375278      67.02559734      95.45504017
H      88.34581626      67.51125700      94.60277361
H      86.40884680      65.88231292      92.55242055
C      80.59415893      74.57694368      90.16191677
O      78.88395662      73.05382428      89.93325989
N      80.39195822      77.03925707      89.48350502
H      81.71098719      78.33182987      89.96727495
C      78.46821684      77.73467635      87.68070611
H      78.44931956      76.35517614      86.14813807
H      78.99922993      79.40141496      86.59033404
C      75.71866505      78.26946890      88.77485766
O      73.99334493      79.09716903      87.47661568
N      75.49378762      78.05781955      91.32409846
H      77.03391457      77.73089690      92.40124245
C      72.96533381      78.57749429      92.41824999
H      71.75023979      77.36806945      91.27496557
C      72.93698792      77.67420511      95.09599217
H      74.29003196      78.76835665      96.19959234
H      73.89507916      75.85061922      95.13000725
C      70.47467452      77.46633522      96.31675537
N      69.12918939      75.22134036      96.68525200
H      69.65075386      73.52814558      95.97471491
C      66.85584864      75.90920074      97.74916792
H      65.19666893      74.74134987      97.96459671
N      66.65931710      78.40363947      97.98538371
H      65.12485933      79.44109921      98.43513857
C      68.97045239      79.36173071      97.19547811
H      69.28603668      81.37050978      97.00650548
C      72.03558847      81.53302624      92.30108696
O      73.02769478      83.18842649      93.52940906
N      70.11751625      82.09049550      90.78741618
H      68.97801129      80.72422338      90.09577634
C      68.82305374      84.51501436      90.41136065
H      69.97011760      86.12128173      89.81420712
C      67.02403428      84.11817184      88.20793976
H      65.66532107      82.78591479      88.99784536
H      68.08417075      83.33393542      86.62434910
C      65.23635318      86.25545230      87.47850540
H      64.01181053      86.77890649      89.05075770
C      66.82750275      88.65540472      86.81899093
H      67.97456662      88.19998067      85.16925984
H      67.95944881      89.52467882      88.30431581
H      65.56516557      90.13695015      86.14813807
C      63.44300291      85.20476447      85.53208731
H      64.59195651      84.41863832      84.01274735
H      62.08051024      86.52757289      84.73840225
H      62.56239045      83.69676287      86.62434910
C      67.58339326      85.36539121      92.92280691
O      66.55916160      83.85927933      94.38923453
N      67.57583436      87.84849158      93.41980494
H      68.77581058      88.98610682      92.46549315
C      66.35696090      89.04846779      95.51551141
H      65.76169710      87.78802034      97.02918218
C      68.29582009      90.84937697      96.81564312
H      67.23757335      92.14950867      98.01183987
H      69.04604144      92.05880181      95.33031823
C      70.46333617      89.39617743      98.20648168
H      71.27213903      88.01667722      96.90823970
C      72.59683718      91.23110168      98.96615167
H      72.93887765      92.64461696      97.50728295
H      74.31648813      90.11427343      98.78095849
H      72.21700218      91.90762370     100.87477524
C      69.61106960      88.06958956     100.70469987
H      68.24668721      89.26578632     101.67979865
H      71.32316164      87.57448127     101.73838016
H      68.62274274      86.39151259     100.03195730
C      64.00803108      90.35804812      94.41947015
O      61.94444995      89.51711992      95.17536068
N      64.43510923      92.22320800      92.80753361
H      66.18499579      92.66162450      92.18203419
C      62.39042536      93.84270345      91.82109647
H      60.63675935      92.77689780      91.67180810
C      61.96523695      95.90439485      93.75995567