 %block lattice_cart
   142.669   0.000   0.000
   0.000 146.65   0.000
   0.000   0.000   162.396
 %endblock lattice_cart

 %block positions_abs
N      89.64878257      42.66513543      83.25969141
H      88.17479604      42.32309497      84.42187309
H      91.41756639      42.64623817      83.97211823
H      89.56563461      41.33287838      81.89530901
C      88.99493725      45.19358924      82.27136454
H      89.55618598      46.66190659      83.59984214
C      90.04751481      45.74916878      79.70700594
H      88.73982420      45.19358924      78.21412215
H      91.87110071      44.85721796      79.34984766
C      90.18735456      48.59698633      79.17599284
H      88.32597415      49.34153850      79.64275525
H      90.72781628      48.66879593      77.18989050
S      92.44179805      50.40734414      81.06004998
C      91.62921574      53.41578843      79.90920666
H      92.96903170      54.88032632      80.45722729
H      89.80940929      54.05073647      80.63297183
H      91.45725064      53.38366308      77.85507415
C      86.05263339      45.28240638      82.14475289
O      84.85454691      43.75739724      80.76147323
N      85.03029145      47.21748612      83.54504008
H      86.26239301      48.15101092      84.66753751
C      82.25806296      47.48582726      83.71133599
H      81.47949572      46.44269833      82.11640700
C      81.23194156      46.13656267      86.08105280
H      81.53429777      44.10132743      85.98089730
H      79.18158851      46.31797640      86.09995005
C      82.43191777      47.09654364      88.48289494
O      83.39378847      49.21681656      88.65486003
N      82.20326088      45.75105850      90.55781443
H      83.02718157      46.38978600      92.15463316
H      81.48516489      43.99172331      90.37829043
C      81.62878409      50.36010098      83.77180725
O      83.41268572      51.87377176      83.36362635
N      79.38756868      51.05552026      84.41998336
H      78.00050956      49.75160911      84.55037448
C      78.46349252      53.71814464      84.30093061
H      79.07576385      54.46458653      82.48112416
C      75.63268250      53.99971386      84.51824914
H      74.68592961      52.88099588      83.07260851
C      74.62356865      52.86965752      87.07315911
H      75.11489749      50.88922435      87.35283861
H      72.56943614      52.99626919      87.16386597
H      75.20938380      54.05262620      88.65674977
C      74.60278166      56.65666906      84.07038400
H      75.43993041      57.77349731      85.58594451
H      72.55620806      56.67178687      84.31793814
C      75.34733382      57.84341718      81.54759938
H      77.38256907      57.98136720      81.27169933
H      74.68215016      59.77660720      81.79515351
H      74.33255080      56.85886977      80.04904640
C      79.80330847      55.19213116      86.43443161
O      80.45715377      57.31807326      86.10750896
N      80.11133387      54.01105222      88.62084497
H      79.36300224      52.26494510      88.80603813
C      81.39067858      55.03906333      90.75812543
H      80.61211134      56.88154649      91.24945426
C      80.92769563      53.10020413      92.92375177
H      82.05775196      53.84097685      94.47710681
H      81.92169166      51.34842784      92.48533527
C      78.13656987      52.90367260      93.88751219
C      76.41313947      51.16512439      92.82737574
H      76.96871900      50.01995024      91.23244673
C      73.95460554      50.91001134      93.93853481
H      72.57132588      49.65523307      93.11083469
C      73.28564242      52.24793757      96.16274268
H      71.43749009      52.08920056      97.01500925
C      75.00718309      54.02805975      97.00556061
H      74.56120767      55.22614624      98.59859989
C      77.46760675      54.32096733      96.10605089
H      78.81876106      55.50393600      97.07737022
C      84.21392969      55.38677297      90.35939317
O      85.35154493      56.71714030      92.08849274
N      85.46492850      54.41545365      88.40919562
H      84.39534342      53.09642468      87.53992150
C      88.08975835      55.08441676      87.61929002
H      88.95714273      56.03116965      89.22933683
C      89.71870244      52.67312599      87.05615158
H      91.53661915      53.20035963      86.24923843
H      88.75494202      51.62432788      85.56704724
C      90.14956004      50.70214144      89.08760736
H      88.51683650      50.26372494      90.26301713
H      91.49504518      51.68290940      90.30270137
C      91.13599717      48.35699109      88.07093461
O      89.71303325      46.44269833      88.02558117
O      93.38666120      48.20959244      87.21110914
C      88.24471592      56.90233348      85.22689650
O      89.90767507      58.58796935      85.38185406
N      86.54018278      56.71903002      83.41842843
H      85.16446203      55.42078805      83.67165175
C      86.50616770      58.44057069      81.16587465
H      88.24849536      58.08908160      80.12463546
C      84.26873174      57.70168771      79.42354699
H      82.53585273      58.04183844      80.48557318
H      84.45581466      55.67212165      79.13252914
C      84.09865638      59.10764408      76.99902814
H      85.67090867      58.52371865      75.80472110
H      84.10243583      61.15610741      77.20122885
S      81.24894911      58.13254531      75.42110666
C      82.35065955      59.24937356      72.37486784
H      80.99950523      58.69190429      70.92355803
H      84.04952349      58.34230493      71.63976431
H      82.70781781      61.27327044      72.48258225
C      86.23782657      61.13721014      82.05404603
O      87.39811853      62.74536724      80.83328282
N      84.86777499      61.70601776      84.04392784
H      83.99472144      60.48903402      85.22689650
C      84.42368931      64.29872226      84.77714163
H      84.08920775      65.24547515      82.97812219
C      81.88011769      64.20423595      86.23412063
H      81.76673411      65.82751085      87.49645781
H      81.94436838      62.53560761      87.44354546
C      79.60677693      63.67322286      84.25179773
H      79.80708792      61.97435890      83.10473385
C      77.30886974      63.32929267      86.14341377
H      76.81376145      65.01114908      87.22055776
H      77.48650402      61.71924585      87.41519958
H      75.66291813      62.76804395      85.04170333
C      79.00773370      66.05994719      82.55293376
H      79.83732355      67.65487620      83.56015790
H      77.02919024      66.55505548      82.27892345
H      80.23227635      66.15065405      80.89942324
C      86.72537596      65.61586150      86.20199528
O      86.93324585      67.92510706      86.14152404
N      88.56785912      64.21935376      87.35850779
H      88.39589402      62.32017882      87.29047764
C      90.91300946      65.12075321      88.66052921
H      90.51049776      66.64009317      89.99089654
C      92.31140694      62.89843507      89.87562323
H      94.14066200      63.56172900      90.55403497
H      92.65155767      61.56050884      88.34683465
C      90.75238272      61.88176231      91.99400642
H      89.28028593      60.59863814      91.33449194
H      89.95491823      63.41244062      93.11650386
C      92.32274530      60.25092850      93.75712108
H      93.79106265      61.44145608      94.57537258
H      93.26760845      58.69379402      92.79147093
N      91.02072387      59.09819545      95.88306318
H      90.88844302      57.19524105      95.95676251
C      89.58075242      60.11864766      97.63483947
N      89.35398525      62.62631448      97.81625320
H      88.01038984      63.31039540      98.98599379
H      90.62955052      63.85274685      97.09815720
N      88.32975359      58.86953857      99.26189383
H      87.36788290      59.99581545     100.46564949
H      88.55274131      56.97414308      99.27134247
C      92.74793371      66.38498011      86.78214125
O      94.29184012      67.94778378      87.56070850
N      92.73848509      65.65554576      84.34817376
H      91.51772188      64.21179485      84.08172235
C      94.34853190      66.58907056      82.21467275
H      95.72992183      67.91565843      82.97056328
C      95.72992183      64.21179485      80.98824038
H      97.26437960      64.81650727      79.75424910
C      97.19634945      62.95323713      83.26158114
H      95.92267392      61.89688012      84.48801352
H      98.20357358      64.46501818      84.23101073
H      98.71568942      61.74570202      82.56616186
C      94.10853667      62.16522126      79.52370249
H      93.08430499      63.00614947      77.94956047
H      92.82352277      61.03327520      80.66698691
C      95.70724512      60.28494358      78.21412215
H      97.07729670      60.93500943      76.81761441
H      94.34097299      58.95646598      77.43177547
H      96.89210353      59.32874206      79.60118126
C      92.82163304      67.89676116      80.15298135
O      93.82507771      69.57861758      79.05316063
N      90.39711418      67.39787342      79.69566758
H      89.80940929      65.68767110      80.30982864
C      88.84753861      68.89453666      77.94767074
H      89.91145453      69.31405590      76.23179925
C      86.55152114      67.45456521      77.13130897
H      85.29296342      67.25425422      78.75080442
H      86.93702530      65.52326492      76.53415546
C      85.10021133      68.54871674      74.94111618
O      86.20570123      68.68477704      72.86430696
O      82.77017879      68.90587502      75.28126692
C      87.78551241      71.43999800      78.90198254
O      87.35087537      73.16720785      77.49980560
N      87.15056437      71.61007337      81.41909798
H      87.66079049      69.99813682      82.30537963
C      86.68002252      74.12907855      82.76080366
H      86.86143626      75.60495480      81.33406030
C      83.93425020      74.15742444      83.55448872
H      83.89078649      72.51525227      84.79603891
H      82.50372738      73.69822095      82.14664262
C      83.28229462      76.56682549      85.12107183
H      84.84698800      77.07516187      86.36073230
H      81.50595189      76.11896035      86.06404525
C      82.67002329      78.86473269      83.71511546
O      80.32109349      78.99134435      83.09528522
O      84.23849613      80.40296990      82.92143040
C      88.62455091      74.66198137      84.93020947
O      89.98137439      76.54036932      84.87729713
N      88.95525301      72.94988933      86.75379537
H      87.87999873      71.37196785      86.75757481
C      90.58419708      73.32783459      88.89674500
H      92.37376790      74.22545459      88.40352644
H      91.26827801      71.56283021      89.70554786
C      89.38611060      74.69410671      91.08315835
O      87.13733630      75.24401707      90.90930352
N      90.83931014      74.90008688      93.15996757
H      92.68557275      74.49190600      92.89162642
C      90.03617646      76.06226856      95.42574941
H      87.99338231      76.31738162      95.37850626
C      90.94513481      74.28214638      97.47610246
H      92.97281115      74.11396073      97.14540035
H      90.12310386      72.40186869      97.28712984
C      90.81663342      75.10228760     100.30502275
H      91.87865962      76.85028444     100.54123854
C      88.15211933      75.42165134     101.27067290
H      88.22581865      76.25502065     103.15284030
H      87.24127123      73.58105791     101.42563046
H      87.19024863      76.67642961      99.94975421
C      92.10164732      73.10673661     101.88105450
H      91.48937599      71.19055413     101.44263799
H      91.66512053      73.50924831     103.85392876
H      94.13688255      73.21634074     101.58625720
C      91.08497457      78.72867239      95.63739877
O      93.32618996      79.13874300      95.38984462
N      89.56563461      80.26879934      96.88839757
H      87.86110147      79.56015197      97.37216752
C      90.47081350      82.73489217      97.98443884
H      92.49848984      82.63662641      98.33214849
C      89.72815106      84.68697946      96.05124883
H      89.57886268      86.33104135      97.28146066
H      87.91023436      84.39407188      95.12717265
C      91.54795750      85.33704531      93.85916631
H      92.61754261      83.60794573      93.52468475
H      92.86698648      86.84504691      94.33915679
C      90.50860804      86.14017899      91.35149949
H      92.16967747      86.37261533      90.15908217
H      89.31619073      87.78802034      91.68220159
N      88.81730298      84.31848282      90.14585410
H      88.16912686      82.76701752      91.05292273
C      87.98771314      84.18053280      87.83093936
N      88.38077620      85.86238922      86.00735346
H      87.66079049      85.47121588      84.28014362
H      89.42579485      87.44597987      86.21333363
N      86.60443348      82.30025512      87.15630706
H      85.77484362      81.96955302      85.46878148
H      86.09231765      81.09838919      88.54714563
C      89.29540374      83.19787512     100.71887281
O      87.03151161      82.72166409     100.80768996
N      90.56152037      84.20509925     102.59726077
H      92.19802336      85.11405760     102.22120523
C      89.58831133      84.56036779     105.20697280
H      88.09353781      83.21866211     105.66050712
C      91.63110546      83.82337453     107.04000733
H      90.87710466      83.93864784     108.95430008
H      93.31107216      85.00634320     106.90205731
C      92.44557750      80.92831382     106.99276418
H      90.67490395      79.93431778     106.65072371
C      94.20491270      80.20265892     104.90839605
H      94.85875800      78.26190999     105.12949403
H      95.82251842      81.47255500     105.02177964
H      93.17879132      80.55225828     103.15850948
C      93.55484685      80.37651374     109.54200497
H      92.13755212      80.80737134     110.97252780
H      95.21591628      81.59538721     109.61381457
H      94.01405034      78.36962439     109.61003512
C      88.49415978      87.20976408     106.05168047
O      87.48315621      87.35905246     108.16250476
N      88.60565364      89.08248286     104.44919255
H      89.41634623      88.75744993     102.75221833
C      87.27150686      91.44653048     104.49076653
H      86.13956079      91.25188867     106.20096885
C      89.21036606      93.59703902     104.90839605
H      90.98292933      93.40239721     103.88038493
H      89.85854219      93.39861776     106.85292442
C      88.06897137      96.23320723     104.52856107
H      86.38522522      96.22375860     105.71530918
H      87.43591305      96.19730243     102.57080460
C      90.00216138      98.14938971     105.37326873
H      91.76338631      97.67884786     104.40950831
H      90.39522446      97.76577527     107.35937108
C      89.28595512     101.08035522     105.07469196
H      87.76661516     101.32790937     106.44285381
H      88.49793923     101.37893198     103.19441428
N      91.37410268     102.82646233     105.29956939
H      90.73915465     104.62359206     105.36759955
H      92.65722686     102.65260751     103.89739248
H      92.32841447     102.67528423     106.94930048
C      85.41390589      91.58637022     102.23821277
O      85.92791145      90.50733650     100.18030081
N      83.40701656      93.18696841     102.39128061
H      83.24638981      94.08836786     104.06746784
C      81.39823749      93.80301919     100.45620086
H      80.49872776      92.04368399      99.87416516
C      79.17402960      95.37149203     101.57113938
H      80.04519344      96.94374432     102.58025324
C      77.30320055      96.41840041      99.51133771
H      76.41313947      94.78945633      98.61938688
H      78.41435964      97.41617590      98.09026352
H      75.92559008      97.75065746     100.26722822
C      77.63390266      93.77089384     103.47787324
H      78.92836518      93.36838214     105.02744880
H      76.90257858      92.16273675     102.42151623
C      75.34922356      95.19007830     104.56257614
H      73.82610414      95.43574272     103.19630401
H      75.93503871      97.09303270     105.09925841
H      74.62167892      94.12049321     106.16317432
C      82.71915617      95.03890020      98.15073476
O      84.41613040      96.65839565      98.48143686
N      82.00294991      94.15639801      95.93408580
H      80.78974561      92.68619094      96.06825636
C      82.49049928      95.15606323      93.32059431
H      82.99316648      97.14783476      93.49255940
C      84.74683250      93.55735477      92.44565101
H      86.24349574      93.83325481      93.83271013
H      85.39500864      94.16017746      90.58616032
C      84.24038585      90.68119132      92.12439754
C      83.71315222      89.80624804      89.72633486
H      83.98527280      90.98354753      88.08038323
C      82.87978291      87.34582438      89.50145742
H      82.55852943      86.60694139      87.62873864
C      82.40546160      85.73577756      91.56503856
O      81.45303954      83.33393542      91.33827139
H      80.74061273      82.91441617      89.72444513
C      83.07253500      86.54835987      93.97821905
H      82.77584796      85.38806792      95.63172959
C      84.05330295      89.02768080      94.17664032
H      84.49360918      89.73254871      96.03991047
C      80.30597568      95.23543173      91.58015636
O      78.36522675      94.16584664      92.35683389
N      80.59321407      96.16517708      89.25957245
H      82.34499037      96.80012512      88.83438403
C      78.48805896      96.60926276      87.40575094
H      76.73439293      96.10848529      88.36384218
C      78.28396851      99.46463922      86.73867755
H      76.41880865      99.58369198      85.87507263
H      79.83732355     100.26021400      85.64641574
C      78.18381303     101.04634015      89.25201354
H      80.01684754     101.06901686      90.19498697
H      76.88557105     100.25643455      90.64474184
C      77.57343142     103.85825290      88.66997785
H      77.35611289     105.04689075      90.33671646
H      75.70638182     104.05100499      87.81960100
C      79.51795979     105.05067020      86.92387073
H      79.30064128     104.15116048      85.08327730
H      81.36989159     104.49509067      87.63629755
N      79.39512759     107.79077336      86.55537410
H      80.59888324     108.50508990      85.25713212
H      79.37434060     108.83012283      88.15597229
H      77.81720612     108.24619740      85.58216504
C      78.59010417      94.87827346      85.22122733
O      80.60266271      93.89750551      84.59950736
N      76.40369083      94.37371654      84.02125111
H      74.90702759      95.33558723      84.70911150
C      76.05409146      92.72776492      81.84617612
H      77.59043895      91.35582361      81.82538913
C      73.56154247      91.32369827      82.07483301
H      72.04031277      92.58981490      81.50224594
H      73.38201846      90.43741663      83.92676479
C      73.48217396      89.32058838      80.06416422
O      72.66203273      89.79868913      77.94767074
O      74.80120293      87.34960383      80.41943276
C      76.22416684      94.43796723      79.39898055
O      75.41158452      96.67540319      79.56716619
N      76.93470393      93.34381570      77.22957474
H      77.35611289      91.48243528      77.20122885
C      77.16902999      94.87449401      74.80127644
H      78.12334178      96.67729291      75.10552236
C      78.77151790      93.62727464      72.64320899
H      78.57309664      94.58914534      70.83285118
C      81.41146556      92.81280260      73.28193647
H      82.60010342      94.44930559      72.90021176
H      81.94436838      91.33314690      71.95156916
H      81.45681899      92.35548883      75.29071554
O      77.66980746      91.26700648      72.29738907
H      78.45782334      90.47899061      70.86497653
C      74.53097206      95.64928180      73.69956600
O      74.42325765      96.84925801      71.75314789
N      72.40125051      94.81591249      74.87308604
H      72.59400258      93.55546504      76.29038076
C      69.83878162      95.84770306      74.44033871
H      69.84634053      96.93618542      72.69423160
C      67.96606285      93.56113422      74.20412291
H      66.01208583      94.04112471      74.63498051
H      68.53676019      92.09848606      75.54015942
C      68.08322587      92.36493747      71.59063142
H      67.05521477      90.58481528      71.74369925
H      70.01830563      92.01533810      70.98024983
C      66.73774074      94.00899936      69.67444894
O      66.73585102      96.43540794      69.68200785
O      65.53020563      93.13405607      67.88676786
C      68.85801367      97.84514377      76.36596982
O      66.79821198      98.87882407      76.13542322
N      70.54931871      98.43095893      78.14420229
H      72.21794705      97.53522866      77.90042759
C      70.38491253     100.43217910      80.10573820
H      69.86712751     102.26710335      79.32528122
H      72.34833817     100.73642503      80.65186909
C      68.74840955      99.61203788      82.23923921
O      66.96828736     100.94618465      82.90253313
N      69.38902676      97.41617590      83.34472910
H      70.74585025      96.37115725      82.50191116
C      68.37802319      96.52044563      85.67287192
H      67.23284904      97.90750474      86.67820631
C      66.64514415      94.16017746      85.15508691
H      65.42249123      93.95986647      86.80103852
H      67.94338613      92.56335873      85.16642527
C      65.02375897      93.98443292      82.77592148
C      64.94628019      91.80746820      81.42854662
H      65.90626116      90.04624328      81.81216106
C      63.33056421      91.70731271      79.28559698
H      63.25119569      89.97443368      78.20845298
C      62.22696404      93.97309456      78.42010233
O      60.78699259      94.06758087      76.32061638
H      60.25031032      95.79479072      76.17132802
C      62.27987638      96.20864079      79.92432446
H      61.54288311      98.04356504      79.41976754
C      63.62725124      96.17840517      82.25057755
H      63.85212867      97.86215131      83.38441334
C      70.29987485      95.76266538      87.67220235
O      72.47494983      95.21464475      86.98434197
N      69.77075147      95.65684070      90.11372875
H      68.08133616      96.18596407      90.82426584
C      71.54331476      94.94441388      92.21132495
H      73.33666503      95.76455510      91.61417144
C      70.97828659      96.30501683      94.68686643
H      72.23117514      95.50566260      96.11360980
H      68.99974314      95.89494622      95.08748841
C      71.50552024      99.18495973      94.63395408
C      69.44760827     100.88760314      94.57348285
H      67.49930045     100.28100099      94.48277599
C      69.93326794     103.50487408      94.38073076
H      68.49707595     104.95240444      94.26545746
C      72.44093476     104.28533105      94.45820955
O      73.04564717     106.88937391      94.39206912
H      71.47906406     107.77754527      94.16341223
C      74.46861109     102.53544448      94.57159312
H      76.33566068     103.33479871      94.35805405
C      74.09633500     100.01643931      94.64340273
H      75.56843180      98.62938019      94.35049514
C      71.97039291      91.99644083      92.51935034
O      70.15814538      90.58292555      92.57982159
N      74.15869598      91.32180854      93.28091004
H      75.66291813      92.49721831      93.25067442
C      74.84466663      88.72343486      93.63428887
H      73.08911088      87.81636623      94.21254513
C      76.09944490      87.65196004      91.29102824
H      77.47705538      86.26490093      91.93731463
C      74.45727274      85.96821390      89.56192866
H      73.34989311      84.65674383      90.70332335
H      75.65346948      84.93642333      88.24100997
H      73.05698553      87.04913735      88.50746138
O      77.61878486      89.45286922      89.92097666
H      78.20082056      90.52056458      91.26835152
C      76.78163610      88.33604097      95.92463716
O      77.92303079      90.12372206      96.75044755
N      76.99328544      86.04380295      96.89028731
H      75.61378523      84.84193701      96.35171530
C      78.67514187      85.11594733      98.97654515
H      80.51006612      86.02679541      98.77245471
C      77.16902999      85.65640905     101.64483870
H      76.80053337      87.67841621     101.52578596
C      74.65758372      84.22588624     101.89428258
H      75.20749407      82.29458594     102.34781689
H      73.63524179      84.10305403     100.11038095
H      73.33477530      85.02901992     103.25299580
C      78.61656035      85.33137613     104.13927745
H      79.49717280      83.46999571     104.16006443
H      77.36556153      85.97388307     105.64349959
C      80.82565041      87.17196956     104.39250076
H      81.44737037      87.23055107     106.35592641
H      79.98283248      88.99744518     103.93896645
H      82.25995267      86.74678114     102.97709577
C      79.10222000      82.27568868      98.73466018
O      77.81153693      81.03413849      97.33437299
N      80.93903399      81.28358237     100.21242616
H      82.09554648      82.53647091     101.07036191
C      81.97460401      78.77024637     100.48265702
H      80.93147508      77.47578385     101.69586132
H      83.79441045      79.16897862     101.36137976
C      82.63222877      77.65341812      97.77656894
O      83.92858101      78.86095323      96.35738448
N      81.60421765      75.52936574      96.90729484
H      80.35510855      74.79804166      98.15262449
C      81.80452863      74.37852242      94.24278075
H      83.23505145      75.17787665      92.99367164
C      82.31475474      71.41921101      94.31081088
H      80.54786064      70.53859855      94.89662605
C      83.11410897      70.37608209      91.70109885
H      85.03785035      71.06583219      91.44976526
H      81.76484439      71.24157674      90.41041578
H      83.21615420      68.32383931      91.55747965
C      84.53707288      70.92032327      96.07581527
H      83.93236046      71.68377270      97.88995252
H      86.09609710      72.03337206      95.31992474
C      85.29674286      68.16132285      96.47643724
H      86.42679920      67.71345771      94.81347808
H      83.60354808      66.99914117      96.62950507
H      86.51939579      67.89109199      98.11482996
C      79.30253100      75.18921501      93.01634836
O      77.41091496      74.01569497      93.65129640
N      79.32709744      77.26035505      91.57070773
H      81.10532990      77.73089690      91.06048164
C      77.22761150      78.09372435      90.02869107
H      76.72494431      76.57060494      88.73989771
H      77.92303079      79.50534991      88.69643401
C      74.62167892      78.99134435      91.13040150
O      72.81321084      79.02346970      89.60728210
N      74.49884672      79.06693340      93.53980255
H      76.01062777      78.62095799      94.61505682
C      72.06487922      79.50723963      94.80402946
H      70.60790023      78.27135862      94.03491084
C      72.35778680      78.93087311      97.70853879
H      73.39146709      80.37651374      98.74977800
H      73.31587803      77.11484612      97.88239362
C      69.80476655      78.75701829      98.92741227
N      68.21172727      76.66509126      99.07292119
H      68.63502596      74.89252798      98.50600330
C      66.17082285      77.33216465     100.50533375
H      64.78943291      75.86195757     100.81713858
N      66.38436193      79.69054308     101.22909893
H      65.12013502      80.77524599     102.15695455
C      68.47061978      80.66186241     100.10093231
H      69.31532744      82.50056611     100.36549399
C      70.67970984      82.03947289      94.32781843
O      71.32788595      83.98400127      95.48055147
N      68.72006365      82.11884140      92.74989695
H      68.07377725      80.57115555      91.83715915
C      67.15537026      84.39218215      92.43809212
H      68.41581770      85.90585293      91.83715915
C      65.02753843      83.93864784      90.60505758
H      63.62158205      82.88796001      91.68409132
H      65.55477208      82.70843601      89.04036421
C      63.66693549      86.17419406      89.41830946
H      62.12491882      85.51467958      88.22400244
C      62.41782639      88.19620122      91.07937890
H      60.80211039      87.30991958      91.99967560
H      61.42572008      89.61160623      89.95877119
H      63.78031907      88.96531983      92.41730512
C      65.58311796      87.71432101      87.93298458
H      66.54687838      86.31025436      86.77647208
H      67.01175105      88.74800130      88.99690050
H      64.62880617      88.99933490      86.63852205
C      65.94027623      85.18586720      94.98733291
O      64.65715207      83.71566013      96.22699337
N      66.62057771      87.44597987      95.75834124
H      67.87346625      88.37572522      94.66041026
C      65.70217073      88.93508421      97.80302511
H      65.27509258      87.58392989      99.29779862
C      67.87913543      90.54891048      98.81213897
H      67.00230243      91.99077166      99.99510763
H      68.84667530      91.34448526      97.17941543
C      69.77831038      89.24121987     100.59226116
H      70.68537901      87.65762922      99.63605963
C      71.79464835      91.06858521     101.24799619
H      72.70549644      92.11927304      99.73054595
H      73.13446432      89.96120560     102.35537580
H      70.96694823      92.65406559     102.26655867
C      68.48762730      88.27934918     102.98087521
H      67.61646348      89.82325557     104.03156304
H      69.57799940      87.38550863     104.48320763
H      67.08545039      86.79402429     102.71064435
C      63.26064433      90.38072484      97.37972643
O      61.28210087      89.32058838      97.89940115
N      63.47796286      92.73721355      96.35360504
H      65.18816517      93.47609654      95.93786524
C      61.31044678      94.05435279      95.26134323
H      59.68906159      92.82036151      94.95331783
C      60.15771373      95.93840992      97.30035791