 %block lattice_cart
   142.669   0.000   0.000
   0.000 146.65   0.000
   0.000   0.000   162.396
 %endblock lattice_cart

 %block positions_abs
N      96.18912533      39.60472368      81.02131059
H      97.79917215      39.86739563      80.02920428
H      95.26693889      38.14207551      80.21061801
H      96.38754660      39.41386132      82.90914718
C      94.77183060      41.98010965      80.64336533
H      95.73748074      43.55047222      81.56366205
C      94.47514357      42.81536868      77.87302656
H      92.90100155      41.83271100      76.97162710
H      96.21558150      42.50923302      76.81477982
C      93.75137839      45.66696569      77.63681077
H      91.87865961      45.87294586      78.47018007
H      93.65311262      46.20175823      75.64881869
S      95.78283418      47.72487764      79.67393573
C      94.98159022      50.82024934      78.22829510
H      95.20646765      50.82780825      76.17983178
H      96.03794723      52.39628109      79.02764933
H      93.00871595      51.15851035      78.70828559
C      92.09597814      41.80247538      81.67326617
O      91.04906976      39.85794700      82.05310116
N      91.31552117      43.90952022      82.71828482
H      92.28495077      45.54413348      82.53120192
C      88.90045094      44.04747024      84.21116861
H      87.44536168      43.01378994      83.18504722
C      89.33130854      43.36527904      86.90213888
H      90.88466357      44.37061344      87.80731778
H      89.83586547      41.37161778      86.77741694
C      87.03340135      43.66574552      88.58777475
O      86.45514510      45.64239925      89.48161530
N      85.26839697      41.89696169      88.34400006
H      83.63378371      41.96877129      89.32854747
H      85.86744021      40.18675938      87.74873627
C      87.37166236      46.54001924      84.00329872
O      88.49227006      48.59604147      84.04109324
N      84.82620101      46.44364320      84.20549943
H      83.98527280      44.75800733      84.50785564
C      83.17835967      48.78123465      83.87290760
H      83.74527756      49.67318547      82.10412377
C      80.29652704      47.96676261      83.76708293
H      80.03385508      46.46254047      82.38569299
C      79.44615020      46.70631516      86.26908056
H      80.72549491      45.20398274      86.86245463
H      77.57532115      45.86160750      86.08766684
H      79.25339812      47.97243179      87.88290684
C      78.50128704      50.12671979      83.20961366
H      78.65246515      51.68385427      84.54942962
H      76.62100936      49.28957103      83.17559859
C      78.83954805      51.44007957      80.68682904
H      78.39546237      50.14939650      79.14481236
H      80.71604628      52.28289751      80.59801190
H      77.77374241      53.20130450      80.59801190
C      83.52795904      50.73899111      85.87601749
O      83.68858577      52.96697843      85.22595164
N      83.95125773      50.29301570      88.27974936
H      84.08920775      48.46187090      88.79942410
C      84.20070160      52.21297764      90.36789694
H      82.54719108      53.41673330      90.14490923
C      84.06086186      50.83725688      92.77162881
H      85.12288804      51.95408513      94.13601121
H      85.20414628      49.14595183      92.50706712
C      81.42280392      50.24955200      93.68247689
C      80.06031125      48.06691810      92.95682199
H      80.96171070      46.57592404      91.89290607
C      77.58665951      47.60582488      93.79208102
H      76.75706966      45.90885066      93.01918295
C      76.46038263      49.41807242      95.24906000
H      74.54420014      49.07792168      95.85755188
C      77.84366229      51.48543301      96.13156219
H      76.83832789      52.87627157      97.23705209
C      80.35132910      51.89739334      95.38889975
H      81.27729500      53.63216210      95.93503066
C      86.82742118      53.57547031      90.27907980
O      87.14300547      55.66739734      91.32031900
N      88.65100707      52.26211052      89.00918372
H      88.29762825      50.56702602      88.20793976
C      91.27016774      53.15595107      88.48006035
H      91.82763700      54.43340605      89.99751058
C      92.84808921      50.76733701      88.15691715
H      94.69246209      51.54779397      87.67881639
H      92.38888572      49.46531558      86.62812856
C      93.19201940      49.30279911      90.61734081
H      94.82852239      48.05369002      90.54364148
H      91.61220820      48.02723385      90.95749155
C      93.43768382      51.07158294      92.97382952
O      94.94568542      52.81580033      92.95115281
O      92.12432403      50.73143221      94.95048325
C      91.38544105      55.03433902      86.37112579
O      92.73470563      56.98075712      86.46561210
N      89.97759494      54.42773687      84.24329396
H      88.66801461      53.03878803      84.32077274
C      90.02483810      56.08691658      82.06443952
H      91.94480003      56.42139813      81.39169695
C      88.24660564      54.95308079      79.93282824
H      86.25483411      55.15339178      80.41848790
H      88.51683650      52.93107363      79.64370011
C      88.61699200      55.97542272      77.15871001
H      90.56152037      55.45763772      76.72596268
H      88.40912210      58.02199632      77.26831414
S      86.78206775      54.52033346      74.68505827
C      83.69236523      56.07557822      74.61702812
H      83.96448581      57.65538942      73.32256559
H      83.22182337      56.85981464      76.46329073
H      82.20515062      54.82079995      73.94239583
C      88.83808998      58.65883409      82.60112179
O      89.75460724      60.48997889      81.51074971
N      87.11465958      58.89504988      84.49084810
H      86.53451360      57.38893801      85.50941059
C      85.96570598      61.50287219      84.76296869
H      85.68791621      62.26443189      82.87135265
C      83.37489120      61.48586465      86.08199766
H      82.60199314      63.38314987      86.31632372
H      83.74716729      60.53533232      87.86967875
C      81.54374641      59.71330137      84.73462280
H      82.25995268      57.78767026      84.87824200
C      79.01340287      59.80211851      86.03475450
H      79.19103715      58.99520537      87.92259109
H      77.55075471      58.77599712      85.01241257
H      78.34255003      61.75231606      86.05554149
C      81.35288405      60.41438983      81.90192306
H      83.01584321      59.68117602      80.93249346
H      81.16013197      62.43450726      81.55232369
H      79.89968452      59.22386226      81.06099485
C      87.87432956      63.35102452      86.11979219
O      87.77795351      65.62436528      85.61523526
N      89.61287776      62.33246204      87.59755816
H      89.22359414      60.48241998      87.85834039
C      91.71992260      63.59290949      88.88635151
H      91.02261359      65.39003922      89.61200641
C      92.52305629      61.68806537      90.79497508
H      94.18034626      62.40616137      91.78708140
H      93.08052555      59.97786306      89.79342014
C      90.61821216      60.91138785      92.75840072
H      88.79651600      60.62414945      91.84377319
H      90.38010665      62.48364015      94.06609133
C      91.41567667      58.40939022      94.22671807
H      93.22792420      58.79678411      95.12622779
H      91.61031848      57.04311809      92.69792948
N      89.76783532      57.41728390      96.13534165
H      88.63399953      56.02833506      95.47393744
C      89.49382501      58.33002171      98.40868240
N      90.68057313      60.36714668      99.20047772
H      90.57096900      60.70918714     101.07319650
H      91.65000273      61.38759889      97.90790493
N      88.01416930      57.33602567     100.03384703
H      87.70614391      58.24309430     101.68357810
H      87.00505545      55.82991380      99.43669351
C      93.87043115      64.36013838      86.92292587
O      95.69401704      65.72452077      87.57110199
N      93.58697220      63.69495471      84.46628166
H      92.15455966      62.49308878      84.08077749
C      95.11576079      64.80611379      82.32144230
H      96.25526575      66.42371951      82.89591910
C      97.10564260      62.83512924      81.30854899
H      98.17711741      63.50598208      79.68149464
C      99.15977510      62.48175042      83.27008491
H     100.96635345      61.80333867      82.55009918
H      98.45679691      61.05122760      84.57399606
H      99.53583063      64.18628355      84.36612617
C      95.76393691      60.27077063      80.58289409
H      94.08585995      60.69406933      79.46606584
H      95.40677864      59.10858895      82.24396352
C      97.70279611      58.69095944      79.13725346
H      99.43945459      58.58513476      80.24274335
H      98.12420508      59.67172739      77.37413881
H      97.12076041      56.71997489      79.01253152
C      93.66445098      65.93805985      80.11991114
O      94.78505868      67.03032166      78.51553350
N      91.17190197      65.77554338      80.07266798
H      90.36498884      64.73619391      81.45594765
C      89.64122366      66.83379012      78.14703687
H      90.83175124      67.32700869      76.54076951
C      87.40945688      64.94217408      77.40437443
H      85.99405187      64.80800351      78.89536849
H      88.27117208      63.08079366      77.20217372
C      86.31908480      65.78310229      74.94584050
O      87.77417406      65.60546802      73.01454021
O      84.04196459      66.40293252      74.93261241
C      88.50171869      69.47751723      78.88780959
O      88.18802412      71.14992502      77.33634428
N      88.07653027      69.84034468      81.32366680
H      88.15400905      68.37391706      82.54065055
C      87.28284522      72.24785601      82.43104642
H      87.33008838      73.86357200      81.15548116
C      84.68636127      71.69794565      83.53653632
H      84.83942910      70.16726734      84.90847762
H      83.42024464      70.92882704      82.10601350
C      83.42213436      73.98262476      84.80832212
H      84.71659689      74.75930228      86.21049905
H      81.89145605      73.15681436      85.91192229
C      82.31475474      75.86668190      82.82977868
O      80.03952426      76.24462716      83.12646571
O      83.61677617      76.92303890      81.12335581
C      89.23115305      73.02642325      84.57399606
O      89.90578534      75.28086674      84.79320431
N      90.19113402      71.30866203      86.18026343
H      89.45036130      69.56255492      85.96861408
C      92.03928635      71.72062236      88.29297745
H      93.65311262      72.77131019      87.56165336
H      92.80462551      69.88191866      88.81643163
C      90.91111974      72.84123007      90.71749631
O      88.84942833      73.89380762      90.79875454
N      92.31140694      72.41604165      92.80942333
H      93.93090239      71.41826615      92.63934797
C      91.92023359      73.39114043      95.24717028
H      89.88877781      73.72184253      95.22638329
C      93.02005431      71.62424632      97.32208977
H      95.01749502      71.31055175      96.92524724
H      92.07708088      69.80255016      97.12933769
C      92.60053507      72.03242721     100.23793747
H      93.49815506      73.71239390     101.01839444
C      89.69791545      71.97006624     100.77461974
H      89.00816534      70.19183378      99.99605250
H      88.64344817      73.50452400      99.89400728
H      89.31241128      72.15903887     102.78906799
C      93.55295713      69.59279054     101.39822943
H      92.48904121      68.07534031     100.49682998
H      93.24682146      69.57011382     103.43535439
H      95.58252319      69.28665487     101.22059515
C      92.95013443      76.02919836      95.55519567
O      94.96836214      76.58855735      94.62167087
N      91.42134585      77.63735545      96.78351777
H      89.63177503      76.99484850      96.94603423
C      91.99015347      80.28675174      97.74916792
H      94.00649144      80.69493263      97.80774943
C      90.89789166      82.25773629      95.91046421
H      91.16812252      84.16447014      96.64178830
H      88.90800985      82.08766092      95.40968674
C      92.33219393      82.26529519      93.33098780
H      92.25093570      80.41147368      92.43525752
H      94.34097300      82.62812264      93.60499811
C      91.20402732      84.32131742      91.51496081
H      92.82730222      84.74083666      90.32065378
H      90.59175599      86.03529919      92.48250068
N      89.40878732      82.92858913      89.85011193
H      88.80596463      81.19382037      90.37356612
C      88.53384404      83.58432416      87.60700679
N      89.14611536      85.62900803      86.42592785
H      88.28440017      85.94648205      84.75352006
H      90.64466833      86.69670340      86.93804368
N      87.10143149      81.85900403      86.53931143
H      86.81041364      81.87223212      84.65336457
H      86.55152114      80.28108256      87.46149787
C      90.91489919      80.53997507     100.42313065
O      88.53384404      80.66847646     100.74438412
N      92.45313641      80.88579498     102.40545355
H      94.35798054      80.79319839     102.31663641
C      91.24182185      81.23161490     104.84509022
H      89.67712846      79.90880648     105.05862930
C      93.04273102      80.37934833     106.86709738
H      92.26983296      80.62312303     108.76060314
H      94.76616142      81.47916905     106.61387405
C      93.97058664      77.53719996     106.82552340
H      94.96836214      77.41247802     105.02650395
C      95.64677388      77.00240741     109.14421758
H      96.16455889      75.00874615     109.16311485
H      94.73781553      77.48995680     110.92433977
H      97.34185838      78.17214800     109.20090937
C      92.01849936      75.24118249     106.65922748
H      90.79962589      75.40747840     105.00760668
H      91.07363620      75.07488657     108.48092365
H      92.95958306      73.41381714     106.50993910
C      90.00594084      83.69581801     105.62365746
O      88.77950846      83.76951734     107.51527350
N      90.15522922      85.58365460     104.04006681
H      91.22670404      85.16602508     102.51694740
C      89.01194480      88.25383788     104.38399700
H      87.74015899      88.11021868     105.99782327
C      90.89411220      90.33253682     105.04918066
H      91.82574728      89.68436070     106.76883161
H      89.93980042      92.12966655     105.36287523
C      92.82352277      90.64623139     102.99315843
H      91.88810825      90.86354992     101.17146227
H      93.97814555      88.95303661     102.78528854
C      94.44490795      92.93280023     103.80196130
H      94.44112849      93.24838452     105.83908626
H      93.92334348      94.66945871     102.82497279
C      97.21524672      92.46036865     103.07630639
H      98.17711741      94.26883673     103.31441191
H      97.41366798      91.87644322     101.11099103
N      98.49648116      90.40434642     104.41612235
H     100.38809720      90.65190057     104.32541549
H      98.30939826      88.65634958     103.66968045
H      98.08641055      90.28907312     106.27372331
C      87.08820341      88.91713181     102.30718778
O      86.96726093      87.73983232     100.30785734
N      85.63311415      91.04685337     102.69458168
H      86.02806695      92.01439324     104.29329014
C      83.74716729      92.22037341     100.90123141
H      82.28829857      90.85032183     100.41935120
C      82.26562186      94.44836073     102.01428020
H      83.45425971      96.02817193     102.58875700
C      80.09621605      95.31385538     100.09431827
H      79.09844056      96.97870426     100.78028892
H      78.77529736      93.73404418     100.04518539
H      80.88423192      95.84486848      98.26695293
C      80.85966548      93.32964275     104.29706959
H      82.28262940      92.87799817     105.71247460
H      79.82409546      91.69502949     103.58842222
C      78.86978367      94.97559437     105.41200812
H      79.62378447      96.88988713     105.51405334
H      78.60900144      94.38788949     107.36976458
H      77.05942587      94.88110806     104.43312989
C      84.94147432      92.94035913      98.50127899
O      86.80474446      94.53339842      98.68647217
N      84.02495706      92.03518023      96.37344716
H      82.69647946      90.66323893      96.41880059
C      85.06808598      92.78351185      93.84499335
H      86.18491423      94.49938334      94.07553996
C      86.71025815      90.63489303      92.97005007
H      88.25794400      90.26072722      94.27963041
H      87.67779802      91.04307392      91.19748679
C      85.36666274      88.06486525      92.35588902
C      83.98527280      87.90801796      90.11845306
H      83.83598443      89.38578394      88.72194532
C      82.94781306      85.56097788      89.40980570
H      82.16357664      85.49105801      87.52763829
C      83.10466034      83.45960222      90.94993264
O      82.10121567      81.23728408      90.06743045
H      81.42280392      81.43003616      88.39691239
C      84.25739339      83.76384816      93.38201041
H      84.45392493      82.34466370      94.83520994
C      85.30997095      86.08632180      94.09443723
H      86.30774644      86.28852251      95.86322106
C      82.86466510      93.49215922      92.07054035
O      80.77084835      92.88555707      92.80942333
N      83.30875078      94.85654161      89.92759071
H      85.09265242      95.43668759      89.57988107
C      81.26595664      95.35164991      88.17203496
H      79.56898241      95.01527863      89.28886321
C      81.33587651      98.00482565      87.12701631
H      80.08676742      97.91222906      85.49240305
H      83.30119188      98.46402915      86.71127652
C      80.03007563      99.99092801      88.91091795
H      81.20737512     100.26682805      90.57954628
H      78.20082056      99.38243613      89.63657285
C      79.66157900     102.56662497      87.72228010
H      78.65246515     102.18301053      85.96672435
H      81.49839298     103.38676619      87.28008414
C      78.30286578     104.52438143      89.43626187
H      79.20615496     104.73981023      91.27496557
H      76.41691892     103.91399983      90.00129003
N      77.96649450     107.09818867      88.27219046
H      77.90413353     108.51359368      89.55342490
H      76.35455795     107.21157225      87.25929715
H      79.46315774     107.33629419      87.11378823
C      81.26406691      93.22759753      86.09711547
O      83.06875554      92.75138650      84.80265295
N      79.04363850      91.90100966      85.89491475
H      77.55642389      92.39233850      86.98339711
C      78.45215416      90.29852175      83.62157400
H      79.83354409      88.79052015      83.37401985
C      75.98039214      89.03996402      84.09400558
H      74.33821998      90.20214571      83.64614044
H      76.00873804      88.00439400      85.87412777
C      75.56087290      87.10488428      81.97940183
O      74.18893160      87.70959670      80.13880841
O      76.84021761      85.11689220      82.13435939
C      78.51262540      92.09187202      81.27642365
O      78.10633424      94.41434566      81.55610314
N      79.06631521      91.03551501      79.10323839
H      79.87133862      89.31019489      78.95961919
C      79.20804468      92.59264949      76.70706542
H      80.59321407      94.09876136      76.92816340
C      80.18881264      90.95992596      74.49608563
H      80.25495306      92.21848368      72.86525183
C      82.91568771      90.02451143      75.09701860
H      83.82275634      91.71014730      75.86235776
H      83.65268097      89.27806954      73.32445532
H      82.88734182      88.35966255      76.30455372
O      78.61656035      88.84532221      74.09924311
H      79.06442549      88.01762209      72.54777781
C      76.67392170      93.86821475      75.81889405
O      76.62100936      95.70880818      74.50175481
N      74.52341315      93.31830440      77.03398807
H      74.53286179      91.94636309      78.36246567
C      72.19149088      94.78851147      76.72218323
H      72.17826280      95.43857732      74.76631650
C      69.83311245      92.86477008      77.05288534
H      68.11913068      94.00427505      77.13414357
H      70.13924811      92.06730558      78.92749384
C      69.33422470      90.99961021      74.74930896
H      70.55309817      89.39145312      75.17260765
H      69.71594941      91.88967130      72.93328197
C      66.60923936      90.17379981      74.96851721
O      65.00864117      91.02606638      73.48130260
O      66.01775502      88.71304137      76.68627843
C      72.06676895      97.11854401      78.43427527
O      70.24129333      98.51694148      78.74796984
N      74.11523227      97.48137146      79.92715906
H      75.59110852      96.28517471      79.73629670
C      74.57443577      99.60353411      81.68460453
H      73.56343219     101.32318506      81.17815788
H      76.61534018      99.82652182      81.85090045
C      73.58799863      99.24070666      84.42848714
O      73.57666027     101.05862337      85.84011269
N      72.77352659      96.97303509      85.09367080
H      72.55431834      95.57463761      83.81432608
C      71.46583598      96.16234250      87.44449033
H      70.44538377      97.86498591      87.98873151
C      69.49296171      94.11387917      86.95316149
H      68.44416361      94.06285656      88.72572477
H      70.51530365      92.38477960      86.49962718
C      67.68071418      94.88677724      84.81021185
C      67.05332504      93.07075025      82.91859581
H      67.91692996      91.22637737      82.77686634
C      65.06533296      93.63199896      81.28209282
H      64.78943292      92.24493985      79.80810630
C      63.78409852      95.99415686      81.45972710
O      61.93972564      96.68957614      79.87235700
H      61.59579545      98.46969833      79.81755493
C      64.35479586      97.77427904      83.37213013
H      63.39292517      99.56573959      83.55165413
C      66.39381056      97.26783239      84.90091871
H      66.94939009      98.56418464      86.37490524
C      73.13257459      95.16645673      89.67058793
O      74.79553374      93.67546267      89.07721387
N      72.72628343      95.85053766      91.99306157
H      71.06332428      96.70847340      92.36344792
C      74.27207956      94.97937383      94.00184064
H      76.17503395      95.25905332      93.26295765
C      73.82232469      96.56107475      96.46793348
H      75.05253652      95.85431711      97.96270699
H      71.85700933      96.30407197      97.02351301
C      74.29097682      99.40889230      96.01250943
C      72.28219775     101.17200695      95.91046421
H      70.38869198     100.66367057      96.47360266
C      72.71116562     103.72691693      95.43236346
H      71.11245716     104.99303356      95.38512030
C      75.16969955     104.56595541      94.89001200
O      75.80086814     107.10574758      94.49694893
H      74.45727273     108.32462105      94.57253798
C      77.19548616     102.91811407      95.13945588
H      79.06253576     103.58518745      94.65568594
C      76.78352583     100.30651230      95.80652927
H      78.38790346      99.08952856      96.14668000
C      73.91114183      92.04462886      94.61600169
O      71.77386137      91.22826709      94.99394695
N      76.04464284      90.59331905      94.80686405
H      77.69248418      91.37755547      94.24372561
C      76.22038738      87.83053918      94.74828253
H      74.49317753      86.89134521      95.36244358
C      76.66258334      87.10866373      91.97605403
H      78.56175829      87.75683986      91.51118136
C      76.51707442      84.34777359      91.21827378
H      77.93247942      83.20259944      92.18014447
H      77.17280945      84.13801397      89.27563513
H      74.60089193      83.64479540      91.48850464
O      74.78419539      88.15557211      90.47750106
H      74.72939332      89.95270183      90.72883466
C      78.50695622      86.87433767      96.42258004
O      80.12267222      88.48438449      97.12555823
N      78.63356789      84.55375376      97.32397950
H      77.08399231      83.48038921      97.02351301
C      80.54408119      83.45771249      98.95292358
H      82.36955681      84.37422976      98.67513381
C      79.72016052      84.05108656     101.73460071
H      78.99261589      85.97860740     101.70625482
C      77.64713075      82.32198698     102.59064673
H      76.93092448      83.22905561     104.29517986
H      78.36522675      80.41336340     102.88544404
H      76.14290861      81.97427734     101.22626433
C      81.85933070      83.96415915     103.63566538
H      83.62811453      84.30242016     102.63977961
H      82.03129580      82.17269860     104.63533060
C      81.36611213      86.02585055     105.61987801
H      80.00172974      85.20759906     106.92756862
H      80.60644216      87.82487000     104.96792243
H      82.97426923      86.14868276     106.90111245
C      81.04107921      80.65146892      98.56930914
O      79.56709268      79.31921187      97.34476649
N      83.04796855      79.57243520      99.72015246
H      84.35754889      80.70816071     100.52139642
C      83.74338784      76.91359027      99.60487916
H      81.99161154      75.94982985     100.09809772
H      85.14934421      76.63391078     101.08264513
C      84.51061672      75.94605040      97.03485137
O      85.94302926      77.28586636      95.69503541
N      83.41457546      73.81443912      96.16557727
H      82.27318076      72.73351567      97.24461099
C      82.91379798      72.88091432      93.59177003
H      84.31219546      73.84845419      92.42580889
C      83.48260560      70.05766321      93.42358439
H      82.14089992      68.83312056      94.39301398
C      83.29930215      69.50775285      90.46238325
H      81.50973133      70.10301664      89.63279340
H      83.54496657      67.48574570      90.14868869
H      84.79596539      70.30521736      89.29453239
C      86.21326013      69.42271517      94.58009689
H      86.45514510      70.12947281      96.50194855
H      87.66268021      70.25041529      93.37445150
C      86.59876429      66.64670721      95.02607230
H      86.37766632      65.57901185      93.27618573
H      85.66901895      65.90215505      96.70603899
H      88.62833036      66.56544898      95.37000249
C      80.37400582      73.59901032      92.57698700
O      78.60711172      72.18171559      93.01162405
N      80.24550443      75.72495242      91.19559706
H      81.72327041      76.88335465      90.85166687
C      78.07609862      76.74540463      89.66113930
H      77.61311568      75.21283659      88.36856650
H      78.84521723      78.41781242      88.74084258
C      75.61567496      77.51074379      91.06709567
O      73.99995897      78.54253435      89.79153041
N      75.54953454      77.30098417      93.56153441
H      77.08777176      77.18004168      94.68781129
C      73.24595817      77.77341575      95.06008737
H      71.62079354      76.85500876      94.18703382
C      73.64658015      76.48462240      97.64145352
H      75.11300776      77.41814720      98.74316396
H      74.39869122      74.61001390      97.23894181
C      71.25040718      76.30698813      99.18347019
N      69.42115211      74.40214400      99.01717427
H      69.44760828      72.96784173      97.76050627
C      67.41237304      75.04654068     100.52517587
H      65.50563919      74.34167276     100.35510050
N      67.90370188      77.20460813     101.58153288
H      66.70939485      78.13813292     102.74182484
C      70.28097758      78.08522059     100.77650947
H      71.05765510      79.96171882     100.99193827
C      72.50896491      80.51162917      95.47015798
O      73.90736238      82.03852803      96.38667524
N      70.08255632      81.12579022      94.87300447
H      68.96005889      79.65558315      94.40246262
C      69.07344247      83.74117144      94.76717979
H      70.30176457      85.16980453      93.93381049
C      66.69238731      83.61644951      93.21760422
H      65.50563919      82.12734517      94.00184064
H      66.90025721      82.91914050      91.29008338
C      64.97651582      85.94648205      92.89446102
H      64.40014930      86.49072323      94.79552569
C      66.26341944      88.37289063      91.65858001
H      66.88891885      87.75683986      89.79342014
H      67.69016281      88.98516196      93.01351378
H      64.70817469      89.70703741      91.45448957
C      62.66727027      85.14523809      91.40346696
H      63.10190732      84.50084142      89.49673311
H      61.49186050      86.82142533      91.17858953
H      61.78476808      83.69770774      92.57131782
C      68.57644445      84.77674146      97.43358362
O      68.22117590      83.42747687      99.24205170
N      68.46684032      87.25984184      97.66601996
H      68.90903628      88.38233927      96.18825398
C      67.40859359      88.68469548      99.95447852
H      66.61490853      87.44503502     101.39633970
C      69.75563367      89.95837101     101.27350749
H      68.91470546      91.28495888     102.60765427
H      70.53987009      91.32842259      99.95069907
C      71.75685383      88.25005842     102.41112273
H      72.55620806      87.09354592     100.90312113
C      73.89224457      89.86388470     103.40322904
H      75.16780983      88.59587834     104.40667372
H      73.14958213      91.42668836     104.52383675
H      74.88057143      90.83142457     101.87633018
C      70.60412078      86.51151022     104.47281414
H      69.72350832      87.38834323     106.11498630
H      71.87212714      85.02807506     105.12854917
H      69.01297123      85.43814567     103.72259279
C      65.36013026      90.54418617      99.34976610
O      63.41182243      90.43458204     100.44202791
N      65.86468719      92.27139602      97.60176926
H      67.53331552      92.10887956      96.68525200
C      64.21495612      94.30474153      97.06319726
H      62.26664829      93.63766814      96.96871095
C      64.33589860      96.13399660      99.22693389