 %block lattice_cart
   142.669   0.000   0.000
   0.000 146.65   0.000
   0.000   0.000   162.396
 %endblock lattice_cart

 %block positions_abs
N      95.93873660      42.76434607      78.68844346
H      97.82657319      42.95709815      78.48057357
H      95.19607416      41.60972329      77.36374532
H      95.71196944      42.07648569      80.45533756
C      94.73876039      45.31925604      78.44655849
H      95.55701188      46.71387406      79.72212375
C      95.50598927      46.26789865      75.69889643
H      94.62348709      45.16996766      74.19467429
H      97.56390123      46.19797878      75.59874094
C      94.65750216      48.92863330      75.18489088
H      92.61092856      48.68863806      75.16599361
H      95.49654064      49.33870391      73.34996663
S      95.05245496      51.46464601      77.46956999
C      98.49553630      52.24888243      77.01981513
H      99.50842961      51.44385902      78.62230304
H      98.79600279      54.28600740      77.02548431
H      99.24197820      51.28134256      75.36063542
C      91.89850174      45.25122590      78.82639348
O      90.68340772      43.61283318      77.66799125
N      90.90072625      46.86505217      80.44021975
H      92.05723875      48.15762496      81.23768426
C      88.30991147      46.97843575      81.28114796
H      87.10048663      45.99010888      79.93944228
C      88.26644777      45.65751705      83.93054425
H      89.60059455      44.08904421      84.03825865
H      86.36916255      44.96020804      84.31793815
C      88.78990196      47.59448652      86.02058156
O      87.00600032      48.37683322      87.19788105
N      91.03300709      48.66596134      86.37773983
H      91.38449619      49.55224298      88.03125035
H      92.47486827      48.31825170      85.17587389
C      87.33481270      49.79034850      81.46634114
O      88.76722524      51.56480151      80.95800476
N      84.94241918      50.18341157      82.22034194
H      83.91062862      48.62816682      82.61529474
C      83.62716967      52.66462222      82.43766047
H      83.96732041      53.52066824      80.59517731
C      80.63195346      52.33014066      82.91009204
H      79.89684993      51.23031995      81.32839112
C      79.81748142      51.07725212      85.42153831
H      81.05903161      49.45775667      85.70499726
H      77.79547427      50.70875549      85.55192943
H      80.25400820      52.35659683      86.97678307
C      79.14095940      54.91339653      82.82883381
H      79.86850403      56.10770356      84.34061486
H      77.16619541      54.37293481      83.07071878
C      79.39040328      56.10392411      80.18888615
H      78.73844770      54.81135131      78.72434826
H      81.30280631      56.67840091      79.68243950
H      78.12428665      57.70452230      79.91865529
C      84.60226845      54.57891498      84.25746691
O      84.67596777      56.90138862      83.82094013
N      85.57547750      53.73987649      86.47411587
H      85.78334739      51.85203991      86.66497823
C      86.66395986      55.45196853      88.35061410
H      85.66429464      57.24531880      88.51313056
C      86.43530297      54.26333068      90.88284736
H      87.59559493      55.28945207      92.23967085
H      87.39717367      52.44919342      90.70143363
C      83.79724504      53.94585666      91.82015161
C      82.58215102      51.54590424      91.60661254
H      83.68575119      49.97932113      90.90552407
C      80.09527119      51.24165831      92.28313456
H      79.22977654      49.39161625      92.25100921
C      78.71199153      53.25610656      93.18831346
H      76.74289671      52.99910378      93.65696559
C      79.97999789      55.63338226      93.53791283
H      78.88773608      57.24720853      94.14640470
C      82.37050167      56.00943780      92.78958121
H      83.41174087      57.70641202      93.24122580
C      89.32847396      56.37415497      87.67598181
O      90.04468023      58.39238268      88.52635865
N      90.76844541      54.99276504      86.14152404
H      90.24121177      53.32791616      85.37240543
C      93.17406700      56.06801931      84.94532728
H      94.44963227      57.03555918      86.24167953
C      94.60081037      53.87404706      83.56582708
H      95.79511740      54.71686500      82.11451727
H      93.20808208      52.56068727      82.80426737
C      96.31101268      52.50777494      85.54437052
H      95.12993374      52.09581460      87.18087351
H      97.68295399      53.99498955      85.92420551
C      97.20674296      49.99254921      84.35006349
O      99.51220906      49.46342585      84.54659503
O      95.68173382      48.39950993      83.47889966
C      92.39172031      57.95963535      82.92898931
O      93.20997180      60.15360760      83.09150577
N      90.80812966      57.20941400      81.12430068
H      90.33947753      55.35937194      81.18666165
C      89.99554735      58.79300465      79.04371201
H      91.46197496      58.74954095      77.59618165
C      87.57480794      57.63082297      77.92877348
H      86.14050567      58.36781623      79.20622847
H      87.53134423      55.58235965      78.13475365
C      86.86805030      58.40372103      75.17733197
H      88.47431766      57.75176546      74.06428317
H      86.69986466      60.44840490      75.00347715
S      83.88228272      56.84280710      74.18711538
C      84.36794239      56.74454133      70.90655050
H      82.63128390      56.41005977      69.84641404
H      85.73043506      55.21953220      70.67978335
H      84.97265481      58.55111969      70.12609354
C      89.47776234      61.58035097      79.90542721
O      90.30546246      63.28866355      78.54482426
N      88.07180596      61.83924347      81.89530901
H      87.66740453      60.14982815      82.68521461
C      87.28756954      64.27510069      82.92898931
H      86.94174962      65.52609951      81.33028085
C      84.78935135      63.83668418      84.54659503
H      84.44731089      65.56011458      85.62184930
H      85.17674525      62.30033669      85.86373427
C      82.56892294      63.17716970      82.79292901
H      82.94119902      61.45184958      81.72901310
C      80.19164723      62.83323951      84.31037924
H      80.40140685      61.29311257      85.66153356
H      78.62128467      62.57623673      83.00268863
H      79.83070951      64.57178772      85.35728762
C      82.26845645      65.40704675      81.03548354
H      80.35038424      65.15571315      80.32872590
H      83.49677856      65.39381867      79.38197302
H      82.05680710      67.10591071      82.18065769
C      89.32847396      65.78121256      84.49368269
O      89.46075480      68.13392182      84.33494568
N      91.08969888      64.43194797      85.68232055
H      91.06891189      62.53655248      85.46878147
C      93.26855332      65.73774885      86.77269263
H      92.61092856      67.25330936      88.00479418
C      94.80301109      63.87825816      88.46966686
H      96.71730384      64.58312608      88.76824361
H      95.16016936      62.19829147      87.33394134
C      93.81468422      63.27732520      91.26835153
H      91.92684764      62.51198604      90.95465696
H      93.75799243      65.05555766      92.30770100
C      95.55134271      61.34413518      92.56848323
H      97.15949980      62.31356478      93.41319089
H      96.09180443      59.86636920      91.24000563
N      94.45908090      60.00809867      94.68497670
H      93.42351088      58.45663337      94.27301636
C      94.14916578      60.63737754      97.10193666
N      94.86348233      62.80300389      98.01467446
H      94.62537681      63.32834781      99.83637063
H      96.07101744      63.84046364      96.96209691
N      92.91706423      59.26921569      98.65718141
H      92.77533475      59.79455960     100.48832621
H      91.96086271      57.71586066      98.09404297
C      94.83513643      66.92827643      84.66186834
O      95.84047083      68.98429866      85.03414442
N      94.75387820      65.84357353      82.40742485
H      93.87704519      64.16360684      82.20900358
C      96.22786473      66.69017092      80.15109163
H      98.01932527      67.44228199      80.83328283
C      96.75698809      64.48863976      78.36718999
H      94.88993850      63.69873416      78.00814199
C      97.75287386      65.29744262      75.81983892
H      98.40104999      63.72896978      74.65198806
H      99.38559740      66.46718321      76.27337323
H      96.41116818      66.56544898      74.90899084
C      98.44640342      62.55167029      79.68810868
H      98.28199723      62.07356953      81.68554939
H     100.40982906      63.11480873      79.44433399
C      98.41994725      59.79644933      78.55805235
H      99.18339668      59.75676507      76.64564932
H      96.42061681      59.37315063      78.28782148
H      99.32323643      58.53033270      79.90731693
C      94.90883576      68.87091508      78.75647361
O      96.14282704      70.68694207      77.99680363
N      92.31046208      68.97485003      78.55616262
H      91.45252633      67.34968540      79.07394763
C      90.87427008      70.81544346      77.08217610
H      92.03456204      71.06677706      75.40031968
C      88.34014710      69.67782822      76.28660132
H      86.83403522      71.08378459      76.25447597
H      87.89795114      68.29832801      77.74924948
C      88.03212171      68.43438830      73.66555092
O      88.92785198      69.71751247      71.90054654
O      86.75466672      66.52765445      73.24792141
C      90.43963303      73.37035343      78.47868384
O      89.55713084      75.12401945      77.35429668
N      90.70797417      73.31744110      80.93343832
H      91.01599955      71.63936413      81.78570489
C      89.92373775      75.52086198      82.46411663
H      90.18640970      77.28208690      81.43043634
C      87.10993527      75.27519756      82.80615710
H      86.81891741      73.45728084      83.73023326
H      86.05168853      75.25252084      81.03926299
C      85.96287139      77.19515949      84.71856013
H      86.91340373      77.14413688      86.54592547
H      83.96543068      76.76052244      84.97745263
C      85.77578849      79.91258593      83.55826817
O      85.61894120      80.32454626      81.23390480
O      85.69264053      81.78908416      84.99068072
C      91.48087223      75.87046135      84.96800400
O      92.26699837      77.97372673      85.57460615
N      92.39549976      73.67648910      86.06971444
H      91.85314831      71.95683815      85.44610476
C      94.16428359      73.73696034      88.08416269
H      95.69685163      75.01441533      87.57015713
H      94.87293096      71.81321895      88.25990724
C      92.94352039      74.68371322      90.53513772
O      90.67773854      75.31677154      90.60694732
N      94.19262949      74.37757756      92.75934559
H      96.01054620      73.80688021      92.65541064
C      93.08902932      75.09189410      95.26701241
H      91.05379408      75.40369895      95.20843089
C      93.45374650      72.81666362      97.17563598
H      95.47575365      72.97729036      97.53657371
H      93.19107454      71.04221062      96.16463240
C      91.75677227      73.09634312      99.62661101
H      92.05156957      74.98417970     100.39572962
C      88.83147594      72.68627251      99.09748764
H      88.42896423      70.74741331      98.53623893
H      88.25132996      73.85223364      97.50444836
H      87.81669291      73.42137604     100.73399063
C      92.44841210      71.12157912     101.65239762
H      92.50699362      69.31500077     100.66973993
H      91.09158861      71.21039626     103.20386292
H      94.37593294      71.39747916     102.32136073
C      94.27766717      77.56176640      96.35549476
O      96.60014081      77.99262399      96.52934958
N      92.51833197      79.27385843      97.17185653
H      90.74387897      78.79575768      96.65974070
C      92.82257791      81.70404647      98.55135674
H      94.74065012      81.53019165      99.28457055
C      92.63171555      84.16447013      96.95453800
H      92.35203606      85.68758954      98.31136150
H      91.00088174      84.23439001      95.69975973
C      95.07135222      84.68414487      95.45220558
H      96.01621538      82.93047885      94.91930276
H      96.26754898      85.76128887      96.73532975
C      94.58191311      86.17891838      93.00878946
H      96.09936334      87.06331030      91.93731464
H      93.40839307      87.75872958      93.62484024
N      93.12304439      84.55564348      91.07370972
H      92.16306343      82.94370693      91.42897826
C      92.92462313      85.24917304      88.60950660
N      93.84303012      87.38645350      87.63062837
H      93.60114515      87.65857409      85.75979932
H      94.26065963      88.92847017      88.67753675
N      91.82858187      83.65235430      87.09394610
H      90.99143311      84.25706672      85.48956846
H      91.22764890      81.99506433      87.82527018
C      91.22764890      81.60767043     100.85115366
O      89.18485476      80.57399014     100.73399063
N      92.02700313      82.49017262     102.99788275
H      93.51043829      83.68070020     102.84292519
C      90.70041526      82.19348559     105.47720367
H      89.16595749      80.83288264     105.27689269
C      92.47297854      81.19571010     107.59936632
H      91.67929349      81.03886281     109.49476182
H      93.84680957      82.66213771     108.04534173
C      93.99798768      78.78441932     106.99087445
H      95.00143235      78.95071524     105.19941391
C      96.05023045      78.39135625     108.86548295
H      97.25587584      76.78697861     108.40250001
H      94.93529193      78.10600757     110.57379554
H      97.28800119      80.03541814     108.93729255
C      92.28211618      76.49029158     106.97386691
H      93.24587660      74.80654543     106.27655790
H      90.83836528      76.90603136     105.56602081
H      91.49032086      76.33344429     108.86926241
C      89.55146166      84.64446062     106.48631753
O      88.30991147      84.61422500     108.41194864
N      89.92184802      86.86299931     105.23153925
H      91.33347358      87.15779661     103.98054043
C      88.42140533      89.11177362     105.79278797
H      87.17607569      88.77162288     107.39905533
C      90.12404874      91.41157054     106.39372094
H      90.96875640      91.13944995     108.25321163
H      88.96564651      93.09153724     106.66395180
C      92.17062233      92.02195214     104.44352338
H      91.26544343      92.63044402     102.69741627
H      93.29123004      90.36277244     103.96164317
C      93.93940616      94.07608464     105.15028102
H      95.11859538      93.38822427     106.69229769
H      92.79801147      95.63510885     105.86270784
C      95.64204957      95.04173479     102.91095534
H      94.25688018      95.94880342     101.68452296
H      96.51510313      93.34665029     102.13427783
N      97.63760056      96.76138574     103.88038494
H      96.86659222      97.90278043     105.20130363
H      98.72986236      97.79506603     102.70497517
H      98.94907062      95.78628696     104.86682208
C      86.76411535      89.70136823     103.44574789
O      87.10804554      88.71115164     101.40295374
N      84.80446916      91.42101917     103.85014932
H      84.64006297      92.16557134     105.60003588
C      83.13206138      92.27328574     101.77900928
H      82.45364963      90.52717863     100.92107353
C      81.00989873      94.19702713     102.41206759
H      81.87350365      95.85431711     103.27945197
C      79.63795742      95.21936906     100.10849122
H      80.89840487      95.93179588      98.64395333
H      78.39829696      96.78595218     100.60548924
H      78.52112917      93.70002911      99.28268082
C      79.46788206      92.81374747     104.55879669
H      80.59037949      91.90478911     106.02711403
H      78.31892846      91.34731985     103.68007395
C      77.47988997      94.51828060     106.00821677
H      78.46443738      96.24171100     106.56379630
H      76.51801928      93.59987361     107.58046906
H      76.03424935      94.97748410     104.61359875
C      84.76667464      93.67546267      99.93085695
O      86.15184403      95.47070266     100.64895294
N      84.68919586      92.91768241      97.51389699
H      83.15851755      91.87644322      97.04713459
C      86.43530297      93.61688115      95.47110285
H      87.66551480      95.18724372      95.98132895
C      88.23810187      91.38322465      94.94575893
H      88.98076432      90.93913896      96.81469826
H      89.61949181      92.21092477      93.66074504
C      87.17985514      89.05886128      93.69098066
C      87.36882777      88.88500646      91.00001039
H      88.34581627      90.46103821      90.14774382
C      86.66773931      86.71182120      89.67531224
H      87.12127362      86.63245270      87.68543044
C      85.59248504      84.73705721      91.05481245
O      84.87627876      82.67725552      89.80381363
H      85.33548226      82.80008773      88.05392707
C      85.23910622      84.92225038      93.78546698
H      84.34715540      83.39535152      94.80213973
C      86.04790908      87.09921510      95.09882676
H      86.06113716      87.04630276      97.13973118
C      85.03879523      94.37277168      92.99934083
O      82.72765995      93.85120721      92.91808260
N      86.34459611      95.64833694      91.10583506
H      88.24755051      95.80518422      91.17197548
C      84.92730137      96.47414734      88.75501553
H      82.92608121      96.33619731      89.22366766
C      85.49988845      99.32574434      88.23912025
H      84.45298007      99.92856704      86.57238164
H      87.47087299      99.42967929      87.64952564
C      84.98021371     101.09263844      90.55592471
H      86.01200428     100.51438219      92.24156058
H      82.96576546     100.93201171      90.94709805
C      85.48855009     103.92344846      89.89074104
H      87.42740929     104.03683204      89.20666012
H      85.32225417     105.09885823      91.57448719
C      83.59693405     104.63398556      87.93487431
H      81.67130294     104.25226084      88.55281482
H      83.62150049     103.29039015      86.37396038
N      83.70842790     107.27204349      87.09583583
H      82.20231603     107.64809902      85.98467676
H      85.31091582     107.62164286      86.12262678
H      83.33993127     108.41154845      88.58305044
C      85.31469527      94.59197993      86.44010080
O      87.48410108      94.02884149      85.73334316
N      83.19442235      93.53940237      85.47256092
H      81.50878647      94.04962848      86.21333364
C      83.46465321      92.14289463      83.11229276
H      84.62872462      90.49127383      83.52425310
C      80.85494117      91.32086368      82.27892346
H      79.67953140      92.99516119      82.04648712
H      80.26723629      90.04151897      83.78125587
C      80.98155283      89.91301758      79.82983815
O      82.40262702      87.98927619      79.63519634
O      79.52079439      90.61032659      78.15932009
C      84.51534104      93.79451542      80.95233558
O      84.49077460      96.05651782      81.19044110
N      85.30902609      92.60398785      78.80938595
H      85.11249455      90.71426153      78.62608249
C      86.13294676      94.06663601      76.56250136
H      87.43496819      95.49904856      77.27114873
C      87.25166474      92.43958166      74.44789761
H      85.85137754      91.91801720      73.03060288
C      89.04690474      94.15356342      72.90210149
H      90.40372823      94.88677723      74.27026334
H      87.83181072      95.45936431      71.87220065
H      90.12593846      93.19547218      71.43378415
O      88.51778137      90.21915324      74.97513126
H      90.21664532      90.71804099      75.37197378
C      84.18085948      96.02439247      75.73291151
O      84.78935135      98.17679074      75.16599361
N      81.76012007      95.32330401      75.80661083
H      81.31225494      93.48082086      76.03337799
C      79.62283961      97.08263921      75.27181829
H      79.84015814      97.67412354      73.30839265
C      77.06981936      95.48959993      75.10552237
H      76.25534732      95.43668759      76.99524868
H      77.47233107      93.53562292      74.58962709
C      75.07804783      96.76327546      73.31784128
H      75.13284989      98.81173878      73.53138035
H      73.30926400      95.98470822      74.03215783
C      75.43331638      96.27383635      70.43411893
O      74.50168131      94.24804974      69.68578731
O      76.74289671      97.88955234      69.15099476
C      79.36961629      99.31629571      77.07272746
O      78.37562025     101.30995697      76.56061163
N      80.63951237      98.99126278      79.26103053
H      81.40296180      97.27539129      79.60118127
C      80.90407405     100.80917950      81.30571440
H      80.75100622     102.62331676      80.34195399
H      82.84293325     100.80162059      82.00113369
C      79.21654846     100.18745954      83.46567158
O      79.32048340     101.62743099      85.34216981
N      77.73878248      98.18623938      83.60929078
H      77.73311330      97.12610291      82.02192068
C      75.99834455      97.69868999      85.56893697
H      75.44654446      99.54684232      86.29648160
C      73.63429693      96.11320961      84.59572792
H      72.28881179      96.10565070      86.15475212
H      74.22767099      94.15356342      84.38407857
C      72.30770906      97.18468443      82.19577550
C      71.76913706      95.51416637      80.18888615
H      72.18676657      93.53562292      80.47045537
C      70.47467453      96.44391171      78.08751049
H      70.18932586      95.25338414      76.45289723
C      70.44443891      99.08196965      77.66232207
O      69.36351546     100.18745954      75.60629984
H      69.34272847     101.99592762      75.73669096
C      71.33261028     100.76760552      79.53882030
H      71.33827946     102.80095103      79.36685521
C      72.02236038      99.77738893      81.79515352
H      72.83305297     101.01138021      83.20488935
C      76.99234059      96.43257336      88.05203734
O      78.80269839      94.89433614      87.99156610
N      75.84905617      96.94468919      90.29136302
H      74.65852859      98.43379352      90.39907742
C      76.50101174      95.89967054      92.78013258
H      78.51923945      96.06974590      93.16563675
C      75.44654446      97.66656464      94.80969864
H      75.86039452      96.75949601      96.61438727
H      73.43965512      98.03884072      94.54324723
C      76.81092686     100.14966501      95.01189935
C      75.35205815     102.35875507      95.15173910
H      73.32249209     102.40032905      94.92875140
C      76.36495145     104.77571503      95.60338369
H      75.31615335     106.52560159      95.71487754
C      79.00867856     105.03082808      95.81125358
O      80.00456433     107.30227911      95.86794537
H      78.92931006     108.58729300      95.17441582
C      80.51101098     102.82551747      95.88495291
H      82.52734896     103.01260038      96.12494815
C      79.52457385     100.42556506      95.27079186
H      80.71321170      98.79473125      95.56936862
C      76.02480071      93.06508107      92.80091957
O      73.95555040      92.16746107      92.13762563
N      77.94665237      91.54574111      93.23744635
H      79.68142113      92.33564671      93.14107030
C      78.11672774      88.79807905      93.26579224
H      76.19865553      88.08376251      93.03524563
C      79.78157662      87.96848920      90.93009052
H      81.77145843      88.44281051      91.17008576
C      79.32426286      85.09988466      90.33482673
H      79.87417321      83.95848996      91.95999136
H      80.38817877      84.48950306      88.67942648
H      77.31170433      84.99405998      89.90585886
O      78.62695385      89.19114213      88.86272993
H      79.08804707      90.93724924      89.04036420
C      79.33749094      87.82487000      95.66574466
O      80.70943224      89.27051063      96.87139004
N      78.98600185      85.51562445      96.49911396
H      77.82948934      84.40257565      95.46732339
C      80.35794315      84.23250028      98.62883552
H      82.14184479      85.24161413      98.82158760
C      78.78002168      84.28919207     101.17996604
H      78.59293877      86.26206634     101.74310448
C      76.06259524      83.16291519     100.89083791
H      75.01946632      84.30619961      99.53401442
H      75.12718072      82.92480967     102.70875463
H      76.19865553      81.25051216     100.13683711
C      80.05936639      82.76796239     103.36448966
H      80.48833427      80.82154429     102.84481492
H      78.78380113      82.71316032     104.98398511
C      82.64262226      83.84321666     104.15250553
H      82.37617085      84.67847569     106.01766540
H      83.33048264      85.15468672     102.72198271
H      83.94086424      82.24639793     104.08069593
C      81.02690626      81.50373548      97.68964154
O      79.48677932      80.23005995      96.41785573
N      83.06025178      80.50029081      98.65151223
H      84.11849851      81.71538483      99.67196444
C      83.80858340      77.82821781      98.61560743
H      82.26089755      76.55832172      99.09937737
H      85.63405902      77.44271364      99.49055071
C      84.46431843      77.19138004      95.86416592
O      86.19152828      78.34789254      94.80969864
N      83.42118950      75.15047562      94.79647055
H      82.15129342      74.23395836      95.88495291
C      83.90684917      74.56466046      92.15274344
H      85.62083093      75.56621541      91.60094336
C      84.40951636      71.68660729      91.68031186
H      82.70687296      70.59812493      92.07904412
C      85.32036445      71.27653668      88.81548677
H      87.07025101      72.26108409      88.35061410
H      83.97109986      71.95116897      87.41330985
H      85.56413914      69.24508089      88.57927098
C      86.67718794      70.93449622      93.47366213
H      85.70397889      70.81355373      95.28590967
H      87.88850251      72.58422729      93.67964230
C      88.18141009      68.56477942      93.03713536
H      86.62427560      67.24575045      92.76123531
H      89.16217804      68.38903487      94.83993426
H      89.38894520      68.69517053      91.37417620
C      81.61650087      75.64747364      90.65796993
O      79.59449372      74.43426935      90.70143363
N      81.85649612      77.92648357      89.58838483
H      83.51756554      78.86378782      89.66208416
C      79.79102526      79.00362757      88.00479418
H      79.25434298      77.34633760      86.90497347
H      80.52990824      80.23005995      86.52324875
C      77.23800501      79.71983384      89.22744711
O      75.70165751      80.73461687      87.83471882
N      76.65596930      79.58566328      91.56125911
H      77.99767498      79.30976323      92.89162643
C      74.11239769      79.88235031      92.61950584
H      72.91620093      79.03008374      91.17386521
C      73.80815175      78.34789254      95.16118773
H      74.93631836      79.16425431      96.67485851
H      74.43554088      76.44493814      94.67741780
C      71.20221916      78.18348635      96.34037695
N      69.87941074      75.98762438      96.77501400
H      70.45955672      74.18482547      96.54257767
C      67.70811521      76.63580050      97.96365185
H      66.48546229      75.10701191      98.54379783
N      67.44355353      79.11134197      98.06947653
H      66.15287045      80.27163393      98.86127185
C      69.72823264      80.10155856      97.06603186
H      70.06460392      82.11222736      96.98288390
C      73.48311882      82.70938087      92.81792710
O      74.48278404      84.08510163      94.42797392
N      71.92031516      83.49739674      91.07937890
H      71.28158767      82.27852327      89.75846020
C      70.79214855      86.00317384      90.95843641
H      72.31337824      87.38645350      90.89229599
C      69.31438258      86.24694853      88.49990248
H      67.56071656      85.16791481      88.55281482
H      70.21011285      85.33987990      86.88040703
C      68.63219138      88.95492634      87.74590168
H      67.67976932      89.87711278      89.32004370
C      70.87529651      90.51773000      86.78403099
H      70.42365192      91.55707947      85.06626977
H      72.56282211      89.34609968      86.61395562
H      71.41008906      92.05974667      88.04069898
C      66.78214932      88.92280099      85.47634038
H      66.27759239      90.90701362      85.25524240
H      65.06816755      87.89478987      85.96955895
H      67.63441588      88.34454474      83.69054901
C      69.13296885      86.65512941      93.16752647
O      67.67787959      85.01484697      93.89318138
N      69.42965588      89.06075101      94.15018415
H      70.64097045      90.20214570      93.21476963
C      68.16731870      89.99616553      96.43297354
H      67.29804460      88.43147215      97.45153602
C      70.05704502      91.16590612      98.27734642
H      69.08761542      92.02951105      99.87605488
H      71.31560274      92.37911042      97.18508461
C      71.67654047      88.87744756      99.28646027
H      72.15653095      87.42424802      97.90884979
C      74.08594152      90.31741901     100.05557888
H      75.25190265      88.95492634     101.07036191
H      73.65319419      91.66101442     101.55602157
H      75.17820333      91.17346503      98.53245947
C      70.52191769      87.55085969     101.56735993
H      70.06271420      88.84532221     103.10181770
H      71.70866581      86.03340946     102.29679429
H      68.76258249      86.63812188     101.00989067
C      66.22090060      91.98037816      95.91140908
O      64.03259753      91.68747058      96.51423177
N      66.87474591      93.76994898      94.31270062
H      68.68510371      93.77183871      93.70231902
C      65.04549084      95.44235677      92.99934083
H      63.24458166      94.48993471      92.69509489
C      64.53715446      97.74782287      94.78891165