 %block lattice_cart
   142.669   0.000   0.000
   0.000 146.65   0.000
   0.000   0.000   162.396
 %endblock lattice_cart

 %block positions_abs
N      96.36486988      44.06069832      82.46222691
H      95.94157118      42.63962413      81.25847125
H      95.71291430      43.75267293      84.22912101
H      98.26593455      44.19675862      82.55482350
C      95.23859299      46.47198909      81.50980485
H      95.59575127      48.13494825      82.67387625
C      96.17589724      46.85560354      78.78292978
H      95.55417729      45.51200813      77.35240696
H      98.23758865      46.91229533      78.76592224
C      95.28961560      49.45775667      77.61885837
H      93.23926255      49.59381697      77.48279807
H      95.96613762      49.64106012      75.68188890
S      96.63510074      52.11282214      79.04938119
C      95.38032247      54.63749650      77.18233159
H      93.32618996      54.75654925      77.12752953
H      96.01904996      54.45230332      75.23213403
H      96.21369177      56.37037553      77.91932485
C      92.31140693      46.16018425      81.50602539
O      91.39299995      44.61627785      80.09439984
N      90.95836289      47.62472214      82.98946055
H      92.00716100      48.74155039      84.12896552
C      88.26928235      48.04802084      83.28047840
H      87.36032399      47.14473167      81.66665213
C      87.61921650      46.60426993      85.69554863
H      88.73604475      44.88272927      85.87885208
H      85.66334977      45.95987326      85.67854109
C      87.99716176      48.16518387      88.04447844
O      86.30585671      49.24988678      89.06682037
N      90.37443746      48.16329415      88.90430391
H      90.67112449      48.55635721      90.75056652
H      91.73315068      47.26945360      87.91030787
C      87.43213359      50.74655001      83.52047364
O      89.06485713      52.46431123      83.44299486
N      84.96415103      51.12260555      84.06093537
H      83.75661592      49.64483957      84.06660455
C      83.95503718      53.70397169      84.02314084
H      84.31975436      54.27466904      82.07861247
C      81.10910935      53.37704904      84.53147722
H      80.25306333      52.35659683      82.96111465
C      80.52896337      51.92762896      87.02213650
H      78.50317677      51.59125768      87.17331461
H      80.97493878      52.93674282      88.76068471
H      81.44359091      50.08136636      86.98623170
C      79.67291735      55.89794395      84.50502105
H      80.55164009      57.23398045      85.80515275
H      77.66791774      55.71275076      84.93587865
C      79.76929340      57.29634142      82.01436177
H      79.38189950      59.31267939      82.17876796
H      78.42947744      56.28722757      80.82005474
H      81.61177655      57.17161947      81.10540341
C      85.14745448      55.52566786      85.89019044
O      85.69736484      57.61759488      85.15319718
N      85.82019705      54.56001772      88.18431818
H      85.33264766      52.74399072      88.51502029
C      87.16190273      56.09258576      90.08538285
H      86.06964092      57.83491341      90.21199452
C      87.19969726      54.81513076      92.80091957
H      88.27306180      55.93762820      94.15585333
H      88.18613439      53.02744967      92.53257843
C      84.66368455      54.27844849      94.01979304
C      83.99094198      51.74243578      94.65285135
H      84.98682775      50.10782252      93.94231426
C      81.52484914      51.38149806      95.59771451
H      80.68770038      49.52200737      95.51834600
C      79.94314822      53.38082849      96.12116870
H      78.14034931      52.89894828      96.94508937
C      80.61211133      55.97353299      95.64306794
H      79.35733306      57.57413118      95.81503303
C      82.99127676      56.28911729      94.44120201
H      83.55819465      58.19396141      93.98388824
C      89.68468736      57.05256672      89.13107107
O      90.13822167      59.35992255      89.26713136
N      91.16434306      55.43685072      87.91597705
H      90.43490871      53.68129498      87.74023250
C      93.75326811      55.87337751      86.93331936
H      94.96269295      56.89760916      88.24856888
C      95.14788613      53.37326959      86.26813570
H      96.82785282      53.98932036      85.25146295
H      93.76838592      52.40383999      85.08327730
C      96.11542600      51.46275628      88.39029835
H      94.81340457      51.09236994      89.94365338
H      97.79728242      52.34336876      89.18776286
C      96.66344663      48.92863330      87.13174063
O      98.98214082      48.40139966      86.36829120
O      94.72269771      47.61527351      86.82749469
C      93.52083177      57.48909350      84.54848476
O      95.37087384      58.70040806      83.90597781
N      91.30229308      57.48342433      83.31071402
H      89.79807094      56.58580432      84.06660455
C      90.76939026      58.97630811      80.88241571
H      92.37943708      58.79111493      79.61062990
C      88.56407966      57.73097846      79.41409836
H      86.86710543      57.39649692      80.53281634
H      89.19713797      55.90172339      78.70923045
C      87.91401380      59.28433349      77.00091786
H      89.33886744      58.86481425      75.57228477
H      88.07086109      61.18917762      77.76625702
S      84.82431128      58.61914984      75.38520186
C      85.50272303      59.93817880      72.23880755
H      86.98048901      58.79111493      71.37709236
H      85.67657785      61.97908322      72.46557471
H      83.73015975      59.63771232      71.23347316
C      90.17979565      61.78255169      81.59673226
O      91.32119035      63.49464372      80.46478619
N      88.50549814      62.07923871      83.37307499
H      87.64189322      60.53533231      84.09117099
C      87.85732201      64.51509594      84.63730189
H      87.64756239      65.92105230      83.14252838
C      85.54996619      64.10313559      86.27947406
H      85.19469764      65.78310228      87.41897903
H      86.03373612      62.64426689      87.65141536
C      83.12922678      63.45684919      84.77525191
H      83.29552270      61.58790988      83.92487507
C      81.16958059      63.15449298      86.86717894
H      79.51607007      62.50631687      85.81838084
H      80.66313394      64.89304119      87.84416745
H      81.62689436      61.51043110      88.01991199
C      82.38278489      65.52420978      82.84584135
H      83.69425495      65.65838035      81.26414042
H      82.12956156      67.31944978      83.82282985
H      80.52518392      64.97240969      82.14853234
C      89.97003603      65.78877146      86.27002543
O      90.31018677      68.11502455      86.16986993
N      91.49315544      64.13526094      87.52102425
H      91.17757115      62.25498326      87.60984138
C      93.66445097      65.19161795      88.87217856
H      92.98981868      66.61647160      90.19876643
C      94.99859775      63.21118477      90.47277675
H      96.84108091      64.04644380      90.86017064
H      95.44457316      61.48775438      89.43531700
C      93.74948866      62.57434700      92.98989220
H      91.69157670      62.53088330      92.88217780
H      94.12554419      64.01809791      94.41096638
C      94.63010112      59.87203838      93.86294575
H      96.67289526      59.70385273      93.66074504
H      93.82129826      58.32624225      92.76879422
N      93.80618045      59.63393286      96.55580575
H      92.84997893      58.03333467      96.96020718
C      94.59230659      60.82635017      98.58348208
N      96.53305552      62.37970519      98.63450469
H      97.07729670      63.04299914     100.34092755
H      97.51760293      62.89749020      97.08492912
N      93.50571396      60.33691106     100.71887282
H      94.38443670      60.72997412     102.36860389
H      91.77283494      59.55834382     100.53367964
C      95.54094920      66.45962431      87.06937966
O      96.93934668      68.10935538      87.95755103
N      95.57685400      65.53932760      84.71478067
H      94.30128874      64.17683493      84.31982787
C      96.86564735      66.77898805      82.53781596
H      98.58718802      67.72007175      83.17087427
C      97.79917215      64.80611379      80.58950813
H      96.14755135      63.93872940      79.71645457
C      99.13709838      66.21962906      78.38419752
H     100.17455812      64.94973298      77.13697816
H     100.58462873      67.39125938      79.26292026
H      97.78216461      67.27598607      77.24847201
C      99.60386078      62.89182102      81.72523365
H      98.49837088      62.15293804      83.29748594
H     101.27248911      63.78755131      82.53592623
C     100.35408212      60.59202411      79.98668544
H      98.87631615      59.27110542      79.42165727
H     101.68066999      59.25598761      80.82005474
H     101.16855416      61.32901736      78.24435778
C      95.37654301      68.99752675      81.52303293
O      96.45557674      71.07244624      81.73468228
N      93.05973855      68.51564654      80.59895676
H      92.28306104      66.78843668      80.82383419
C      91.72937123      70.19183377      78.71489963
H      92.98414950      70.46395436      77.10485281
C      89.34453662      68.65548628      77.93822211
H      87.84031448      68.79532604      79.33850931
H      89.86232163      66.66938393      77.77948510
C      88.26550290      69.36413365      75.33606898
O      89.79618121      69.63247478      73.52382145
O      85.86555048      69.50586312      75.20567787
C      91.11521018      72.84500952      79.82227925
O      91.40055885      74.83111188      78.71867908
N      90.40278336      72.58422728      82.26002619
H      90.56152037      70.81166400      82.95355575
C      89.35965443      74.48907141      83.95889015
H      89.03273178      76.21817099      82.88552560
C      86.87277461      73.71239390      85.06438004
H      87.08442395      71.89636692      86.01680210
H      85.68224703      73.49318564      83.39953116
C      85.68980593      75.44716265      87.00323924
H      86.96915065      75.99896273      88.52068947
H      84.24416530      74.23962753      87.83660854
C      84.57675714      77.73940067      85.77491713
O      82.54719108      77.61089929      84.56360257
O      85.48571549      79.69526740      86.63096315
C      91.36087460      75.26385921      85.90908770
O      91.34008761      77.53342050      86.62529397
N      93.15800432      73.61979731      86.62718370
H      92.95013443      71.83022648      85.99979457
C      94.94379569      74.12435423      88.77958197
H      96.24959657      75.56621542      88.10494968
H      95.96235817      72.33478342      88.80414841
C      93.71547359      74.77819953      91.31937414
O      91.38733077      74.77253036      91.60661254
N      95.11954024      75.24685166      93.42830870
H      96.97903093      74.85000913      93.28091005
C      94.23514832      75.91203533      95.89251181
H      92.17534664      75.96683739      95.91329880
C      95.11198133      73.70861444      97.60082440
H      97.06973779      73.38736097      97.04902432
H      94.07830104      72.06077310      96.91485375
C      94.84741965      74.04309600     100.42785496
H      96.22691986      75.52464143     100.81146941
C      92.28306104      74.82544269     101.52956541
H      91.33630816      76.35612101     100.52234128
H      92.47014394      75.66070172     103.40228418
H      91.14922525      73.10957120     101.55980103
C      95.76582663      71.79432168     101.76767092
H      97.82562832      71.78865251     101.70719968
H      95.00048748      70.13136253     100.82469749
H      95.07040735      71.55621618     103.69141231
C      95.15544504      78.57465971      96.74099893
O      97.43634470      79.18315157      96.74099893
N      93.48114752      80.29242091      97.25878394
H      91.67645889      79.77463590      96.91107430
C      93.75326811      82.88701514      98.33970739
H      95.75826773      83.31976248      98.53434920
C      92.75738234      84.79752844      96.46509889
H      92.36053982      86.64568078      97.28146065
H      90.93757590      84.17202905      95.72999535
C      94.58285796      85.21137851      94.32592870
H      94.94946487      83.37267481      93.46421350
H      96.30061918      86.05230672      95.09126786
C      93.47925780      86.65701914      92.08660302
H      95.00993611      87.29763637      90.86395009
H      92.38321653      88.28974267      92.70454352
N      91.89566715      85.01484697      90.30648083
H      91.36843350      83.34243919      91.05670218
C      91.21158622      85.28129838      87.92353595
N      91.34008761      87.46582200      86.70655221
H      91.04529030      87.35621787      84.82249507
H      91.73693014      89.07208936      87.65897427
N      90.35931965      83.29897548      86.80481797
H      89.69224626      83.29330631      85.01524716
H      90.39144500      81.58121426      87.63629755
C      92.31707611      82.90780213     100.93241189
O      90.17601620      81.95726980     101.08359000
N      93.72114276      83.61078032     102.88071972
H      95.21024710      84.72382912     102.44986212
C      92.83297140      83.60133169     105.48665230
H      91.43835338      82.08577119     105.46208586
C      95.12331969      83.01173708     107.06646350
H      94.34853190      83.04953161     108.97697680
H      96.45935619      84.52918732     106.67529016
C      96.34219316      80.43792984     106.90016759
H      96.60108567      79.86534278     104.94052140
C      98.73458667      80.13935308     108.42517672
H      98.10908726      80.12045582     110.38671263
H      99.71535463      81.87223212     107.89983281
H      99.77393614      78.40647406     108.02266502
C      94.69057236      78.18726580     107.87904582
H      95.80173143      76.45438678     107.96408350
H      92.91611935      78.07388223     106.83780662
H      94.25971476      78.61623368     109.84625091
C      91.44213283      86.01073274     106.31813188
O      90.33664294      86.17324921     108.41383836
N      91.71236369      88.07620361     104.91217551
H      92.61565287      87.88723097     103.24354717
C      90.13444222      90.25694776     105.25421597
H      88.87399477      89.92057648     106.84914498
C      91.52339106      92.67012827     106.13293870
H      92.90100154      92.15801244     107.57668961
H      90.21192100      93.93246545     107.09480940
C      92.90856045      94.01372367     103.81613424
H      91.68212807      94.93213067     102.43852376
H      93.80618045      92.46603783     102.79379231
C      94.84364019      95.95636233     104.87438098
H      96.31195754      95.01905808     105.97420169
H      94.10097775      97.36987761     106.17829214
C      96.13810272      97.39633378     102.67851900
H      96.98470011      96.03573083     101.38405648
H      97.65366322      98.50749285     103.52133694
N      94.16333872      99.23503748     101.68830242
H      93.35453586     100.31785066     103.03756700
H      92.80840495      98.45647025     100.59037143
H      94.89844226     100.36320408     100.33525838
C      88.40156319      90.83709375     103.13016359
O      88.63022008      89.71648604     101.18752494
N      86.51372661      92.47548645     103.32102595
H      86.52317524      93.40334207     104.98965428
C      84.58998522      92.90445433     101.34437223
H      83.64701179      91.13378078     100.87383037
C      82.45648421      94.59953884     102.02845315
H      83.04040964      96.47792680     102.63316557
C      80.42124897      95.03039644      99.81747337
H      81.55130531      96.20769592      98.55702591
H      78.75262064      96.11320962     100.35415564
H      79.83354409      93.19358245      99.09937737
C      80.84454767      93.31074548     104.19596923
H      82.05775196      92.50950153     105.65483795
H      79.48961390      91.89156103     103.56669037
C      79.35166388      95.38188553     105.74932426
H      80.49494830      96.47981651     107.06646350
H      77.98350203      94.30096208     106.84158607
H      78.52774321      96.71414257     104.41139803
C      85.70303402      93.87955310      98.77245471
O      87.10710067      95.78061779      98.93308145
N      85.12855722      92.65690018      96.62761535
H      84.21203996      91.01283829      96.94697910
C      86.00916968      93.38633454      94.11049990
H      87.05229861      95.15700809      94.25222937
C      87.83275557      91.20748011      93.19020319
H      89.35965443      91.06575062      94.56403422
H      88.87588450      91.85376650      91.53480294
C      86.79340610      88.61099615      92.83682437
C      86.20948067      87.70770697      90.38773906
H      86.19247313      89.11555307      88.90997309
C      85.33075793      85.26429085      90.04191915
H      84.54463179      84.58965855      88.28069422
C      85.24572025      83.53897072      92.04880849
O      84.64667701      81.10878268      91.61795089
H      84.80352429      80.75540387      89.84538761
C      86.12444299      84.32320714      94.46765817
H      86.24160602      83.00606790      96.02290293
C      86.86143625      86.90457328      94.84938289
H      87.59842951      87.57542612      96.62950508
C      84.00983924      93.86632502      92.28124483
O      82.06909032      92.65690018      92.47588664
N      84.35754888      95.48771020      90.29514247
H      85.92413200      96.57619256      90.21766370
C      82.54530135      95.77872806      88.11628804
H      80.74250245      95.84486847      89.11028408
C      82.98182813      98.29206405      86.98812143
H      81.79696973      98.66245041      85.34405953
H      84.94903322      98.39221955      86.38529873
C      82.41868969     100.36131436      89.02713612
H      83.97015499     100.42745478      90.37829043
H      80.64990586      99.82841154      89.93798420
C      81.99539099     102.84630447      87.89330033
H      79.93747904     102.80850994      87.81771128
H      82.97048977     102.97480585      86.08483225
C      83.12355760     104.94579040      89.41453001
H      83.26528707     104.27682728      91.35716866
H      81.87066906     106.57851394      89.55625949
N      85.51406139     105.80561588      88.43754151
H      85.45170042     106.36686459      86.61773507
H      86.84631844     104.43745402      88.45454905
H      86.25861355     107.23046951      89.46555262
C      82.65679520      93.73593392      86.13396513
O      84.46148383      92.35454397      85.91664661
N      80.62155996      93.53751264      84.60706627
H      79.19292687      94.77717311      84.88107659
C      80.49305857      92.36588233      82.03325903
H      81.70248341      90.70859235      81.85373503
C      77.77752186      91.39267329      81.85184531
H      76.26196136      92.78351184      81.73846173
H      77.45248894      90.08309295      83.40709006
C      77.49028346      89.74861139      79.48023879
O      76.33377096      90.68213619      77.69066797
O      78.53530211      87.62833846      79.45000316
C      81.20548539      94.23293193      79.88464022
O      81.39256830      96.51761104      80.17754779
N      81.84421289      93.28806877      77.64342481
H      81.93114030      91.45314452      77.12563980
C      82.26373213      94.95858684      75.46457037
H      83.92858101      96.01683356      76.05416498
C      82.94025415      93.42412907      73.08540494
H      82.67002329      94.67134843      71.46590949
C      85.66523949      92.52083989      73.01359534
H      86.24538547      91.82920006      74.86552713
H      86.59687456      94.35198469      72.86430696
H      85.90145528      91.36054793      71.33173892
O      81.38878885      91.23015682      72.94178574
H      80.90123946      90.94858759      71.21646562
C      80.00739891      96.62721516      74.84096069
O      80.31731403      98.46780859      73.47657829
N      77.76618350      95.79384586      75.85007454
H      77.73972733      93.99671614      76.48880203
C      75.41158452      97.44168720      75.99747319
H      75.61945441      99.07819020      74.75970246
C      73.08911088      95.85620683      75.01670523
H      71.25040718      96.63288434      75.53449024
H      73.03619854      94.07986410      76.05605471
C      73.20060473      95.44235677      72.08573972
H      74.99584473      94.59197993      71.54149854
H      73.22895063      97.29428855      71.18434027
C      70.98584549      93.89467092      71.43945332
O      68.99029451      94.87354915      70.58151758
O      71.32599623      91.51361576      71.30717248
C      74.80120292      98.50371340      78.66387702
O      72.64502520      99.11787444      79.20811820
N      76.77218746      98.89866620      80.24179849
H      78.43514662      98.13899622      79.69188813
C      76.68903950     100.17423145      82.68332489
H      75.49851193     101.85419816      82.61151529
H      78.61845007     100.70524455      83.17087427
C      75.58543934      98.47914696      84.86028960
O      76.43770591      98.91189429      87.03536458
N      73.81476578      96.71036313      84.37085048
H      72.98706566      96.66123024      82.65119954
C      72.50518545      95.44046705      86.53269739
H      71.05198591      96.71603230      87.23378585
C      71.01419139      93.31830439      85.31193419
H      69.95405493      92.36021315      86.79725907
H      72.30109501      91.84809732      84.65997861
C      69.26052537      93.75294145      83.05371124
C      68.66904103      92.00305488      81.24146371
H      69.75941312      90.31552928      81.59295280
C      66.97017708      92.40178713      79.18544148
H      66.53176057      91.13756023      77.64342481
C      65.73807552      94.73370940      79.00024830
O      64.07322664      95.44613623      77.13508843
H      64.02409376      97.25460431      76.99902814
C      66.36735438      96.57619256      80.77281158
H      65.58878714      98.45269079      80.59517731
C      68.14369712      96.19068839      82.69277352
H      68.53109101      97.68357217      84.02881002
C      74.38924258      94.33686687      88.59060934
O      76.30353534      93.18413383      88.02369145
N      73.95460553      94.98882246      90.91686243
H      72.25007240      95.79384586      91.21732892
C      75.54386536      94.30852099      93.08815797
H      77.52807799      94.60898746      92.62706474
C      74.99017555      96.17557059      95.26701240
H      76.17314422      95.48771020      96.80524962
H      73.00974237      96.04517947      95.82070221
C      75.60244687      98.85709221      94.64151299
C      73.65791850     100.67689866      94.02168276
H      71.65858806     100.26871777      94.00278550
C      74.37601450     103.04472572      93.26390251
H      72.97194785     104.49225608      92.96343603
C      76.95171146     103.65888677      92.96343603
O      77.63201294     106.07584673      92.23589140
H      76.48683879     107.33629418      91.60850226
C      78.79230489     101.96569200      93.58137653
H      80.63289832     102.83874556      93.69476011
C      78.12712123      99.43345874      94.32403897
H      79.61433584      98.10309141      94.75111712
C      75.47772494      91.64778633      93.86105603
O      73.45571778      90.62544440      94.32403897
N      77.75862460      90.38166970      94.15774306
H      79.33654607      91.43802671      93.97066015
C      78.11956232      87.72660423      94.56214449
H      76.31676342      86.99150069      95.23110760
C      78.70348775      86.38678828      92.06581603
H      80.59132434      87.05953084      91.59338445
C      78.85844531      83.55975772      91.97888862
H      80.10188523      83.05331107      93.54169228
H      79.78441121      82.88512542      90.26679658
H      76.96682927      82.77741102      92.19809687
O      76.78541555      87.10488428      90.38584934
H      77.25217795      88.80563795      89.96066092
C      80.01873727      87.21259867      96.70509413
O      81.45870872      88.84721194      97.34760107
N      80.06220097      85.00350862      97.81436347
H      78.86033504      83.59755225      97.34571135
C      81.71382177      84.24383864      99.90629050
H      83.44292135      85.35499771      99.77023021
C      80.38912363      84.74461611     102.42340595
H      79.82598518      86.72315957     102.33836827
C      78.03074519      83.18559190     103.02244919
H      77.01029298      83.05331107     101.23476810
H      76.87423268      84.01518176     104.51155353
H      78.86411449      81.32799094     103.33614376
C      81.95381701      84.81453598     104.78178439
H      82.73238425      82.92291995     105.02177963
H      80.81809150      85.26618057     106.44096409
C      83.96637554      86.81386643     104.70997479
H      83.20292611      88.72626945     104.78745357
H      85.28729423      86.64946023     103.13772250
H      85.10210105      86.72882875     106.42773601
C      82.63978766      81.52641220      99.68897198
O      81.44170118      79.96738799      98.51356221
N      84.79407566      80.92736896     100.79068242
H      85.83153541      82.23316984     101.71664831
C      85.82208678      78.35734118     100.66785021
H      84.24605503      77.14791634     101.21020166
H      87.45481031      78.00396235     101.87160587
C      86.63655882      77.15169579      98.02790255
O      87.88188846      78.44615832      96.55013657
N      85.85799158      74.87646530      97.48177164
H      85.23249217      73.87302064      98.98032461
C      85.83909431      73.66704046      94.91174386
H      87.21292534      74.69316185      93.77223889
C      86.58553621      70.90804004      95.14984937
H      85.01328391      69.98396388      96.10605089
C      86.91056913      69.85924194      92.37951060
H      87.21292534      67.82211698      92.31337018
H      88.74171393      70.44127764      91.63306870
H      85.24194080      70.11246528      91.20032138
C      89.13666673      70.54899205      96.57848247
H      89.23493250      71.99841213      98.03924091
H      90.66356559      70.99307773      95.27079186
C      89.23682222      67.91282384      97.80302512
H      88.02172820      67.88825740      99.46598427
H      91.12465881      67.52165049      98.52679029
H      88.99871671      66.38214552      96.44809135
C      83.19347747      74.11868506      93.71365737
O      81.63256354      72.48407180      93.89318137
N      82.67380274      76.25785525      92.45509965
H      84.15912762      77.45594173      92.37195169
C      80.38912363      76.72461764      90.96788504
H      80.27196059      75.09756328      89.70932732
H      80.72360518      78.31387747      89.70176841
C      77.76807323      77.01563549      92.51746062
O      75.71583045      76.98539987      91.39685292
N      77.77752186      77.14224715      95.01000963
H      79.38756868      77.53342050      95.95676251
C      75.42103315      77.40491911      96.46131943
H      74.25885147      75.86479216      95.73755426
C      75.76874279      77.18004168      99.23732739
H      76.79675390      78.77308097     100.04046107
H      76.91769639      75.50007498      99.55480141
C      73.43493079      76.76619161     100.69619610
N      72.23684431      74.47773306     100.98721395
H      73.03052936      72.82044308     100.46753922
C      69.95783438      74.96528244     101.92451820
H      68.54053964      73.55176717     102.31002237
N      69.76508229      77.41247802     102.45553130
H      68.17960192      78.20805280     103.15850949
C      71.86645795      78.63702066     101.56358048
H      72.09700456      80.65713809     101.39539484
C      74.27207955      80.13179419      95.92463716
O      75.30575984      81.98183624      96.94319964
N      72.32188200      80.33966408      94.39584857
H      71.47717433      78.73150698      93.80436424
C      71.11434688      82.76985211      93.85349712
H      72.62990738      83.97171805      93.14296003
C      69.29454044      82.19915477      91.61039199
H      67.75441350      81.00295802      92.27179620
H      70.33955909      81.14090803      90.18742807
C      67.94905531      84.51784896      90.63151376
H      67.20450314      83.78274541      88.85706075
C      65.54532344      85.21515797      92.20943523
H      64.20739721      86.37922937      91.16252685
H      65.89870226      86.27907387      93.93853481
H      64.44361300      83.58810361      92.83115519
C      69.21706166      86.94992672      89.63373826
H      67.94527585      88.43336188      88.98367241
H      70.27341867      86.25072798      88.01046336
H      70.43026596      87.75872958      91.09071725
C      69.81799463      83.87534200      96.20809611
O      68.75596844      82.43348083      97.72365661
N      69.76886175      86.40001636      96.42163518
H      70.73073244      87.17291443      94.96465619
C      68.48195813      87.79841384      98.47387796
H      67.53331552      86.55875337      99.81747337
C      70.32255156      89.32342296     100.15573438
H      69.18682604      90.42891287     101.47098389
H      71.16536949      90.63300331      98.80835951
C      72.32377172      87.86455426     101.52956541
H      73.41225408      86.53607666     100.39383989
C      74.23806448      89.76561892     102.50277446
H      75.04497761      90.78985058     100.90973517
H      75.63646195      88.62800368     103.50054995
H      73.23650953      91.06008146     103.75566300
C      71.26741471      86.40001636     103.83692123
H      71.01608111      87.64534600     105.45641668
H      72.61101012      84.95626545     104.43029530
H      69.51374869      85.33799018     103.63283079
C      66.31822150      89.44058601      97.49499973
O      64.07322664      89.05886128      98.04302036
N      66.93805173      91.26417190      95.99266731
H      68.79187324      91.69313976      95.84337893
C      65.25241586      93.22381807      94.92875139
H      63.40048407      92.33753644      94.73599931
C      64.94439047      95.48771020      96.73910920