 %block lattice_cart
   142.669   0.000   0.000
   0.000 146.65   0.000
   0.000   0.000   162.396
 %endblock lattice_cart

 %block positions_abs
N      90.29317923      44.76934569      78.26608962
H      89.14800509      43.24433655      78.36246567
H      92.05062471      44.24211205      77.74263543
H      89.60720858      46.04869040      77.02831889
C      90.25916416      45.86349722      80.78131536
H      90.86198685      44.31014220      81.99451964
C      92.32652475      48.01022632      81.25941610
H      94.14822091      47.07670152      81.48051408
H      92.15833911      48.71131478      83.18882668
C      92.44746723      50.20986774      79.46417612
H      93.12776870      51.81802484      80.55832764
H      90.65222723      50.84103633      78.67804996
S      94.55640180      49.79034850      76.81855927
C      93.22225502      52.55501810      75.17449738
H      91.17001224      52.42651671      75.24819670
H      93.62665645      52.73076265      73.16193886
H      93.78917291      54.13860875      76.36502495
C      87.60409869      46.52301171      81.55232369
O      86.32097452      47.50188994      79.87613645
N      86.94647393      45.96365272      83.85590007
H      88.20881111      45.38161701      85.16359067
C      84.26306257      46.23010413      84.62501867
H      82.95159251      45.52901567      83.19827530
C      84.00417006      44.91674434      87.10811904
H      85.15312366      45.50633895      88.71060696
H      84.65801537      42.97032624      86.95505121
C      81.27162582      44.75422788      88.00951849
O      80.40046199      46.20364796      89.42681323
N      79.95070712      42.89473719      87.02308136
H      78.18192329      42.85694266      87.74117736
H      80.83698876      41.29035955      86.49206827
C      83.59787891      48.99855318      84.94060296
O      85.22304354      50.61237945      84.84989610
N      81.12989634      49.65239848      85.01997147
H      79.78630093      48.36171541      84.61179058
C      80.08298797      52.14305776      85.25429753
H      80.71982573      53.18051751      83.59322810
C      77.23894986      52.12416050      85.44704961
H      76.48872852      51.30212955      83.71417059
C      76.08810654      50.72198358      87.68637530
H      76.57754565      51.71220016      89.42492350
H      76.78352582      48.78312438      87.66936777
H      74.03208431      50.83914661      87.67692666
C      75.89346473      54.80757186      85.29398178
H      76.67203197      55.92062066      86.84166763
H      73.85822949      54.73954172      85.60767635
C      76.61534018      56.40628032      82.96583897
H      76.09377572      55.08158218      81.47862437
H      78.62222953      56.87115300      82.93371362
H      75.41158452      58.06168057      82.72584373
C      81.12800662      53.84192172      87.35378346
O      81.79319028      55.97353300      86.80765256
N      81.31886897      52.84036677      89.63846257
H      80.68581066      51.04890623      89.78964068
C      82.13712047      54.11215258      91.99684102
H      81.05241756      55.86203915      91.94203896
C      81.68169643      52.47564959      94.40057289
H      82.50561710      53.30523944      96.09754711
H      82.73805344      50.74277056      94.04530435
C      78.99072616      52.04857145      95.23016275
C      77.79074995      49.70531082      94.46293386
H      78.68648022      48.44297364      93.13256653
C      75.24528860      49.36516008      95.26795726
H      74.31932271      47.57936872      94.91646817
C      73.89035484      51.16228981      96.78540750
H      71.93826756      50.82969797      97.28051578
C      75.22450161      53.38838740      97.54318774
H      74.14546789      54.67907047      98.69970025
C      77.69437391      53.78145048      96.71170817
H      78.59010418      55.47275553      97.42602471
C      84.88856198      54.87560201      91.92125196
O      85.92035255      56.07557822      93.61066729
N      86.10554572      53.93451831      89.90113453
H      85.06619625      52.95752980      88.63501790
C      88.84753860      54.08380669      89.68570573
H      89.44847157      55.37826921      91.17103061
C      89.97003603      51.62716248      90.25262363
H      89.36910307      49.93207798      89.24917896
H      89.45792020      51.27756311      92.21604928
C      92.88399401      51.88038580      90.28852844
H      93.42067628      53.65294909      91.18803816
H      93.52839068      52.04479199      88.33833087
C      94.29939902      49.48988202      91.14268472
O      95.04395119      47.79101806      89.64980094
O      94.44301822      49.14784156      93.50673235
C      89.74893806      55.37448976      87.20449509
O      91.13977662      57.26232634      87.38968827
N      88.47526252      54.76032871      85.02564064
H      87.20725617      53.33358534      85.06154544
C      88.66801461      56.30045565      82.71072591
H      90.43490871      56.00943780      81.69027370
C      86.81986227      55.21386302      80.87958111
H      84.82998046      55.32535687      81.39547640
H      87.30930139      53.23531957      80.56966601
C      86.88411297      56.39494197      78.24908209
H      86.08475874      54.98709586      76.97351683
H      88.87399477      56.66328310      77.79365805
S      85.14178531      59.35614310      77.74263543
C      82.26751158      58.86292453      79.53787544
H      80.98438742      60.44840491      79.24874732
H      82.56797807      58.66072382      81.56555178
H      81.31508952      57.20185510      78.77631573
C      88.24660564      59.18795746      83.26252600
O      89.63933393      60.86414470      82.55765808
N      86.32475398      59.92495072      84.76485841
H      85.25516888      58.48308954      85.40925509
C      85.59154017      62.52521413      85.24862835
H      85.03407091      63.43417248      83.48740344
C      83.10466034      62.49497851      86.88891080
H      83.08576308      64.16171711      88.10022537
H      83.01206375      60.70162823      87.89613492
C      80.60077298      62.42883808      85.27130508
H      80.66313394      60.63737754      84.25652204
C      78.52018430      62.41749973      87.05709643
H      78.88112203      60.76776866      88.23439593
H      76.78919500      62.12837160      85.97806271
H      78.55797883      64.19573219      88.09644590
C      80.37211609      64.78154734      83.63858154
H      81.09021209      64.34313084      81.75830385
H      81.22060321      66.49174966      84.41147960
H      78.37656510      64.98563779      83.17559859
C      87.56252471      64.20329109      86.71505597
O      87.62677541      66.51064692      86.29553673
N      89.14989482      62.93150528      88.15691716
H      89.08753385      61.03422007      87.96227534
C      91.25504993      64.10502532      89.53830708
H      90.83364096      65.86436052      90.52285450
C      92.19235418      62.30978533      91.66424919
H      93.47169889      63.23386149      92.99083706
H      92.94824470      60.69217960      90.64001753
C      89.93791069      61.27043585      93.19303777
H      88.93068656      59.94951716      91.97416431
H      88.60943309      62.69151004      93.86955980
C      91.05473894      60.15927678      95.63267444
H      91.82196782      61.72963935      96.72115680
H      92.71013919      59.01599236      95.18102985
N      89.04407014      58.72497451      96.89879107
H      87.92157271      57.58735927      95.85755187
C      88.57352829      59.06890470      99.39322981
N      90.00027166      60.46352272     100.95792319
H      89.70547435      60.39549257     102.84009061
H      91.76338631      60.93406457     100.39478476
N      86.60821292      58.00687851     100.41746147
H      86.27373137      58.30923472     102.27317270
H      85.70681347      56.69729818      99.36110446
C      93.43390437      64.72674528      87.75818489
O      95.13843750      66.14781947      88.54809049
N      93.39610984      63.89715543      85.46594688
H      91.89944660      62.85024705      84.91414679
C      95.19512929      64.73619391      83.47039589
H      96.67667472      65.92105231      84.27163986
C      96.55762196      62.43828672      82.20049982
H      97.83129750      63.01654297      80.68871877
C      98.28105236      61.15894200      84.09778504
H      99.79094368      62.49686823      84.52108372
H      99.30528402      59.62826369      83.17748832
H      97.38910154      60.38982339      85.78531062
C      95.03450255      60.47675080      80.88902975
H      94.04806542      61.59546878      79.46795556
H      93.87987978      59.50921093      82.29309641
C      96.27605274      58.30167582      79.46228638
H      97.88420983      59.11236840      78.46262117
H      94.99670803      57.45507843      78.08656562
H      96.64265965      56.85036601      80.87769139
C      93.88554896      66.18750372      81.33311543
O      95.11765051      67.61802654      79.97251248
N      91.39677940      66.02309753      81.01942087
H      90.47648269      64.66249459      81.99451964
C      89.85287300      67.20795593      79.04087741
H      91.06796702      67.69928477      77.44783813
C      87.80818913      65.49208444      78.06577864
H      86.40790193      65.27665564      79.56244188
H      88.70580913      63.71007252      77.55177308
C      86.58175676      66.77898806      75.82456323
O      87.77417406      67.15693332      73.85735814
O      84.17991461      67.16071277      75.90960091
C      88.69069132      69.85546249      79.76653233
O      88.88533313      71.67148948      78.37758349
N      87.61543705      70.07467075      82.08333679
H      87.13166711      68.47029311      82.99796432
C      87.22804315      72.59556565      83.21339312
H      87.02395271      74.14703095      81.87168743
C      84.66557427      72.55966085      84.72139472
H      84.78084758      70.95528321      86.01018806
H      83.17835967      72.08344982      83.37590957
C      83.89078649      74.99362834      86.14057917
H      85.32508876      75.30732291      87.58621980
H      82.16168691      74.86323722      87.25173824
C      83.41835491      77.16303415      84.25463231
O      81.15824224      77.90380686      84.05432133
O      85.13800585      78.30820829      83.11701707
C      89.30296265      73.40625824      85.11445778
O      90.17979566      75.58133322      85.16925984
N      89.80751957      71.73762990      86.98150739
H      88.69447077      70.19750296      87.14213412
C      91.81818837      72.05699365      88.77107820
H      93.58508247      72.63713963      87.88479657
H      92.34731174      70.24663584      89.59499888
C      91.12087936      73.82955693      90.91402784
O      88.88533313      74.47395360      91.22394295
N      92.90478100      74.32655495      92.62045070
H      94.62821140      73.51019318      92.57509728
C      92.52116656      75.32810990      95.17536067
H      90.50671831      75.31299209      95.60243882
C      93.91389485      73.43649386      96.97249041
H      95.93212255      73.84467474      97.05563835
H      93.64744344      71.56755453      96.14668000
C      92.91611936      73.45539112      99.69936547
H      93.13343788      75.42259621     100.26817309
C      90.02861755      72.87524514     100.01494976
H      89.45225103      73.11524038     101.97648567
H      89.48815583      70.97607020      99.42535515
H      89.01572425      74.24529672      98.85654754
C      94.23325860      71.69038674     101.45681095
H      93.34319750      69.85168304     101.19980816
H      94.27672230      72.23084847     103.44480302
H      96.22691986      71.68093811     100.94469512
C      93.52461123      78.02663907      95.64401281
O      95.79417253      78.57088025      95.53629840
N      91.83897536      79.72172357      96.41880059
H      90.02105865      79.31732214      96.00306081
C      92.32652475      82.20482395      97.65657133
H      94.29372984      81.97616707      98.22537895
C      91.45914037      84.24950782      95.82164708
H      91.22103485      85.95026150      96.95926232
H      89.76594559      83.55975772      94.87489419
C      93.38288176      84.82965380      93.74105841
H      93.79673182      83.14590765      92.63178905
H      95.19890874      85.51373472      94.43458796
C      92.55140218      86.99528015      91.85889099
H      94.23892778      87.92313577      91.12756692
H      91.38355132      88.29352213      92.95493226
N      91.11521018      85.92947451      89.66491874
H      90.47270323      84.15124205      89.94270851
C      90.65033751      87.19370142      87.57299172
N      91.30796226      89.45381409      87.25740742
H      90.66545532      90.38922861      85.72294965
H      92.16589801      90.45725876      88.63501790
N      89.44469212      86.24505881      85.73239829
H      89.57886269      87.17102470      84.06943913
H      88.56596938      84.54997430      85.74940582
C      90.76750054      82.28797191     100.13400252
O      88.78517764      81.17681284     100.21715049
N      91.65756163      83.25929123     102.29773916
H      93.35453586      84.12478588     102.19569393
C      90.61065326      82.96260420     104.85264912
H      89.11587974      81.54530947     104.86965666
C      92.70447001      81.89301911     106.76316243
H      91.79740138      81.77207662     108.60753530
H      94.32585519      83.16291519     106.69891173
C      93.38477148      79.21905638     106.26805413
H      94.52805590      79.24740227     104.55596209
C      94.98914912      78.34411309     108.56596133
H      96.81651447      79.27385844     108.35620171
H      95.18190121      76.30509840     108.78705930
H      93.93468184      78.69749191     110.29884035
C      91.16812252      77.20082867     105.94869038
H      89.93224151      77.54097941     104.33486412
H      89.79618121      77.22728484     107.48503788
H      92.03172744      75.32999962     105.96380819
C      89.59775995      85.44570458     105.99782328
O      88.18613440      85.39279224     107.85164479
N      90.24782580      87.63967683     104.87532584
H      91.14733553      87.53763160     103.19346943
C      88.97037082      90.13033611     105.17579233
H      87.78173296      90.02451143     106.85386929
C      90.97726016      92.18257888     105.76916638
H      92.03172744      91.36810684     107.33763923
H      90.13633195      93.97214970     106.34742264
C      92.81218441      92.50194263     103.44669274
H      91.75960685      93.14444958     101.79696167
H      93.54350849      90.60654714     103.11788037
C      94.95891350      94.33119770     103.73393114
H      96.13621299      93.58853526     105.25138137
H      94.37687780      96.22092401     104.30462850
C      96.54250415      94.59386966     101.33775818
H      95.54661838      95.54251227      99.80330041
H      96.89399325      92.66634882     100.70092041
N      98.78938874      96.05462810     101.93302198
H      98.39443594      97.29239883     103.33330917
H      99.70212655      96.78973163     100.42502038
H      99.84007657      94.76961420     102.87599540
C      87.33386783      90.68969510     103.00449679
O      87.48693566      89.46704217     100.99193827
N      85.75027718      92.49816318     103.43913385
H      85.35532438      92.83075501     105.27783754
C      84.16668653      93.54129210     101.41145751
H      82.92891579      92.02951105     100.76139165
C      82.08609786      95.48204102     102.39600491
H      83.10088089      96.90689466     103.48637700
C      80.84454767      96.81429808     100.09431826
H      79.23261112      97.90278043     100.77650947
H      80.31920375      95.49337938      98.60521393
H      82.16735609      98.21080582      99.35921473
C      80.15290784      94.35387442     104.19691409
H      81.42469365      93.36554755     105.47814854
H      79.00962342      92.96114612     103.20291805
C      78.49561786      96.19446784     105.55751704
H      77.87389791      95.36865745     107.34141868
H      76.75329020      96.74815765     104.60887444
H      79.48961390      97.93868523     106.01294108
C      85.89578610      94.50316279      99.23449279
O      87.92535216      95.55385062      99.67479902
N      85.11532914      94.11954835      96.90446026
H      83.79441044      92.74193787      96.90446026
C      85.89011693      95.17590536      94.41191124
H      87.12788766      96.80862890      94.61600169
C      87.40945688      93.08775779      93.01351377
H      89.09887220      92.74004814      94.14168039
H      88.28440016      93.79829488      91.29008337
C      86.17924505      90.59709851      92.34644038
C      85.19091819      90.16624091      89.88790645
H      85.51973057      91.64967606      88.52541378
C      84.69580990      87.68314053      89.01296317
H      84.11944337      87.09354592      87.14591357
C      84.70903798      85.71782517      90.83654906
O      83.81708716      83.46716113      90.07120991
H      83.52795903      83.32354193      88.28541854
C      85.20603600      86.19214647      93.35366451
H      85.03029145      84.71627022      94.75584143
C      86.16034779      88.61099615      94.05286324
H      86.48538071      89.00216950      96.02951697
C      83.52984876      95.85431711      92.90579938
O      81.46437790      95.33086292      93.87522897
N      83.76984400      96.67067888      90.53041339
H      85.53484838      97.23570704      90.06365100
C      81.65712998      97.11476456      88.69926861
H      79.89212561      96.60075900      89.62712423
C      81.52673887      99.85297799      87.76196436
H      80.53841201      99.97203074      85.95916544
H      83.44292135     100.56162535      87.49362321
C      80.39479281     101.78427828      89.63468312
H      81.60988683     101.87309542      91.29575255
H      78.56364801     100.87720965      89.90113453
C      80.51006611     104.53194034      88.38935349
H      79.10788919     104.68122872      86.88702106
H      82.37522598     104.79083284      87.55409445
C      80.01495782     106.47457899      90.41514009
H      81.36611213     106.36308514      91.96660540
H      78.17625412     106.22702484      91.31276010
N      80.21148935     108.98035608      89.36067282
H      79.78441121     110.46001178      90.48883942
H      79.01151315     109.20334378      87.89046575
H      81.96326565     109.40932395      88.73895285
C      81.96137592      95.37432662      86.44104565
O      84.02495705      94.78851147      85.72294965
N      79.87133862      94.64678199      85.18815711
H      78.16680548      95.20992044      85.83633323
C      79.85622081      93.42601880      82.80710195
H      81.16769087      91.85565623      83.04331774
C      77.11611765      92.41690495      82.58789370
H      75.93881816      94.10443054      82.69749783
H      76.55864839      91.26039244      84.19983025
C      76.69848814      90.93346979      80.18605156
O      76.61722991      88.55052491      80.26353034
O      76.18826203      91.99549598      78.19050058
C      80.69903874      95.07008069      80.48840777
O      80.26629142      97.32263445      80.76808726
N      81.55886422      94.14222507      78.33411978
H      81.39634775      92.26761657      78.02231493
C      82.26373213      95.85998629      76.27242836
H      83.47693642      97.33964199      77.03587780
C      83.51851040      94.48615526      74.17105270
H      83.47693642      95.88266300      72.65549221
C      86.25105465      93.58664553      74.74552950
H      86.73293486      91.98793707      73.54177384
H      86.37577659      92.96492558      76.70328596
H      87.36977263      95.28928894      74.44506302
O      82.02751634      92.47926591      73.15437995
H      82.28829857      90.99772048      74.17105270
C      79.76740367      97.27350157      75.20662273
O      80.01684754      99.07063129      73.81578416
N      77.45815812      96.47603707      75.87180638
H      77.32020810      94.77150393      76.71840377
C      75.20749408      97.79506603      75.15371040
H      75.48339412      98.76827508      73.35658066
C      73.00029374      96.02817193      74.96095830
H      72.85478482      94.90756423      76.68249898
H      73.74106646      94.75260667      73.52665604
C      70.33011046      97.09775702      74.18617052
H      70.69482764      98.63788397      72.86525183
H      69.59878638      97.85931673      75.95495435
C      68.48951704      95.00016082      73.13359296
O      68.55187800      92.77028377      73.89704239
O      67.66181691      95.35731909      70.93773099
C      74.49128781      99.79250674      77.14359219
O      73.24784789     101.71246868      76.49352634
N      75.49095302      99.65833618      79.43771994
H      76.91958612      98.41111681      79.66448709
C      75.41158452     101.60097483      81.48240381
H      73.89980347     102.96913668      81.19138596
H      77.30698001     102.39088043      81.64681000
C      74.62356865     100.62209660      84.14124874
O      74.98450637     101.94301529      86.02719559
N      73.39902600      98.49048532      84.45683302
H      73.02863964      97.43223858      82.91292664
C      72.20849842      97.72514616      86.88702106
H      71.19560512      99.30306763      87.73361845
C      70.17326318      95.84675820      86.32766207
H      68.99785341      95.69746982      88.01140822
H      71.02175029      93.98348806      86.10089492
C      68.52920129      96.45336035      83.94660692
C      68.28731632      94.59386966      82.01530664
H      69.05076575      92.70036389      81.99640937
C      66.85490377      95.01527863      79.84968027
H      67.04198668      93.71136747      78.29065608
C      65.80988512      97.45680502      79.54165488
O      64.36991367      97.73648452      77.43649978
H      63.63292041      99.39566422      77.45539704
C      66.08011599      99.30117790      81.35012298
H      65.28832066     101.17011723      81.13847363
C      67.55599224      98.80229016      83.48929315
H      67.81866419     100.30273285      84.84989610
C      73.95460553      96.59320010      88.94682274
O      75.40969479      94.89055669      88.29297745
N      73.63713151      97.45869475      91.27685530
H      72.38802242      98.88165866      91.51874027
C      75.00529336      96.47603707      93.52751933
H      76.99706490      96.92957138      93.25539874
C      74.21160831      97.93868523      95.85188270
H      74.64435564      97.07697003      97.67168913
H      72.17070389      98.09364279      96.06542178
C      75.20182490     100.58619180      95.85566214
C      73.59744726     102.55150716      96.72493626
H      71.68126478     101.94868447      97.08398426
C      74.54231042     105.14043221      96.80241503
H      73.12879513     106.57662421      97.11988906
C      77.06131559     105.56373090      96.19392315
O      78.02507601     108.01281621      95.87833887
H      76.67959088     109.19200543      96.18447452
C      78.71104666     103.55306211      95.83865461
H      80.69525929     104.03305259      95.89723612
C      77.82665475     101.06807201      95.73849911
H      79.15135289      99.57140877      95.33598742
C      74.49695698      93.62066061      93.99806118
O      72.33888953      92.76839404      94.13790094
N      76.58888401      92.23549122      94.08687833
H      78.16680548      93.28995850      94.27774068
C      76.71171622      89.47838053      94.14734956
H      74.95049130      88.48627421      94.54797154
C      77.42414304      88.72249000      91.42803339
H      79.08521247      89.80908263      90.87623331
C      78.12523151      85.89923889      91.13134636
H      79.83354409      85.68381009      92.26329243
H      78.60711171      85.33043127      89.21327415
H      76.41313947      85.07909767      91.93070060
O      75.47583521      89.36310722      89.68003656
H      75.56276262      91.16968558      89.53263791
C      78.71293639      88.57509135      96.11455465
O      80.39668253      90.02262171      96.85532736
N      78.68270077      86.37356020      97.36366374
H      77.34855399      85.06209013      96.98760821
C      80.51573529      85.36822580      99.14567566
H      82.27696021      86.38489855      98.81308382
C      79.86188999      86.09010125     101.92546307
H      79.09277138      87.99494537     102.07097199
C      77.58099033      84.45359826     102.76450155
H      78.03263492      82.44292947     102.75694264
H      76.05598119      84.78430037     101.41901642
H      76.97816763      85.18681207     104.59186689
C      82.23538624      85.81420121     103.65078320
H      83.92291183      86.36789102     102.60387481
H      82.30530611      83.81298104     104.14022230
C      82.11444375      87.26551102     106.08097122
H      80.61589079      86.34332458     107.15244605
H      81.60043819      89.25728255     105.95435957
H      83.90779402      87.22204731     107.09008508
C      80.83131959      82.62434319      98.68080298
O      79.23450085      81.32610121      97.61121789
N      82.98182813      81.56798618      99.60298943
H      84.38211533      82.67536580     100.27762173
C      83.59976863      78.91292071      99.61621752
H      82.03507525      77.93026303     100.52895532
H      85.10021133      78.25529596     100.86343688
C      84.15345844      77.87924042      96.98193903
O      85.62933469      79.04142210      95.46826825
N      83.17646994      75.55298733      96.61911158
H      82.13145129      74.89914202      98.07420084
C      83.06875554      74.35112139      94.09632695
H      84.76761950      74.78953790      93.01540350
C      83.04040965      71.40125862      94.60466333
H      81.22816211      71.23874216      95.57220320
C      83.29741242      70.05955294      92.02896637
H      85.14556476      70.25797420      91.13890527
H      82.01995744      70.75686195      90.57009765
H      82.81553221      68.05833277      92.13857049
C      85.28540450      70.76253112      96.48305129
H      84.87155444      71.14236611      98.46537419
H      86.87844379      72.02486830      96.15801835
C      86.22459848      67.89014713      96.26573276
H      87.87055010      67.79188136      95.03363120
H      84.74305305      66.73552435      95.42291482
H      86.86332598      67.38936966      98.16112825
C      80.73305382      75.49062636      92.53541302
O      78.82254051      74.25852480      91.88156772
N      80.85777575      77.87168151      91.75873551
H      82.29396775      78.99417894      92.32754313
C      78.96426999      79.13968787      90.16947568
H      78.80742270      77.91703495      88.52163432
H      79.65779954      80.96138404      89.50429202
C      76.32999151      79.53275094      91.23717104
O      74.66514263      80.11478665      89.78586123
N      75.78197088      79.47416943      93.68625635
H      77.36367180      79.20204884      94.71993663
C      73.34422393      79.86156332      94.90324008
H      71.94771619      78.83166248      93.79586047
C      73.14769240      78.86189810      97.56775418
H      74.40058094      80.02974896      98.71103860
H      74.05098157      77.02886358      97.82286724
C      70.59467215      79.06976800      98.49183036
N      68.79376297      77.17626223      98.22159949
H      69.04509657      75.46228046      97.41846582
C      66.57900373      77.98884455      99.20803662
H      64.97462609      76.74351491      99.40645790
N      66.84167569      80.24139831     100.16234841
H      65.56422070      81.30531422     101.10154239
C      69.24540756      80.97461212      99.67857849
H      69.84256108      82.90969186      99.93558126
C      72.50518545      82.66402744      94.62356060
O      73.71838974      84.19848521      95.81786763
N      70.50396528      83.07409805      93.17603023
H      69.38146785      81.67381086      92.52785411
C      69.57233021      85.67058201      92.93603499
H      71.11245716      87.01228769      92.64312741
C      68.02086491      85.67814091      90.55309012
H      66.43727426      84.37234003      90.73072439
H      69.13769316      85.16980453      88.89768987
C      66.74529965      88.14045430      89.94648797
H      65.55666180      88.67713657      91.53952725
C      68.67848967      90.28529366      89.48917420
H      69.82555354      89.98860663      87.80353833
H      69.99562891      90.27017585      91.06898539
H      67.60701485      92.04462886      89.40224679
C      65.14470146      88.11966731      87.53708692
H      66.30310369      87.46960146      85.96105517
H      63.81433414      89.68247097      87.35945265
H      63.82000332      86.58143009      87.87723766
C      68.43471497      86.51528967      95.51740114
O      66.84545514      85.18492235      96.59454514
N      69.10745754      88.75272562      96.35077044
H      70.37924335      89.68247097      95.27173672
C      68.10212314      89.92813539      98.66001599
H      67.43127030      88.37289064      99.83164632
C      70.29042621      91.06197118     100.17746623
H      69.67626516      92.62855429     101.36421436
H      71.68315450      91.87644322      98.89623178
C      72.02897442      89.41790929     101.87255074
H      73.28753214      88.31430912     100.67257453
C      73.87523703      91.16968558     103.46181055
H      74.66514263      92.58320086     102.19002475
H      75.36245164      90.00561417     104.28762095
H      72.67148137      92.24305012     104.74115527
C      70.65325366      87.77573712     103.74904895
H      69.22840002      88.97760306     104.62399224
H      71.96472372      86.95370617     105.10965190
H      69.57988912      86.49450268     102.54718302
C      65.99507830      91.90289939      98.42568993
O      64.08078555      91.94447337      99.70503464
N      66.09901325      93.52239484      96.49249991
H      67.50874908      93.48082086      95.20559629
C      64.10535199      95.21747934      95.62889499
H      62.43672365      94.02884149      95.42480455
C      63.31355666      97.16578717      97.71893230