 %block lattice_cart
   142.669   0.000   0.000
   0.000 146.65   0.000
   0.000   0.000   162.396
 %endblock lattice_cart

 %block positions_abs
N      95.06284845      45.11044128      78.54954857
H      94.58474770      44.14479114      80.12369059
H      96.94501586      45.39578996      78.66482189
H      94.72647717      44.14101169      76.93950176
C      93.62476673      47.51984233      78.70261640
H      94.09908803      48.51572810      80.44305435
C      94.42034151      49.32831041      76.77320585
H      93.35264614      48.73493635      75.11402613
H      96.46691510      49.21114738      76.57478457
C      93.46980917      52.03061904      77.45350731
H      94.19924353      52.54840405      79.30921856
H      91.42323558      51.87377176      77.61791350
S      94.47892302      54.60820573      75.39370564
C      97.74625982      54.94646674      76.56155649
H      98.72513805      53.20980826      76.03621258
H      97.59130226      55.29606611      78.58545337
H      98.78182984      56.54328548      75.77543034
C      90.81474370      46.94725526      78.71017531
O      89.83208602      45.23705295      77.50641966
N      89.54106817      48.40423425      80.36557557
H      90.36876829      49.77995500      81.39925586
C      86.92379722      48.66690620      80.31833241
H      86.31908480      48.27195341      78.39081157
C      85.63311415      46.72426756      81.90381278
H      85.31564013      47.24583202      83.87101788
H      86.74049377      44.98949880      81.77342167
C      83.18024940      45.98349484      80.71328521
O      81.14123471      46.92268882      81.26319556
N      83.32575832      44.28652061      79.00308290
H      81.69114506      43.43614377      78.51742322
H      85.01328392      43.61377804      78.41915747
C      86.11688409      51.58842308      80.85879414
O      87.62866514      53.32319184      81.05343594
N      83.68291660      52.19880468      81.10823801
H      82.57931643      50.64355993      81.12713526
C      82.64356712      54.84064207      80.99674415
H      83.39000902      55.72125453      79.29032130
C      79.61244612      54.60253655      80.96461880
H      79.13245564      53.62932750      79.21473223
C      78.48616924      52.94146712      83.04898693
H      79.11355837      50.97993121      83.04520748
H      76.44148537      53.04918152      82.81655059
H      78.64112679      53.85042548      84.89147009
C      78.45971307      57.15555680      80.56588655
H      78.77151791      58.47458577      82.11546212
H      76.40936002      57.06107049      80.37502420
C      79.38000978      58.61064606      78.36246568
H      78.38034456      60.38131962      78.68938833
H      78.68459050      57.72247470      76.63903527
H      81.39445803      58.96591461      78.11869097
C      83.67724742      56.50927040      83.25496710
O      83.94180910      58.76749335      82.89591910
N      84.16857626      55.43968531      85.44515989
H      83.58276110      53.62932750      85.60389690
C      85.13044695      56.97792253      87.61267598
H      83.98338308      58.67489676      87.82621504
C      84.88100308      55.46992093      90.13357088
H      85.32508876      56.84186223      91.60566768
H      86.33987179      54.02050085      90.26585171
C      82.39034380      54.13010498      90.70804767
C      80.30975513      55.35842708      91.94770813
H      80.51006612      57.25949175      92.66391440
C      78.01562738      53.91845563      92.24628490
H      76.49817716      54.72536876      93.34421589
C      77.85122120      51.42779635      91.44693066
H      76.17503396      50.38655715      91.96471568
C      79.87322835      50.26372494      90.11467361
H      79.74283723      48.30596848      89.55720435
C      82.21648898      51.54306965      89.86145028
H      83.83220498      50.43380031      89.27752485
C      87.85165284      57.80751238      87.25173825
O      88.71714749      59.49125853      88.63312819
N      89.13099756      56.87020813      85.34878385
H      88.13322206      55.59842232      84.33589055
C      91.57630341      57.54295070      84.49084810
H      92.51171793      58.79583924      85.83066407
C      93.10509199      55.08441676      84.37368507
H      92.10164732      53.73893163      83.17937804
H      93.07863583      54.17167895      86.22183741
C      95.86598214      55.72503398      83.71606031
H      96.61431376      57.17823352      84.96894886
H      95.80173144      56.44501971      81.78664975
C      97.69901666      53.49704666      84.07132886
O      97.09430424      51.45236279      83.24929791
O      99.71346491      53.75215971      85.25429754
C      91.46291983      58.83363377      81.89625387
O      92.54384328      60.79327996      81.46350656
N      89.90011617      58.03050009      80.21061800
H      88.92123794      56.43746080      80.58478382
C      89.38800034      59.46102290      77.84090120
H      91.18324033      59.50448661      76.82800790
C      87.22237398      58.30073095      76.39904004
H      85.54429702      58.48781385      77.57633953
H      87.46614868      56.30706969      75.94361599
C      86.58175676      59.54984004      73.74964374
H      88.19369331      58.94323789      72.61958741
H      86.42301975      61.59452391      73.93483692
S      83.58276110      58.69190430      72.40793805
C      84.38022561      57.53917124      69.19729305
H      84.33865163      55.48125929      69.28611019
H      86.24538548      58.26104670      68.70029504
H      82.93647470      58.10230969      67.84424902
C      88.78706737      62.16711098      78.35490677
O      89.96436686      63.90565919      77.30421893
N      86.91623832      62.77182341      79.81944466
H      86.06775120      61.50381705      80.96461880
C      86.44380674      65.46468340      80.46951051
H      86.09987655      66.53615822      78.74419038
C      83.85866114      65.65743549      81.95672512
H      83.72827003      67.53582344      82.79387388
H      84.02306733      64.25903801      83.45905753
C      81.40579639      65.32295393      80.35801666
H      81.44737037      63.56550846      79.28654184
C      79.31764881      64.79383056      82.27986831
H      79.79385984      63.29905705      83.61401509
H      77.64335130      64.24769966      81.21028323
H      79.04363850      66.36041367      83.58944866
C      81.19225732      67.65487620      78.67049106
H      81.87822797      69.48224154      79.33189526
H      79.19670633      67.90432007      78.23018483
H      82.24483487      67.31283574      76.93194285
C      88.54707213      66.97079527      81.86412853
O      88.51683651      69.35940933      81.96995320
N      90.45758543      65.61019233      82.64836494
H      90.64088888      63.72802492      82.38380327
C      92.82919195      66.77804319      83.68204525
H      92.34353229      68.55249620      84.61179058
C      94.28428121      65.15476829      85.60956609
H      95.75070883      66.32828833      86.45427374
H      94.79639704      63.35952829      84.73273307
C      92.57029945      64.51226134      87.79408969
H      90.93568619      63.42755844      87.16670056
H      91.89944661      66.21112529      88.74462203
C      94.07074214      63.09874606      89.91814207
H      95.28205671      64.41966475      90.93670456
H      95.23859300      61.56806774      89.18492826
N      92.33597338      61.84207806      91.60377794
H      91.00371633      60.86319983      90.65135588
C      92.47959258      61.57751638      93.96404612
N      94.06696269      62.80583848      95.23772164
H      93.97814555      62.89465562      97.14256577
H      95.45780125      63.92266673      94.55930990
N      91.17001225      60.03738943      95.17725040
H      91.51205271      60.24903878      97.04241028
H      90.84686905      58.22136244      94.68592157
C      94.72647717      67.54527207      81.67704563
O      96.01527052      69.49735935      81.84145181
N      94.65466757      66.26214791      79.39236651
H      93.22981393      64.99981073      79.24685758
C      96.10219793      67.22023915      77.17004836
H      97.98814479      67.70967826      77.83523203
C      96.18156643      64.97902374      75.28788095
H      94.36742917      64.00959414      75.18016657
C      96.96013367      65.80105468      72.65738193
H      95.67889923      67.25425422      71.96007292
H      96.98658984      64.25903801      71.29299954
H      98.82718327      66.64009317      72.90115662
C      98.17900714      63.06851044      75.99085915
H      99.98369577      64.05305785      76.09101465
H      98.35097224      61.80428353      74.37514315
C      98.20735304      61.48114033      78.37569375
H      99.91188617      60.32840728      78.45506227
H      96.49904045      60.32840728      78.31144306
H      97.93901190      62.71702134      80.00085838
C      94.68301347      69.51625662      76.08156601
O      95.88298967      71.38330621      75.30677822
N      92.27928159      69.47657236      76.16471397
H      91.38166160      67.97990912      76.93950176
C      90.77128000      71.38519594      74.78143431
H      91.80496029      71.86896588      73.06556281
C      88.26172345      70.44222251      73.70240058
H      87.15623356      71.93888575      72.81989839
H      87.00505546      70.01703409      75.28032205
C      88.35243032      68.23313245      71.88259415
O      89.83964492      68.45045098      70.02310346
O      86.99938628      66.37742121      72.21329625
C      90.37254775      73.74546410      76.21573657
O      90.09853743      75.77691989      75.05922408
N      90.19302375      73.63774970      78.72718284
H      90.48593132      72.02392343      79.70606108
C      89.31997019      75.65597741      80.45439269
H      89.20658661      77.39263589      79.35268225
C      86.66490472      74.87741017      81.35201269
H      86.69514034      73.45066680      82.83922731
H      85.48949495      74.27269775      79.77220150
C      85.41390590      77.06382351      82.59545261
H      86.56663895      77.83483185      84.12046175
H      83.70559331      76.25691037      83.41559384
C      84.65423592      79.07260258      80.71706466
O      82.43947668      78.93465256      79.63236176
O      85.99783133      80.89429875      80.24841253
C      90.99426770      75.89030347      82.75418963
O      91.59331094      77.97278187      83.49874178
N      91.86165208      73.76058192      83.69716306
H      91.15489444      72.29793375      82.69371839
C      93.81184963      73.81349425      85.63791198
H      95.29339506      75.11551568      85.03508928
H      94.81151485      72.01636453      85.77208254
C      92.91233991      74.90197661      88.16069660
O      90.81852315      75.73345619      88.52163433
N      94.27672231      74.51080326      90.12223252
H      95.83385679      73.41665173      89.97483386
C      93.49059616      75.35173147      92.69792949
H      91.44969174      75.19488419      92.91902746
C      94.85497856      73.36751884      94.40435235
H      96.88076517      73.70955930      94.23049753
H      94.42034151      71.49102061      93.67680771
C      94.29184012      73.25413526      97.26728771
H      94.97592104      75.03047800      98.05908303
C      91.59331094      72.69288655      98.06286249
H      91.51961162      72.27714676     100.07920046
H      90.96025263      70.99591232      97.08398425
H      90.32908404      74.26135939      97.63200488
C      95.81118007      71.08095000      98.51639679
H      95.30473342      71.35307059     100.49305053
H      97.77649544      71.55149186      98.10821591
H      95.08741490      69.34051207      97.68680695
C      94.41656205      77.98034077      93.37256178
O      96.67856445      78.50379496      92.91524800
N      92.69124193      79.55259306      94.61222223
H      90.97348071      78.83071761      95.02229285
C      93.12209953      81.94687630      95.71393267
H      95.11387106      82.26435032      96.13534165
C      92.27361242      84.02557525      93.88845706
H      91.91456442      85.69609331      95.03930038
H      90.54262311      83.40763474      92.95682199
C      94.40144424      84.50556573      91.88345745
H      95.33685877      82.79536342      91.21449433
H      95.90755612      85.52601794      92.85099732
C      93.63421536      86.05325158      89.65169066
H      95.37465330      86.84504691      88.89013096
H      92.82163305      87.83904295      90.27907981
N      92.39455490      84.58304451      87.75440545
H      91.64244383      82.90307782      88.25518292
C      91.85598290      85.29547133      85.40169618
N      92.37565764      87.49322303      84.50974536
H      91.38733078      88.15651697      83.01686158
H      93.50004479      88.68564034      85.48862360
N      90.61821217      83.65518889      84.10345421
H      90.17034703      83.94431702      82.27230941
H      90.12310387      81.96388384      84.83666801
C      91.94480004      82.30970376      98.32931390
O      89.60153941      82.35694691      98.59198585
N      93.40555848      82.20576881     100.33431351
H      95.31040260      82.28135786     100.28707035
C      92.41723162      81.99222973     102.92890775
H      90.81663343      80.70154666     103.02339406
C      94.58096824      80.90752683     104.66934567
H      93.67012016      80.73556174     106.50993911
H      96.03983696      82.35694691     104.78272925
C      95.67889923      78.33182987     103.97392640
H      96.66155691      77.65530785     105.65200336
C      93.76271675      76.38730149     103.27661739
H      93.26382900      76.88240978     101.33964792
H      92.04684526      76.43454465     104.41234289
H      94.73781553      74.58072314     103.11221119
C      97.76704681      78.39797029     101.95569868
H      99.39032171      79.60928485     102.32797478
H      97.05461999      79.01969024     100.12644361
H      98.77994011      76.61784810     101.73460071
C      91.48559654      84.60194177     104.13455312
O      90.29317924      84.65296438     106.03561780
N      91.71803288      86.70331743     102.82875225
H      92.65722686      86.50300644     101.17902118
C      90.81663343      89.25822741     103.49393591
H      89.56563461      89.19775617     105.12854917
C      93.07485637      91.01945233     104.33675385
H      94.03105789      91.51456063     102.57930838
H      94.44679768      90.04246383     105.52539169
C      92.08275006      93.19074787     106.03750752
H      90.97537044      92.21564909     107.47369953
H      90.95080400      94.49465902     104.91312036
C      94.29750930      94.70063919     107.11087208
H      95.23481355      95.69463523     105.56696568
H      95.69401704      93.42318420     107.92534412
C      93.45469136      96.66217510     109.07996689
H      92.59486589      95.99699144     110.82985346
H      92.21692063      98.01710887     108.14644209
N      95.76204719      98.02088832     109.95302044
H      96.97525148      96.74721279     110.69379316
H      95.22158546      99.18873918     111.36086654
H      96.44423839      98.84291927     108.36942980
C      89.39177979      90.53001322     101.43035478
O      89.70358463      89.89128572      99.25527978
N      87.54551718      92.14006004     102.01805966
H      87.26205823      92.55013065     103.85865308
C      85.99783133      93.52333970     100.17935596
H      84.89045171      92.02289700      99.30252294
C      84.12133310      95.28267489     101.41145751
H      84.91879761      96.16139763     103.09520366
C      83.16135213      97.44830125      99.65779149
H      81.90468414      98.81835283     100.54218341
H      82.03696498      96.74154361      98.08364947
H      84.75439142      98.46119455      98.83576054
C      81.93114030      93.75577603     102.69836112
H      82.81553222      92.24399498     103.78306403
H      80.91257782      92.80902315     101.17713144
C      79.94692768      95.11826870     104.33486411
H      81.12422717      96.25021477     105.58775267
H      78.63167816      93.75955549     105.15122589
H      78.99639534      96.46942302     103.10654202
C      87.58331171      94.61182205      97.90034603
O      89.35776472      96.03289624      98.10821591
N      86.69703007      94.11293431      95.62322582
H      84.92635651      93.50633216      95.25472919
C      87.84031449      95.23354201      93.32909807
H      88.90045095      96.91917788      93.85444198
C      89.60720859      93.35515405      91.80975811
H      91.19268896      93.00744441      93.07776448
H      90.64844779      94.33970146      90.33010241
C      88.38644539      90.85126669      90.92725592
C      87.45103087      90.68308105      88.46872200
H      87.69669529      92.35359911      87.31976840
C      86.26239301      88.39462248      87.65802941
H      85.41579563      88.37194577      85.80042843
C      86.05074367      86.38584341      89.25295841
O      84.70525853      84.19754034      88.71438642
H      84.28951874      84.33926982      86.95505121
C      86.99182737      86.61261057      91.74172796
H      86.60632320      85.12161651      93.08532338
C      88.18235495      88.81792118      92.53163356
H      88.46014472      89.13917465      94.52718455
C      85.68035731      96.10659557      91.62834438
O      83.58087138      95.16173241      91.64913137
N      86.21137040      98.25332466      90.21104966
H      87.95180834      99.01677409      90.04286401
C      84.31786464      99.22275426      88.41391993
H      82.42057942      98.92606723      89.15847210
C      84.68825100     102.17639648      88.20227059
H      84.27251121     102.75276301      86.26908056
H      86.70836842     102.56945956      88.31187471
C      83.16891104     103.86581181      90.07687909
H      83.50717205     103.26298911      92.01573828
H      81.16769087     103.49353572      89.76129479
C      83.82086662     106.63426086      89.43248242
H      83.59787891     107.08212599      87.43315197
H      85.82397651     106.84402048      89.85767083
C      82.07664923     108.31044810      90.98016827
H      81.72893959     107.48841715      92.83398977
H      80.38723391     108.00809189      89.84444275
N      82.74183289     110.88047588      91.16914089
H      82.76828906     111.82911849      89.51185091
H      84.18369407     110.96929302      92.41636027
H      81.38122995     111.77242670      92.16691639
C      84.34054135      97.79790062      85.95349627
O      86.37388687      96.98720803      85.07099408
N      82.12578212      97.33869712      84.99729476
H      80.63289833      97.97175544      86.00451889
C      81.74594713      96.02155788      82.51041492
H      82.59254451      94.14505965      82.43482588
C      78.92836519      95.77778319      82.52364302
H      77.98539176      97.60514853      82.41781833
H      78.14790823      94.81591249      84.16959464
C      77.69815336      94.09025759      80.51675367
O      77.57343143      91.84148328      80.84367632
O      76.89879913      95.25999818      78.66293215
C      82.61711096      97.64483279      80.23896390
O      83.25394872      99.92573244      80.50352559
N      82.70025891      96.52800453      77.93349779
H      82.06909033      94.73843372      77.72940736
C      82.73427399      97.95096845      75.58834745
H      84.59187495      98.75977131      75.21229191
C      82.48860957      96.37871616      73.26020463
H      80.57620654      95.72109140      72.86903127
C      83.52984877      97.84136432      71.13993171
H      83.45992889      99.89738655      71.27032281
H      82.48105066      97.30279232      69.45051638
H      85.49705386      97.47097796      70.65994122
O      83.94180910      94.26222268      73.43783889
H      83.27284599      93.13783553      74.69639663
C      80.84076822     100.16194823      75.45795632
O      81.48705462     102.27466225      74.56033633
N      78.61845008      99.95974752      76.52565169
H      78.16680549      98.21364041      77.15115110
C      76.80431282     102.14238141      76.68060926
H      77.54886499     103.73353097      75.61102415
C      74.26263093     101.17106209      75.62614196
H      72.78675468     102.55245202      76.02109476
H      73.72972811      99.48920567      76.69005788
C      74.28908710     100.46241472      72.77265524
H      75.24150916      98.66528499      72.44762231
H      75.54008591     101.65105257      71.64826809
C      71.72283876     100.79500655      71.43472901
O      70.84978521     103.01543497      71.54433313
O      70.73829135      99.03189190      70.27632678
C      76.32054288     103.52755080      79.27709320
O      74.68781935     105.16972296      79.42638159
N      78.06476027     103.10614183      81.14036336
H      79.41213513     101.82301766      80.70761602
C      78.08932671     104.47808313      83.41559384
H      77.43170195     106.41127315      83.13402461
H      80.02251673     104.75398317      84.07132886
C      76.47739017     103.70707480      85.57177155
O      76.36778604     104.80689551      87.61267598
N      75.16403038     101.54522790      85.17303931
H      75.22828107     100.83280108      83.40425547
C      73.71461030     100.35847977      87.15914165
H      72.74518070     101.67183956      88.41203021
C      71.74551548      98.55757059      86.07821821
H      70.67593038      97.99065270      87.74495681
H      72.70549644      96.86437582      85.40358592
C      70.17515291      99.73675981      83.91259185
C      69.76886175      98.37426714      81.69405316
H      70.73073245      96.60548331      81.35579215
C      68.48573759      99.39093990      79.62102340
H      68.36479510      98.13805135      78.01475602
C      67.32733536     101.78333341      79.70228163
O      65.96106323     102.57134928      77.60090597
H      65.29398985     104.23808789      77.85034985
C      67.69016281     103.20629732      81.85279017
H      67.06844285     105.14137707      82.03420389
C      69.05076576     102.08946907      83.97495283
H      69.39091649     103.21952541      85.63791198
C      75.46260714      98.87882407      88.85233644
O      77.47138621      97.97931434      87.96794453
N      74.73884196      98.47064318      91.26929638
H      72.97950676      99.04700971      91.73416907
C      76.34699905      97.50688276      93.31398025
H      78.24428427      98.16639725      92.86233567
C      75.57599071      98.76544049      95.90101559
H      76.53597168      97.56924373      97.27862606
H      73.57099110      98.39316441      96.18258481
C      76.43581619     101.40727787      96.19770261
C      74.78419539     103.43117476      96.01250943
H      72.74707042     103.33101926      95.95959709
C      75.74795581     105.96529774      96.27140194
H      74.32877135     107.42983563      96.27329166
C      78.34066031     106.44150877      96.22415878
O      79.35544334     108.70351117      96.25628413
H      78.17247467     110.07734220      96.19203344
C      79.97338384     104.29100023      96.19770261
H      81.98972182     104.51776739      95.96904573
C      79.03796932     101.84947383      96.15423890
H      80.32865239     100.29233935      95.87455941
C      76.46416208      94.50788711      93.06642612
O      74.49506726      93.31546980      93.13067681
N      78.63545762      93.25499856      92.96060144
H      80.22849690      94.30757612      92.95304254
C      78.94915218      90.53946185      92.64312742
H      77.08777176      89.80624804      93.13445626
C      79.76551395      89.79490968      89.92570098
H      81.72704986      90.36371730      89.64602149
C      79.41213513      86.99433529      89.10933922
H      80.28707841      86.82425992      87.24984853
H      77.52807800      86.17608379      89.25106869
H      80.55164010      85.72821866      90.26774145
O      78.36522675      91.42952294      88.20038085
H      79.08143302      93.08492319      88.03030548
C      80.93714426      89.37350071      94.64056813
O      82.31853420      90.81536189      95.85566216
N      81.00328469      86.94331267      95.07142573
H      79.84488246      85.85860977      94.01128926
C      82.55474999      85.55436383      96.94981369
H      84.38211533      86.50300644      96.98004930
C      81.70248342      86.07592830      99.65023258
H      81.42469365      88.11683272      99.72771137
C      79.13623509      84.82492948     100.02817784
H      78.25562263      85.31436859     101.82530758
H      79.27229538      82.77079698     100.03384703
H      77.70382254      85.35027339      98.64678792
C      83.52228986      85.50334122     101.81396921
H      85.38933946      86.23655503     101.34720681
H      83.55819466      83.44731900     101.95191923
C      82.67569247      86.89040034     104.27817232
H      81.09588127      88.17352450     103.96069830
H      84.16479681      87.93163954     105.24949165
H      81.93114030      85.50334122     105.60287048
C      82.91757744      82.75567917      96.35454989
O      81.67413753      81.80892628      94.72560581
N      84.30841601      81.21744195      97.82097752
H      85.65201142      82.00734755      98.92079824
C      84.38778451      78.41119837      97.55641583
H      82.49616847      77.60239551      97.64712270
H      85.93736009      77.62318250      98.65812628
C      85.35721411      77.84428048      94.90324008
O      87.43969251      78.37529357      94.07176051
N      83.72071112      76.42887547      93.56531385
H      82.06909033      75.81849387      94.30419685
C      84.06086186      75.55960137      90.97638882
H      85.80507925      76.31549189      90.18081403
C      84.28951874      72.63052558      90.80064426
H      82.70592809      71.75180284      91.77952250
C      84.38400506      71.75180284      88.06243083
H      82.80986304      72.26958785      86.83977791
H      84.36132834      69.69389089      88.00384933
H      86.00539024      72.47934747      87.01930191
C      86.85009790      71.91998849      92.18770338
H      86.88789242      72.52281118      94.15679819
H      88.31652552      73.10106743      91.34866490
C      87.84787339      69.25736411      91.95715677
H      86.50427798      68.02904201      92.92091719
H      89.71303326      69.13075245      92.82076169
H      88.11243507      68.80382980      89.96538523
C      81.90279441      76.79548237      89.30965020
O      79.94692768      75.58983699      88.67470216
N      82.19759172      79.25023685      88.65013572
H      83.84165361      80.11195205      89.09611112
C      80.20770991      80.39163155      86.91725669
H      79.58410022      78.88362995      85.65680923
H      80.79352506      81.93742767      85.69082431
C      77.78319105      81.18909605      88.32510279
O      75.89724419      81.76357285      87.14213413
N      77.80586776      81.28358237      90.81954153
H      79.55575433      80.93209327      91.49417382
C      75.53441674      81.56137214      92.53730275
H      74.10767337      80.60139117      91.40724640
C      75.71394074      79.84172119      95.07520518
H      77.22950124      80.35572675      96.37533688
H      76.19960040      77.95766406      94.39868316
C      73.27052461      79.53747525      96.39801360
N      71.85511960      77.34539273      96.69281090
H      72.17070390      75.72589728      95.73849911
C      69.66492681      77.83861130      97.95514808
H      68.22306563      76.44777273      98.34632143
N      69.75941312      80.26313016      98.65623655
H      68.76541708      81.38373786      99.83920521
C      72.05732032      81.33649470      97.79641108
H      72.66959164      83.24133883      98.19325359
C      74.39680150      84.26179104      92.85666650
O      75.19048655      85.59026863      94.58576607
N      72.70738617      85.17830830      91.20126624
H      72.18582171      83.78746973      90.00506949
C      71.47528462      87.63684223      91.11244910
H      73.08344171      88.91429722      90.97638882
C      69.49107199      87.73321827      88.89202069
H      68.32511085      86.03624404      88.95438165
H      70.44160432      87.88439638      87.07032452
C      67.71094980      89.97632341      88.81832137
H      66.46184071      90.15773713      90.44726544
C      69.03942740      92.35170938      88.33833087
H      70.47372967      92.70508820      89.77641260
H      67.72039843      93.93341031      88.40636102
H      69.85767889      92.42351898      86.45049429
C      65.86846664      89.58892951      86.67726144
H      64.36613423      88.27556973      87.18559783
H      66.90592639      89.19208699      84.94249269
H      65.07667132      91.43708185      86.22183741
C      70.13735839      88.22265739      93.71271251
O      69.17926714      86.36505642      94.83520995
N      69.98051110      90.62260981      94.60655306
H      70.89324891      91.88305726      93.50106317
C      69.18115687      91.44086130      97.26917743
H      68.11535123      89.79113023      97.88900767
C      71.46205653      92.15517785      99.01150509
H      70.50963447      92.86949439     100.69525124
H      72.65636356      93.67829725      98.30474746
C      73.15714103      89.92719052      99.64456340
H      73.96972335      89.18074863      97.90412548
C      75.28497286      90.99110644     101.22626433
H      74.56498714      91.71865107     103.01394543
H      76.36211686      92.36115801     100.12644361
H      76.55864840      89.54735553     101.95380897
C      71.74740520      87.92219090     101.14122664
H      70.75151944      88.89728968     102.65678715
H      73.01730129      86.47277082     101.86877128
H      70.34522828      87.09071133      99.88077920
C      67.25174631      93.51389106      97.19925756
O      65.51319810      93.48743490      98.80174547
N      67.63158129      95.37905094      95.61944636
H      69.18115687      95.12582761      94.53474346
C      65.90626117      97.48042660      94.98449833
H      64.11291090      96.51288672      94.68403184
C      65.63225086      99.39471935      97.24083154