 %block lattice_cart
   142.669   0.000   0.000
   0.000 146.65   0.000
   0.000   0.000   162.396
 %endblock lattice_cart

 %block positions_abs
N      90.19302375      45.20681733      78.62797222
H      92.02605827      45.49972490      78.18955571
H      89.13288728      45.85121400      77.17666241
H      89.73759970      43.35677526      78.72434826
C      89.60342913      46.45592642      81.00146847
H      90.80529507      45.87578044      82.56994131
C      90.29317923      49.34153850      80.81438556
H      89.35209554      50.27695302      82.39041731
H      89.31619074      50.03695778      79.14008805
C      93.09375363      50.01428107      80.65375882
H      93.81562908      49.32831041      78.85095992
H      94.24270723      49.20169875      82.15609124
S      93.60586946      53.35531719      80.69155335
C      96.95824395      53.60098161      80.15865053
H      97.41177826      55.60409150      80.28526219
H      97.28138714      53.01705618      78.20845298
H      98.00326260      52.40856430      81.47201032
C      86.88600270      46.32742503      81.89719874
O      85.15690312      46.36899901      80.35518207
N      86.52128552      46.26317433      84.46722652
H      88.06141246      45.97404621      85.55759861
C      84.22904750      46.83009223      85.81082193
H      82.64545684      45.89278798      84.88674577
C      84.77328868      45.58854204      88.36762163
H      86.36254851      46.49183122      89.31626424
H      85.20036683      43.58732187      88.14085448
C      82.43569722      45.63956465      90.15341300
O      80.91068809      47.24016284      89.99278626
N      82.71159727      44.49816996      92.28691401
H      81.26595664      44.49250078      93.53035392
H      84.28007011      43.57220406      92.85572163
C      83.73393920      49.72893239      85.77869659
O      85.54240729      51.16134494      86.04892745
N      81.37367104      50.62277294      85.74468151
H      79.98094275      49.33208987      85.55948833
C      80.54786064      53.35720691      86.02436101
H      80.99572577      54.17923786      84.18754703
C      77.67736636      53.46492131      86.39663709
H      76.91202722      52.39344649      84.81304644
C      76.71360596      52.03628822      88.70588264
H      76.58888402      53.25138224      90.36506235
H      78.00050957      50.46970511      89.05359229
H      74.79931319      51.59409226      88.08794214
C      76.50384632      56.02550047      86.43821107
H      77.43170195      57.18957188      87.86495444
H      74.48183918      55.66834219      86.56671246
C      76.76462857      57.30862463      83.89652918
H      75.85567021      56.15778131      82.44899882
H      78.72805419      57.81885074      83.54692981
H      75.69693319      59.06607010      83.99290522
C      81.94436839      54.85575988      88.10683940
O      82.63033904      57.00626842      87.86684416
N      82.62278013      53.42901651      90.14018492
H      81.88389715      51.68290940      90.34994454
C      83.97204472      54.41545365      92.27935510
H      83.14245487      56.26171626      92.67430790
C      83.59787891      52.53706569      94.53568832
H      85.06241680      52.85831917      95.94542415
H      83.97960363      50.57552978      94.03680057
C      80.96737988      53.04162262      95.83959948
C      79.04741795      51.25961071      95.43330832
H      79.39701731      49.63822553      94.24467047
C      76.77407720      51.54306965      96.82981606
H      75.38323863      50.05396532      96.70131467
C      76.40747029      53.61043024      98.38884027
H      74.72372415      53.68790902      99.53779387
C      78.33121168      55.35275790      98.78190335
H      78.18570275      57.03461432      99.92896722
C      80.67258258      55.06362977      97.52901480
H      82.10310540      56.46202725      97.93719568
C      86.79340611      54.85009070      91.86361531
O      87.72693091      56.26927516      93.32815321
N      87.91401380      53.81452068      89.82649035
H      86.85765679      52.66556708      88.72855936
C      90.38955528      54.22270156      89.07815873
H      91.58008286      54.61009546      90.71277199
C      91.56118559      51.90400738      87.72889414
H      93.42256601      52.28762182      86.93520909
H      90.45947516      51.39000182      86.06593499
C      91.75771712      49.83286734      89.56003894
H      89.93980042      49.19036039      90.28947329
H      92.87643510      50.55474279      91.13040150
C      93.04084130      47.61810810      88.10117022
O      91.57630341      46.20459282      86.71411111
O      95.46347042      47.44236355      88.26935587
C      90.49915941      56.51116013      87.16386597
O      92.09597814      58.17978846      87.02213650
N      88.71147832      56.37887929      85.44988421
H      87.44158223      54.95780510      85.57838560
C      88.70769886      57.86231444      83.12741057
H      90.49915941      57.71869524      82.12207617
C      86.60254375      56.90611293      81.31327331
H      84.67880236      57.48814863      81.75924872
H      86.71214787      54.85198043      81.40398017
C      87.01450408      57.58452468      78.48435302
H      88.94391465      56.90233348      78.25002695
H      86.94269449      59.63676745      78.31994683
S      85.05107845      56.38454847      75.99180401
C      82.01617798      57.38988287      76.63998014
H      81.09210182      56.18423748      78.03081870
H      81.27729500      57.15744653      74.73135656
H      81.90090468      59.26260164      77.48846725
C      88.22014947      60.59485869      83.52803255
O      89.32185992      62.16900071      82.20333440
N      86.76506020      61.29405743      85.33083145
H      85.61799634      60.02605107      86.17742884
C      86.19814231      63.96802016      85.92231579
H      85.86932993      64.81650728      84.07416345
C      83.67535769      64.04360921      87.39252286
H      83.09143226      65.93711498      87.95188185
H      83.81141799      62.84741246      89.06304092
C      81.62500463      62.67733709      85.73901233
H      82.07664922      60.70446282      85.36106707
C      79.15324263      62.54127679      87.26024202
H      77.48272456      62.28805347      86.08294252
H      78.70159804      64.25903801      88.30526067
H      79.33654608      61.03327520      88.65108058
C      80.80675315      63.99825578      83.34472909
H      79.85244135      62.75481587      82.01058232
H      82.54341163      64.72769014      82.50947006
H      79.51607008      65.55727999      83.73023326
C      88.30707689      65.46468340      87.14307898
O      88.50927760      67.73046525      87.00134951
N      90.10420661      64.06817566      88.29203258
H      89.58642160      62.28805347      88.74367717
C      92.46069532      64.93178058      89.56570812
H      91.79173221      66.45301026      90.78647132
C      93.67200989      62.83040492      91.15496795
H      95.26882862      63.66566395      92.15274344
H      94.56774016      61.34885949      90.04191915
C      91.62732602      61.63042871      92.85005245
H      89.99271275      60.96524505      91.78802626
H      90.99804716      63.05150290      94.20309649
C      92.88210428      59.52905305      94.34104651
H      94.63388058      60.20557507      95.18575417
H      93.19012968      58.05695625      92.93697986
N      91.21347594      58.50671112      96.29502352
H      89.71114354      57.53917124      95.62417068
C      91.16812252      59.08685709      98.80458006
N      92.73092618      60.45312922     100.01022545
H      92.36053983      60.93122998     101.82058326
H      93.98003528      61.52460404      99.04268558
N      89.63555448      57.93979322     100.17652136
H      89.58453187      58.27616451     102.05679905
H      88.66423516      56.45257861      99.48110208
C      94.28428120      66.08073418      87.58905439
O      96.31006781      67.09740694      88.24667915
N      93.89499758      65.73680399      85.12485128
H      92.49660012      64.59918875      84.49935187
C      95.43134509      66.78560209      83.00646808
H      96.53305553      68.36541329      83.73590244
C      97.30217414      64.77304357      81.95011108
H      98.45490718      65.45523477      80.38541769
C      99.11820112      63.84518795      83.93054425
H     100.58273901      62.61875557      83.15764619
H      98.27349346      62.79827957      85.48956846
H      99.85519437      65.47413203      84.95099646
C      95.73370130      62.54127679      80.76147322
H      94.23892778      63.19890155      79.50291550
H      94.85308883      61.58507528      82.36018169
C      97.19634946      60.66099911      79.03426337
H      98.78182983      59.72558459      79.95644982
H      97.94657081      61.68523077      77.41287820
H      95.85086433      59.24748383      78.38041807
C      93.83641608      67.79471594      80.89375407
O      94.90600117      68.92666201      79.17977230
N      91.40055885      67.30716656      80.84840064
H      90.62388135      66.19222803      82.18821659
C      89.65445175      68.17644066      78.95300514
H      90.72025738      68.58273182      77.23902338
C      87.58331170      66.22435338      78.49569138
H      86.30396699      66.44734108      80.09439984
H      88.41857074      64.34596542      78.38041807
C      86.38711495      66.85174251      76.01826018
O      87.73826926      66.98024390      74.11908523
O      84.04007487      67.22212887      76.20912254
C      88.41668101      70.74835817      79.65598333
O      87.50016375      72.24313169      78.07428241
N      88.60376392      71.37385758      82.09184055
H      89.58642160      70.28159577      83.31071402
C      87.73260009      73.70766958      83.37307499
H      87.74393844      75.22134035      81.97656724
C      85.19847710      73.19177429      84.66564779
H      85.47248742      71.69322133      86.05081717
H      83.79818990      72.65698175      83.25402223
C      84.06653103      75.58038835      85.93365414
H      85.35721410      76.77847484      87.00134951
H      82.67002328      74.94355059      87.30559545
C      82.86277537      77.28114204      83.99857440
O      80.64423669      77.99356886      84.35951212
O      84.08164885      78.30726342      82.19955495
C      89.70358463      74.54292861      85.44043558
O      90.52939502      76.65564263      85.38374379
N      90.49537996      72.85729274      87.06748993
H      89.84909355      71.06772192      87.20921940
C      92.25849461      73.47523324      89.04792311
H      93.61342837      74.87174099      88.36951136
H      93.16934269      71.72156722      89.63184854
C      90.93001700      74.57316423      91.44031662
O      88.71714750      75.42165134      91.35716866
N      92.30006857      74.49757518      93.58515598
H      94.14822091      74.03837168      93.50767721
C      91.39299994      75.24401707      96.05880773
H      89.35398525      75.52747602      95.95865223
C      91.94480004      72.94988933      97.74066415
H      93.93090238      72.45289131      97.53468398
H      90.94324509      71.27370209      97.07925994
C      91.31552118      73.29570924     100.49021593
H      92.75171316      74.33127926     101.54468322
C      88.79651600      74.56182587     101.14784069
H      88.82486189      76.58950221     100.78690296
H      88.32219470      74.03459223     103.08292043
H      87.17513082      73.82672234     100.11038094
C      91.33819788      70.62363624     101.42940991
H      93.02950293      69.54271278     100.96642696
H      89.89633670      69.47657236     100.50911320
H      91.04151085      70.51781156     103.46653488
C      92.68935221      77.67798456      97.05847295
O      95.06284845      77.80081677      97.28524011
N      91.13032800      79.56960060      97.65940592
H      89.25382977      79.25779576      97.49311000
C      92.07897061      81.96766329      98.95008899
H      94.06696269      81.74656531      99.44330756
C      91.69535615      84.09171567      96.94886882
H      92.44557751      85.86805840      97.67641345
H      89.66390037      84.19754034      96.63517425
C      93.12209953      83.64762998      94.39017939
H      92.86131730      81.71632969      93.72121628
H      95.17434230      83.77991083      94.48844516
C      92.21125145      85.54869466      92.32281881
H      90.16656758      85.37106038      92.16030234
H      93.17879131      85.04413773      90.57482197
N      92.75738234      88.27368000      92.74989695
H      93.09942281      88.81603145      94.54702668
C      92.64966795      90.04246383      91.01701793
N      91.98070483      89.59459869      88.65674976
H      91.23237322      91.09126193      87.73645305
H      91.46858900      87.85416076      88.06526542
N      93.39044066      92.38572446      91.59149472
H      93.59075166      93.61971574      90.14585410
H      94.21814079      92.52745393      93.30358676
C      90.76183137      82.29458594     101.48421197
O      88.45069609      82.47977912     101.47287362
N      92.06196307      82.26812978     103.66684586
H      93.94224075      82.08293660     103.38338692
C      90.94702453      82.49111748     106.22175584
H      89.27083731      81.29303100     106.19340995
C      92.77816934      81.47633445     108.10959243
H      91.65567191      81.20799331     109.81601529
H      94.31262711      82.79725314     108.48564796
C      93.89688732      78.79859227     107.34236354
H      94.86442718      78.83260734     105.52822628
C      96.00960133      77.97656132     109.05445558
H      96.92611860      76.24557202     108.41572809
H      95.32174096      77.50224001     110.93662299
H      97.45146251      79.44865812     109.08847066
C      91.95613839      76.62162755     107.56724097
H      90.84308960      77.00713172     109.25476657
H      92.78383851      74.76591631     107.23275942
H      90.78450808      76.93343239     105.89861264
C      90.11743469      85.11405760     106.92851348
O      89.01005507      85.52790767     108.97697680
N      90.83175123      87.09827023     105.44885778
H      91.70102533      86.60694139     103.82180342
C      89.94735933      89.76656379     105.57357971
H      88.50738786      90.24277482     106.96630801
C      92.22825898      91.58448050     105.74176536
H      93.18635022      91.55991406     103.92006919
H      93.66256125      90.90984821     107.05701487
C      91.59709040      94.26033296     106.71119495
H      90.72025738      94.10159595     108.56879592
H      90.38766555      95.11070980     105.27878241
C      93.84964416      95.94218938     107.00032308
H      93.11643034      97.86215131     107.13638338
H      94.94379570      95.98565308     105.25421597
C      95.69968621      95.49999342     109.27177411
H      96.66911581      93.68774589     109.11870628
H      94.60742441      95.63605371     111.01221204
N      97.70468584      97.46908824     109.25098712
H      96.69746172      99.08102478     109.42673167
H      98.59096747      97.61648689     107.56724097
H      99.08229632      97.16484230     110.53789074
C      88.42046045      90.40529128     103.23031909
O      88.63966871      89.52089937     101.13083315
N      86.52128552      91.99077166     103.70275066
H      86.30774645      92.71264711     105.45641668
C      84.70147908      92.93752454     101.87160587
H      83.56764329      91.42007431     101.06847218
C      82.79285549      94.64583713     103.27189307
H      82.25239378      93.41373557     104.83091727
C      83.78685153      97.24610053     104.21108704
H      83.99661117      98.49520963     102.58781214
H      85.72004156      96.98909775     104.87627070
H      82.52073492      98.18340478     105.53956464
C      80.36644691      94.81780222     101.59381610
H      79.78063176      92.92051700     101.04390574
H      80.61589079      95.86471060      99.83637063
C      78.07231916      96.08391885     102.99977248
H      77.52618827      94.75544125     104.47564873
H      76.46794153      95.96675582     101.71286886
H      78.66002406      97.92829173     103.71030957
C      85.96570598      94.22631788      99.51700688
O      87.91590353      95.49243451      99.76834048
N      84.75439142      93.75766576      97.29846819
H      83.29174325      92.54635119      97.48177164
C      85.61610662      94.87638374      94.93253085
H      86.67057390      96.58280660      95.40307270
C      87.41701579      93.15295334      93.48500049
H      89.07052632      92.90161974      94.68686643
H      87.93858024      93.97120483      91.66897350
C      86.46081428      90.53379267      92.91052369
C      85.75972582      90.05191246      90.36884180
H      86.09798683      91.49188391      88.96288542
C      84.78840649      87.61605524      89.69798896
H      84.04763378      87.16441065      87.84983662
C      84.74494279      85.69420358      91.53480294
O      83.94369882      83.29803062      91.05103300
H      83.24450008      83.28102308      89.37673549
C      85.63122442      86.17419406      94.04246975
H      85.75783609      84.53958080      95.25756377
C      86.38522522      88.61949991      94.66418971
H      86.80474446      88.97476846      96.62761535
C      83.36922202      95.62471536      93.14673948
O      81.28485391      94.91417826      93.47933131
N      83.91346320      96.94374432      90.97733367
H      85.72004156      97.35192521      90.51435073
C      82.00106018      97.43318344      88.91753199
H      80.17558456      96.99098748      89.76790883
C      81.87066906     100.29800853      88.13896475
H      81.21682376     100.35659004      86.18687747
H      83.75283647     101.09736276      87.89707978
C      80.07542907     101.94396015      89.58838483
H      80.76139971     101.75309779      91.52157485
H      78.20082056     101.09547303      89.51090605
C      79.87322835     104.61036397      88.62273469
H      79.41024540     104.58390781      86.61584534
H      81.75728548     105.38326204      88.92698062
C      77.72271980     106.24497724      89.85483624
H      78.14034932     106.45473686      91.85983586
H      76.19771067     104.85791812      89.82649035
N      77.17658890     108.66382692      88.58682989
H      75.45126878     109.39137155      88.95910597
H      77.07832312     108.30666864      86.71411111
H      78.51073568     109.96206889      88.99879022
C      82.33932119      95.74565784      86.55537410
O      84.41046123      95.26566736      85.59728286
N      80.10755441      94.80079468      85.66720273
H      78.60900145      95.40361738      86.68198576
C      79.75984476      93.10193073      83.44110514
H      80.92580591      91.45786884      83.86251410
C      76.94982174      92.33281212      83.51669419
H      75.70071265      93.94285894      83.22000716
H      76.42069838      91.52778871      85.33839035
C      76.30731479      90.19742139      81.58539390
O      75.26040642      90.84370778      79.59740182
O      77.17091971      88.04691284      82.22412139
C      80.41746953      94.30568639      80.94099722
O      80.65746477      96.63193948      80.70856089
N      80.38345446      92.84492795      78.79048868
H      79.63134338      91.09504138      78.90576199
C      80.70470793      94.08647814      76.23368898
H      82.29396775      95.39416875      76.18077664
C      81.43792174      92.36493747      73.99436330
H      81.93491976      93.38727940      72.27471235
C      83.55819466      90.60182282      74.81828397
H      84.40668178      89.89317545      73.08162549
H      83.26339736      89.27145549      76.36408009
H      84.94714350      91.87927780      75.64220464
O      79.55575433      90.67930159      73.33673854
H      80.05842152      89.94608779      71.75692734
C      78.42758772      95.70786331      75.37575323
O      78.86411450      97.49176495      74.00759138
N      76.16180587      95.19007830      76.37352873
H      75.91425172      93.65373081      77.47712889
C      73.85633977      96.86626554      76.00314237
H      74.09444529      98.01143969      74.30616814
C      71.49607160      95.27700571      75.47968818
H      69.83122272      96.45997439      75.22457513
H      70.76096807      94.20931035      77.08028637
C      71.84756069      93.38727940      73.22902414
H      71.99495934      91.43897157      73.88097972
H      73.58232944      93.76144521      72.18211576
C      69.57421994      93.61593629      71.39032044
O      69.63280146      95.25810845      69.65555168
O      67.99062928      91.88305726      71.40921770
C      73.55587329      98.92039805      78.11018721
O      71.91370112     100.54178322      77.94011184
N      75.46071740      99.06212752      79.94133200
H      76.75329020      97.66750950      80.08873066
C      75.60055716     101.21641552      81.79326379
H      74.62923783     102.89071303      81.08650615
H      77.56776224     101.77010533      82.06160493
C      74.46105218     100.69674078      84.48612379
O      74.75584950     102.41261227      86.00546374
N      73.68059521      98.36292878      85.08138758
H      73.73539729      97.03445119      83.70944627
C      72.33133064      97.59758963      87.32827216
H      71.28820171      99.23787207      88.01424281
C      70.39247144      95.41117628      86.63852206
H      69.24540757      94.87071456      88.25990723
H      71.61512436      93.87104934      86.01869183
C      68.70305611      96.01021952      84.50313132
C      68.25708069      94.22442816      82.59450775
H      69.17926714      92.40840117      82.72489886
C      66.88324968      94.76111043      80.31927727
H      66.74340992      93.39861776      78.80560649
C      65.33934328      96.94941350      80.45155811
O      63.66693548      97.39349919      78.66387702
H      62.41026749      98.55568087      79.26858944
C      65.65870702      98.69741034      82.44899882
H      64.53431987     100.40194348      82.42065293
C      67.40670386      98.33269316      84.42187309
H      67.56355115      99.49865430      86.08861170
C      73.95271580      96.55446070      89.50523687
O      75.90858255      95.36393312      88.97800323
N      73.23650953      96.95697241      91.80692352
H      71.83244289      98.23064794      92.03180096
C      74.78986457      96.04990378      93.97066015
H      76.76840802      96.44863603      93.55869982
C      74.19460077      97.41050672      96.35549476
H      75.15458175      96.36548807      97.84837855
H      72.17637308      97.52955948      96.75233729
C      75.16592010     100.13360234      96.30069270
C      73.46516641     102.11781497      96.16652213
H      71.46205653     101.78144368      95.94164470
C      74.29097682     104.66327631      96.14573514
H      72.87935126     106.13537311      96.12872760
C      76.80242309     105.26798873      96.44431190
O      77.74728624     107.70195622      96.51990095
H      76.38290385     108.88303517      96.33848722
C      78.62978844     103.32723981      96.64651261
H      80.58376544     103.68628781      97.11705446
C      77.81720612     100.79122710      96.35738449
H      79.31008990      99.40416798      96.29691324
C      74.75207004      93.11704854      94.21632457
O      72.81510057      91.81313738      93.82893068
N      76.89501968      91.92652096      94.88906714
H      78.35577812      93.11893827      95.18386445
C      77.67547665      89.30925002      94.79080137
H      75.97661269      88.15840669      94.94764866
C      78.66002406      88.66107389      92.02991123
H      80.51384556      89.55869389      91.99022698
C      78.64301651      85.69420358      91.56503856
H      76.71738541      85.04602746      91.21921864
H      79.46126801      84.51501436      93.04469426
H      79.59732831      85.42019327      89.76034993
O      77.03674915      89.68530555      90.20254588
H      77.08777176      91.49377364      90.08538285
C      79.47827555      88.54958004      96.78824209
O      81.08265318      90.11805288      97.46665383
N      79.32331799      86.21198859      97.63294975
H      77.76240406      85.15374186      97.34949080
C      81.04296894      85.31814804      99.56425004
H      82.70781781      86.52757289      99.51511715
C      79.80330848      85.70365221     102.11538056
H      79.20237551      87.66896758     102.24577168
C      77.27485467      84.31848283     102.04735041
H      76.40558057      84.61328013     103.89172330
H      77.52429853      82.30214485     101.71097913
H      76.05031202      85.14807268     100.61304814
C      81.01273332      85.16508021     104.79123302
H      81.60610738      83.19409567     104.75154877
H      79.57654132      85.75656455     106.14427706
C      83.30119188      86.80536265     105.22209062
H      84.43502767      85.97388308     106.72820249
H      82.55474999      88.64406636     105.77767016
H      84.20259133      87.02646063     103.38338692
C      81.47004709      82.44198460      98.92930200
O      80.04708317      81.29492072      97.38539560
N      83.32764805      81.24011866     100.07069669
H      84.61266194      82.32293184     100.97587559
C      83.49205423      78.55103812     100.15006520
H      81.71949095      77.95388460     101.01367012
H      84.92635651      78.22222574     101.59192637
C      84.02495706      77.39074616      97.61027303
O      85.51973057      78.49812578      96.23455228
N      82.70970755      75.30826777      96.89217703
H      81.52106970      74.53159025      98.16774229
C      82.71537672      74.47300873      94.27112664
H      84.25361394      75.20811227      93.11461413
C      83.00639458      71.54582268      94.02357249
H      81.64579163      70.59151089      95.24055623
C      82.79474522      70.50080402      91.24945426
H      84.20637079      71.31338634      89.98900681
H      80.90879837      70.80882941      90.47844593
H      82.66813357      68.46178933      90.99056176
C      85.60287853      70.73890954      95.13095211
H      85.85610186      71.37763703      97.07359076
H      87.05985752      71.61574255      93.96688070
C      86.11877381      67.79093649      95.19898226
H      88.00094121      67.49613919      95.97943922
H      86.00539024      66.87630896      93.35838883
H      84.64100783      67.06339186      96.43675299
C      80.40613117      75.49913012      92.92942095
O      78.47105142      74.27647720      92.71021270
N      80.71604629      77.91986953      92.17730988
H      82.23538624      78.93276283      92.73477914
C      78.86789395      78.96866763      90.31970892
H      78.84143778      77.88018528      88.57360180
H      79.51418034      80.86784258      89.85861570
C      76.06731955      79.19543479      91.24000563
O      74.26830011      79.17086835      89.83404925
N      75.91803118      79.71888898      93.73066491
H      77.68492527      79.55826224      94.43364310
C      73.71838974      79.90975134      95.30669666
H      72.36912516      78.72300321      94.29947253
C      74.00940759      78.80426144      97.94853404
H      75.42292287      79.80959584      99.05591366
H      74.84277691      76.92398376      97.84081964
C      71.56977093      78.73434157      99.35260069
N      69.84634053      76.76335703      99.38661577
H      70.09011523      75.05882389      98.56836427
C      67.69961144      77.53058591     100.41273715
H      65.88925362      76.62162755     100.17463164
N      67.92637860      79.93998696     101.16106877
H      66.55065783      81.05114603     101.87916477
C      70.33955909      80.67886995     100.43730360
H      70.96505851      82.62150860     100.51478237
C      72.89824852      82.61394969      95.29346857
O      73.66736714      84.04069306      96.96776608
N      71.50740995      83.19598540      93.30736622
H      71.18237704      81.73900641      92.11872837
C      70.23562415      85.63373234      92.95776685
H      71.60378600      87.15685175      92.72910996
C      68.59345199      85.29169188      90.59938841
H      67.62591212      83.47377516      90.64096239
H      69.83689190      85.18964666      88.96099570
C      66.52420168      87.25700724      90.25545822
H      65.41493232      87.25511752      91.99022698
C      67.71850871      89.86671928      89.77357801
H      68.70116639      89.73443844      87.96888938
H      68.88069039      90.20498029      91.44031662
H      66.18972012      91.24055031      89.87751296
C      64.70061578      86.53702152      88.01802227
H      63.17749638      87.92030118      88.06904488
H      63.73496563      84.71910480      87.94432294
H      65.66437620      86.62583865      86.19821583
C      68.71250475      86.27623929      95.35582954
O      67.45583674      84.62461849      96.32525914
N      69.01864040      88.65540471      96.16463240
H      70.12602003      89.93663915      95.28590967
C      67.69961144      89.54546581      98.50411358
H      66.90403665      87.86360939      99.39039522
C      69.71594941      90.62827898     100.28612549
H      68.66148213      91.45975856     101.85081888
H      70.90269754      92.00777919      99.32425480
C      71.49985106      88.88028214     101.72609694
H      72.06676895      87.56692236     100.24455151
C      73.85822950      90.13128096     102.90906561
H      73.47272532      91.28779347     104.56824532
H      75.00718309      91.21787359     101.58814692
H      75.15458175      88.67808143     103.57802873
C      70.21294744      87.34393465     103.70653012
H      68.64825405      86.32726190     102.83536629
H      69.72161860      88.56658758     105.29012077
H      71.48095378      85.85483032     104.35848570
C      65.42438096      91.35960307      98.05435871
O      63.56300054      91.18385852      99.39417467
N      65.67949400      93.09248210      96.20053720
H      67.42182166      93.16996088      95.42574941
C      63.62914095      94.40017271      94.90607468
H      62.00964550      93.20019650      94.48655544
C      62.36680379      96.52800453      96.62194617