 %block lattice_cart
   142.669   0.000   0.000
   0.000 146.65   0.000
   0.000   0.000   162.396
 %endblock lattice_cart

 %block positions_abs
N      90.82608206      41.01634922      77.36752476
H      92.57029945      40.56092519      76.73824590
H      89.46547911      41.24689584      76.05038552
H      90.27239225      39.59905448      78.52214754
C      91.08308483      43.36338930      78.87930581
H      92.65344740      43.01378994      80.16620943
C      92.01660963      45.69720129      77.25981036
H      90.62766079      46.24900138      75.84629508
H      93.73059140      45.20776218      76.22990952
C      92.70824946      47.94219616      79.00024830
H      91.07363620      48.59415173      80.07172312
H      93.60964891      49.45586694      77.93444266
S      94.70569018      46.90662615      81.52303293
C      96.21558151      49.92829851      82.13530425
H      97.43256525      50.51222395      80.57816977
H      97.46847005      49.89995262      83.77180724
H      94.99859776      51.58936794      82.16742960
C      88.81541325      44.16841272      80.48368345
O      86.79907529      44.46698946      79.34984767
N      89.06107769      44.50289426      83.00268863
H      90.66167587      43.78479827      83.75290998
C      86.87277461      45.41941153      84.61084572
H      85.28729424      44.12872846      84.35951212
C      87.75527680      45.10949641      87.29803654
H      89.46736884      46.23766303      87.50212698
H      88.37888648      43.16118859      87.54370096
C      85.88066830      45.78979788      89.19721148
O      83.81897688      46.78568365      88.87973746
N      86.54207251      45.31736632      91.59527417
H      85.28540451      45.97121162      92.87083944
H      88.20692139      44.54068879      92.11683864
C      85.78618198      48.05369002      83.82094012
O      87.26961714      49.85837865      83.28047840
N      83.30686105      48.43163528      83.85684492
H      82.03129580      47.10693713      84.36707103
C      82.11066431      50.85615413      83.42787705
H      82.91568772      51.52133779      81.65153432
C      79.10977892      50.37994310      83.36173663
H      78.93970355      48.94375111      81.89530901
C      77.96649450      49.49177174      85.91853633
H      77.64713074      51.06024457      87.21299885
H      79.15891179      48.08203590      86.83127414
H      76.18448258      48.53179076      85.53870134
C      77.68114583      52.74210100      82.46222690
H      77.93436915      54.40317042      83.65464421
H      75.70827155      52.21486735      82.19577549
C      78.45593362      53.90239295      79.95833954
H      77.47138621      55.62960281      79.41976754
H      78.19326166      52.47942903      78.49191192
H      80.44203597      54.42017796      80.11896628
C      82.72860481      52.78367497      85.43665612
O      83.34843503      54.96819860      84.65619915
N      82.92324661      52.11282214      87.88196197
H      82.55474999      50.26466980      88.17864900
C      83.91724265      53.73042786      89.81893144
H      82.61900067      55.32724660      89.90774858
C      83.55819465      52.33014065      92.33793662
H      84.49738864      53.25043738      93.92341699
H      84.24794476      50.40261981      92.10361055
C      80.91068809      52.20541873      93.27524087
C      79.56709269      49.98876975      92.82926546
H      80.50817638      48.50155514      91.79558516
C      77.15202245      49.66373683      93.67019367
H      76.31865316      47.82503313      93.36216828
C      75.92559008      51.52322752      95.03835552
H      74.22483639      51.03945758      96.05502827
C      77.24461905      53.77578128      95.51456655
H      76.26007164      55.08158217      96.73721947
C      79.76173449      54.12727039      94.66985889
H      80.76706889      55.83747270      95.15362882
C      86.69136088      54.51466428      89.70932731
O      87.44725141      56.29667618      91.17386521
N      88.30707689      53.15028188      88.23534079
H      87.45481032      51.59692684      87.52480370
C      91.04529030      53.64916962      87.83282909
H      91.62354656      54.86237391      89.39374302
C      92.58541725      51.20953296      87.63440782
H      94.45624630      51.64794946      86.89363511
H      91.69535617      49.75255397      86.48734395
C      93.02005431      50.32703077      90.33860618
H      91.29095473      49.82058412      91.33827140
H      93.97058664      51.71220016      91.52913375
C      94.63766003      47.87794546      90.12317738
O      93.91389485      46.08459520      88.83249430
O      96.71257952      47.86471738      91.18898302
C      91.27394720      55.00599311      85.23445540
O      93.04273102      56.51966389      84.90942248
N      89.78484285      54.57324580      83.38441334
H      88.57352830      53.09736954      83.39386198
C      89.64311339      55.98298162      80.93343832
H      91.42134585      56.12471109      79.90353748
C      87.90834462      54.57513551      79.12119078
H      85.97515461      54.84536639      79.77881554
H      88.18424468      52.53234138      79.08906543
C      88.28062071      55.70897130      76.49636093
H      90.19869293      55.14583287      76.00125264
H      88.10109671      57.76121408      76.50958902
S      86.30396699      54.29356630      73.96790713
C      83.63945288      56.12471109      74.54994283
H      82.87033428      55.82046515      76.43777942
H      82.36766707      55.82613433      72.95879328
H      84.31975436      58.06168057      74.37419828
C      88.76439065      58.70607723      81.45500278
O      90.33475322      60.36714666      81.02036573
N      86.51750607      59.21819306      82.47734471
H      85.43469289      57.68562502      82.81182627
C      85.59342989      61.64838110      83.44866404
H      85.29107369      62.89560047      81.83672749
C      83.42591382      60.97941800      85.26847048
H      82.87033428      62.64048743      86.35128366
H      83.96637555      59.67550683      86.76702344
C      81.08643263      60.18384321      83.70377709
H      81.42091419      58.74387176      82.27136455
C      78.93781383      59.23142115      85.36862597
H      79.19859605      57.44374007      86.35884256
H      77.79830886      58.34891896      83.89652918
H      77.99106094      60.70540768      86.44954942
C      80.00928864      62.50253740      82.32238716
H      81.31886898      63.65716018      81.22823562
H      79.19859605      63.71196224      83.77747642
H      78.65624460      61.78822085      80.94477667
C      87.75527680      62.95796144      84.81115671
O      88.07275082      65.25397892      84.37462993
N      89.08375439      61.68239619      86.50057203
H      89.13855645      59.81345685      86.12073705
C      91.05473894      63.09591147      87.84983662
H      90.24026690      64.74375280      88.77958197
C      92.10920622      61.35358380      89.97010955
H      93.45091190      59.97597332      89.23122656
H      90.61254299      60.32179324      90.93386996
C      93.47547834      62.75387100      92.17919961
H      92.20180281      64.27132124      92.74044832
H      95.19890874      63.56645332      91.39307346
C      94.06318323      61.06634540      94.49033489
H      95.06473818      62.23986544      95.85471728
H      95.34630739      59.57913079      93.86483548
N      91.83897536      60.19518157      95.74133371
H      91.19457868      58.47364090      95.22921787
C      91.18701979      60.73375357      98.03546145
N      91.58008286      63.00142514      98.94253008
H      90.89789165      63.15827244     100.71698309
H      92.96903169      64.18250409      98.37750191
N      89.72815107      59.11425812      99.35449042
H      88.95525301      59.66416847     101.01178039
H      89.33886745      57.37759965      98.66285059
C      93.12776870      64.36958699      86.24734871
O      93.83452635      66.55411061      86.71978029
N      93.99326335      63.26409711      84.25935663
H      93.03706184      61.71641125      83.68865928
C      95.61275880      64.66249457      82.46789608
H      96.85241926      65.80766872      83.65275448
C      97.43445497      62.72363538      81.00713764
H      98.51348870      63.70251362      79.55393811
C      99.20512853      61.43295231      82.89119478
H     100.49770132      62.88426211      83.57338598
H     100.42589172      59.96274523      82.12396589
H      98.19979412      60.60147274      84.48612378
C      95.87354104      60.81123236      79.32717095
H      94.52238673      61.80711811      78.13097419
H      94.96836214      59.49031365      80.62163347
C      97.66122214      59.35236364      77.56216657
H      98.81206545      57.98231207      78.58261878
H      98.99914836      60.67895151      76.72312809
H      96.66722608      58.39616213      76.03148826
C      94.17467708      66.34813044      80.76147322
O      95.35197657      68.03565604      79.62196826
N      91.78984248      65.77554337      80.11329710
H      91.00371632      64.32801301      81.07894724
C      90.30262787      67.25519907      78.42388177
H      91.44213283      67.74085874      76.77981988
C      88.16534741      65.69239541      77.30327407
H      86.54018278      65.51854060      78.55427289
H      88.80218518      63.76676430      76.94233634
C      87.17513082      66.67694282      74.83340178
O      88.60565363      66.86402573      73.00036725
O      84.88478253      67.13614632      74.57072982
C      89.33508799      69.79310152      79.37441411
O      88.89478177      71.42393533      77.89853786
N      89.00438589      70.10679608      81.75546926
H      89.29729346      68.60824311      82.90064341
C      88.09164809      72.47840260      83.01402699
H      88.01038985      74.02041928      81.65342404
C      85.46114906      71.97195595      84.03069974
H      85.51595112      70.62269137      85.58783423
H      84.22715777      71.25574968      82.54348514
C      84.17424544      74.38324674      84.88863549
H      85.35910383      75.42448592      86.21522336
H      82.44136640      73.80310076      85.84105755
C      83.20859529      76.20872234      82.66631735
O      80.94470317      76.46950458      82.36396114
O      84.64100783      77.41814718      81.22067672
C      89.92846205      73.43838358      85.14752799
O      90.45191625      75.71172433      85.54437052
N      91.08875402      71.66015112      86.32104803
H      90.39900391      69.89325702      86.10561924
C      92.93690634      72.22517928      88.40352643
H      94.50726891      73.37791234      87.73645304
H      93.71358387      70.41860093      89.01957721
C      91.47992736      73.37224316      90.50679182
O      89.18579961      73.07366640      90.81859666
N      92.53250492      74.93693655      92.24156057
H      94.32585518      75.53409006      91.97510916
C      91.47614791      75.44716265      94.74166849
H      89.43146404      75.56810513      94.97410482
C      92.33219392      73.54420825      96.68619686
H      94.33908328      73.16059381      96.40840709
H      91.22481430      71.88502854      96.18163994
C      91.94291030      73.87302062      99.56236031
H      93.06351801      75.45850101     100.24455151
C      89.20469687      74.21695082     100.40139879
H      88.35620977      72.39903410      99.93085694
H      88.22959810      75.80810037      99.52267606
H      89.17068181      74.18482547     102.45931075
C      92.84997893      71.30110312     100.90406599
H      94.90789089      71.31811065     100.83225639
H      91.97881510      69.64759259     100.04235079
H      92.35109119      71.35401545     102.90150671
C      92.28306104      78.10411785      95.43330832
O      94.56774015      78.57088024      95.10449594
N      90.54262311      79.62156807      96.44242217
H      88.68502215      79.21527692      96.28557488
C      90.99048824      82.14624242      97.64239838
H      93.03328240      82.23694929      97.87483471
C      90.24215663      84.29297152      95.90196044
H      89.92279287      85.98238685      97.03768596
H      88.48471115      83.66180293      95.03646579
C      92.42290080      84.68225514      93.85916630
H      93.50571396      83.01173707      93.33004293
H      93.75893729      85.82553956      94.93442057
C      91.62354656      86.05986562      91.41197072
H      93.35264614      86.64568078      90.45576921
H      90.52372585      87.72849396      91.90140984
N      90.12499360      84.28919207      89.81893144
H      89.45414075      82.66780689      90.57104251
C      90.10609634      84.11533725      87.45866328
N      90.70891903      85.94837177      85.94310277
H      90.83364097      85.57609568      84.07605317
H      91.30418282      87.59054393      86.71411111
N      89.42768458      82.06876365      86.22845145
H      89.02517289      82.14624242      84.36518130
H      88.61699200      80.61745384      87.16953515
C      89.79429149      82.35411232     100.22754397
O      87.81385832      81.15035665     100.70375500
N      90.72403684      84.01518175     101.86593669
H      92.25660487      85.02996477     101.35382085
C      89.78862231      83.96037969     104.46242064
H      88.10109671      82.78874938     104.60415011
C      91.83897536      82.75095484     106.23687365
H      91.22670403      82.80008772     108.20218901
H      93.57941329      83.84132693     106.39939011
C      92.40022407      79.87101195     105.69641192
H      93.00115704      79.85778386     103.72731710
C      94.16333873      79.04142210     107.69385263
H      93.49626534      79.27196871     109.62893238
H      95.79984171      80.23761885     107.33669436
H      94.66033674      77.06287864     107.41228341
C      89.97381549      78.44615830     106.16884350
H      90.35931966      76.48840184     106.68095933
H      88.58108719      78.52741654     104.65328300
H      89.14233592      79.40047010     107.79022868
C      88.80218518      86.53229719     105.39405571
O      87.97448506      86.78929998     107.51999781
N      89.08564413      88.44281050     103.82369315
H      89.93791069      88.03273988     102.16640317
C      88.10865562      91.01094855     104.02778359
H      86.72537596      90.99961020     105.55468245
C      90.13822167      92.87610844     104.34147816
H      89.25382977      94.72992995     104.19030005
H      91.51772189      92.55674468     102.84292519
C      91.55362668      92.51139126     106.84536552
H      92.89155292      90.94669787     106.93607238
H      90.10798605      92.07108503     108.24565272
C      93.07107692      94.86599023     107.69763209
H      91.98070483      96.54784666     107.23275941
H      94.68490318      94.66001007     106.43718464
C      93.79484210      94.49560389     110.39427154
H      95.06851762      92.89878515     110.65127431
H      92.12810348      93.84175858     111.41283402
N      95.04395118      96.80862889     111.46952581
H      95.33685877      96.57052338     113.34035486
H      93.75137838      98.20513664     111.29000181
H      96.45368701      97.37554678     110.31490303
C      86.63277937      91.62699934     101.64483871
O      87.15434384      90.41568478      99.66440553
N      84.91501815      93.45814413     101.54846266
H      85.00761474      94.81118817     102.89205807
C      82.90245963      93.59231471      99.65306717
H      82.12767184      91.77439799      99.06725202
C      80.58565517      95.08897794     100.63950431
H      81.21871348      96.87665904     101.44452772
C      78.74128228      95.63888830      98.50978275
H      77.03296970      96.66689942      99.02567804
H      78.16113630      93.78128734      97.84081964
H      79.58221049      96.92768165      97.13595172
C      79.34788443      93.69247019     102.81835875
H      80.66124421      93.30129686     104.35848569
H      78.79986381      91.81408225     102.17396207
C      77.01218271      95.04929370     104.14494662
H      75.63079278      95.52361500     102.69174708
H      77.40713550      96.64989188     105.38082763
H      76.13723943      93.51861537     105.20319335
C      84.34243107      94.50316279      97.30413737
O      85.92035255      96.30029251      97.45531547
N      83.93991938      93.46192359      95.14606992
H      82.85143702      91.91045829      94.93064112
C      84.83564965      94.19513740      92.61194693
H      85.93169090      95.94124451      92.64407228
C      86.59120538      92.11076927      91.57448718
H      87.79685077      91.57597673      93.15996756
H      88.05763300      92.92335159      90.37829043
C      85.65390113      89.62577918      90.52379935
C      85.62744496      89.31586406      87.83849826
H      86.15089916      90.69347454      86.42498298
C      84.67880236      87.08787674      86.85206113
H      84.37455642      86.68347531      84.87729713
C      83.87944812      85.13012027      88.46210795
O      83.36733229      82.83032336      87.36417696
H      83.73960838      82.87945624      85.58783423
C      83.74716729      85.40035114      91.06237135
H      83.18402885      83.77140705      92.15463316
C      84.61833112      87.70014805      92.19053796
H      84.86021609      87.85510561      94.21065539
C      82.58309587      94.73559913      90.79403022
O      80.42880788      94.50883196      91.72566529
N      82.84576784      95.24582523      88.29581203
H      84.64856674      95.28173003      87.67031262
C      80.94281344      95.65967529      86.41931380
H      79.12489672      95.31196565      87.32260298
C      80.89934974      98.43190379      85.29492665
H      79.55008514      98.73992918      83.76991751
H      82.66057466      98.66434012      84.25179772
C      80.52707365     100.47658766      87.31315435
H      81.75728548      99.93990539      88.87595801
H      78.63923707     100.42367533      88.14085447
C      80.99005659     103.15432985      86.37207065
H      80.50061749     104.46768963      87.88196197
H      79.73149887     103.33952303      84.75068547
C      83.66779879     103.71935801      85.36106707
H      83.24827955     105.38042744      84.21589292
H      84.16857626     102.01104543      84.32738677
N      85.54051755     104.45446155      87.34338997
H      84.71092771     105.76215215      88.45832849
H      87.18268973     104.99870273      86.53458711
H      85.92035255     103.06929217      88.60194769
C      81.05241756      93.81152296      84.08172235
O      83.12355761      93.71514692      83.02536534
N      78.97938781      92.89500570      83.31260374
H      77.35989235      93.33720166      84.22534155
C      78.61089116      91.59298426      80.93343832
H      79.69370435      89.87333331      80.59517731
C      75.75929417      90.89756499      80.69722253
H      74.60089194      92.59453921      80.80871638
H      75.17158928      89.55019012      82.13908370
C      75.26229614      89.52940313      78.26703449
O      73.83366304      90.45347930      76.70801028
O      76.50384634      87.60944120      77.80216182
C      79.05497686      93.46948250      78.76781196
O      79.27229537      95.75983079      78.98135104
N      79.42725293      92.49438371      76.46045613
H      79.16836043      90.61788549      76.21479171
C      79.79197011      93.82097158      74.09073934
H      81.11477853      95.36487799      74.43089007
C      81.08076347      92.35076452      71.92511298
H      80.77462780      93.32775301      70.13743189
C      83.84165361      91.90856856      71.96479723
H      84.83942909      93.67546266      72.30305824
H      84.69014071      90.91835196      70.36986823
H      84.13456118      90.80874784      73.68255845
O      79.94314821      89.96592990      71.89865681
H      79.90535370      89.72404495      70.10152709
C      77.54319580      95.39700334      73.15532481
O      77.85311092      97.32263445      71.98369450
N      75.07899269      94.70158405      73.73736052
H      74.63301728      93.01783791      74.51403803
C      72.94549169      96.44958089      73.56539542
H      73.06832390      97.42656940      71.75692734
C      70.34900773      95.04551423      73.31595155
H      68.85234449      96.45147062      73.15343509
H      69.82366382      93.91923736      74.95812371
C      70.27152895      93.09342695      71.25426014
H      68.67659994      91.82164115      71.53393964
H      72.01952578      92.00683432      71.15788410
C      69.77642066      94.27639563      68.68801181
O      67.95283477      93.62255033      67.33874722
O      71.30142980      96.08675344      68.07196103
C      72.86045400      98.45835996      75.64976355
O      71.35812157     100.32729928      75.55149778
N      74.49317754      98.17868046      77.62452754
H      75.70260237      96.72170148      77.40342956
C      74.95238102     100.15155474      79.65220388
H      73.99806924     101.95057419      79.34795794
H      76.96304982     100.59375069      79.58984291
C      74.20404941      99.25582447      82.28837208
O      74.70860633     100.75248771      84.05148673
N      72.98517594      97.00516042      82.53214678
H      72.60723067      95.93935479      80.99390956
C      71.40914419      96.48359597      84.74312656
H      70.49451665      98.19568801      85.43098694
C      69.50807951      94.36521276      84.11573743
H      68.41581772      93.99860587      85.82216029
H      70.59467215      92.71737142      83.52803254
C      67.62969157      94.92457176      81.94066244
C      67.01175106      93.14067012      80.11707655
H      67.70528061      91.22259791      80.16431971
C      65.19005490      93.64522704      78.21223243
H      64.53620958      92.15234326      76.98391032
C      63.96551224      95.99226712      78.21601188
O      61.92838727      96.50816241      76.50014039
H      60.98919331      98.05584826      76.58706780
C      64.33400887      97.69491052      80.10006901
H      63.56489027      99.57896767      79.95267036
C      66.26152971      97.18090498      81.89152956
H      66.78876336      98.66811958      83.18410236
C      73.19115611      95.56518897      86.92576045
O      74.95993993      94.09498190      86.57427136
N      72.52408272      96.06218700      89.26524163
H      71.06521401      97.23948649      89.62995881
C      73.92059047      95.11921356      91.53858239
H      75.85755993      95.81652258      91.46299333
C      72.62612793      96.42123500      93.86105602
H      73.30642941      95.46125403      95.55047135
H      70.58144406      96.17368085      93.82893068
C      73.47272532      99.06118265      94.27112663
C      71.67181614     101.02460830      94.31836979
H      69.80854601     100.49170548      93.67964230
C      72.42014776     103.37731756      95.01945825
H      71.12757496     104.93067258      95.30669665
C      74.88246116     103.98769916      95.66196520
O      75.73094826     106.49914543      95.85849674
H      74.47617000     107.72557780      95.40118297
C      76.73628267     102.16600299      95.09693703
H      78.72805421     102.57418387      95.25378432
C      76.11267299      99.66589508      94.56592394
H      77.47894510      98.24482088      94.04058002
C      74.14735762      92.35265424      91.90707902
O      72.31243337      90.97882322      91.94487354
N      76.42447782      91.19803146      92.18864824
H      77.87200818      92.43013303      92.01101396
C      76.76651829      88.44281050      92.40785649
H      74.89946869      87.61888982      92.69320516
C      77.70004309      87.48849872      89.80570336
H      79.65590982      88.11966731      89.63751771
C      77.71516089      84.54997429      89.46555262
H      75.80464760      83.79219405      89.33894096
H      78.71293639      83.70148719      91.05481245
H      78.69025968      84.01896120      87.73078386
O      75.95771543      88.48816394      87.99723527
H      75.64402085      90.23616078      88.36573191
C      78.61089116      87.94959194      94.53946777
O      79.96960438      89.62388945      95.47299257
N      78.55041992      85.70837653      95.53346381
H      77.18981699      84.54052567      94.87583905
C      80.04897290      84.70493185      97.65940591
H      81.88767660      85.63278748      97.72554633
C      78.79986381      85.25862167     100.27100768
H      78.43703634      87.28629799     100.19730835
C      76.21660793      83.88290090     100.53178991
H      75.10355913      84.21360302      98.82914650
H      75.24906805      84.51973867     102.23632304
H      76.46794153      81.84766567     100.73021117
C      80.54597091      84.63312226     102.53867925
H      80.61211133      82.59221783     102.80891012
H      79.63512284      85.18303261     104.30179390
C      83.14623432      85.79152448     102.75599778
H      83.97960362      85.11878191     104.51722270
H      83.15757267      87.85132617     102.77111559
H      84.35754888      85.25484221     101.17996603
C      80.61022161      81.83065814      97.07737021
O      79.73338859      80.81020593      95.26134322
N      82.32420337      80.58721822      98.45498069
H      83.26717681      81.31665258      99.94408503
C      82.57175752      77.88490959      98.22443408
H      80.77084835      77.07043755      98.81402869
H      83.95503718      77.17248276      99.57369867
C      83.39945764      76.87012655      95.70731863
O      84.90934898      77.97183700      94.32214924
N      82.21459925      74.78197899      95.06103223
H      81.00895386      74.05632408      96.34793585
C      82.51506574      73.33633835      92.70643325
H      84.27440092      73.91270488      91.80314407
C      82.89490072      70.56033040      93.19398264
H      81.27162582      69.99719196      94.33159788
C      83.07253499      68.88414316      90.67308773
H      81.45303954      69.46428914      89.54303140
H      83.36355285      66.85079765      90.83749392
H      84.60321330      69.59656999      89.49389851
C      85.17202092      70.24096666      95.14040074
H      84.24794476      70.35812969      96.97721471
H      86.51939579      71.79999086      95.09504731
C      86.58742593      67.78432245      95.12528293
H      85.25327916      66.23096741      94.88717741
H      87.81007886      67.81266834      96.78446263
H      87.94235971      67.74841765      93.57381762
C      80.30597567      73.98640420      91.00378984
O      78.35577812      72.72973621      90.97922340
N      80.63289832      76.21250181      89.84916706
H      82.31286501      77.10634235      89.97766845
C      78.72994393      77.16492387      88.28825313
H      78.19893083      75.99329355      86.68009603
H      79.38189951      78.95827413      87.51535506
C      76.12590106      77.76207738      89.43909645
O      74.21916721      77.25563073      88.21455380
N      76.04086338      78.58977751      91.87873312
H      77.64335130      78.72394807      92.90863396
C      73.56343218      79.18315157      93.16752647
H      72.11968128      78.01341097      92.28124483
C      73.56154247      78.34222336      95.89818099
H      74.75584950      79.57810437      97.03390650
H      74.44782410      76.49407102      95.68464192
C      70.74962971      78.15703018      96.84682360
N      69.14525206      76.10856686      96.46509888
H      69.74996448      74.46639468      95.70542891
C      66.87947021      76.69816146      97.38728532
H      65.20895215      75.56243595      97.10193665
N      66.91915447      79.14535704      98.32458957
H      65.35257136      80.03919758      98.95008898
C      69.44760827      79.95793936      98.09593269
H      70.21105771      81.84010677      98.30947176
C      72.61289985      81.85144512      92.80280929
O      73.38957736      83.50306592      94.18986840
N      70.74207080      82.19159586      91.17764466
H      70.03153371      80.64768946      90.31215001
C      69.34556305      84.57454073      90.99812066
H      70.57199543      86.07120398      90.29514247
C      67.28387165      84.23627973      89.08193818
H      65.90815090      82.80764663      89.64696635
H      68.13424849      83.58243443      87.32449271
C      65.84201047      86.81008696      88.66430866
H      65.32233573      87.46960145      90.54458634
C      67.20450315      88.84721194      87.11095363
H      67.52953607      88.34454473      85.13996909
H      68.99974314      89.42924763      87.93487431
H      65.98940913      90.51017108      87.05615157
C      63.21340118      86.34521430      87.43787629
H      62.50097436      84.70115241      88.45265932
H      63.40993271      85.94648204      85.42720749
H      61.88681330      87.90045905      87.68543043
C      68.21550672      85.52507308      93.55869981
O      66.94372092      84.06431464      94.77757329
N      68.69171775      87.90801796      94.38073076
H      69.81043572      89.02673594      93.31114567
C      67.56922033      88.89634482      96.82225716
H      67.23095932      87.30330554      98.08081488
C      69.51752816      90.42513340      98.26411833
H      68.41770743      91.84242814      99.27890136
H      70.54742899      91.57786646      96.90162566
C      71.26552500      88.97571333      99.89495214
H      71.88346549      87.46015282      98.64206360
C      73.46516641      90.61788549     100.74532898
H      74.92970431      89.46893189     101.62216199
H      72.83210811      92.13722544     101.98309972
H      74.16247542      91.58731509      99.06725202
C      69.86334806      87.85888506     102.07758603
H      71.18615648      86.71938010     103.17551702
H      68.45361224      86.41702389     101.65806679
H      68.74840955      89.19303185     103.17929647
C      65.01620008      90.37789025      96.42352490
O      63.11702512      89.58609492      97.28524010
N      65.10690693      92.41123576      95.02890689
H      66.74907910      92.92335159      94.20120676
C      62.91104497      93.90411955      94.07459510
H      61.23296800      92.71926115      93.91018891
C      62.15704417      96.04895891      95.87928373