 %block lattice_cart
   142.669   0.000   0.000
   0.000 146.65   0.000
   0.000   0.000   162.396
 %endblock lattice_cart

 %block positions_abs
N      94.84269533      42.63867926      78.56750098
H      94.41183773      41.55586609      77.05571993
H      93.87137600      42.09821754      80.11896628
H      96.71352438      42.55364158      78.94355651
C      94.06412810      45.19169951      77.74735976
H      94.88993848      46.31608667      79.26103053
C      95.35481117      46.24805652      75.37008405
H      94.89938712      44.96115290      73.82806738
H      97.39193613      46.14223185      75.64787382
C      94.64805352      48.97304186      75.06772784
H      92.62604636      48.87477610      74.69356203
H      95.52299680      49.80452144      73.39720978
S      95.28678101      50.94213668      77.78704401
C      94.50443432      53.88633028      76.28471159
H      93.08336013      53.46114186      74.85229904
H      96.15038594      54.57230093      75.25670048
H      94.13971714      55.17512362      77.84751525
C      91.21820026      45.45437147      77.94389129
O      89.81980280      44.11455551      76.61352397
N      90.32058026      46.90568128      79.81472034
H      91.62827087      47.71070469      80.94855613
C      87.67685315      47.19480940      80.63297184
H      86.50333311      46.34821202      79.16654422
C      87.12694279      45.81152974      83.10662358
H      87.98109908      43.95581850      82.84395162
H      85.09359728      45.77373522      83.44677432
C      88.45919985      46.77906961      85.55003970
O      89.02233828      48.95036515      85.79570412
N      88.77289441      45.27106802      87.47378109
H      89.52311577      46.05908389      89.04414365
H      88.44219230      43.41913623      87.16008652
C      86.76978452      50.01806051      80.75958350
O      88.29857311      51.79251352      80.62919238
N      84.33014785      50.39033660      81.18477192
H      83.28323947      48.85776856      81.63263706
C      83.14151001      52.87154725      81.34161920
H      83.46087375      53.79940287      79.53126140
C      80.42786301      52.48604308      81.92932409
H      79.57937590      51.29173605      80.47990400
C      79.91763691      51.25394152      84.49935187
H      81.17619463      49.62688717      84.64108135
H      77.90507838      50.84387091      84.64864025
H      80.22566231      52.71281024      85.91664661
C      78.98222239      55.15055718      81.72334392
H      79.79669442      56.47336560      83.07260851
H      77.01123784      54.61954409      81.98601588
C      78.98411211      56.34675394      79.12119079
H      80.68108634      57.45980274      78.77348114
H      77.53280230      57.80373292      79.25536135
H      78.69120453      55.13543937      77.48090835
C      84.25077934      54.56474202      83.38819280
O      84.55313555      56.80217798      82.85528998
N      85.08792810      53.45547268      85.37807461
H      85.12572263      51.54684910      85.42342804
C      86.13483648      55.05229141      87.39063313
H      84.93486027      56.69635331      87.70621743
C      86.28979403      53.53484118      89.89452050
H      87.36504831      54.61765436      91.27780016
H      87.12127361      51.67157104      89.61484100
C      83.68953063      52.82052464      90.92442134
C      82.54246677      50.40167496      90.79780967
H      83.67630254      48.87855555      90.04758833
C      79.98566705      49.86310296      91.41386045
H      79.17308474      47.99794309      91.24000563
C      78.57026206      51.95880944      92.36817224
H      76.61439531      51.89077929      92.94264904
C      79.64173687      54.36254131      92.56659350
H      78.51923944      55.87999154      93.34894020
C      82.17774959      54.73481739      91.92786601
H      83.00355998      56.56974164      92.27746538
C      88.83714510      56.12565596      86.87284812
O      89.41351163      58.27616450      87.55881877
N      90.43963302      54.61009546      85.75601987
H      89.90106102      52.80351710      85.45744311
C      92.71486350      55.43401613      84.46344707
H      93.78822804      56.58296973      85.79381440
C      94.11515070      53.31941238      83.30882429
H      95.60047558      54.34931322      82.32049743
H      92.87549024      52.34809306      81.98034670
C      95.15261044      51.22370590      85.10028484
H      93.62382186      50.38088797      86.19632610
H      96.39227090      52.11943617      86.47789532
C      96.59258189      49.24894191      83.74724080
O      98.88670964      49.58153374      83.28614758
O      95.38315705      47.36110532      83.06693933
C      92.11015108      57.25004311      82.44521937
O      93.39894442      59.25315301      82.29782072
N      90.37727205      56.79461907      80.74446569
H      89.38327601      55.16567499      80.74068624
C      89.44941643      58.33663574      78.66576674
H      91.21253108      58.27805423      77.60185083
C      87.34615104      56.91934101      77.19178022
H      85.72665559      57.35964724      78.38608725
H      87.62960999      54.88221604      77.13130898
C      86.96064688      58.00404391      74.64631888
H      88.17196144      57.14799789      73.21768578
H      87.58047711      59.96935928      74.57450928
S      83.52323472      57.54484042      73.50114473
C      83.77456831      58.39899671      70.21302095
H      81.96610023      58.10230968      69.27382697
H      85.00289042      57.05540130      69.24926053
H      84.44542115      60.30384084      69.80484006
C      89.03367664      61.00870875      79.39898055
O      90.26388847      62.70379325      78.22735024
N      87.21198048      61.45846361      81.06004998
H      86.34648582      60.02983052      81.98223642
C      86.44097214      63.87920302      81.77625626
H      86.00444536      64.93933948      80.06605394
C      84.07503480      63.81495233      83.58094488
H      83.77078887      65.76892933      84.15542168
H      84.52289993      62.61875557      85.19666088
C      81.78468650      62.83229464      82.06916383
H      82.19097766      61.19957111      80.87863626
C      80.09527118      61.97624862      84.16864977
H      80.84738225      60.29628193      85.09650539
H      78.32081817      61.46413279      83.25402223
H      79.65685468      63.46913241      85.51791435
C      80.64329181      65.08106896      80.56305196
H      78.71766071      64.62564491      79.99046489
H      81.85271665      65.76326015      79.04182228
H      80.23511093      66.52104041      81.97845697
C      88.60281904      65.26437241      83.27291949
O      88.88060881      67.63408920      83.03859343
N      90.26199874      63.97179961      84.68265532
H      90.03145213      62.07829384      84.70344231
C      92.66951007      65.05461279      85.64830547
H      92.24243192      66.69300550      86.82371524
C      94.02444383      63.11953304      87.20732968
H      96.01621537      63.61842079      87.36984614
H      93.94318560      61.20335056      86.45521861
C      92.84336489      62.90599397      89.97955818
H      90.87427007      62.31073018      89.87184378
H      92.79045255      64.72202096      90.94898778
C      94.32302059      61.12398206      91.82393106
H      95.99731810      62.19167742      92.36439279
H      94.80679053      59.49125852      90.66552883
N      92.78289365      60.38509907      93.96310125
H      91.59614552      58.91489200      93.70420874
C      93.01910943      61.17878412      96.36305367
N      94.35892539      63.07795906      97.16051817
H      94.24554181      63.50503721      99.01811913
H      95.45496665      64.08707292      95.96621114
N      91.61693251      60.16589082      98.06191762
H      91.54701264      61.02193684      99.76645075
H      90.43585357      58.75615499      97.55358124
C      94.41939663      66.27537599      83.66598257
O      95.81968383      67.85896664      84.45021899
N      94.08491508      65.62719986      81.26414042
H      92.80934981      64.30439144      80.74257596
C      95.53244543      66.55505548      79.22890519
H      97.28233201      67.44133712      79.85818405
C      96.08424551      64.30439144      77.37508367
H      94.35514594      63.47291186      76.63431096
C      97.39004640      65.36074845      74.98269016
H      98.06467869      63.88298247      73.71657353
H      98.97741650      66.54182740      75.54960805
H      96.00487701      66.56450411      74.04727563
C      97.75287385      62.28238429      78.69222291
H      96.70029630      61.70790749      80.36652043
H      99.55567275      62.96457549      79.41409836
C      98.43695477      59.86731406      77.25225146
H      99.28922134      58.75993444      78.76592224
H      99.83535225      60.17911890      75.77259576
H      96.74376000      58.99803995      76.46423559
C      93.97342122      68.68288731      78.04971597
O      94.83891587      70.79560133      77.46012136
N      91.43362906      68.30305232      77.54326931
H      90.69285634      66.59096028      77.94956047
C      89.66484523      70.08884369      76.15809993
H      90.72876114      70.82205749      74.55561201
C      87.45575517      68.44289207      75.31906144
H      85.60760284      68.97201543      76.05794443
H      87.69386068      66.42277464      75.65165327
C      87.17607569      68.58840099      72.39943429
O      89.07714035      68.47501741      71.04261080
O      85.01611850      68.24069135      71.32984920
C      88.81635811      72.42832486      77.71523441
O      87.84125934      74.16876280      76.47557395
N      89.13761159      72.80627012      80.19077588
H      89.92940691      71.37196785      81.16776438
C      88.75588687      74.99835265      81.64397541
H      88.89950607      76.69532688      80.48368346
C      86.04412961      75.00402183      82.52836733
H      85.77389875      73.32027568      83.68487983
H      84.69675476      74.58828204      81.02792464
C      85.04635412      77.25090641      84.07605318
H      86.31247075      77.42476123      85.69176918
H      83.17174562      76.70477551      84.73178821
C      84.93486027      79.76046296      82.65875844
O      86.22743307      80.17998220      80.67454581
O      83.71031762      81.43476047      83.77558669
C      90.89505706      75.42354107      83.64330585
O      91.41095234      77.49846056      84.36518130
N      92.22164494      73.46200515      84.43510118
H      91.51110784      71.75180284      83.97589768
C      93.86759655      73.56971955      86.56860218
H      95.21497141      75.11173623      86.33616585
H      94.89371794      71.80093572      86.81426661
C      92.31802097      73.98923880      89.06304092
O      90.02200351      73.67176477      89.04981283
N      93.55957116      74.56371559      91.22110837
H      95.46630501      74.59395122      91.11528369
C      92.31046207      74.46922928      93.79302588
H      90.29601382      74.74323959      93.46232377
C      92.59203129      71.95022410      95.24244596
H      94.58758227      71.43810827      95.21410007
H      91.60181470      70.48001703      94.19364786
C      91.90417091      71.91431930      98.09026352
H      92.80368065      73.51869694      99.02189859
C      89.00911020      72.46800911      98.39639918
H      87.93574565      71.36062949      97.03201678
H      88.65384165      74.49190599      98.21876490
H      88.54801698      71.78581791     100.28423576
C      92.60714910      69.43121893      99.34315206
H      94.66695078      69.45011619      99.30913699
H      92.27644700      67.81928238      98.10349160
H      92.14227643      69.30271754     101.34437223
C      93.27611221      76.80115155      95.12528293
O      95.54000434      77.13374338      95.34638091
N      91.49221057      78.15608532      96.24778036
H      89.68941167      77.65341812      95.88306318
C      92.03078257      80.56548636      97.57814768
H      93.96586232      80.72044392      98.26789779
C      91.61126333      82.76323807      95.74133371
H      90.80057074      84.36005680      96.75989619
H      90.08058502      82.26624005      94.45631982
C      93.75988215      83.67408615      93.97066015
H      94.82757752      82.10561331      93.17130592
H      95.11481592      84.69075891      95.14229047
C      93.17784645      85.24066926      91.57448719
H      94.85970286      85.81136661      90.53324799
H      92.17251205      86.91496678      92.23211194
N      91.58291744      84.01612661      89.66208416
H      90.58703167      82.49678666      90.24978904
C      91.39016535      84.33549036      87.19977077
N      91.99865723      86.53135233      86.32482749
H      91.86448667      86.95465103      84.46911625
H      92.55423676      87.94675734      87.47756054
N      90.73254060      82.60450106      85.74090206
H      90.41695630      83.07126346      83.91920589
H      90.20152750      80.89240902      86.39663709
C      90.33569807      80.78658434      99.97432065
O      88.22298405      79.80770611     100.12549875
N      91.34292220      81.95632493     101.98876890
H      93.17217727      82.50434556     101.99065863
C      90.26010902      81.74089613     104.54178915
H      88.40061833      80.86973230     104.66084191
C      92.12526889      80.38407264     106.26332982
H      90.99899201      80.40108018     107.98676022
H      93.78633832      81.49901116     106.76221757
C      93.30823756      77.74601471     105.56980026
H      94.12837878      77.57404961     103.68763285
C      95.03733714      76.92587349     107.92628897
H      95.73275642      75.00591155     107.64660948
H      93.99609794      77.21122216     109.67995499
H      96.70218602      78.13718805     108.04723146
C      91.15394956      75.86951648     105.30712830
H      89.93696582      76.70477551     103.86904658
H      90.15806380      75.72022810     107.10236830
H      91.90984009      74.03081277     104.76666658
C      89.50232877      84.33360063     105.81168523
O      88.00377580      84.34115954     107.56157180
N      90.54545769      86.43875575     104.82335837
H      91.91361954      86.18553242     103.51566776
C      89.08847870      88.91996639     104.91217551
H      87.73354494      88.81981090     106.45986136
C      90.97253584      90.97787835     105.51310847
H      91.23520780      90.85882559     107.55401289
H      90.08058502      92.75989026     104.99721319
C      93.62760131      90.72843448     104.16384389
H      93.43106977      90.73977283     102.11538056
H      94.38160211      88.97665818     104.94619058
C      95.21497141      92.92429645     105.17295774
H      94.89749739      92.89028138     107.20819298
H      94.87104122      94.71197754     104.20730759
C      98.00231772      92.38005527     104.81768919
H      98.31034311      91.82258601     102.86182246
H      98.55033835      90.64717624     105.78522906
N      99.51220905      94.60993232     105.44885778
H     100.60258113      94.91984744     103.91628974
H     100.41549822      94.31135557     107.10425803
H      98.40860888      96.12927228     105.80223660
C      87.72220658      89.46987675     102.44041349
O      88.29479365      88.37950467     100.43919332
N      85.96665083      91.21409414     102.65206283
H      85.41107130      91.98132302     104.30557336
C      84.33770675      91.83392437     100.49966456
H      83.43252785      90.18419330      99.66062608
C      82.20231602      93.57247258     101.34626195
H      83.10560520      95.13149679     102.34592717
C      80.44298082      94.67985220      99.21843012
H      79.17497447      93.23799102      98.47387796
H      81.71476663      95.54723657      97.84837855
H      79.33938066      96.15950790     100.12927821
C      80.41085547      92.19675182     103.19063483
H      81.23099669      91.60904694     104.98776456
H      79.74567181      90.41473991     102.40072924
C      78.03924895      93.58003148     103.98620961
H      78.42286339      95.30724133     105.03878717
H      77.29658651      92.48399022     105.56602081
H      76.71266108      93.80490891     102.42718540
C      85.81169328      93.24177047      98.39073000
O      87.69197096      94.65717548      98.65151223
N      84.95375753      92.85437658      96.03802074
H      83.45520456      91.67140791      95.95676251
C      86.19530772      93.52333969      93.71554710
H      87.45197572      95.11259952      94.08971291
C      87.87527441      91.43330239      92.65163119
H      89.21886982      90.81158243      94.08215401
H      88.98643348      92.09470660      91.04914327
C      86.75277698      88.96531983      91.84093860
C      86.46175913      88.68564033      89.24067519
H      87.09292772      90.10860425      87.92164622
C      85.63594873      86.33482080      88.17675928
H      85.26745210      85.97955225      86.20199528
C      84.96887535      84.43942531      89.94743283
O      83.98432793      82.22277634      89.01957721
H      83.61016212      82.47977912      87.26402147
C      85.20887058      84.73233288      92.49100445
H      84.71565202      83.29047171      93.84971767
C      86.11027003      87.05858598      93.50956693
H      86.56569408      87.19275654      95.49566929
C      84.26022797      94.08836786      91.52157485
O      82.08137354      93.45153009      91.64629679
N      85.19375277      95.06346664      89.52224441
H      87.00222085      95.67006878      89.51090605
C      83.88039299      95.73998866      87.09961528
H      81.85271665      95.90439485      87.40764067
C      84.81769724      98.27978082      86.36073229
H      84.61549652      98.49143017      84.32171760
H      86.86049138      98.40828221      86.56860218
C      83.63472856     100.32446469      87.95566130
H      84.20542591     100.08069000      89.92097666
H      81.59949333     100.00132149      87.99534555
C      84.00322520     103.07212675      87.15630707
H      83.21520932     103.18928978      85.25713212
H      86.02145290     103.46896928      87.23756530
C      82.49522360     104.71618864      88.91753199
H      82.75978528     104.10769677      90.86583982
H      80.46943699     104.53477492      88.59249907
N      82.88639694     107.37503357      88.49990248
H      81.40863097     108.39926523      89.13674024
H      83.10749492     107.70951512      86.63474261
H      84.48510541     108.06289395      89.28602862
C      84.22621290      93.85971098      84.96800400
O      86.23877142      93.27578555      84.12707579
N      81.97176941      93.12649717      83.92676480
H      80.35983286      93.98821237      84.47478543
C      81.71098718      91.75077641      81.72334392
H      82.94119901      90.10104534      81.75546927
C      78.97844293      90.83614888      81.40586990
H      77.79547426      92.48587995      81.05249108
H      78.43798120      89.77034324      83.08394686
C      78.59104904      89.02201162      79.14197777
O      76.96588441      89.73821789      77.58106384
O      80.14629379      87.28346341      78.88875445
C      82.55191539      93.21342458      79.37063466
O      82.92608120      95.48676533      79.35929630
N      82.71443186      91.77345313      77.24847201
H      82.37050166      89.90262408      77.38831176
C      83.28512920      92.69563957      74.68033395
H      85.03690549      93.74443767      74.93922645
C      83.75945050      90.58670500      72.76037202
H      84.35282456      91.26133730      70.90655050
C      86.00444536      88.86705406      73.61830776
H      86.52412010      87.75778471      71.96290751
H      85.56035968      87.88817583      75.37386351
H      87.64850725      90.01600766      74.07751126
O      81.65051594      89.11082875      72.54494322
H      80.80391855      89.50200210      70.98780873
C      81.19320217      94.62505013      73.74869888
O      81.78468650      96.34848053      72.27282263
N      78.84238263      94.40395215      74.65765723
H      78.25656748      92.82981014      75.56283614
C      76.92053097      96.39005451      74.21924073
H      76.91108234      96.82091211      72.20479248
C      74.24845797      95.31480024      74.86741685
H      73.91586614      95.05590773      76.88375483
H      74.12184630      93.47042736      73.96034822
C      72.06393436      96.85303746      73.66933037
H      71.26835957      98.05868284      75.13575799
H      70.68821359      95.35259476      73.35752553
C      72.56093237      98.29111918      71.19000945
O      73.62106883      97.25932861      69.28894478
O      71.99590420     100.61170309      71.18623000
C      77.32115295      98.73142541      75.94645058
O      76.01913152     100.59280583      75.58362313
N      78.81781619      98.65583636      77.93255293
H      79.99889514      97.16106285      78.03648788
C      79.15985666     100.63626953      79.93755255
H      78.59104904     102.47686296      79.21189765
H      81.16674600     100.88193396      80.34006426
C      77.82193043     100.02399821      82.46033718
O      78.40018668     101.05200932      84.41998337
N      75.94543220      98.24387602      82.46978581
H      75.51646433      97.53900811      80.74824514
C      74.24278879      97.61270743      84.46722652
H      73.38485304      99.34558646      85.17587389
C      72.02802955      96.05746268      83.38252362
H      70.67120606      95.67762769      84.88485604
H      72.81226597      94.30568639      82.63608173
C      70.51624850      97.31413068      81.36240619
C      69.08572568      95.91006403      79.69755731
H      69.35406683      93.88805687      79.78448472
C      66.95600414      96.78878676      78.39931533
H      65.76736628      95.45652971      77.41476792
C      66.49491091      99.37204263      78.49947083
O      64.44266813     100.21297084      77.21634666
H      63.99291327     101.92128343      77.62641727
C      68.04448648     100.92350793      80.14353272
H      67.86496248     102.95685345      80.13597382
C      69.98523541      99.90116600      81.48523840
H      71.08883557     101.11248057      82.70411187
C      75.67331161      96.25777367      86.72544947
O      77.54414067      94.97087005      86.24923844
N      74.61695460      96.27478120      89.01768749
H      72.85006050      96.94185459      89.30681561
C      75.95299110      95.44141190      91.28535906
H      77.94854209      95.86471059      91.00001039
C      75.01568685      96.97020049      93.52846420
H      75.26135127      95.84392361      95.23677678
H      73.01068723      97.43885261      93.47744159
C      76.36306172      99.55912554      93.80247451
C      75.15930605     101.79656149      92.95776685
H      73.28091810     101.73231080      92.16030235
C      76.29881102     104.16249883      93.52468474
H      75.21977730     105.86136279      93.18075455
C      78.83104428     104.26643378      94.58482120
O      79.83448895     106.50386974      94.91363358
H      78.61372575     107.61313908      94.16152251
C      80.02157185     102.08946907      95.20654116
H      81.96798997     101.99687248      95.81503303
C      78.81970592      99.78967215      94.93442057
H      79.78724579      98.02655750      95.28213021
C      75.49567733      92.62194024      91.79180571
O      73.31115372      91.59392913      91.60661254
N      77.57626601      91.43897157      92.69131544
H      79.20898954      92.42540870      92.79525039
C      77.87106332      88.64784581      92.73477914
H      76.00023426      87.81636623      92.94642849
C      79.10883404      87.79179979      90.17042054
H      81.03824461      88.48721907      89.99089654
C      78.42286339      85.02524046      89.68854033
H      79.60205261      83.79313891      90.84505283
H      78.91986141      84.58682396      87.73834277
H      76.39518706      84.83248838      89.99467599
O      77.82004070      88.97287873      88.22589216
H      78.53813670      90.57725637      87.77424757
C      79.42063889      87.82959431      95.10638567
O      80.89273568      89.36783153      96.03802074
N      79.40552108      85.37106038      95.68464192
H      78.27357501      84.29769583      94.58104175
C      80.80202882      83.89707385      97.68586208
H      82.66907842      84.71910480      97.96176213
C      79.39796217      84.05581086     100.40517825
H      78.99922992      86.05703103     100.68485774
C      76.81659603      82.81992986     100.37116317
H      75.69409860      83.34149432      98.72332183
H      75.87740205      83.42086282     102.10404220
H      77.23044609      80.83004805     100.70942419
C      80.71699114      83.08071209     102.85804300
H      80.83037472      81.02280013     102.84670465
H      79.36394710      83.54747449     104.33958843
C      82.99411134      84.70398699     103.41173281
H      84.60226844      84.45643284     102.15317509
H      83.72921488      84.21265815     105.27311323
H      82.48766469      86.69575852     103.53456502
C      81.06281105      81.06626384      96.85627223
O      79.41496971      80.03069382      95.54669190
N      82.88261749      79.82849310      98.10349160
H      84.28857387      80.76579735      98.99166297
C      83.09804629      77.02602898      97.91451897
H      81.30091657      76.24368229      98.54379783
H      84.52667938      76.41564738      99.26756301
C      83.66307446      76.38352203      95.18008499
O      85.42807884      77.50979892      94.13695607
N      82.45742907      74.36151488      94.21821430
H      81.05525215      73.40531336      95.09315758
C      82.84104351      73.86262713      91.52157485
H      84.50022322      74.89819715      90.87528845
C      83.28701892      71.09417808      90.95276723
H      81.63728785      69.97357038      91.46488306
C      84.00322520      70.83906503      88.09172159
H      85.69641997      71.88408368      87.55503932
H      82.45553935      71.44566718      86.87851730
H      84.19219783      68.85107295      87.58716467
C      85.49799871      70.20033754      92.57982159
H      84.64006296      69.83939981      94.41663556
H      86.91907290      71.64597817      92.94075931
C      87.14961951      67.89109198      91.98644752
H      88.66140056      68.44478179      90.70332336
H      86.04790907      66.33773695      91.20221110
H      88.03023197      67.13520146      93.68720121
C      80.69620415      75.05504444      90.09672121
O      78.67986618      73.86451686      89.88129241
N      80.87194870      77.52869618      89.40319165
H      82.42152427      78.49056687      89.96633010
C      79.06159089      78.52647167      87.70432770
H      78.59104904      77.09783858      86.29459187
H      79.89118074      80.26313015      86.97300362
C      76.34983363      79.17653752      88.75123608
O      74.59238816      79.22567041      87.36606669
N      76.26857540      79.29559028      91.21543919
H      77.88240167      79.25401630      92.23211194
C      73.76468803      79.54692388      92.50423253
H      72.37951864      78.45277235      91.44220635
C      73.96499902      78.27513807      95.18386445
H      75.25190264      79.19543479      96.50289341
H      74.67175666      76.36462477      94.87394933
C      71.35528698      78.09561407      96.39706874
N      69.82838812      75.90920073      96.78446263
H      70.36696012      74.09884292      96.50856259
C      67.69110767      76.70477551      97.87861417
H      66.03570742      75.59172671      98.30947177
N      67.72890220      79.18787588      97.99010802
H      66.26247457      80.34438839      98.37939164
C      69.99468404      80.09116506      97.14729009
H      70.42932109      82.08482632      97.18886406
C      72.88785502      82.32482156      92.54958597
O      73.74768049      83.71943958      94.18419923
N      71.26835957      82.96921823      90.66552883
H      70.55026357      81.66530708      89.46933208
C      70.15531077      85.51656930      90.44821031
H      71.68976854      86.80347292      89.96821982
C      68.42432147      85.66585768      88.18242846
H      66.86529726      84.32226227      88.27124559
H      69.58083397      85.05358636      86.59316863
C      67.65520286      88.48721907      87.46622218
H      67.73079191      89.70609254      89.12351216
C      69.12729966      90.08214808      85.47256092
H      68.65486809      92.08714769      85.45177393
H      68.98745992      89.23366096      83.59984215
H      70.98490063      90.19364193      86.35506311
C      64.94155588      88.40785056      86.60828644
H      64.57494897      90.27301043      85.81460139
H      63.72835158      88.02423612      88.22778189
H      64.62408186      86.86205444      85.28547802
C      68.77014139      86.35749751      92.94831822
O      67.50024530      84.91374661      94.32025952
N      69.17265310      88.76122938      93.71365737
H      70.18743612      89.86671928      92.53257843
C      68.26558447      89.93852888      95.99077758
H      67.01080620      88.56091839      96.86950032
C      70.50113070      90.45064471      97.86160663
H      69.61862850      91.39928732      99.46409454
H      71.58016441      91.91896205      96.89973594
C      72.18676656      88.23777520      98.72332183
H      72.74990500      87.16630038      97.05469350
C      74.46199704      89.33948564     100.12738848
H      75.57315611      87.89195528     101.08358999
H      73.88185106      90.77567763     101.48232225
H      75.50701569      90.27490016      98.62127661
C      70.45388753      86.60883111     100.50911320
H      70.03058884      87.84660185     102.10026275
H      71.55748770      85.08571171     101.34815168
H      68.70967015      85.99278034      99.59826511
C      66.58561778      92.34415047      95.60905287
O      64.87352574      92.74477245      97.22287914
N      67.04482126      93.85215207      93.62672996
H      68.50746944      93.26066774      92.55525514
C      65.71445395      96.20297160      92.98800247
H      63.68110843      95.87793868      93.01823809
C      65.85807314      98.33647261      95.02134798