 %block lattice_cart
   142.669   0.000   0.000
   0.000 146.65   0.000
   0.000   0.000   162.396
 %endblock lattice_cart

 %block positions_abs
N      90.33475322      41.23650234      80.08967552
H      88.98170917      40.52029606      81.22918049
H      92.14889048      40.90013105      80.57344546
H      90.19302375      40.45793510      78.35112731
C      89.64878257      44.15423976      79.93093851
H      90.21381074      44.98760908      81.72617851
C      90.68246286      45.50161463      77.57067035
H      89.69602572      44.68903231      75.95684407
H      92.66478577      45.01406524      77.30043948
C      90.62766079      48.36643972      77.64814912
H      88.65856597      48.85587883      78.01475603
H      91.32119035      49.24138300      75.91904955
S      92.34920146      49.57586456      80.30888377
C      92.23014871      53.01138700      79.50197064
H      93.32241052      54.06396455      80.89469893
H      90.24593609      53.50649530      79.74574533
H      92.80651524      53.45358296      77.57444980
C      86.77639856      44.49816996      80.01408647
O      85.29674286      43.24339168      78.87836095
N      85.86744021      46.31419694      81.61846411
H      87.11654931      47.30819298      82.66348276
C      83.31441997      47.13622789      81.92459977
H      82.05586224      46.41246271      80.46384133
C      82.15979719      45.62444685      84.03164461
H      82.45081504      43.60432942      83.76708293
H      80.11322358      45.83609619      83.95416583
C      83.18024940      46.42191134      86.70560734
O      84.97737911      47.75983757      87.00985328
N      82.03696497      45.41279749      88.65958435
H      82.80230413      45.46570983      90.40758119
H      80.45337432      44.37722747      88.40636102
C      83.10277061      50.03695778      82.23829434
O      84.99249693      51.37299428      82.35923682
N      80.71037710      50.78339967      82.84111703
H      79.33465635      49.47192962      82.65781358
C      79.96393521      53.54051036      83.03386912
H      80.54786064      54.54395503      81.33122571
C      77.03296969      53.62932750      83.27008491
H      76.32432234      52.59942666      81.63169219
C      75.91614144      52.28384236      85.69082431
H      76.80053337      50.53206607      86.31632372
H      73.88090621      52.00605261      85.50752086
H      76.14290861      53.58208434      87.27063551
C      75.97472297      56.38076901      83.18882667
H      76.76273883      57.33697052      84.83477829
H      73.96594390      56.29384160      83.63669181
C      76.05409146      57.60720139      80.55454819
H      75.45504823      59.57440648      80.63958588
H      74.97316801      56.38265875      79.29976992
H      78.06853971      57.75271032      80.14825704
C      81.41335530      55.03339415      85.22217219
O      81.89712522      57.22925612      84.97272831
N      81.74405739      53.69735765      87.35000402
H      80.98060796      51.94747108      87.32732730
C      82.88356236      54.89355440      89.57988106
H      82.03885471      56.73792728      89.92948043
C      82.16357663      53.26650006      91.84377319
H      83.18969803      53.86365356      93.52940906
H      82.94403360      51.48637787      91.16347172
C      79.46504746      52.97926166      92.49383904
C      78.20460002      50.72292844      91.97416430
H      79.17402961      49.42279673      90.73261412
C      75.80842705      50.13333383      93.07587474
H      74.99584473      48.28140203      92.79808498
C      74.73506251      51.88888956      94.70670855
H      73.11745677      51.18402166      95.73094021
C      75.89346474      54.23970910      95.19614767
H      75.09788995      55.49070793      96.59832459
C      78.20460002      54.72725850      94.02829681
H      79.12867618      56.48092450      94.51395647
C      85.68224703      55.46425175      89.40791597
O      86.78017802      57.20091024      90.61734081
N      86.98426846      54.08853099      87.82054587
H      85.91090392      52.67879516      87.11000877
C      89.48437638      54.48915297      86.75474023
H      90.78261836      55.45480312      88.02841576
C      90.60687380      52.04762658      85.68137568
H      92.39077545      52.28951154      84.67793101
H      89.17257154      51.30307441      84.40581042
C      91.07363620      50.23159959      87.90180410
H      89.29162429      50.03128861      88.91658713
H      92.57596863      50.86087845      89.16414128
C      91.98259456      47.57275466      87.13835467
O      94.09341886      46.75450317      87.70338284
O      90.31018678      46.22160035      86.03286478
C      89.07808521      56.70769166      84.64580566
O      90.12877305      58.69568374      85.04831737
N      87.45292058      56.22770119      82.78631497
H      86.73482459      54.47214544      82.57655535
C      87.14867466      57.96058022      80.56210710
H      88.99304753      57.82074047      79.65503847
C      85.00761475      57.19902051      78.83489725
H      83.24827955      57.28216846      79.90448234
H      85.23438190      55.22047705      78.30577388
C      84.66746400      58.84875158      76.43305511
H      86.30585672      58.32151793      75.30110904
H      84.89801062      60.88209709      76.64659418
S      81.86499989      57.94357267      74.52254180
C      83.14623432      58.30262068      71.34024269
H      85.03596064      57.47870001      71.31567625
H      83.05174801      60.29628193      70.83568577
H      82.09932595      57.06862940      70.06845688
C      86.73482459      60.75737515      81.31988735
O      88.03873574      62.43167267      80.29943514
N      85.18335928      61.34696976      83.04898693
H      84.39156396      59.86542434      83.95794528
C      84.70714825      64.00770442      83.77275210
H      84.47282219      65.27382105      82.16270529
C      82.02940607      64.07573457      85.12390642
H      81.78941083      65.92010744      86.00829833
H      81.98972181      62.48080555      86.42781757
C      79.73527832      63.48613995      83.53464659
H      79.92803041      61.60964172      82.70883619
C      77.39957660      63.41999954      85.32610713
H      77.34099509      65.23791625      86.29175728
H      77.52429854      61.96868972      86.78308612
H      75.67992566      63.24803444      84.20360970
C      79.60299749      65.39287380      81.45216819
H      79.54819542      67.30149737      82.22506625
H      77.74539652      65.45145532      80.56210710
H      80.91257782      65.13020185      79.88369535
C      86.59120540      65.29460803      85.47728524
O      86.45514510      67.54149261      85.70216267
N      88.53951321      63.86408521      86.16136616
H      88.49604952      62.06317603      85.53019758
C      90.94135536      65.00547991      87.28197387
H      90.41034226      66.74591785      88.24573429
C      92.30195830      63.21779882      89.11311867
H      93.64555372      64.49714352      90.00695921
H      93.37343312      61.84018834      88.01896713
C      90.31585595      62.12742674      91.00662443
H      89.27461676      60.68745528      89.96916469
H      88.99682699      63.54850092      91.70393344
C      91.75015823      60.91422243      93.07776447
H      92.98414951      62.25214866      94.04530434
H      92.83675085      59.59141402      91.93259032
N      89.98137439      59.59708319      94.81631268
H      89.48815583      57.80751239      94.37789617
C      89.23493250      60.43990113      97.11421987
N      90.10987578      62.47513637      98.16301798
H      89.79429150      62.49781309     100.04518539
H      91.20213760      63.70534820      97.19547811
N      87.77984324      59.04906256      98.47293309
H      87.22804315      59.67834144     100.19069431
H      87.56819390      57.22358696      97.95892754
C      92.88588373      65.81995194      85.30909960
O      94.60175524      67.33929190      85.90436339
N      92.51927683      64.86186070      82.95639034
H      91.22859376      63.50881666      82.55954781
C      93.89688731      65.71790673      80.80966125
H      95.34252795      66.97646445      81.56177232
C      95.62409716      63.55417009      79.67393573
H      96.46502538      64.16644143      77.89759300
C      97.74059063      63.00614947      81.69027371
H      98.51537842      64.79194083      82.35923682
H      99.24292306      61.79861435      80.96650853
H      97.07918642      62.00837397      83.36835067
C      94.09341886      61.20335057      79.00497262
H      92.59486588      61.82129107      77.73318681
H      93.43012491      60.43801140      80.80210234
C      95.78283418      59.12276189      78.01097658
H      97.27193851      59.91833667      76.83367708
H      94.92678815      57.46547192      77.13414357
H      96.58407813      58.14199394      79.63614121
C      92.39833436      67.06717131      78.70261641
O      93.38666122      68.13486668      76.75052913
N      89.89255725      67.43188850      79.31677746
H      89.34453662      66.91788293      81.07044348
C      88.23526728      69.04760450      77.83901148
H      89.15934345      69.32539425      76.01920504
C      85.85988130      67.76070087      77.05099561
H      84.31408519      68.24825026      78.32278142
H      86.01861831      65.70656837      77.12091548
C      84.95281267      68.28604479      74.29010547
O      86.37199713      68.21045574      72.39282025
O      82.66246438      68.64887223      74.05766913
C      87.71937199      71.67054462      79.01064180
O      87.53795827      73.44688734      77.55366281
N      87.66645966      71.90298094      81.44838874
H      87.95369806      70.30427249      82.45372314
C      87.01828353      74.19710869      82.81088141
H      87.40000825      75.94321580      81.78853948
C      84.15156873      73.79081754      83.61968427
H      84.22904750      72.24124195      84.97083859
H      82.95915142      73.28248115      82.01908609
C      82.93080553      76.17187269      84.68926937
H      83.97960363      76.67642961      86.38813332
H      81.00895386      75.75802262      85.30154069
C      82.52262463      78.62851689      83.20772394
O      83.00639458      78.78536418      80.88525030
O      81.90846358      80.62973707      84.36423644
C      88.59620501      74.57127450      85.29587151
O      89.18390989      76.75390839      85.75885446
N      89.49382500      72.62107694      86.62434911
H      88.53573377      71.02425822      86.21049905
C      91.40811776      72.97067631      88.50651652
H      92.87832484      74.26324912      87.87156848
H      92.23392817      71.13953151      88.95438166
C      90.38955527      73.94766483      91.05197786
O      88.18235494      74.51080326      91.21071487
N      91.96180757      74.27080803      92.97949870
H      93.75704756      73.62263190      92.92847609
C      91.23615266      75.24401707      95.45504017
H      89.18390989      75.41409243      95.52684977
C      92.30384803      73.38452638      97.48838568
H      94.36175998      73.44121817      97.44870143
H      91.40055885      71.57605829      97.08776371
C      91.57819313      74.19899842     100.15856896
H      92.32274530      76.07360693     100.57241903
C      88.67368379      74.30104364     100.49682997
H      87.84598367      75.77880962      99.32142021
H      88.42235018      74.69221698     102.50371932
H      87.62110624      72.57383380     100.11132581
C      92.43423916      72.19777826     102.07475145
H      94.42034151      71.70833913     101.83475620
H      91.20969650      70.59718007     101.65145275
H      92.12621376      72.82138793     104.01361064
C      92.21125144      77.97089214      95.78196282
O      94.41467232      78.61150936      95.47204771
N      90.27239224      79.61684375      96.56997870
H      88.46581389      79.02913888      96.40557251
C      90.71080875      82.19443046      97.47326787
H      92.73092618      82.40041061      97.80585971
C      90.11365524      84.02368552      95.29063398
H      90.03428673      85.85483031      96.23171769
H      88.27873099      83.65707861      94.43080851
C      92.31329666      84.34871845      93.40090767
H      93.38099203      82.64418531      92.95682199
H      93.67578933      85.63562207      94.25506396
C      91.51016298      85.73577757      91.05764704
H      93.13154816      86.36316669      89.95404687
H      90.36120938      87.35527301      91.60944712
N      89.78484285      84.12195128      89.56665298
H      89.66201065      82.42119761      90.42458873
C      88.97037081      84.21076842      87.19504646
N      89.24249141      86.30836464      85.89113530
H      88.74360366      86.42930712      84.05243160
H      90.02483810      87.74833609      86.87190326
N      88.06141246      82.29080649      86.16703534
H      87.24694042      82.31537293      84.43982549
H      87.73826926      80.77146654      87.27252524
C      89.25571949      82.95976960      99.84487440
O      86.96348148      82.59883189      99.98282442
N      90.58797655      83.71377040     101.83475620
H      92.48148230      83.56637176     101.65523220
C      89.67334901      83.33771487     104.38021755
H      88.29195907      81.81081600     104.46525523
C      91.84086508      82.48355857     106.09041986
H      91.44591228      82.66497230     108.10486811
H      93.44146327      83.69298341     105.61609856
C      92.74982345      79.76991159     105.56885540
H      92.81596386      79.62440266     103.51472290
C      95.44835262      79.56393142     106.64410967
H      96.15511026      77.64396948     106.87654601
H      95.31229232      80.42564663     108.50926954
H      96.69557198      80.71477474     105.47814854
C      90.99048824      77.72900717     106.73670626
H      92.05440416      76.06793774     106.14144247
H      89.07241604      78.03703257     106.05262534
H      91.13599717      77.98034078     108.77761068
C      88.41857074      85.75656456     105.34586769
O      87.22426370      85.82459470     107.28661662
N      88.49415978      87.82959432     104.02116955
H      89.43713321      87.89006556     102.36010012
C      86.98048901      90.17663440     104.40100454
H      85.57642237      89.79679941     105.85987325
C      88.68880160      92.20242100     105.53673005
H      89.22170442      91.52022980     107.40566938
H      87.43024388      93.74821712     106.05640479
C      90.86198685      93.06413621     103.95313940
H      90.54829230      94.13750075     102.22215010
H      91.82196783      91.32558800     103.40511877
C      92.81974332      94.59859396     105.51027388
H      93.87799005      93.52522942     106.91056108
H      91.94668977      96.29556819     106.28695140
C      94.82663267      95.58314137     103.76983595
H      93.90255649      96.81524293     102.40167410
H      95.82251842      94.05435279     102.81552416
N      96.91666997      96.94185459     105.06807793
H      96.46313564      98.63315965     105.83152736
H      98.48514281      97.25176971     104.02872845
H      97.58374335      95.89305649     106.51749801
C      85.64067306      90.79079544     102.00861103
O      86.48538071      89.94797751      99.99416278
N      83.63567344      92.42918816     102.35821039
H      83.35599394      93.12460745     104.11376614
C      81.84610262      93.01311359     100.25116555
H      81.11666826      91.19708661      99.61054833
C      79.58598994      94.66662411     101.22437461
H      80.20015101      96.43918740     102.07664117
C      77.79830885      95.44708109      99.08142497
H      76.87234297      93.91451305      98.06475221
H      78.67514187      96.64705729      97.65468160
H      76.27896890      96.66217510      99.75983671
C      78.14412878      93.28334445     103.38244205
H      79.48016527      92.56335873     104.77517035
H      77.14446355      91.64306201     102.63977961
C      76.24495383      94.90095017     104.95658407
H      76.49250797      94.60048370     106.98048095
H      74.33821997      94.16962610     104.67690458
H      76.10511407      96.88705254     104.42368125
C      83.15757268      94.12616239      97.90223575
O      84.62589002      95.87037978      98.20837141
N      82.42624860      93.25499856      95.58921074
H      81.14501416      91.84715245      95.46070935
C      83.18402885      94.16773636      93.07587474
H      84.12133310      95.99510172      93.20437613
C      85.17769011      92.40084226      91.92503142
H      86.75750131      92.29879704      93.24028093
H      86.07908955      93.32491844      90.31687433
C      84.44069684      89.73065898      91.25417858
C      83.76228510      89.13917466      88.68226107
H      83.96826526      90.47899061      87.15725193
C      83.25394872      86.64284620      87.93392945
H      82.90812880      86.28190846      85.95538600
C      83.26150763      84.75123016      89.77641260
O      82.85332675      82.36072637      88.85611589
H      82.40924107      82.25490170      87.09867042
C      83.99850088      85.38806791      92.25384380
H      83.65835015      83.83282317      93.53318851
C      84.85832637      87.78613061      92.89446102
H      85.50650248      88.24344437      94.77662843
C      81.11666826      94.77622824      91.15024363
O      78.90001929      94.45875423      91.75306632
N      81.73082931      95.66628933      88.85800561
H      83.49772341      96.34659081      88.62745900
C      80.04519344      96.11415447      86.80765256
H      78.11389315      96.07069076      87.52385884
C      80.53841202      98.66717472      85.67192705
H      79.74850642      98.67284389      83.76897265
H      82.53207327      99.12826795      85.43949071
C      78.96615972     100.61359283      87.20827454
H      79.73149887     100.67028461      89.11878784
H      76.98383681     100.08069001      87.03441972
C      79.24583921     103.32157062      86.18782233
H      78.82065080     103.21763569      84.17526381
H      81.10344018     104.21352144      86.26719084
C      77.32209782     104.97508115      87.73928764
H      78.08554725     105.24153256      89.63468313
H      75.54197564     103.99242348      88.07754865
N      76.70415733     107.39960002      86.69426898
H      75.49473248     108.22918986      87.91503218
H      75.76307361     107.12369997      85.05776600
H      78.19326165     108.49942072      86.23128604
C      80.15479756      94.22442815      84.56076798
O      82.16546636      93.47987599      83.60267674
N      77.94948697      93.31735953      83.77086238
H      76.39046275      93.97876374      84.65336457
C      77.45626839      92.30257650      81.30287981
H      78.61278089      90.60560226      81.14603253
C      74.65947346      91.43141267      81.34634352
H      73.47650477      93.10571018      81.15926061
H      73.86767812      90.60938172      83.06032528
C      74.19649050      89.75144597      78.91237603
O      72.91336634      90.68119132      77.14170247
O      75.17914819      87.58204016      78.66293215
C      78.10255480      94.13183156      79.08245140
O      78.34066031      96.40139287      79.49819118
N      78.71293639      93.36271296      76.72974214
H      78.78663571      91.47487638      76.46140100
C      79.23450085      94.81024332      74.54710824
H      80.75006135      96.12927229      75.00064256
C      80.10755442      93.13972526      72.31723120
H      79.86566945      94.28489941      70.62403642
C      82.75506097      92.24210526      72.28510585
H      83.14245486      91.56936268      74.19372942
H      83.94369883      93.86160071      71.83157153
H      83.11977816      90.82481053      70.83379604
O      78.54097129      90.98543725      71.93172703
H      79.27985428      89.99333094      70.60324943
C      76.94037311      96.61493194      73.77987936
O      77.41658415      98.55379114      72.73864016
N      74.57254604      96.09525720      74.60002058
H      74.10011446      94.39828298      75.33512412
C      72.38424296      97.76577527      74.30711300
H      72.47872928      99.13960629      72.77643469
C      69.96917275      96.08391886      74.18050134
H      68.29298550      97.22909300      73.83090197
H      70.01263644      94.88394264      75.85479885
C      69.98618028      94.29245830      71.86936606
H      71.68504423      93.13027662      71.77676947
H      70.03342344      95.62849481      70.30467267
C      67.69583198      92.56713819      71.52165642
O      65.82689267      93.61215684      70.55789600
O      67.75630322      90.26545154      71.82212290
C      72.16503471      99.49865429      76.68816816
O      70.04287207     100.38304622      77.19272508
N      74.04909186      99.77077489      78.34734786
H      75.76307361      99.07346588      77.87491628
C      73.97161307     101.31279155      80.52998175
H      72.99651429     103.07968566      80.11046251
H      75.87267775     101.29011485      81.32366680
C      72.47683955     100.52666541      82.93371362
O      72.83588755     101.82868684      84.75163034
N      71.18048730      98.27222192      82.88458074
H      71.30142979      97.30279233      81.24429830
C      69.91248096      97.00610529      84.98973585
H      68.68604858      98.32135480      85.99695998
C      68.20038891      94.82914057      83.97873227
H      67.12891409      93.80301919      85.41114482
H      69.23028976      93.17374033      83.31732806
C      66.20483792      95.44330164      81.97940183
C      65.56422070      93.53656778      80.24274335
H      66.49207632      91.71865106      80.27297897
C      63.70473002      93.98065346      78.45695199
H      63.35324092      92.59170463      77.00186273
C      62.47829763      96.30312710      78.30010470
O      60.41471651      96.52800454      76.69005788
H      59.52654513      98.09080819      76.93572230
C      63.04521553      98.34025206      79.99140975
H      61.95862290     100.06557219      80.09534470
C      65.03320762      97.85270267      81.78853948
H      65.11446584      99.29834331      83.22851093
C      71.69827231      96.06691131      86.98339711
O      73.83366305      95.60770783      86.18215315
N      70.94616125      95.68896606      89.46271803
H      69.09045001      96.02533733      89.75940506
C      72.67715054      95.00866458      91.48472519
H      74.52341315      95.55668521      90.75151138
C      72.11590183      96.49398946      93.91869268
H      73.37068010      95.88171813      95.43236346
H      70.18082208      96.09525720      94.50261811
C      72.64502520      99.37393237      93.73538923
C      70.72317355     101.16917236      93.42169466
H      68.77108626     100.62493119      93.66357963
C      71.20127429     103.65227273      93.11366927
H      69.45705692     104.64815850      92.75651100
C      73.76185345     104.60091535      92.86800485
O      74.15491653     107.00842667      92.26140270
H      72.62990740     107.96084873      92.01762801
C      75.80464760     102.86425686      93.11933845
H      77.71705063     103.44629256      92.71304729
C      75.14891256     100.26399345      93.52751933
H      76.61345045      98.84291927      93.62389537
C      72.53542107      92.17029565      91.97227458
O      70.45672214      91.05535714      92.19526228
N      74.79931319      91.18007907      92.48439041
H      76.19393121      92.47643131      92.35777874
C      75.35867218      88.51556497      92.51273630
H      73.62012398      87.41574425      92.58832536
C      76.58510456      87.79746897      90.01451812
H      78.48427950      88.58926429      89.88601673
C      76.89124022      84.95721033      89.58932970
H      78.13468015      84.07848759      90.97827854
H      77.84555202      84.54336026      87.81298696
H      75.14891256      83.87439714      89.77641260
O      75.29820094      88.59682320      87.76574380
H      75.83299350      90.32781250      87.66180886
C      76.99895463      87.94486763      94.83143049
O      78.37089593      89.58892951      95.95392792
N      76.89879913      85.56381247      95.68180733
H      75.69126402      84.40541024      94.76529007
C      78.38790346      84.78902468      97.86255149
H      79.97905303      86.08915638      97.73216038
C      76.90446832      85.40318572     100.27951145
H      76.70793678      87.45542850     100.30596762
C      74.24940284      84.23911433     100.50249915
H      73.18548692      85.00823293      98.91512905
H      73.22895063      85.01957129     102.11254597
H      74.14735762      82.18309210     100.41746147
C      78.50884595      84.74367125     102.74371456
H      79.16458098      82.79536341     102.89300294
H      77.16902999      84.84382675     104.30273877
C      80.87667303      86.45387356     103.43724412
H      82.31475474      86.12884063     101.99916239
H      81.43414229      86.04002349     105.37610332
H      80.18503319      88.38328412     103.24071258
C      79.19670633      82.07348796      97.64901242
O      78.12334179      80.62406788      96.29974783
N      81.27729500      81.48200364      98.84709890
H      82.34499037      82.83504767      99.66535040
C      82.26373213      78.95732928      98.86599617
H      81.03352030      77.64019003      99.86377166
H      83.95503719      78.92898339     100.03951621
C      83.17458021      77.63074141      96.44714649
O      84.82053183      78.51135386      95.11866889
N      82.05208279      75.44054861      96.06920122
H      80.68959011      74.79048275      97.23894181
C      82.04830333      74.28592584      93.64657209
H      83.65457070      74.96622730      92.55053083
C      82.60577259      71.29448908      93.76562485
H      80.94659290      70.15120465      94.18325436
C      83.36922202      70.14364575      91.29197310
H      82.03318552      70.57261363      89.78208178
H      83.56953301      68.10841052      91.06331622
H      85.15501339      70.96567669      90.67403260
C      84.58431605      70.75780681      95.81219845
H      83.60165836      71.40598292      97.50161377
H      86.33798207      71.79715627      95.52118059
C      85.16635175      67.89298171      95.98038409
H      86.35121015      67.42055013      97.59798981
H      85.81641760      67.02370760      94.23049752
H      83.38056038      66.98780281      96.46604375
C      79.61244612      74.87741016      92.36155820
O      77.77185268      73.37885721      92.32754312
N      79.65590983      77.09972831      91.04252923
H      81.37556076      77.92364898      91.15969226
C      77.81909584      77.97467159      89.20193580
H      77.78319104      76.70666524      87.57866090
H      78.55419939      79.76802187      88.50462679
C      75.09600023      78.43387509      90.12223252
O      73.48595342      78.79292309      88.49139871
N      74.51585425      78.48867716      92.57509727
H      75.87834692      78.27135863      93.89412624
C      71.99117989      79.01402107      93.34043643
H      70.73640163      77.72144826      92.33888148
C      71.86267850      78.19954903      96.22226905
H      73.35178285      79.29181084      97.13500686
H      72.61289985      76.28336655      96.26195331
C      69.27942264      78.62851689      97.51673158
N      67.38213742      76.76902620      97.71137339
H      67.62402238      74.94166086      97.22382400
C      65.45839603      77.95577434      98.73749478
H      63.72173755      77.08650023      99.36866337
N      66.04610091      80.31793222      99.39511953
H      64.94816993      81.53302625     100.37399776
C      68.38747181      80.85083504      98.47860227
H      69.40792402      82.59883189      98.72993587
C      71.14836196      81.78435985      93.01540350
O      72.06865867      83.50023133      94.27018177
N      69.26430482      82.07915715      91.30898064
H      68.53676019      80.58438363      90.37356612
C      67.98118066      84.50934519      90.84410797
H      69.40792402      85.93608855      90.42647845
C      66.21806602      84.30525474      88.54431105
H      64.37558286      83.62306355      89.16603100
H      66.59034209      82.69331819      87.31976839
C      65.84201047      86.68630989      87.01174301
H      64.57589384      86.10616391      85.49240305
C      64.17338213      88.76500885      88.26841100
H      65.20517270      89.70042337      89.78397151
H      62.52554079      87.78613061      89.02241180
H      63.31922584      90.12372206      86.97394848
C      68.37046428      87.63117306      85.98562162
H      67.87157654      88.88784105      84.43037686
H      69.49107198      86.08348721      85.21272356
H      69.65169872      88.60627184      87.27063551
C      66.55254756      85.23311036      93.35933369
O      64.83478634      83.94809646      94.06042215
N      67.23662849      87.32692711      94.50639756
H      68.67471022      88.27934917      93.69003580
C      65.92704815      88.65162527      96.49438964
H      64.93116240      87.48755385      97.87011040
C      67.61646348      90.43174744      98.00428097
H      66.43916398      91.53723734      99.27984623
H      68.40069990      91.84148328      96.72304653
C      69.70083160      89.29602193      99.69180657
H      70.66081257      87.96754433      98.44458720
C      71.63024218      91.12149755     100.82564235
H      70.54175982      92.65406559     101.66468084
H      72.53542107      92.17785456      99.30819212
H      72.95494031      90.25600291     102.14467132
C      68.62746705      87.93352927     101.96325759
H      70.07310768      87.01512228     103.11032147
H      67.44449839      86.38584342     101.29807393
H      67.23095932      89.03523971     103.00260707
C      63.78031907      90.11616316      95.41535592
O      61.59957490      89.46042812      95.83676489
N      64.27164791      91.99266138      93.83932417
H      66.08578517      92.12116277      93.26673710
C      62.23452295      93.88049797      93.08910283
H      60.45818020      92.85059713      92.93414527
C      61.93027701      95.97809417      95.20937575