 %block lattice_cart
   142.669   0.000   0.000
   0.000 146.65   0.000
   0.000   0.000   162.396
 %endblock lattice_cart

 %block positions_abs
N      96.53305553      43.10071735      80.72367870
H      97.07729671      42.58293234      82.47923444
H      98.07129274      42.94198034      79.60307100
H      95.00615666      42.04625007      80.27770329
C      95.51827249      45.74255474      80.55171361
H      96.41211304      47.15607002      81.75546927
C      96.01338079      46.38506168      77.68121934
H      95.23859300      44.98288476      76.38675681
H      98.04861603      46.41340758      77.35429668
C      94.94568542      49.01178126      77.15398569
H      92.95391388      49.14028265      77.66043235
H      95.60331017      49.24799705      75.21512650
S      96.40455414      51.17362816      79.33284013
C      95.64488415      54.28789713      78.19711462
H      93.73059141      54.60348142      77.50736451
H      96.87131654      54.76410816      76.61352397
H      95.96046845      55.62015418      79.73535184
C      92.68368302      45.61405335      80.98635066
O      91.42701503      43.69409141      80.61974375
N      91.58953149      47.74377490      81.80460215
H      92.72525701      49.19508471      82.29404127
C      88.94580437      47.93463726      82.74946531
H      87.78929188      46.59860076      81.69310830
C      88.92123793      47.23921798      85.55192943
H      89.55240653      45.27957179      85.62373903
H      87.05796779      47.43574951      86.40797545
C      90.47837241      49.01556071      87.22811667
O      89.61665722      51.02056033      87.98589692
N      92.73848509      48.29179553      87.85172635
H      94.00082227      49.64672930      88.31470930
H      93.48114753      46.64017474      87.24890366
C      87.75905625      50.58214383      82.36774059
O      89.11587975      52.34714820      81.59106308
N      85.29485314      50.98276580      82.81371600
H      84.23471668      49.41429296      83.06127015
C      84.00039062      53.57924976      82.63608173
H      84.38022560      54.17829300      80.70100198
C      81.09399154      53.10114900      82.67009680
H      80.76328944      51.71975907      81.17910274
C      80.25117360      51.72920770      85.02280606
H      78.22727672      51.34748298      85.05682114
H      80.53274283      52.89327911      86.69899330
H      81.51540052      50.14183759      85.37807461
C      79.72205024      55.54078567      82.04081794
H      80.09054688      56.92028588      83.52236337
H      77.72649925      55.32535687      82.50380089
C      79.98661193      56.62359885      79.34228876
H      78.43325689      57.91239219      78.93221815
H      80.22660716      55.12315616      77.95333992
H      81.60232792      57.89538466      79.47456961
C      85.10965996      55.63716171      84.31604842
O      85.69547511      57.69318394      83.51480446
N      85.49327440      55.20819384      86.75757482
H      85.02084283      53.53767578      87.54748042
C      86.26995192      57.07713316      88.82304568
H      84.70147908      58.40939021      88.87406829
C      86.44758619      55.67873569      91.41008100
H      86.98237873      57.14705304      92.75178668
H      87.97637478      54.30301494      91.51023649
C      83.94369883      54.68662938      92.16975098
C      81.85366153      56.26266112      92.41919485
H      82.34121092      58.17506415      91.89952011
C      79.48016527      55.41417401      93.23555662
H      77.82665475      56.60848104      93.30736622
C      79.28741318      52.77233662      93.70231902
H      77.55453417      52.18463174      94.60938765
C      81.33587651      51.07536239      93.44531624
H      80.99761550      49.06658332      93.54925119
C      83.74527757      52.12605022      92.85572163
H      85.36666274      50.89016921      92.77824285
C      88.67746324      58.41316967      87.90463869
O      89.07052631      60.66194398      88.17675928
N      90.33853267      56.93162424      86.60639671
H      89.95302850      55.06268491      86.55537410
C      92.84430976      57.71208120      85.65964383
H      93.51138314      59.39771708      86.63852206
C      94.85875800      55.67873569      86.25301789
H      96.31573700      55.64472062      84.79792863
H      94.09530857      53.76633266      86.19632610
C      96.04739585      56.09258575      88.90619363
H      94.47514356      56.26644058      90.22711233
H      97.11887068      57.85003123      88.96666488
C      97.86531257      53.84381144      89.49011907
O     100.18022731      54.32191220      89.60539237
O      96.90155215      51.67818509      89.49011907
C      92.70447001      58.43395666      82.70411188
O      94.30884765      59.86825893      81.87074257
N      90.75994163      57.60436680      81.36996510
H      89.51083254      56.44785430      82.23545975
C      90.36876829      58.46041282      78.80182704
H      92.05818361      58.14860798      77.66421180
C      88.18424468      56.78800504      77.65665289
H      86.44191702      57.16595030      78.68655373
H      88.58486665      54.78867460      77.95145020
C      87.67023912      57.44751952      74.86552713
H      89.14422563      56.46297211      73.81294957
H      87.87621928      59.39960680      74.24191745
S      84.67691264      56.17762344      73.63342557
C      85.30430177      56.48753855      70.30939699
H      86.71214787      55.11748698      69.69145648
H      85.97893407      58.41316967      70.02971749
H      83.48638505      56.18707207      69.38721055
C      89.53917843      61.22886187      78.79237841
O      90.69002177      62.77276827      77.60374056
N      87.53039936      61.80522840      80.32683617
H      86.66112527      60.46730217      81.37374455
C      86.95025338      64.30722604      81.06949861
H      86.35121015      65.34090633      79.39142165
C      84.58053660      64.18439383      82.79292901
H      84.38211533      65.96640574      83.80771204
H      84.50494754      62.61970044      84.13274497
C      82.13334102      64.12959176      81.16965411
H      82.11822320      62.75954019      79.63141689
C      79.90346397      63.51921016      82.98757082
H      80.06787016      61.67105783      83.88330110
H      78.12901096      63.18850806      81.99546451
H      79.55197488      65.05177820      84.31793815
C      81.42847310      66.57300789      79.98479571
H      81.36611214      68.17171635      81.28303769
H      79.59732830      66.52009555      79.04371201
H      82.57175753      66.83756957      78.29160093
C      89.19713798      65.73774886      82.40364539
O      89.34075717      68.09990675      82.19955495
N      90.93946564      64.65682540      83.88141137
H      90.98103962      62.75387101      84.00613331
C      93.18257077      66.15159892      84.77714164
H      92.28873022      67.75597656      85.71066644
C      94.41089288      64.57556717      86.85962004
H      95.66189170      63.26598684      85.87507263
H      92.86698648      63.57401223      87.78180648
C      95.88487940      66.09112768      88.76068471
H      94.53372509      67.42149500      89.56381839
H      97.51949265      67.01898330      87.91597705
C      97.06028917      64.53588292      90.80158913
H      98.33018524      65.76609475      91.85983586
H      98.36797978      63.19228751      89.94932256
N      95.17056286      63.52487934      92.71399216
H      93.37721258      63.18661833      92.16597152
C      95.38788138      63.15071353      95.18953363
N      97.53650020      62.85024705      96.32525914
H      97.55539745      62.71040730      98.22821354
H      99.03694289      63.13559572      95.17819527
N      93.52461124      63.02410187      96.81091880
H      93.84019553      62.72741484      98.66851977
H      91.81062947      63.34157589      96.02857211
C      94.99670803      66.88481273      82.64742009
O      95.78283418      69.07878498      82.58316939
N      95.37654302      65.16705151      80.87863626
H      94.93623679      63.30945054      80.94666640
C      96.71824871      65.96262629      78.63742085
H      98.52860650      66.66560448      79.32528123
C      97.20957755      63.79888966      76.80627605
H      95.39544029      62.85591623      76.56061163
C      97.80862079      64.74942199      74.15310031
H      98.42278183      63.30189164      72.82462271
H      99.17489291      66.28765921      74.25892498
H      95.99259380      65.49397416      73.53138035
C      99.35063745      62.22096819      77.74358030
H      98.74403531      61.84491265      79.67299087
H     101.19501034      63.13559572      77.65665289
C      99.76259780      59.65094040      76.56628081
H      98.08074138      58.50198680      76.87241647
H     101.46146175      58.72875396      77.27681790
H     100.12542525      59.68117602      74.53860448
C      95.35197658      68.27376157      77.31083298
O      96.68045417      69.97073580      76.52848628
N      92.91045019      68.13392182      76.86674729
H      92.02605827      66.44450650      76.95367471
C      91.66134109      70.15214952      75.39842995
H      92.74037481      70.40915230      73.66366119
C      88.93446601      69.55688573      74.70679012
H      87.78551241      71.20283735      74.24002772
H      87.97070559      68.72540616      76.32439584
C      88.52439541      67.79377108      72.38431648
O      89.63177502      68.30399719      70.31506617
O      86.99182737      65.95128793      72.52415623
C      91.25127048      72.61446291      76.96123361
O      91.12276909      74.60245499      75.84818481
N      91.17379170      72.46517453      79.53882030
H      91.01883414      70.69639070      80.24557794
C      90.27428198      74.49663032      81.19233083
H      90.28373061      76.19927372      80.03014914
C      87.67401857      74.11868505      82.32616661
H      87.51717129      75.42259621      83.91353672
H      87.75149734      72.24029710      83.16709482
C      85.45359014      74.38135701      80.52336771
H      83.72260085      73.72184253      81.42476716
H      85.87877857      73.05098969      79.00969693
C      84.98493802      77.03642248      79.69188813
O      86.69136088      78.67103574      79.62952716
O      82.75695071      77.25752046      78.78292978
C      92.10164732      75.17693179      83.33717019
O      92.83864059      77.38413212      83.45433322
N      92.91233991      73.48751647      84.91320194
H      92.43234943      71.69794565      84.45966762
C      94.34475245      73.97884531      87.07315911
H      95.54283893      75.62479693      86.75190564
H      95.70535539      72.46139508      87.36984614
C      92.51549739      74.49285086      89.23311629
O      90.55963064      75.76841613      88.98934159
N      93.16556324      73.69727609      91.50456732
H      95.02883338      73.30043356      91.63684816
C      91.72937124      73.93916105      93.97066015
H      89.82074765      74.46261524      93.40185253
C      91.67078972      71.21039626      95.17441582
H      93.63043591      71.00441609      95.76967960
H      91.06796703      69.85546249      93.74200327
C      90.29317923      70.69261125      97.66318537
H      91.36843351      71.66393057      99.12772326
C      87.57953226      71.51464219      97.86727581
H      86.51561634      70.49041053      99.30346781
H      86.74427323      71.16315310      96.02101320
H      87.53228910      73.55365689      98.16774229
C      90.25538471      67.89770603      98.09593270
H      92.18668501      67.51598132      98.70442457
H      89.58075242      67.02087302      96.35927421
H      89.05351878      67.38370047      99.68708225
C      92.79517688      76.01030109      95.71487754
O      94.98347994      76.17848674      96.26100845
N      91.10009238      77.68837806      96.73532975
H      89.25194003      77.28208690      96.48588588
C      91.74637878      79.96927772      97.96176213
H      93.79862155      79.97494690      98.14884503
C      91.08119511      82.22750066      96.21376529
H      90.56907928      83.89045982      97.31547573
H      89.57130378      81.71538483      94.90607468
C      93.28272627      82.93425830      94.50545270
H      93.55106740      81.32421149      93.24878470
H      94.97592105      83.51818374      95.52401518
C      92.49282067      85.37389497      93.09949632
H      94.16522846      86.35466293      92.40407704
H      91.78606303      86.85355068      94.34482596
N      90.89033276      84.99028053      90.90930353
H      90.06641208      83.27440904      90.76379460
C      90.59175599      86.36978074      88.81737650
N      91.23426295      88.71493110      88.66808812
H      90.92623756      89.84120798      87.15819680
H      92.43045969      89.27240036      90.04569860
N      89.57130378      85.22838605      86.89741456
H      89.77539423      86.09954988      85.21177869
H      88.97415027      83.45015359      87.24134475
C      90.51049776      80.12990446     100.65840158
O      88.26172346      80.13746336     100.87005092
N      92.16589802      80.17147843     102.59348132
H      93.98192500      80.48895246     102.09459357
C      91.28717528      80.18281679     105.34681256
H      89.37099280      79.42503654     105.36759955
C      93.13721734      78.53686517     106.90961622
H      92.61943232      78.93937688     108.86359323
H      94.98159022      79.28897625     106.38616203
C      92.96525225      75.63235583     106.70363605
H      91.22481430      74.98417971     107.59558687
C      93.06351801      74.64591870     103.98998907
H      94.97403131      74.95394408     103.28134170
H      91.59520066      75.53597979     102.85426355
H      92.85564812      72.59745537     103.88227467
C      95.21591628      74.31143714     107.91873007
H      96.94501586      75.11457082     107.13827310
H      95.12709915      72.29509916     107.50865946
H      95.26126971      74.49285086     109.96908312
C      90.86954576      82.74906513     106.44285382
O      89.89822643      82.67725553     108.56123702
N      91.29095474      84.88256613     105.01800018
H      91.79929111      84.43659072     103.23220881
C      90.64088888      87.39212268     105.78900852
H      89.67523873      87.39968158     107.61070468
C      93.10509200      88.88500646     106.27088873
H      94.15955927      89.11366335     104.51722271
H      94.26538394      87.96848920     107.70519100
C      92.95202416      91.65912469     106.86426279
H      91.23237321      91.96526035     107.95841432
H      92.38321654      92.57375223     105.11059677
C      95.29717451      92.81941665     108.13415887
H      95.70346568      91.67235278     109.79333857
H      94.71513881      94.74315803     108.58580346
C      97.68011939      92.85910090     106.42395656
H      97.39855017      94.04206957     104.76099740
H      97.83129750      91.04685337     105.45641668
N      99.87976083      94.06663601     107.63149167
H     101.35752680      93.74916199     106.46553054
H     100.07629235      93.39011399     109.40594468
H      99.66433202      95.96203151     107.63338140
C      89.11210030      88.85666057     103.94274591
O      89.31052156      88.29730158     101.60326473
N      87.55685554      90.55741425     104.85548372
H      87.67212885      90.74827661     106.74898948
C      85.69547511      92.06730558     103.26811361
H      84.35187971      90.73126907     102.46120048
C      83.85677141      93.78317707     104.76477685
H      84.96037158      94.66189980     106.26710927
C      82.65301576      95.95447260     103.26055471
H      81.45114982      95.18157454     101.77334010
H      84.07408994      96.99004262     102.18530044
H      81.41524502      97.10720565     104.43407475
C      81.85366153      92.10132065     106.26332982
H      82.84387811      90.81252730     107.52755672
H      80.75384081      90.96937459     104.93863167
C      80.04141398      93.63766814     108.08124653
H      81.16958060      94.97937382     109.16216998
H      79.33843581      92.30352136     109.48342346
H      78.47105143      94.68079707     107.24976696
C      87.00316573      93.49404894     101.15539960
O      88.74171394      94.81685736     101.65617707
N      86.30585672      92.88555707      98.79702116
H      85.03218119      91.50038768      98.47954714
C      86.94836367      94.14033534      96.44053244
H      88.38266594      95.54440199      96.90729484
C      88.39589402      92.13155627      94.86828015
H      89.85665246      91.14133968      95.93408579
H      89.47303802      93.03106599      93.36027855
C      87.01072464      89.99805526      93.51334639
C      86.20192177      90.19269707      91.03213574
H      86.57419785      91.92368638      90.02302189
C      84.98115857      88.17446937      89.75468075
H      84.35187971      88.58265025      87.85550580
C      84.48794001      85.95971013      91.00945902
O      83.11221925      84.02463039      89.80192391
H      82.87411374      84.08132218      88.00479418
C      85.10588051      85.66680255      93.48689022
H      84.72415580      83.96604887      94.55269586
C      86.22270876      87.71337615      94.81158836
H      86.90678969      87.38456377      96.70509413
C      84.58242631      95.26283277      95.22921788
O      82.54152190      94.88299778      96.27045708
N      84.95659213      96.73681929      93.18642373
H      86.68569171      96.99382207      92.42108458
C      82.98749732      97.70246944      91.52157485
H      81.18658813      97.51349681      92.50423253
C      83.39189874     100.53705891      91.31181523
H      81.88578688     101.15121996      90.04758833
H      85.07942433     100.93390144      90.19876643
C      83.62244535     102.03183242      93.87617384
H      84.93958460     101.07941036      95.14040074
H      81.78185193     102.15277491      94.79080137
C      84.55408042     104.75870749      93.26957169
H      86.26428273     104.65099309      92.12817700
H      85.06430653     105.78104943      94.98355346
C      82.49616847     106.18734059      91.85038723
H      80.65368531     105.72624737      92.64218256
H      82.66435412     105.56184118      89.89641022
N      83.01773293     108.88964921      91.81448243
H      84.68825100     109.22224104      90.95465696
H      83.02718157     109.60585549      93.58326626
H      81.53051833     109.63798083      90.88284736
C      82.83065003      96.43824254      88.87973747
O      84.79407567      96.08864317      87.58905439
N      80.54975036      95.85053765      87.90652842
H      78.99072616      96.23982127      88.93831898
C      80.09621606      95.14755947      85.25902185
H      81.07509429      93.37688591      84.86784850
C      77.22761150      94.68646624      85.09461566
H      76.10511408      96.27950553      85.75979932
H      76.76273883      93.16145711      86.39663709
C      76.32810179      94.00994422      82.45655773
O      76.89312996      92.00494461      81.35862674
O      75.38323862      95.86376574      81.34728838
C      80.98816687      97.21492005      83.35228800
O      81.46059845      99.32952380      84.10250935
N      81.03541003      96.97870426      80.87863626
H      80.45337432      95.34976018      80.06794367
C      81.57776148      98.78339289      78.87363664
H      83.24072064      99.82085264      79.50669495
C      81.95192729      97.45680502      76.31872666
H      80.09432632      97.49648927      75.43055530
C      84.15912762      98.65867095      75.01292578
H      85.74460801      98.93646072      76.29793967
H      83.47315697     100.41044725      74.17955648
H      84.84509827      97.41523104      73.52193172
O      82.74183290      94.96236629      76.54360410
H      83.12733705      94.20647576      74.93922646
C      79.55008514     100.92634253      78.76025306
O      80.26818114     102.78583322      77.56594603
N      77.18036836     100.69768565      79.86007377
H      76.65313471      98.96102716      80.44777866
C      75.26229614     102.78205377      80.24746767
H      75.50796056     104.07651629      78.66198729
C      72.56565670     101.53105495      79.85818405
H      71.12946469     103.00693120      79.89597857
H      72.19716006     100.13832666      81.33217057
C      72.35211763     100.46146986      77.17666241
H      73.81665552      99.06685184      76.78737879
H      72.68093000     101.86742623      75.70645534
C      69.81988437      99.15377925      76.78737879
O      67.90370189     100.65989112      76.53037601
O      69.57610966      96.80673917      76.78170961
C      75.59866743     103.99903752      82.77025230
O      73.85445004     105.45412678      83.49401747
N      77.54886498     103.35464084      84.17053949
H      78.82065080     102.17734135      83.37496472
C      78.20271028     104.49414581      86.64986042
H      77.95326642     106.53316050      86.78025153
H      80.23794553     104.48091773      86.96166526
C      76.68148060     103.42456072      88.86839911
O      77.12556628     104.18612042      91.03213574
N      74.79553375     101.89010295      88.51124084
H      74.33633024     101.13232270      86.81993579
C      73.43304108     100.78461306      90.57671170
H      72.85289510     102.13387764      92.02235233
C      70.93482289      99.66022590      89.45421427
H      69.80476656      99.13677171      91.09638643
H      71.42993119      97.93868523      88.43565178
C      69.39091648     101.67467415      88.01991199
C      68.79754243     101.15121996      85.43287667
H      69.45138773      99.38243613      84.65808888
C      67.52008743     102.98236476      84.08739154
H      67.28954083     102.66111129      82.08428165
C      66.67349006     105.28405141      85.10973347
O      65.47162411     107.06795305      83.57527571
H      65.24296724     108.62319780      84.48045461
C      67.25363603     105.73002682      87.65897427
H      66.75852774     107.57628943      88.37140109
C      68.57077527     104.04439095      89.16319641
H      69.04131713     104.59241158      91.06993026
C      75.10355914      98.78339289      92.07904411
O      76.81754090      97.61743176      91.07370972
N      74.41947820      98.28639487      94.48844516
H      73.09855952      99.32763407      95.38984461
C      76.03330447      96.81240835      96.25344954
H      78.04964245      97.00138098      95.87361455
C      75.69315375      97.77994822      98.98221434
H      76.72494431      96.58186174     100.30124330
H      73.72216919      97.44546666      99.47543290
C      76.49061825     100.46713904      99.56425004
C      74.67459125     102.40410851      99.77400966
H      72.74896015     101.90333103      99.32803425
C      75.27930369     104.85697326     100.62816595
H      73.85822950     106.31395225     100.76422625
C      77.79263968     105.52404665     100.97209614
O      78.52774322     107.94289633     101.31224688
H      77.09344094     109.04460677     101.46153526
C      79.72016052     103.64943815     100.69997555
H      81.66279916     104.20501768     100.98343450
C      79.07387411     101.17578640      99.99321791
H      80.63100859      99.89644169      99.67007471
C      75.75740444      93.90411955      96.16841186
O      73.61445480      92.97437421      96.07959472
N      77.77563213      92.42257412      96.21943447
H      79.39323787      93.38822427      96.51801122
C      78.02885546      89.72971413      95.65629603
H      76.31298398      88.63934204      95.98699813
C      79.01340287      89.17980377      92.92564150
H      79.79197011      87.28251855      92.74233805
C      76.82132036      89.22326747      91.06426108
H      75.50040165      87.66424327      91.31748441
H      77.82287530      88.93035990      89.28602862
H      76.05598120      91.10354516      91.41386045
O      80.75384081      91.04307391      92.07337494
H      82.36766708      90.22860187      92.20565578
C      79.76551395      88.37100091      97.43830794
O      81.46248818      89.54452095      98.57781290
N      79.45370911      85.89923889      97.63106002
H      78.00239930      85.37389497      96.51045232
C      80.83131959      84.08132218      99.21465067
H      82.70592809      84.93547847      99.24110684
C      79.86755917      83.96793860     102.00010726
H      79.30442072      85.87845190     102.52923063
C      77.34477455      82.42214247     102.03790178
H      76.02763530      82.58465894     100.46187004
H      76.22227711      83.07787750     103.63661024
H      77.77185268      80.40958395     101.90751067
C      81.53429777      83.09299531     104.11849045
H      82.59065478      81.40546972     103.58558763
H      80.29274759      82.49584180     105.64916877
C      83.67913714      84.88256613     105.08414060
H      85.06430653      84.29297152     106.49009698
H      82.76261988      86.57954036     105.80979550
H      84.85265718      85.42491758     103.48165269
C      81.08832237      81.41869780      97.92018815
O      79.78063176      80.85177991      96.09093308
N      82.75695071      79.69148795      98.80080061
H      84.17991462      80.41903258      99.84581926
C      83.18780829      77.07988619      97.75578196
H      81.36044295      76.13124358      97.83892992
H      84.52195507      76.04431617      98.93308145
C      83.97771389      77.13846770      95.02701716
O      85.54996619      78.58599806      94.12561771
N      82.35821845      75.81187983      93.70987792
H      81.33398679      74.69694131      94.87205961
C      81.92547113      76.08022097      90.99056176
H      83.30308161      77.50507461      90.42553359
C      82.50561710      73.64814320      89.39752248
H      80.95604153      72.32911424      89.70932732
C      82.68892056      74.31332686      86.61773507
H      83.12166788      72.60501428      85.55381916
H      84.23282696      75.66259145      86.40986518
H      80.84454768      75.07677629      86.10372951
C      84.92824624      72.36501904      90.47655620
H      84.44636603      71.49763466      92.28124483
H      86.32853343      73.80121103      90.94520833
C      86.41924030      70.53387424      88.89485528
H      88.15778851      70.04821458      89.88696159
H      87.01639382      71.44094287      87.14307898
H      85.11721887      68.98996784      88.49423330
C      79.35733307      77.21027730      90.17042054
O      77.41091497      75.87424080      90.21388424
N      79.31386936      79.63479616      89.23878547
H      81.00517440      80.41336340      88.81548677
C      76.94037310      80.67981481      88.13707503
H      76.08243737      79.27574816      86.90119402
H      77.40146633      82.49962125      87.28480846
C      74.97694746      81.54153001      90.13451574
O      73.17981775      82.91725077      89.46555262
N      75.33032629      80.78186003      92.53257843
H      76.61911964      79.42125709      92.90107506
C      73.26863489      81.06531898      94.44876091
H      71.44504900      80.38879696      93.77223889
C      73.89413430      79.32866050      96.66540988
H      75.35111328      79.95227018      97.98065939
H      74.51018508      77.53719995      95.85282756
C      71.61701408      78.66725629      98.32836903
N      70.45672212      76.36556964      98.36994301
H      70.95372015      74.77442008      97.44397712
C      68.57077527      76.54887309     100.04046107
H      67.41804222      74.91614956     100.44864195
N      68.47250951      78.99417894     100.95886806
H      67.19127507      79.68014959     102.19474907
C      70.44538378      80.34344353      99.88739324
H      70.71183519      82.36545068     100.00455627
C      72.89446908      83.82431940      95.15929800
O      74.41758849      84.75217502      96.64084343
N      70.89135918      85.02429561      94.12561771
H      69.77453094      84.05297628      92.91997232
C      69.97673165      87.72093506      94.77568356
H      71.57921956      88.97193387      94.43175337
C      67.85078954      88.05541661      92.81414765
H      66.23696327      86.82520478      93.17319565
H      68.75596845      87.47905009      91.05292273
C      66.75285856      90.73504852      92.41163595
H      66.14814614      91.30007669      94.29758281
C      68.65581296      92.68902553      91.41575018
H      69.42304183      91.88211240      89.68287115
H      70.06743851      93.00460983      92.88028807
H      67.59945595      94.42568401      91.07181999
C      64.54187877      90.61221631      90.73544871
H      63.76331153      92.51895016      90.72411035
H      63.13781212      89.35365859      91.56503856
H      65.30721793      89.78073674      89.01201831
C      68.90147738      88.21037417      97.42885931
O      67.59378677      86.58520954      98.54568756
N      69.33233498      90.43080259      98.50789303
H      70.22428580      91.83108979      97.56869905
C      68.57077527      91.16401640     101.07036191
H      67.79598749      89.44814491     101.90940039
C      70.98962495      91.71014730     102.61426831
H      70.41703788      92.72682006     104.31124254
H      72.10645321      92.99138174     101.45019690
C      72.48628819      89.34420996     103.37582801
H      73.07399308      88.17635910     101.78089901
C      75.06954405      90.14167446     104.23376376
H      76.32999152      88.65445985     104.89894742
H      74.92781458      91.57030755     105.71152974
H      76.08810655      90.90512389     102.61426831
C      71.28631198      87.61322066     105.52444683
H      71.32032706      88.63367286     107.31212792
H      72.50329573      85.95404095     105.63594068
H      69.38902677      87.19559114     104.84036591
C      66.46939961      93.20492082     101.17996604
O      64.28109654      92.83642418     101.89239286
N      67.16481889      95.51038692     100.36927345
H      68.91848491      95.65022666      99.62850073
C      65.61524332      97.80262494     100.10471177
H      63.65559713      97.17523580     100.00644600
C      65.82689267      99.50715807     102.44797239