 %block lattice_cart
   142.669   0.000   0.000
   0.000 146.65   0.000
   0.000   0.000   162.396
 %endblock lattice_cart

 %block positions_abs
N      97.28705632      44.61533300      80.89186433
H      99.01048672      44.28085144      80.14920189
H      96.07763148      44.12211442      79.50102577
H      96.94123641      43.30953212      82.24112892
C      97.05461999      47.19480942      81.90475764
H      98.30939826      47.07764639      83.53370173
C      97.83885641      49.26217000      80.10573820
H      96.83730146      50.94780586      80.72934787
H      96.82218365      49.05618983      78.32561601
C     100.62053354      49.40200975      80.00180324
H     101.33485008      47.58787249      79.34228876
H     101.18367198      49.94058175      81.90853709
S     101.39343160      51.92668410      77.76436729
C     101.77893577      54.50805024      79.88275048
H     100.10085880      54.99937909      80.97123284
H     102.54427493      56.18612721      78.97190240
H     103.26804010      53.98837551      81.20744863
C      94.17656681      47.45937110      82.72489887
O      92.48526176      46.02695856      81.82538913
N      93.60586946      49.35665632      84.19132648
H      94.97025186      50.36010099      85.06815949
C      90.98103962      49.67790979      85.04548277
H      89.76594560      48.09053969      84.55037448
C      91.28150610      49.57586457      87.95377157
H      91.96180757      51.38811211      88.66241893
H      92.86320702      48.44580824      88.63407304
C      88.98170918      48.76517198      89.32382314
O      87.34142674      50.21648178      89.98900681
N      88.68124269      46.30852778      89.61106154
H      87.08820341      45.68491808      90.45954866
H      90.19869292      45.19547898      89.29547725
C      89.81696821      52.23848895      84.14786277
O      91.15300471      54.03372893      83.63574694
N      87.29985276      52.55785269      84.22912100
H      86.14334025      51.29173606      85.06438003
C      86.14900943      55.04284279      83.96077988
H      86.60065402      55.57574561      82.02381040
C      83.24450009      54.92001057      84.24612854
H      82.63222877      53.44035488      82.94977629
C      82.47538148      54.07719265      87.00701868
H      83.24638982      52.22148141      87.46622218
H      80.45148460      54.04695703      87.38118449
H      83.21993365      55.47559012      88.32415792
C      81.77240329      57.33319109      83.62818804
H      82.26940131      58.62387416      85.15319717
H      79.73338860      57.04217322      83.54881953
C      82.45081504      58.77694199      81.18666165
H      81.50217243      60.56651281      80.81249583
H      82.06153142      57.52216372      79.59929154
H      84.46148384      59.22480713      81.20555890
C      87.13733630      57.14610818      85.65019519
O      87.47559731      59.40244140      84.92454029
N      88.04062547      56.53194713      87.93109485
H      87.73260008      54.81607564      88.70588264
C      89.28028593      58.18356793      89.65830470
H      88.15778850      59.81251201      90.23089177
C      90.11932442      56.67178688      91.97321943
H      91.68590753      57.76404869      92.74233804
H      90.87332522      54.85009070      91.37417619
C      88.11432480      56.12376625      93.95743206
C      85.92413200      57.59397331      94.43931227
H      85.82586623      59.41000030      93.51334638
C      84.09676666      56.88343622      96.10983033
H      82.49616847      58.09853024      96.46509888
C      84.26873175      54.65922835      97.51767644
H      82.89868018      54.28128309      98.98032460
C      86.31908480      53.05296099      97.03390650
H      86.60821293      51.48637787      98.31136149
C      88.24471591      53.83341795      95.41063160
H      89.83019629      52.58619859      95.09882676
C      91.72748151      59.39866195      88.53202783
O      92.17723637      61.74381230      88.60005797
N      93.39610984      57.86420418      87.49834752
H      93.08619473      55.99148540      87.30559544
C      95.70913485      58.74103719      86.27380487
H      96.73903569      60.21124426      87.28669818
C      97.53083102      56.61698481      85.77680685
H      99.30150457      57.16500544      84.87729713
H      96.44423839      55.53795109      84.39919637
C      98.03538794      55.00504826      88.09550104
H      96.33274453      54.29640090      89.01012858
H      98.85741889      56.10108952      89.63562798
C      99.72858272      52.80729657      87.22622694
O      98.72324832      50.91379080      86.04325826
O     102.06428444      52.69769244      87.81204209
C      95.06095873      60.13943466      83.87574218
O      95.90566639      62.22380278      83.62062913
N      93.31674134      59.37976468      82.35829195
H      92.42479052      57.80184321      82.95733519
C      92.46636450      60.63832241      79.92999364
H      94.08208050      60.39076826      78.67521537
C      90.10420661      59.15299753      78.93977705
H      88.51683650      59.51771470      80.19833479
H      90.55585120      57.14610818      78.85662910
C      89.35587499      59.98447710      76.38297735
H      90.93190673      59.50826607      75.14331689
H      89.12910783      62.03294042      76.33384447
S      86.40412249      58.54828511      75.22268540
C      86.86899516      59.16811534      71.90621572
H      86.09987655      57.62798839      70.77615938
H      88.87210505      58.82607487      71.56039580
H      86.03373613      60.95012725      71.30150330
C      91.70669452      63.45968379      80.46667591
O      92.51171793      64.96768539      79.01347638
N      90.23270800      63.93589482      82.45088854
H      89.67334901      62.54316653      83.63007776
C      89.34075718      66.54182740      82.99135027
H      89.34453663      67.38653507      81.11107259
C      86.66868417      66.52293015      84.22723128
H      86.30396699      68.11974887      85.47634037
H      86.51372661      64.83540455      85.39886159
C      84.57297769      66.42466437      82.13908370
H      85.00572501      64.75225658      81.01847600
C      82.06153142      65.84451839      83.49779692
H      81.54563614      67.20890080      84.95288618
H      82.35632872      64.10030101      84.55415393
H      80.51573529      65.67633276      82.14664261
C      84.45014548      68.92099283      80.78414993
H      86.11499436      68.92855174      79.57094564
H      84.18936325      70.65576158      81.86507339
H      82.89679045      68.73768938      79.44622370
C      91.38166159      68.04793928      84.58438955
O      91.32685953      70.35151566      84.19321620
N      93.10698172      66.85741169      86.03947881
H      93.05217965      64.98658264      86.40797544
C      95.58063346      68.07250572      86.86906867
H      95.01371557      69.90931969      87.60606192
C      96.93178778      66.36797259      88.70399292
H      98.82529354      67.15787819      88.89674500
H      97.14721658      64.41210584      88.09361131
C      95.78850336      66.41899520      91.30992550
H      93.76271675      66.23380202      90.98678230
H      96.24392740      68.20289684      92.23589139
C      96.59352677      64.07384484      92.78958120
H      98.62309283      63.72235575      92.75178667
H      95.75826774      62.37120144      91.98644752
N      95.63921498      64.25903802      95.38228571
H      93.94979965      63.46346324      95.77345905
C      97.03383300      64.68044699      97.44019766
N      99.18056209      65.80861359      97.50066890
H     100.40699447      66.02971157      98.94630953
H      99.94401152      66.35852396      95.84148920
N      95.89810748      63.95101263      99.47732262
H      96.65399801      64.19100787     101.21398110
H      94.20869216      63.08929744      99.26945273
C      97.39666045      68.78304282      84.69021422
O      98.88954424      70.61229789      84.68265532
N      97.25115152      67.48858029      82.52080842
H      95.89432803      66.15065406      82.43199128
C      98.33207497      68.39753864      80.13597381
H     100.23691910      68.95689763      80.68210471
C      98.89332369      66.18277941      78.38608724
H      97.23414399      64.96768539      78.27459339
C      99.36575527      67.15031928      75.68377862
H     100.52793695      68.85107296      75.64220464
H      97.61208925      67.86841528      74.87497575
H     100.28605198      65.80294441      74.42522089
C     101.11186238      64.65021137      79.63897579
H     100.93611783      64.69934424      81.69121856
H     102.94300718      65.58562588      79.53126139
C     101.38776242      61.88365205      78.71867907
H     101.06083977      61.52838349      76.71745891
H      99.90432727      60.95390670      79.80338198
H     103.18111269      61.08807727      79.34984766
C      96.93745695      70.73513010      79.09473461
O      98.16010988      72.72879135      79.04749145
N      94.46758466      70.45545060      78.38608724
H      93.96680719      68.65454142      78.00625225
C      93.08997418      72.26580841      76.94044661
H      94.22003052      72.64186395      75.25859020
C      90.61254298      71.08095001      76.09573895
H      89.58075242      72.64186395      75.23402375
H      89.60720859      70.20222728      77.66232207
C      90.96970126      69.32539426      73.79972148
O      92.53439465      69.86207653      72.18589521
O      89.57886269      67.44511658      73.53704953
C      92.54573300      74.74701906      78.33128518
O      92.42668025      76.73312141      77.25981036
N      92.39644462      74.66198138      80.84084172
H      92.67234467      73.06327291      81.84806585
C      91.84086509      76.87296116      82.42632210
H      91.78606303      78.67576006      81.43421580
C      89.29351402      76.03014322      83.70755654
H      89.52406063      74.83394646      85.36862598
H      88.03117684      75.04748553      82.40931456
C      88.08219945      78.53969976      84.62029435
H      89.54295789      79.67920474      85.51791435
H      86.69703006      78.05404011      86.06215553
C      86.61766156      79.85494927      82.63419199
O      84.28573929      79.66597665      82.78159065
O      87.79118160      81.02280014      80.95233559
C      93.79862155      77.23956807      84.52769776
O      94.27672231      79.43165058      85.26280130
N      94.87954500      75.14008212      85.40453077
H      94.22003052      73.56782983      84.54848475
C      96.25148630      75.03047800      87.74968112
H      97.84641531      76.33249943      87.78180647
H      97.20768782      73.21634074      87.94243321
C      94.57907852      75.58227809      90.05703696
O      92.50226930      76.70666525      89.91152803
N      95.23859300      74.46544984      92.19431742
H      96.58785759      73.11996469      92.07715439
C      94.04995515      74.76591631      94.65663080
H      92.02605827      74.73190124      94.28435471
C      94.70946963      72.58139271      96.44809134
H      96.63510074      72.68343792      97.17374625
H      94.27672231      70.75969653      95.59204533
C      92.79517688      72.52092146      98.67985812
H      93.29784408      74.20844705      99.74944321
C      89.97948467      72.72501191      98.14128612
H      89.35776471      71.45133637      96.64840234
H      89.65634147      74.69410672      97.62350111
H      88.75494202      72.21478580      99.71353841
C      93.20335776      70.28726496     100.28990494
H      92.59864534      68.63186470      99.22409930
H      92.16211856      70.54804719     102.04924013
H      95.17056285      70.31561085     100.90406599
C      94.79639704      77.37940780      95.70920835
O      97.12453986      78.04270175      95.71487753
N      92.91611936      78.86095324      96.42730435
H      91.13788690      78.17309287      96.39895846
C      93.39422012      81.31948718      97.41941067
H      95.43701426      81.53113652      97.58570658
C      92.34731174      83.41708338      95.60527341
H      91.67078972      85.02713020      96.69753522
H      90.61065326      82.69709765      94.76434520
C      94.40333397      84.41674860      93.59649434
H      95.24048273      82.90496755      92.47399692
H      96.00582188      85.28791243      94.55647530
C      93.40555848      86.27812901      91.71810638
H      94.96269296      87.11149833      90.65796992
H      92.63832959      87.75022581      92.93886958
N      91.52906025      85.05169664      90.19498697
H      91.18701978      83.20543403      90.54458634
C      90.21381073      86.48221946      88.52068946
N      90.60120463      88.80280337      88.13329557
H      89.69413600      89.68152610      86.70277275
H      91.69157671      90.01222821      89.13107107
N      88.66423516      85.47688507      86.80103852
H      87.80251996      86.56725715      85.49334792
H      88.46581389      83.58526903      86.66308849
C      92.21125145      81.79758793     100.06691723
O      90.03428673      81.04736658     100.53178991
N      93.63232563      83.07693264     101.67696405
H      95.36898411      83.72888822     101.23287837
C      92.91045018      83.15819088     104.45297200
H      91.37977187      81.81081602     104.73643095
C      95.34063822      82.43820515     105.89483318
H      94.77938950      82.85772439     107.83180265
H      96.78438912      83.85927933     105.51499819
C      96.17589725      79.58093897     105.55846190
H      97.61775843      79.46377594     107.02299979
C      94.12365447      77.74223527     106.13482842
H      94.71702854      75.78069935     105.94396607
H      92.45880559      77.95766406     104.94052139
H      93.54539822      78.21844630     108.05479036
C      97.55161801      78.56237649     103.20386291
H      99.36764499      79.53180607     103.27189307
H      96.53116580      78.77969501     101.42752018
H      97.83696668      76.53470015     103.43063007
C      91.92212332      85.77546181     105.43185023
O      90.88655330      85.77546181     107.51810808
N      92.30006858      87.82203542     104.03156304
H      92.85375839      87.58959907     102.21931550
C      90.94702454      90.20875975     104.86115289
H      90.15900867      89.92908026     106.74332030
C      92.74415427      92.45942379     104.77422548
H      91.70669452      94.04301444     105.58491807
H      93.04273102      92.68241149     102.74654914
C      95.39166083      91.86038054     106.13482842
H      96.58218841      90.69252969     104.92351386
H      95.04017174      90.79457490     107.86203827
C      96.74281514      94.29812749     106.97953610
H      95.47480879      95.51700096     108.05290064
H      97.18501110      95.35637422     105.26933377
C      99.19756962      93.96553565     108.40627945
H      98.89710314      92.57469710     109.89727351
H      99.74747998      95.61526672     109.50987962
N     101.40099051      93.40239722     106.94930046
H     102.92033046      94.08080896     107.88660472
H     101.38209324      93.98443292     105.13138375
H     101.48035901      91.49944282     106.84158606
C      88.57730775      90.79079545     103.34937184
O      88.42801937      89.78168160     101.31035715
N      86.71970678      92.17974430     104.19974868
H      86.94269448      93.01122388     105.90428181
C      84.40101259      92.83736905     102.82402792
H      83.50717205      91.12338729     102.11349083
C      82.29585748      94.11671377     104.42651584
H      83.06308636      95.88549760     105.15028101
C      80.09621605      94.60048370     102.48576691
H      79.27229538      92.80713342     101.89995176
H      80.66880313      95.77589346     100.89461736
H      78.55608911      95.64739207     103.36071020
C      81.22627239      92.62005053     106.60159082
H      82.71537672      91.95675658     107.86014855
H      80.22471744      90.95520164     105.91939962
C      79.42914266      94.14505966     108.34769794
H      78.84143778      92.96398071     109.93128859
H      77.87767736      95.16362215     107.45574712
H      80.57053736      95.61526672     109.22642067
C      85.22871272      94.22253843     100.47887757
O      86.25483411      96.28989903     100.75477761
N      84.55597015      93.36460270      98.25466970
H      83.39189874      91.86038054      98.42474507
C      85.40823672      94.22253843      95.88495290
H      86.38711495      96.00455035      96.20809610
C      87.04284998      92.31580458      94.39584857
H      88.85320779      92.04179428      95.33693227
H      87.72504118      93.15673280      92.64407227
C      85.91279364      89.71932064      93.70987793
C      84.38400506      89.51900965      91.41575017
H      83.83220497      91.15929209      90.33293699
C      83.47315697      87.16441066      90.59560895
H      82.28262940      86.96409966      88.94776761
C      84.02873651      85.11972679      92.14896398
O      83.25772817      82.77835588      91.21354946
H      82.71348700      82.89929836      89.48822933
C      85.53673811      85.16885967      94.34671568
H      86.03562585      83.42842174      95.28968911
C      86.42301975      87.60471689      95.17630553
H      87.57386307      87.85038131      96.84304414
C      83.00072540      95.02945157      94.36372323
O      80.96549016      93.97687401      94.51301160
N      83.38433984      96.84925802      92.50801198
H      85.10399078      97.67506841      92.45887910
C      81.47382654      97.31602041      90.57104251
H      79.65779955      97.39160947      91.53669266
C      81.86122043     100.10525645      89.53547249
H      80.61022161     100.55879076      87.96322020
H      83.84165361     100.57012912      89.21043956
C      81.31697925     102.19340403      91.53858238
H      82.89112127     102.03844646      92.85950107
H      79.57843104     101.85325328      92.58927021
C      81.27351555     104.90138183      90.45576920
H      79.46882692     105.11303118      89.48256015
H      82.68514110     105.20373804      88.98745186
C      81.34532515     106.92338899      92.52312979
H      83.22182337     106.81378487      93.36027855
H      79.84299273     106.52087729      93.87617383
N      80.90501891     109.44050444      91.48000087
H      82.25050405     109.79577299      90.17608971
H      81.00517441     110.72929778      92.88217779
H      79.23261113     109.59168254      90.57104251
C      81.29241281      95.33369751      88.55470453
O      83.29930215      94.71575701      87.41142011
N      79.07765357      94.21686926      88.02747089
H      77.57532115      94.40773161      89.18776285
C      78.67325214      92.89595056      85.58405477
H      79.83921327      91.19708661      85.53303216
C      75.82732431      92.22698745      85.69743835
H      74.80687210      93.99955074      85.46500201
H      75.36434137      91.60148804      87.60417220
C      75.01474200      90.19364194      83.81527094
O      74.36845560      88.00155942      84.56738201
O      74.82765909      90.72087558      81.53626101
C      79.23261113      94.44174668      83.16520509
O      79.31953854      96.76422032      83.32394211
N      79.52362898      93.27578555      80.97501229
H      78.98883643      91.45030994      80.81438556
C      79.83165437      94.61560152      78.53915507
H      81.64012245      95.58125165      78.33695436
C      79.68425572      92.67485258      76.39242598
H      77.71138145      92.18730319      76.05038552
C      80.62722915      93.83514454      73.93011260
H      80.56864763      92.39895255      72.45801580
H      82.49049929      94.69497001      74.10018797
H      79.35733306      95.30157217      73.23469331
O      81.43414228      90.74355230      77.00847676
H      81.02218195      89.34326509      75.93322249
C      77.49595265      96.36737780      78.13664337
O      77.76051433      98.44796648      77.11808089
N      75.30198040      95.62282563      78.99079966
H      75.15080229      93.96364594      79.92054501
C      73.09666979      97.13460668      79.03993255
H      72.83210811      98.03600614      77.20500830
C      70.76852697      95.49621397      79.41409837
H      69.16036988      96.77744842      79.55582783
H      70.78931396      94.42662888      81.17532328
C      70.10523304      93.80112947      77.23335419
H      71.78519973      92.67107314      76.85540893
H      69.98807000      95.03323102      75.58740257
C      67.81677447      92.14950867      77.30705353
O      66.04232146      92.71264712      75.84818480
O      67.93015805      90.12372207      78.54293454
C      73.19682528      99.31157140      80.96934312
O      71.89291413     101.25609977      80.88619516
N      74.90513787      99.17173166      82.84206190
H      76.15235724      97.73364993      82.73434749
C      75.37945918     100.91216959      85.10784374
H      74.46861109     102.71496849      84.70344231
H      77.43170195     101.01232508      84.99634989
C      74.27585901      99.88226875      87.60984138
O      75.13757421     100.80445518      89.57893620
N      72.54297998      98.01143970      87.51346535
H      72.16125526      97.46341907      85.72578424
C      71.21450238      96.99287721      89.70743758
H      70.02586453      98.47631237      90.49923291
C      69.39658567      94.85181729      88.92320116
H      68.12291013      94.40395216      90.48033565
H      70.53042146      93.17374033      88.55092508
C      67.70150117      95.35448450      86.82371523
C      67.06088395      93.38727941      85.04926222
H      67.86779708      91.52967845      85.28547801
C      65.21840079      93.79357057      83.17087427
H      64.75541784      92.31958403      81.83672749
C      64.03543212      96.16139764      82.96300437
O      62.26475856      96.58091688      81.12241094
H      61.76020164      98.31001646      80.89942324
C      64.71573359      98.16828698      84.74123683
H      63.89370265     100.01832903      84.48801351
C      66.51853249      97.73553965      86.64608096
H      66.60168045      99.24921043      88.01046336
C      73.13824377      96.18029490      91.82960024
O      75.00718309      95.01244404      91.24945426
N      72.58833341      96.43918741      94.31081088
H      70.90269754      96.95697241      95.04024524
C      74.56687686      95.86471060      96.18919884
H      76.43581618      96.32580383      95.45031585
C      74.28719737      97.36893274      98.69497593
H      75.39457699      96.42973878     100.15573437
H      72.26141076      97.12704779      98.98599378
C      75.39268726      99.91628382      98.65529168
C      73.91870074     102.06868209      98.74788827
H      71.89102440     101.95907797      98.92930199
C      75.06576461     104.51776739      98.78946224
H      73.86011922     106.15427038      98.61182797
C      77.70760199     104.85980786      98.59859989
O      78.89623984     107.22952464      98.84804376
H      77.67547665     108.55611253      99.04646502
C      79.20237551     102.63748971      98.50033412
H      81.23761075     102.57323902      98.63639441
C      78.07609862     100.26399345      98.48143686
H      79.27040565      98.61048293      98.43419370
C      74.38735286      93.01878278      96.82981606
O      72.33699981      92.03234564      96.98666334
N      76.53408195      91.82447575      96.70887357
H      78.13090069      92.86193550      96.60493863
C      76.87612242      89.17318973      96.19486802
H      75.17347901      88.19242178      96.81091881
C      77.27674439      88.51556497      93.24878470
H      78.94348300      89.45664867      92.48533526
C      77.51673964      85.60160699      92.61572638
H      77.97216368      85.34649394      90.62206512
H      75.64402086      84.74367126      92.56659351
H      78.79041517      84.48288902      93.78357724
O      75.22450162      89.18830754      91.80503379
H      75.21883244      90.99299616      91.99400642
C      79.10410974      88.16218616      97.76145113
O      80.83131959      89.56058362      98.54568756
N      79.26284675      85.69231386      98.33025875
H      77.77752187      84.59249314      97.85026827
C      81.46815736      84.42241778      99.58503702
H      83.08576308      85.40129601      98.76678553
C      81.42469365      85.01390212     102.50088472
H      80.89934974      86.98110721     102.81835874
C      79.25150839      83.50212107     103.64983832
H      79.65779955      81.53680569     103.18496565
H      77.42225332      84.05770060     102.88827862
H      79.14379399      83.63251218     105.70397082
C      84.00605979      84.67753082     103.87849522
H      85.50083331      85.41074464     102.66529091
H      84.42557904      82.65930313     103.83881095
C      84.27251120      85.44475972     106.71119495
H      83.44670081      87.29669150     107.07213267
H      86.26428274      85.70932139     107.16094981
H      83.45803916      84.04636225     107.98676021
C      81.70815260      81.66341737      98.84426431
O      79.96015576      80.64296516      97.67641345
N      84.07220022      80.74123091      99.27890136
H      85.31752986      81.89207425     100.15762410
C      84.80163457      78.05026066      98.75544718
H      83.25016927      76.98445501      99.58881648
H      86.57419785      77.63641058      99.72298704
C      85.13044695      77.76680171      95.99455703
O      86.97293011      78.60584019      95.01756852
N      83.46559807      76.17754188      94.81347808
H      82.20326089      75.35929039      95.98699812
C      82.83442948      76.05848912      92.21888385
H      83.75661592      77.63830032      91.27780015
C      83.91913238      73.61129354      90.90741379
H      83.47504670      71.90109123      91.96755025
C      83.01206375      73.45633599      88.17675927
H      84.35754889      72.47367830      86.96544470
H      83.18213912      75.24401708      87.16953515
H      81.13745525      72.60217969      88.11061885
C      86.87466434      73.72656685      90.79403021
H      87.45292059      74.70733481      92.50990171
H      87.43024387      74.76402659      89.10461489
C      88.44124745      71.30771717      90.98489257
H      87.98015423      69.94333477      89.51090605
H      87.94424943      70.51214239      92.81603737
H      90.38955528      71.98234945      90.99245148
C      79.97149412      76.26635902      92.08660301
O      78.56742747      74.61662793      92.95209766
N      79.07765357      78.29781479      90.97733367
H      80.41180035      79.44487867      90.23656095
C      76.41691892      78.63985526      90.29325274
H      75.78952979      77.01280091      89.19343204
H      76.22227711      80.27446853      89.05737173
C      74.51018507      78.94032175      92.57415240
O      72.27085939      79.33527455      92.02235232
N      75.32654684      79.06315395      94.94008975
H      77.18036835      78.85339433      95.35582953
C      73.32910613      79.32393619      96.92052293
H      71.63402162      78.28836617      96.37628175
C      74.17948297      78.29025590      99.29212945
H      75.57221126      79.50723963     100.19919807
H      75.20749408      76.51958233      99.07670064
C      72.01952579      77.95577434     101.01933929
N      70.86679274      75.64652879     101.35193114
H      71.56032230      73.97223127     100.75099816
C      69.26808428      75.93565691     103.35693074
H      68.33078003      74.45222176     104.40194939
N      69.27186373      78.31293261     104.07880619
H      68.21361700      79.15197109     105.42807078
C      70.99529413      79.64896911     102.70119571
H      71.47717434      81.63129202     102.71253407
C      72.60912040      82.06403933      97.03012705
O      74.12279118      83.64574027      97.95042376
N      70.27341868      82.53269146      96.47454751
H      69.38146786      81.14752208      95.51078709
C      69.27564318      85.10649871      96.44431189
H      70.66459202      86.52946261      95.90385016
C      67.23095931      85.11216788      94.40529720
H      65.83634130      83.59849711      94.50545269
H      68.03220327      84.58493424      92.58171131
C      65.88169473      87.61983470      94.29002389
H      65.25241586      88.06014093      96.20053720
C      67.57299978      89.76467407      93.34705046
H      66.51097359      91.52967845      93.29413813
H      68.16259439      89.43208223      91.40063236
H      69.38713704      90.00277959      94.29002389
C      63.52709574      87.71243129      92.52501952
H      62.49530517      89.43208223      93.00312028
H      62.24586130      86.10427420      92.61950583
H      64.03543212      87.97321351      90.54647608
C      68.27975742      86.06270022      99.01433968
O      66.63380580      84.72855344     100.17463163
N      68.74085064      88.43430675      99.60015483
H      69.70650078      89.52278910      98.36616355
C      68.18716083      89.72310008     102.07380658
H      67.50874908      88.34926906     103.44763761
C      70.58522352      90.69441941     103.42496089
H      69.95972411      91.35960307     105.27311322
H      71.41859282      92.21564910     102.31380182
C      72.78108550      88.73666296     103.74810409
H      73.21950200      87.96376488     101.88861341
C      75.02041118      90.03112548     105.18996527
H      76.67581143      88.82170064     105.39594544
H      74.47428027      90.67930161     107.06457377
H      75.71960991      91.66762847     104.15628497
C      72.03086415      86.62583865     105.38649680
H      71.29009143      87.24377917     107.20441352
H      73.69004385      85.40885492     105.48287285
H      70.59089270      85.45420835     104.49643571
C      66.23507355      91.80368875     101.93585656
O      64.63447536      91.88872645     103.58369790
N      66.51664277      93.40995613     100.11227066
H      67.96228340      93.16618142      98.89150747
C      64.73085140      95.49243452      99.54913222
H      62.84112509      94.68363165      99.68141307
C      64.64770344      97.70152458     101.42940990