 %block lattice_cart
   142.669   0.000   0.000
   0.000 146.65   0.000
   0.000   0.000   162.396
 %endblock lattice_cart

 %block positions_abs
N      96.10503251      44.74477924      84.23479019
H      95.51354818      43.01378994      83.69432846
H      95.69685163      45.16051903      86.05270690
H      97.99097937      44.56525524      84.01747166
C      94.97875563      46.69875625      82.53970568
H      95.38126734      48.52234214      83.41275924
C      96.11070169      46.73844050      79.87330186
H      95.59480641      45.03957655      78.83017293
H      98.16294447      46.57403431      79.88275049
C      95.32835500      48.97965591      78.25947559
H      93.29500949      49.27823267      78.37096944
H      96.01243593      48.65273326      76.34329310
S      96.72675247      51.92573923      79.18166203
C      94.45341172      54.17073409      77.72657276
H      94.65372271      56.03589396      78.57505988
H      92.48620663      53.58869839      77.92499403
H      94.57246447      54.20474917      75.67244026
C      92.01755450      46.43230484      82.53781596
O      91.09725779      44.31959082      82.26947482
N      90.61915703      48.39195103      83.20488935
H      91.55268183      50.05302046      83.28236813
C      87.86393606      48.42029692      83.66409284
H      87.07403046      47.27134332      82.15042206
C      87.28190036      47.57558926      86.33049667
H      88.79179168      46.21498631      86.65552959
H      85.42240967      46.74977886      86.65741932
C      87.77133947      49.56169161      88.41297506
O      85.97798920      50.50466504      89.48256016
N      90.10704120      50.31191296      89.01012858
H      90.25632958      51.42307203      90.55403498
H      91.78889762      49.65806766      88.39218808
C      86.92285236      51.14150281      83.19355099
O      88.39305943      52.86493321      82.42065293
N      84.55502529      51.60637549      83.73212299
H      83.33993127      50.17774239      84.09684017
C      83.46276348      54.15939573      83.52614282
H      83.89173135      54.86993283      81.64019596
C      80.52045961      53.90806213      83.99479495
H      79.91952664      52.35848656      82.77970093
C      79.85338622      52.97075788      86.77458235
H      80.09338146      50.92796374      86.90119401
H      77.90696812      53.24665793      87.39063313
H      81.07981860      53.81924500      88.19565654
C      78.93497923      56.25510222      83.44488459
H      79.18442311      57.82357506      84.75824438
H      76.93753852      55.78078091      83.59984215
C      79.34693957      57.21697291      80.67076636
H      79.05025254      55.60692609      79.41976754
H      81.12517203      58.21474840      80.38163823
H      77.79547427      58.51710461      80.29849028
C      84.62872462      56.10959329      85.32516227
O      84.85360205      58.19774087      84.59572791
N      85.48666036      55.46519662      87.67031262
H      85.04824386      53.69830251      88.24289970
C      86.69797493      57.15839139      89.41830946
H      85.71153779      58.96496975      89.32760260
C      86.53923792      56.20407960      92.09416192
H      87.90928950      57.02233110      93.39618335
H      86.98710305      54.19341081      92.15841262
C      83.91818752      56.14360836      93.20154154
C      83.04891342      58.39994158      94.45443009
H      84.20731565      60.07990827      94.50167325
C      80.72077060      58.37915459      95.69598028
H      80.09527119      60.12904116      96.54068794
C      79.11072378      56.28722756      95.60716314
H      77.26824063      56.33825017      96.48399615
C      79.92897528      54.06490942      94.41096638
H      78.65529974      52.48131877      94.21443485
C      82.34215578      53.97798201      93.23744634
H      82.92230176      52.19408037      92.43431266
C      89.46264452      57.99365042      88.56793262
O      90.45853029      59.88904592      89.48633961
N      90.58514195      56.45919266      86.88607620
H      89.48154179      55.00410340      86.33616585
C      92.80746010      57.36437156      85.35728762
H      93.97720069      58.77599712      86.29648159
C      94.38916102      55.05134655      84.51069023
H      95.60236532      55.49921169      82.90820232
H      93.06257315      53.64539018      83.80204286
C      96.02377428      54.11971148      86.74623646
H      94.76143711      54.49198757      88.33171683
H      97.77177112      55.20063493      86.89552484
C      96.58502300      51.26244530      86.50435149
O      94.94096111      49.78845877      87.29047763
O      98.53900001      50.32514105      85.62373903
C      91.99109833      58.70418752      82.96489410
O      93.04745534      60.74509194      82.51324952
N      90.01822406      57.87648739      81.57027609
H      89.57413838      56.05857068      81.95578025
C      89.17162667      59.10291977      79.22512573
H      90.66828991      59.08969168      77.80972072
C      87.08347910      57.60247708      77.77948510
H      85.28634937      58.05601139      78.67710510
H      87.36126886      55.58802883      78.10073857
C      86.84159413      58.34324979      74.91654974
H      88.55935535      57.86325931      73.88286944
H      86.86994002      60.40116175      74.85040932
S      84.07692453      57.21508318      73.26870839
C      85.02934659      57.89916411      70.05806339
H      83.63472858      56.83713792      68.97902966
H      86.86427084      56.98264685      69.86720103
H      85.42429939      59.87014865      69.59885989
C      88.65573139      61.81278730      79.32150177
O      89.64594798      63.29433273      77.89664813
N      87.05324348      62.60269290      81.01469655
H      86.27089678      61.19295707      82.03514876
C      86.40128790      65.23886111      81.53815074
H      86.00066592      66.19317290      79.75613883
C      83.85015737      65.11791862      83.17465373
H      83.44386622      67.03221138      83.81905040
H      84.09960125      63.79511020      84.73367793
C      81.56736799      64.18250410      81.73846173
H      82.20420576      62.43828671      80.84651091
C      79.30725532      63.74786705      83.59984215
H      79.90818829      62.46096343      85.09272593
H      77.80114345      62.63859770      82.74190640
H      78.50979081      65.32956797      84.65052998
C      80.80202883      65.95128793      79.72779293
H      78.85939018      65.43917210      79.27614834
H      81.66185430      65.58468102      77.89286868
H      80.89462542      67.97140536      80.11707655
C      88.59148069      66.71473736      82.83261326
O      88.65573139      69.06177744      82.71356050
N      90.43018440      65.37303168      84.16676004
H      90.20719669      63.47952591      84.29148198
C      92.47486827      66.84890793      85.36106707
H      91.57535854      68.53076434      86.14152404
C      93.56146090      65.24453029      87.53803178
H      94.15861441      63.31889917      87.11284336
H      92.00999559      64.98185833      88.86650938
C      95.74976397      66.52765445      88.99312104
H      95.03355770      68.26809239      89.83026980
H      97.34658270      66.86024628      87.73267359
C      96.75698809      64.76076035      91.06426108
H      98.39538081      65.59035020      91.99967561
H      97.22564022      62.95418199      90.19309725
N      95.03355770      64.29966713      93.10327577
H      94.31168224      62.53466275      93.12217304
C      94.66884052      65.70940296      95.14418019
N      95.37370843      68.01486906      95.36716790
H      95.24520704      68.77831849      97.11138528
H      96.23164418      69.04288018      94.00656495
N      93.22319989      64.78910624      96.94886882
H      93.03233753      65.83034544      98.53623892
H      92.66384090      62.96552035      96.98666335
C      94.32302060      67.78243272      83.28047840
O      95.27544266      69.92538236      83.45433322
N      94.90316658      66.14781946      81.53059183
H      94.07357673      64.43194797      81.61185006
C      96.67572986      66.59379487      79.43677508
H      98.39160135      67.41582582      80.22479095
C      97.46185601      63.91983214      78.17065845
H      95.67228519      62.94095391      77.87964060
C      99.05867474      64.37525618      75.77826494
H      99.37803849      62.61403126      74.75592300
H     100.85202501      65.34468578      76.06739306
H      98.10814241      65.52232005      74.35341130
C      99.08702064      62.28332915      80.10195874
H      98.50309521      62.24364490      82.07672274
H     100.89926817      63.23953067      80.30226973
C      99.61425428      59.68873493      79.33661958
H     100.65171402      58.89693960      80.92965887
H     100.93139352      59.67928629      77.75302893
H      97.86814716      58.63804710      79.04182228
C      95.57023997      68.58745613      77.69066796
O      97.03477786      70.08033992      76.61541369
N      92.92273340      68.58745613      77.46390081
H      91.75866199      67.16638195      77.98546527
C      91.80023597      70.27309201      75.64220464
H      92.64683336      69.95750771      73.79216258
C      88.93541088      69.67971794      75.16599361
H      88.13416693      71.33322847      74.23435854
H      88.00944499      69.12791786      76.92154936
C      88.56124507      67.71062312      73.19122961
O      90.17129189      67.41771555      71.41866633
O      86.57325299      66.41805033      73.34240772
C      92.19707850      73.04721023      76.45478696
O      93.01910945      74.56655019      74.95056481
N      92.04212094      73.50641373      78.93788733
H      91.37882701      72.03998611      79.96778817
C      91.96464216      76.09722850      80.07928202
H      93.31390675      77.11768071      78.90576198
C      89.50421850      77.30476362      79.45000316
H      89.31146642      77.58066366      77.41854738
H      89.56280002      79.04709128      80.54793415
C      86.99277223      75.85534353      80.08117175
H      87.10804554      74.88969339      81.89719874
H      86.73576945      74.23206863      78.84151129
C      84.75155683      77.55042804      79.93377310
O      82.83726407      76.79264779      78.62230304
O      84.52478967      79.53275094      81.23768425
C      92.66573062      76.35423128      82.86851806
O      93.87893492      78.22128088      83.60362160
N      92.00621614      74.38135701      84.28203334
H      90.79112212      73.12846846      83.50535583
C      92.91328477      73.92782269      86.90497347
H      94.91261521      74.29820905      87.24323448
H      92.81879846      71.92849226      87.38307422
C      91.38449618      75.21283659      88.91564226
O      89.43996781      76.53375528      88.44887986
N      92.18574014      74.84056050      91.26079262
H      93.72019791      73.70672472      91.30236660
C      91.06513244      75.59645103      93.70042929
H      89.19052394      76.25785524      93.16374702
C      90.51333235      73.29098493      95.27457131
H      92.34258743      72.91114994      96.14384541
H      90.33947753      71.70928400      93.96877043
C      88.28912448      73.10390202      97.07359076
H      86.72443110      73.82388775      95.94542415
C      87.59370520      70.32033516      97.88428335
H      87.30646680      69.16004321      96.20620638
H      85.91751796      70.40915230      99.07670065
H      89.17918558      69.61546725      98.99544242
C      88.60848823      74.56088101      99.59448566
H      89.35304040      76.44304842      99.21843012
H      90.15239463      73.75585760     100.69241665
H      86.86238112      74.72528720     100.67729884
C      92.54856759      77.65625271      95.04591442
O      94.89938713      77.71672395      95.02512743
N      91.12938313      79.57054547      96.00211594
H      89.26233354      79.49684614      95.60905286
C      92.08936410      81.40735944      97.85215800
H      94.04712056      80.94059704      98.29246423
C      91.92495791      84.10210916      96.88461813
H      92.21030658      85.37956415      98.47387796
H      89.99932680      84.28541262      96.17219131
C      94.02255412      84.69737295      94.85316234
H      94.20774730      83.20637889      93.44531624
H      95.81023521      85.29641619      95.68275219
C      93.12682385      86.83465341      92.91241342
H      94.85970287      87.35621787      91.92786601
H      92.42762511      88.57509135      93.76656971
N      91.26166397      85.95215122      91.05292272
H      90.65317210      84.14935232      91.21165973
C      90.63049539      87.01606714      88.88540664
N      91.29000987      89.42546819      88.44887986
H      90.65317210      90.35710326      86.91064265
H      92.13471753      90.32875737      89.90396913
N      89.51933631      85.74995051      86.89930429
H      89.62327126      86.60410680      85.19477115
H      88.43841286      84.25328727      87.38118450
C      90.97442557      81.30531422     100.52045155
O      88.83336566      80.57210041     100.83603585
N      92.35770524      82.10844790     102.45553130
H      93.93562671      82.98906037     101.84137025
C      91.66795513      82.14246298     105.10114813
H      90.06168777      80.88957443     105.41295298
C      93.85247875      80.86122854     106.58647302
H      93.93184725      81.93081363     108.34202876
H      95.59858586      81.35255738     105.60948451
C      93.64082940      78.00018290     107.14016283
H      92.38416140      77.44649309     108.67651032
C      92.94729985      76.48084294     104.82902755
H      94.16995277      77.04965056     103.27189306
H      91.16339821      77.15169578     104.05235003
H      92.76399639      74.45127688     105.12382485
C      96.15416540      77.06098892     107.95085541
H      97.42028203      76.65091831     106.37860312
H      95.91983934      75.36590442     109.10169874
H      97.00265251      78.45560694     109.20752341
C      90.97253585      84.68981405     106.25199146
O      89.73098566      84.77674146     108.16628421
N      91.50543867      86.73827737     104.75532822
H      92.14605589      86.47371569     102.97709576
C      90.66262073      89.31586406     105.47153449
H      90.03712132      89.25350309     107.43307041
C      92.62982582      91.38700410     105.37893790
H      91.54134347      93.13500094     105.33169475
H      93.57657871      91.36243766     103.54968283
C      94.36459458      91.27551025     107.73731634
H      95.45685639      89.53318259     107.86203828
H      93.28367113      91.26417189     109.48909263
C      96.36959420      93.26161260     107.56913070
H      95.35481117      95.05118342     107.51054918
H      97.44484847      92.90256460     105.84759003
C      98.03444308      93.42790852     110.00309819
H      98.56356645      91.47393151     110.39238181
H      96.89682784      94.14789424     111.56212240
N     100.26432013      94.94724847     109.69885225
H     101.51720867      94.61843610     111.10102918
H     100.05267078      96.84642342     109.76499268
H     101.27343398      94.41812511     108.17006367
C      88.20030735      90.03773951     103.98620961
O      88.06046760      89.39334284     101.74688393
N      86.46553859      91.47393151     105.08414060
H      86.37672146      91.84809732     106.95119020
C      84.61360681      92.80807829     103.43629925
H      83.28701893      91.43046781     102.67284982
C      83.08103877      94.69780460     104.93674195
H      84.51912049      95.61621159     106.08947500
C      81.76012007      96.69713504     103.45708624
H      80.27290546      95.90344999     102.27033812
H      82.98655245      97.74971260     102.18152098
H      81.03824462      98.12387841     104.75532822
C      81.05336243      93.33720166     106.48442780
H      81.84326803      91.70636785     107.45952657
H      79.43008753      92.90823378     105.29201049
C      79.95732117      94.90567450     108.76721718
H      78.74411688      96.40422746     108.04534173
H      81.52579401      95.73526435     109.81223583
H      78.84238265      93.66979349     109.98042148
C      85.82492137      94.26127782     101.30846742
O      87.62205110      95.54629172     101.72231749
N      85.14461990      93.82664077      98.96520680
H      83.66118474      92.67579745      98.61560743
C      86.10082141      94.98315327      96.55013657
H      87.23465720      96.62910489      97.04713459
C      87.93007648      93.16523656      95.34260145
H      89.10737598      92.44903029      96.87327977
H      88.96564650      94.28773399      93.96121152
C      86.76978453      90.97693349      94.03869030
C      85.95909194      91.07330953      91.49700841
H      86.22743308      92.79107075      90.42742331
C      85.09737674      88.84154276      90.30459110
H      84.66840887      88.72060027      88.31281957
C      84.86683013      86.58709927      91.46110361
O      83.82181148      84.52540786      90.25545822
H      82.97143464      84.99217026      88.72100045
C      85.50744735      86.47560541      93.96688070
H      85.43941720      84.65579897      94.88717741
C      86.59592971      88.62422423      95.29913775
H      86.96820579      88.67146739      97.30602709
C      83.92952588      95.83353011      94.87016988
O      81.87350365      95.19669235      95.52779463
N      84.40762664      97.32263445      92.88784697
H      86.07814470      98.21269554      92.64596201
C      82.44231127      97.79506603      90.85261173
H      80.75478567      97.04484468      91.76723927
C      82.04168929     100.68823701      90.52001990
H      80.67730690     100.73736990      88.97800323
H      83.77078887     101.50837823      89.75846020
C      81.13840012     102.06962695      92.78580175
H      82.78813119     102.10364202      94.01790331
H      79.44331561     101.22113983      93.59082516
C      80.47888563     104.82484791      91.87684340
H      79.04080391     104.72091296      90.40663633
H      82.23444138     105.69034256      91.23622618
C      79.61906016     106.29505498      94.31270061
H      81.29713713     106.53505023      95.48244120
H      78.23767023     105.22169044      95.40118297
N      78.61372576     108.89342866      93.92719645
H      78.53057780     110.01592609      95.46921312
H      76.80903713     108.80083207      93.30925594
H      79.80236361     109.62097329      92.62517502
C      82.99222163      96.23226237      88.46210795
O      85.08414866      96.47036788      87.47378109
N      81.11194395      94.95102793      87.45677355
H      79.49433822      94.94535875      88.46966685
C      81.08548778      93.59420443      84.98312181
H      82.57648184      92.17501997      85.04359305
C      78.47766547      92.34887479      85.00579852
H      77.28146871      94.01939285      85.17209444
H      78.19420652      91.21881846      86.70466248
C      77.81815098      90.75772524      82.77214202
O      79.23733544      88.83209413      82.30915907
O      76.12873566      91.29062806      81.37563428
C      81.30091658      95.29495812      82.56238240
O      81.15351793      97.62688039      82.51702897
N      81.78468651      94.00994422      80.40431495
H      81.91696736      92.10887955      80.34006426
C      81.83192967      95.24204578      77.86074333
H      83.27568058      96.70280422      77.73035222
C      82.69175514      93.32397357      75.82550809
H      82.33270715      93.73593391      73.83940574
C      85.51500626      93.17279547      76.00692182
H      86.20097691      92.15045353      77.66043234
H      86.22176390      95.09086767      75.75180877
H      86.22554335      92.10132065      74.39687500
O      81.89051119      90.91457252      76.48124312
H      80.08393283      91.07141981      76.40187462
C      79.37339574      96.51950077      76.90832127
O      79.49811768      97.96325167      75.11497100
N      77.23800501      96.09242262      78.22546051
H      77.06603991      94.54095732      79.32528123
C      74.91364164      97.52672489      77.93633239
H      74.83049368      98.43190380      76.08818005
C      72.62707280      95.71258763      78.11774611
H      70.94521638      96.65745079      78.83962156
H      73.22044686      94.09120245      79.24213327
C      71.70677609      94.72992995      75.46646009
H      70.82994308      92.87610843      75.66866081
H      73.39241196      94.42946346      74.31939622
C      70.21200257      96.93146110      74.08318043
O      67.87252140      96.58753091      73.59941050
O      71.24001369      98.88732784      73.24036250
C      74.58671899      99.60731356      79.83739706
O      72.92942901     101.19279394      79.54826893
N      76.37628981      99.90778005      81.45500278
H      77.83515852      98.69268603      81.26791988
C      76.74856589     101.96380227      83.18599208
H      76.14763292     103.70424021      82.26002619
H      78.78758058     102.04317078      83.46756130
C      75.51457461     101.48948097      85.85617536
O      75.72055478     103.08818943      87.49645780
N      74.29759086      99.30117790      86.26246652
H      74.65474914      97.94057495      84.97178345
C      73.32060236      98.52827984      88.69643401
H      72.36062139     100.12131912      89.58082593
C      71.35339727      96.50627268      88.21833325
H      70.57294030      95.85053765      90.00979380
H      72.35684194      94.80362927      87.64196673
C      69.21989626      97.40578241      86.51757957
C      68.42810093      95.78061778      84.55793339
H      69.09517432      93.86254557      84.35762240
C      66.70656026      96.60831790      82.69844269
H      65.96200810      95.22881769      81.39075209
C      65.80894026      99.11409499      82.72867832
O      64.24424688     100.02494308      80.82383419
H      63.21623576     101.40633301      81.39264181
C      66.51191845     100.77516442      84.75068547
H      65.93177247     102.72536198      84.92643002
C      68.34306325      99.93423621      86.46088778
H      68.85139963     101.26838299      87.92164622
C      74.98356151      97.32263445      90.76946378
O      76.52746791      95.69746982      90.25167877
N      74.59805735      97.98592839      93.18831346
H      72.93509819      98.83630523      93.58515598
C      75.67898080      96.84642342      95.59582478
H      77.72933385      97.03917550      95.58826588
C      74.69443339      98.13521676      97.97687993
H      74.74923545      96.81996725      99.56047059
H      72.74801529      98.58308190      97.46476410
C      76.00401372     100.47469794      98.68741703
C      74.63963133     102.63087566      99.64361854
H      72.64408034     102.36253453      99.97432065
C      75.95299111     104.83807600     100.56958444
H      74.82860396     106.32529060     101.39917429
C      78.65341001     104.83807600     100.70186528
O      79.91952664     107.08874004     101.23854755
H      79.00489911     108.65343342     101.28012153
C      79.97243898     102.65166265      99.81936309
H      82.00767422     102.78772295      99.77967884
C      78.67986618     100.50304383      98.86883075
H      79.84015814      98.87787921      98.44175261
C      75.27457937      94.04395930      95.75267206
O      73.18643179      93.31830439      95.31992474
N      77.26824063      92.56241387      96.02479265
H      78.92931006      93.43168797      96.38950983
C      77.20210021      89.85821551      95.40685215
H      75.35394787      89.13445034      95.95676251
C      77.71988522      89.63333808      92.63840310
H      79.39418273      90.72559989      92.14518453
C      78.23955995      87.01228769      91.72755502
H      79.91196774      86.08065261      92.49478390
H      78.50034218      87.18047333      89.69231978
H      76.56526244      85.87089299      92.09227220
O      75.61850956      90.43836149      91.09638643
H      75.67142189      92.24305012      90.93198024
C      79.20898955      88.42391324      96.99233253
O      80.79635965      89.52562368      98.28490532
N      78.92364088      85.97860739      97.39862368
H      77.48555915      85.20192988      96.41596600
C      80.46754727      84.09643998      98.90473555
H      82.34026605      84.94681683      99.03512667
C      79.43386698      83.91691599     101.52767568
H      79.20332037      85.89356971     102.05868877
C      76.62384395      82.96638365     101.47665307
H      75.70543697      83.97171805      99.93085694
H      75.93220412      83.72794335     103.26055471
H      76.57282134      80.91036142     101.38405648
C      81.14973847      82.78874938     103.53645475
H      81.04202407      80.73461687     103.41551226
H      80.46187810      83.33299055     105.40161462
C      84.02968137      83.56164744     103.56480064
H      84.49644377      85.55341897     103.31724650
H      84.92919110      82.55253359     102.00955589
H      84.66462942      83.04197270     105.45452696
C      80.63762264      81.60956016      97.48366137
O      79.30347587      81.35255738      95.58070697
N      82.22121329      79.88801949      98.35482520
H      83.51756554      80.43604012      99.64550827
C      82.48577498      77.33310951      97.42885930
H      80.74722677      76.26163469      97.70475935
H      83.81992175      76.29564976      98.60804852
C      83.43441759      77.31043279      94.61505682
O      85.26178293      78.63135149      94.11049990
N      82.17208041      75.73629078      93.02390727
H      80.91163296      74.39458509      93.52846419
C      82.47065717      75.94605040      90.21955342
H      83.87094436      77.40869856      89.84538761
C      83.19820180      73.50263427      89.04036420
H      81.55036045      72.27620190      88.89674500
C      84.14684441      73.73885006      86.29081242
H      82.62939418      74.64402897      85.23256568
H      84.46998761      71.93794089      85.34594926
H      85.82681110      74.93504682      86.29648159
C      85.22776786      72.05510392      90.55214525
H      84.40573691      71.52409082      92.36250306
H      86.69797493      73.49318564      90.65419047
C      86.19152828      69.47940695      89.61295127
H      86.54868655      68.21706978      91.20221110
H      87.96598128      69.62491588      88.57927098
H      84.91407329      68.46462392      88.35250382
C      80.08015338      77.08177591      89.11784298
O      78.41341477      75.74007023      88.30526067
N      79.85527595      79.54408930      89.26713136
H      81.19509190      80.71194016      89.96821982
C      77.58571465      80.74028605      88.00479418
H      77.49500778      79.85211469      86.14719322
H      77.88240168      82.66780689      87.33583107
C      75.03458412      80.53997506      89.49389852
O      73.08060712      80.73083742      88.30904012
N      75.05726084      80.35289216      92.06770575
H      76.78447069      80.29431064      92.87839834
C      72.70077213      80.88201553      93.48311076
H      71.03214379      80.33399490      92.40974622
C      72.76880228      79.13212896      95.91707825
H      74.39018745      79.51385368      97.12461337
H      73.01824615      77.26885882      95.07992950
C      70.40475466      78.99228921      97.47610246
N      69.14052775      76.78508888      98.06758680
H      69.70555592      75.03331259      97.56680933
C      67.32072131      77.39169103      99.67196444
H      65.98846426      76.11423604     100.54123854
N      67.47567887      79.92014483     100.29935357
H      66.29837938      81.06342925     101.27445235
C      69.47500931      80.92925868      98.91985337
H      69.98712514      82.90591241      98.86505130
C      72.27369398      83.63156731      94.21065539
O      73.29792564      84.94303737      95.83770975
N      70.29137108      84.58587910      92.85950108
H      69.41453807      83.38401316      91.66330432
C      69.11407159      87.13889935      93.22988744
H      70.48223344      88.54674545      92.60627775
C      66.96545277      87.32220280      91.27780016
H      65.76547656      85.65357447      91.40063237
H      67.97645635      87.39212267      89.48444988
C      65.41398747      89.79774427      91.38740428
H      64.18377564      89.73916276      93.03902508
C      67.01458565      92.09943092      91.41763990
H      68.16164952      92.11832818      89.70743759
H      68.34684270      92.16935079      92.98611274
H      65.77303546      93.74160309      91.35149948
C      63.82283791      89.55019012      89.06682037
H      62.57561854      91.17724448      88.87028883
H      62.70789938      87.83998781      89.34649986
H      64.78659833      89.47460107      87.24701393
C      68.20889268      87.68503025      95.97188032
O      66.32861500      86.63434242      96.91863320
N      69.68287921      89.21759829      97.48744082
H      71.11907120      90.15679227      96.65596124
C      68.82305373      90.22671214      99.96487202
H      67.93299264      88.75272562     101.09492835
C      71.05482051      91.29629724     101.49744006
H      70.41042384      92.09565147     103.28134170
H      72.07338299      92.69091526     100.37305290
C      72.64785979      89.05886128     102.46875938
H      72.95210573      87.66424326     100.98154477
C      75.02891495      90.34765463     103.42685062
H      76.32148774      88.83587358     103.95975344
H      74.36940046      91.40212191     105.06713306
H      75.86984315      91.49471850     101.93585656
C      71.64819457      87.63778710     104.74210014
H      71.37418426      88.93224962     106.32002161
H      72.86328859      86.15813139     105.49988039
H      69.71878401      86.96882398     104.48320763
C      66.79915685      92.29029328      99.77023021
O      64.76392161      92.03706995     100.87572010
N      67.44166380      94.27450591      98.34159711
H      68.97801129      94.15545315      97.21532023
C      65.61618818      96.30974115      97.89373198
H      63.78693311      95.36865744      97.80113539
C      65.59162174      97.96703112     100.28801522