 %block lattice_cart
   142.669   0.000   0.000
   0.000 146.65   0.000
   0.000   0.000   162.396
 %endblock lattice_cart

 %block positions_abs
N      88.98454376      42.05947816      77.60468542
H      88.37227243      40.46832859      78.46640062
H      90.57947277      41.65885617      76.63336609
H      87.50677778      42.53946863      76.50108525
C      89.44941643      44.12116956      79.61346449
H      90.90072624      43.40685301      80.88714003
C      90.18263024      46.60238021      78.48340816
H      90.10137201      47.94975507      80.03865291
H      88.56691424      47.20520291      77.35902100
C      92.65817172      46.57781376      77.01509081
H      92.83769571      45.10193751      75.58645772
H      94.06979727      45.99955751      78.40026020
S      93.29878894      49.60137587      75.47685359
C      96.35636611      48.79257301      74.24286231
H      97.25020665      47.82314340      75.82456323
H      97.24831693      50.42529654      73.36602930
H      96.07479689      47.43008033      72.72352235
C      86.97954415      44.41596686      81.31610790
O      84.90084520      43.90574076      80.43171598
N      87.22331884      45.13217313      83.67259661
H      89.02611774      45.42319099      84.23195560
C      84.93675000      45.17941629      85.38657838
H      83.79157585      43.56936947      84.80454267
C      86.01011454      45.12650396      88.08321783
H      87.22142912      46.78190421      88.27219046
H      87.20064213      43.49189069      88.46116309
C      83.98243822      45.54413347      90.21293938
O      82.64640171      47.43197006      90.49072915
N      83.49488883      43.55236195      91.66991837
H      81.84515776      43.28591053      92.59399453
H      84.69864448      42.08215488      91.50551218
C      83.49488883      47.61716325      84.81966048
O      84.65140132      49.60326559      84.30754465
N      81.00989872      47.63228105      85.02375092
H      80.17463969      46.13939726      85.86845859
C      79.35260874      49.93207797      84.65525429
H      79.43953615      50.40261982      82.65214440
C      76.58793915      49.01367098      85.08044271
H      76.55959325      47.28835086      83.95605556
C      76.08905140      48.05935919      87.78464107
H      77.51201531      46.68741789      88.36667677
H      74.45254841      46.81213983      87.88668629
H      75.92086577      49.57680943      89.16603100
C      74.90419300      50.96575826      83.87857678
H      75.06859919      52.64383523      85.06154545
H      72.95399545      50.32514104      84.04865215
C      75.00434850      51.68763371      81.09878937
H      73.40941950      52.86115375      80.53376120
H      75.19332113      49.93018824      80.04054264
H      76.68242546      52.74588045      80.54887902
C      80.38817876      52.17896256      86.09711547
O      80.86816924      54.02522516      84.88769063
N      80.45809863      51.99376939      88.60478229
H      80.06503556      50.30435405      89.40224679
C      81.40296179      53.98743064      90.37356612
H      80.31069998      55.73164802      90.49072915
C      81.30469602      52.95752981      93.07209529
H      82.29302288      54.13104984      94.44781605
H      82.43286263      51.26433503      93.39523849
C      78.64963055      52.60037152      93.96404611
C      77.15107760      50.41395818      93.50862207
H      78.07137431      48.83792643      92.59588426
C      74.58293954      50.25900062      94.23049752
H      73.57949486      48.50344489      93.94703857
C      73.57949486      52.32258176      95.39645866
H      71.61228976      52.41517835      95.92936148
C      74.94387725      54.48253894      95.79708063
H      74.05570589      56.10203438      96.66446501
C      77.47611051      54.62237869      95.06764628
H      78.76679358      56.14171863      95.50795251
C      84.10716016      54.62615813      89.78019205
O      84.84793286      56.78233585      90.03530511
N      85.68508162      53.03689831      88.69926860
H      85.08414866      51.27945284      88.26274183
C      88.33258818      53.74176622      87.99440069
H      89.08658898      54.99276504      89.44760022
C      90.03334186      51.36449051      87.82810477
H      91.90228120      51.90873170      87.15158275
H      89.10737597      50.03601292      86.55442924
C      90.51522207      50.06435881      90.42647845
H      88.81257866      49.27067376      91.27685529
H      91.14450093      51.44007957      91.82487593
C      92.49565526      47.97999069      90.13735033
O      91.88905310      45.77279035      90.77607782
O      94.68206860      48.53745995      89.43059269
C      88.42707451      55.33669522      85.50941059
O      89.52122603      57.30390033      85.53019758
N      86.99844140      54.56379716      83.51008015
H      85.86838507      53.02744967      83.55543358
C      86.79624069      56.12660082      81.30854899
H      88.71620262      56.38549333      80.60746053
C      85.24855485      54.57702525      79.30921855
H      83.24922441      54.86804310      79.71361999
H      85.78712684      52.60793044      79.58133914
C      85.95720221      55.28756234      76.63903527
H      86.93608044      53.76633267      75.65070841
H      87.33670241      56.81446121      76.51242361
S      83.38339497      56.30801455      74.53954934
C      83.22465797      59.56023353      75.59968580
H      85.00855960      60.43895627      75.06489326
H      82.83726406      59.81345686      77.60846487
H      81.86405501      60.50698643      74.37514315
C      85.76445012      58.81190191      81.81499565
O      87.05513319      60.61848027      81.21595240
N      83.71598681      58.91583686      83.17181914
H      82.71254214      57.32657703      83.49496234
C      82.44042154      61.26287694      84.07132886
H      81.70531800      62.31356477      82.46128204
C      79.95165198      60.27077063      85.36390166
H      79.34693956      61.85814073      86.52608334
H      80.42597330      58.66450327      86.56387787
C      77.73500302      59.26921568      83.60456646
H      78.27924420      57.85947985      82.20427927
C      75.72811368      58.07490865      85.22406191
H      76.52179872      56.94485232      86.75285050
H      74.39585662      56.93540369      84.14313846
H      74.68309503      59.55078491      86.21238878
C      76.59549806      61.27043585      81.87924634
H      77.86728386      62.04900309      80.45817215
H      75.69409860      62.75576073      82.98662596
H      75.04403275      60.32935214      80.90414756
C      84.01645328      63.00709433      85.77019282
O      83.89929025      65.26909674      85.62657362
N      85.91940768      61.96963458      87.10811905
H      86.13294676      60.07801854      86.99851492
C      87.70708877      63.40960603      88.57643639
H      86.61860642      65.02721177      89.24350978
C      88.59337041      61.56145370      90.74017302
H      89.34926094      59.91172263      89.76885370
H      87.03245648      60.73375357      91.79653003
C      90.55490633      62.87670321      92.49005959
H      89.71208839      64.41116098      93.57476249
H      92.23298329      63.49275400      91.46771765
C      91.45441605      60.67139261      94.24561533
H      93.20241289      61.14382418      95.22449356
H      92.12337917      59.18795745      92.98138843
N      89.45319588      59.62448423      95.98227381
H      88.97509514      57.80089835      95.68180733
C      88.27778613      60.71863576      97.92869192
N      88.63872384      63.05433749      98.60899339
H      87.78078810      63.59290950     100.22470939
H      90.27900629      63.91794241      98.14978989
N      86.64128313      59.35236364      99.05496880
H      86.04790908      59.96274525     100.76328139
H      86.31058103      57.60058735      98.37277760
C      90.14672544      64.40360207      87.08166288
O      91.09914750      66.34057155      87.96983425
N      90.79868103      63.45684919      84.95005160
H      89.65161715      62.25309353      84.01085762
C      92.69407652      64.60958224      83.20016503
H      93.82413285      65.99853108      84.22250697
C      94.53844939      62.70662786      82.04365253
H      95.88771399      63.61369648      80.78131535
C      96.19951882      61.69940372      84.28675766
H      97.71885878      60.46352271      83.65180962
H      94.96930699      60.56934740      85.49240305
H      96.97052716      63.26409711      85.38090920
C      93.56901980      60.46541244      80.48651805
H      92.78478337      61.06067623      78.67804997
H      92.28022645      59.48086504      81.75830386
C      95.63827011      58.52277379      79.68149464
H      97.38626695      59.52999791      79.26953430
H      95.26032484      57.08658180      78.25664100
H      96.10125306      57.39271745      81.33878461
C      91.45819550      66.20262152      81.23862912
O      92.74887857      67.69739505      80.08589607
N      88.92974170      66.04577424      80.93816264
H      87.85826689      64.70973774      81.78287030
C      87.54268258      67.50842241      78.84245615
H      88.78423277      67.63692380      77.20217372
C      85.06336167      66.36891744      78.03554302
H      83.65362583      67.17583058      79.30165965
H      84.91785273      64.34880001      78.41537801
C      84.58715064      66.70906819      75.22551999
O      86.02523235      65.80010982      73.53610467
O      82.61238664      67.84101424      74.78332403
C      87.32158460      70.34868106      79.71928916
O      87.81102372      72.13258269      78.28120744
N      86.63939340      70.80410510      82.04365253
H      86.44097214      69.26397816      83.15292187
C      85.84570835      73.25130067      83.10000954
H      85.93263576      74.84622968      81.80176756
C      83.12261274      72.83934034      84.05810078
H      83.19442234      71.67148948      85.75318528
H      82.01334339      71.92282307      82.58411425
C      81.87728311      75.25441057      84.94816187
H      82.92986065      76.12557440      86.49017854
H      80.24833901      74.45127688      85.91948120
C      80.92108158      76.92114917      82.86568348
O      78.58160041      77.34066841      82.65214440
O      82.44609073      77.86034315      81.30476954
C      87.52189559      74.26041453      85.30532015
O      88.30802174      76.47139431      85.46405716
N      88.05857787      72.48407179      87.10811905
H      87.55591068      70.66993453      86.79631421
C      89.83303087      72.95461364      89.10933921
H      91.13505230      74.32655494      88.29297745
H      90.78545295      71.13858665      89.30398102
C      88.74454852      73.92593297      91.61889576
O      86.59403997      74.78386871      91.73227934
N      90.31491109      74.26230426      93.52373988
H      92.09125382      73.58578223      93.35177479
C      89.59303564      74.94449545      96.20148207
H      87.54835177      74.90481121      96.43958758
C      90.86860089      72.87335541      97.84743368
H      92.86226215      73.08689449      97.36744320
H      90.24310148      71.01764418      97.21815482
C      90.69852553      72.92059857     100.61021355
H      91.35804002      74.68749268     101.43602395
C      88.00755527      72.51241769     101.59098151
H      86.78679206      73.84845420     100.60643410
H      87.89795113      72.67871360     103.64133456
H      87.71275796      70.51119753     101.19413898
C      92.53911895      70.83623044     101.26972804
H      94.46097062      71.56944425     101.15445473
H      92.47108882      69.18271993     100.04329566
H      92.23298329      70.15403926     103.18591052
C      90.46608919      77.50507461      96.97815958
O      92.81123955      77.87357124      96.89312190
N      88.84848346      79.34944748      97.60554872
H      86.96253660      79.05653992      97.56775419
C      89.54201302      81.52830192      99.02851263
H      91.50921811      81.23728407      99.56330518
C      89.30768696      83.80920158      97.31831032
H      89.04879446      85.57987515      98.33498307
H      87.57480793      83.55219881      96.23549714
C      91.67362431      84.16635987      95.79897036
H      92.12148945      82.33143562      94.97882914
H      93.35926018      84.53863594      96.92335752
C      91.34670166      85.82364983      93.55775495
H      93.12115467      86.40001636      92.68659112
H      90.47931727      87.61133093      94.09632695
N      89.40028355      84.70682159      91.70582317
H      88.72376153      83.00417817      92.24250544
C      88.83147593      85.66680256      89.43626187
N      89.83303087      87.69069943      88.53297269
H      89.51744658      88.28596323      86.74907105
H      90.70230498      88.77729206      89.83688384
N      87.55591068      84.23627973      87.96605479
H      87.27434145      84.90524285      86.20105042
H      86.43908242      82.88512542      88.72194532
C      87.99243745      82.03285886     101.42657532
O      85.86649535      81.15413612     101.71759317
N      89.07903007      83.18181245     103.35031671
H      90.94418995      83.45204331     103.04418105
C      88.06991622      83.51629400     105.94680066
H      86.35593446      82.42403221     106.27183359
C      89.79145689      82.49584180     108.07085304
H      88.95808759      82.21238286     109.93223346
H      91.39772426      83.76951734     108.27494348
C      90.73820978      79.74062084     107.68534887
H      91.96842161      79.65936260     106.03561780
C      92.42195592      78.78252959     109.81696015
H      91.29945849      79.24740226     111.47991931
H      94.31168224      79.57432492     109.60531080
H      92.58447240      76.73028681     109.76971699
C      88.58014234      77.94916029     107.28661662
H      89.34170203      76.04053672     107.15811523
H      87.78834700      78.43293022     105.44791292
H      87.18552431      77.99451373     108.80406685
C      86.95686743      86.12600604     106.48348293
O      85.31469526      86.40190608     108.06707359
N      87.70141960      88.02329126     105.02272450
H      89.12060406      87.59432340     103.81896883
C      86.59781943      90.49883273     104.85453885
H      85.53012406      90.77473278     106.59119733
C      88.56691424      92.78540157     104.78461898
H      87.45386545      94.50883197     104.61076416
H      90.01822405      92.53406797     103.34464753
C      90.00499597      92.98193312     107.37921321
H      90.82513719      91.19425202     107.98770508
H      88.61793685      93.34665028     108.85508946
C      92.04401067      95.08141905     107.56818584
H      91.20119272      96.92768166     107.21858647
H      93.61437323      94.66189981     106.30395894
C      93.36492935      95.08897796     110.12498554
H      94.46663979      93.35042974     110.15333143
H      91.87015584      95.12299302     111.54228027
N      94.99954261      97.25271457     110.37064996
H      96.28455651      97.29428855     108.96091413
H      95.96897222      97.15822826     112.01093240
H      94.04523083      98.90811482     110.41033421
C      84.87627875      90.60276769     102.55852138
O      85.12761235      89.22515721     100.81052454
N      83.05269286      92.18446860     102.58686728
H      83.06025177      93.42601880     104.03439763
C      81.23477615      92.46792756     100.41746147
H      80.76045486      90.53851699      99.87511002
C      78.91986142      94.16868123     101.21870543
H      79.43008753      96.14344524     101.50972328
C      77.14540841      94.23293193      98.94725440
H      77.75579002      95.54062253      97.47893705
H      75.51079515      95.40267251      99.40267844
H      76.48589394      92.41879466      98.22159949
C      77.78602563      93.28428933     103.76794622
H      79.28457859      93.28806877     105.18335123
H      77.12273169      91.34731985     103.53173043
C      75.58260476      94.97937382     104.66934567
H      76.12117675      96.96169672     104.50304976
H      74.98356151      94.47859635     106.57607952
H      74.05759561      95.05685261     103.28795574
C      82.63317362      93.63577842      98.13656181
O      83.82937039      95.62566023      98.37466733
N      82.09271190      92.56619333      95.91235394
H      81.18186381      90.88811635      95.92558202
C      82.57270238      93.67546266      93.37634123
H      83.45142512      95.53684309      93.47271727
C      84.48321569      92.00872406      92.19526228
H      86.06491661      91.54763083      93.43114329
H      85.19942195      92.92524133      90.49261887
C      83.40796141      89.34798942      91.74739715
C      82.68797568      88.75083589      89.16414128
H      82.91285312      90.19080734      87.73550818
C      81.68075157      86.31497867      88.67470216
H      80.89273569      85.78207586      86.87001353
C      81.68264129      84.45926744      90.56631820
O      80.74344731      82.05553556      89.85389138
H      80.29369245      82.00640268      88.09833564
C      82.64262225      84.94492710      93.03241104
H      82.90718394      83.38590290      94.32120438
C      83.75756078      87.32787199      93.46326864
H      84.63817324      87.65479464      95.27551617
C      80.17841914      94.07419493      91.77007386
O      78.14696335      94.11009972      92.94548363
N      80.28613354      94.70725323      89.28697349
H      82.01901258      94.39355867      88.55942886
C      78.13373527      94.99260191      87.64291159
H      76.34416445      94.48993470      88.52919324
C      78.10916883      97.83664000      86.82466010
H      76.74100698      98.06718661      85.30154069
H      79.97810816      98.41111680      86.18026343
C      77.48366942      99.48826080      89.11311867
H      78.93119977      99.15377924      90.54175176
H      75.63362736      98.78339289      89.68003656
C      77.37406530     102.37198317      88.57454667
H      77.07737826     103.42834016      90.31876405
H      75.76968765     102.57985306      87.30087113
C      79.82504033     103.42267100      87.72983900
H      80.34093560     102.23970232      86.12357164
H      81.25556314     103.36597921      89.20949471
N      79.54536083     105.93978644      86.78119640
H      78.21121405     105.96435288      85.41681400
H      81.22721724     106.66922080      86.25018330
H      78.72332988     107.12275512      88.03219521
C      78.11861746      92.94224886      85.52830785
O      80.09149174      92.18635833      84.56265770
N      75.87929178      92.17690970      84.68171046
H      74.48467376      92.97815365      85.70783185
C      75.12151153      90.90323417      82.31766284
H      76.19298635      89.15901677      82.07766760
C      72.35117275      90.29474229      82.50852520
H      71.27591849      92.05029803      82.45939232
H      71.97889667      89.23838528      84.23762478
C      71.56315688      88.55808382      80.44872352
O      70.70900059      89.32153324      78.42860609
O      71.62362812      86.21104374      80.77564617
C      75.98322673      92.45847892      80.09345497
O      76.25723704      94.76583476      80.36557556
N      76.22133224      91.28873833      77.86735738
H      75.65819380      89.47460107      77.69350256
C      76.98478167      92.84398309      75.61669334
H      78.54758534      94.08742300      76.11558109
C      77.94854209      91.25472326      73.34713204
H      78.77057304      92.60398784      72.02999280
C      80.12172735      89.39901203      74.01987460
H      81.66563375      90.61221631      74.63781511
H      80.63384318      88.47304612      72.25487023
H      79.47922041      87.92124605      75.30299877
O      76.02858016      89.91490730      72.26053941
H      76.62951312      89.28562845      70.66938985
C      74.98356151      94.89244641      74.72663225
O      75.69787805      96.67067887      73.33201423
N      72.67053651      94.67701761      75.66582622
H      72.26424535      93.07452971      76.62013801
C      70.55782249      96.45902952      75.12914395
H      70.99245953      97.38310569      73.33768340
C      68.07283238      94.84520326      74.82678774
H      66.50624927      96.18312948      74.84757473
H      67.73457138      93.94569354      76.64848391
C      68.33928380      92.78351184      72.69517646
H      66.90876097      91.32653287      72.97485595
H      70.23467928      92.04651859      73.01831966
C      68.11251663      93.79262569      69.94562467
O      66.70089108      92.93280022      68.35258539
O      69.38997162      95.67479310      69.27855128
C      70.35562178      98.44135242      77.20973262
O      68.63597082      99.89644169      77.40626416
N      72.09416997      98.32418940      78.98796508
H      73.30170509      96.84831314      78.91993493
C      72.47400497     100.07596569      81.11768664
H      71.90708707     101.92978720      80.42415708
H      74.53002720     100.06462733      81.20272432
C      71.32883082      99.42212038      83.82188499
O      71.60662059     100.84886375      85.53397703
N      69.90019772      97.33775226      83.91070213
H      69.82271895      96.43068363      82.23073543
C      68.48101327      96.48737542      86.00262915
H      67.68165903      98.18057020      86.85678545
C      66.54971297      94.45969908      85.27886398
H      65.41020800      94.31419016      86.98717656
H      67.31316240      92.57942140      84.93115434
C      64.83573121      95.09842658      82.96394924
C      64.01181053      93.10854477      81.36335106
H      64.45778594      91.21314929      81.97184293
C      62.46790414      93.40901125      79.31488773
H      61.75169786      91.81030279      78.26797936
C      61.90287597      95.93746506      78.59679173
O      60.57817782      96.37966103      76.52565169
H      60.30794696      98.15978320      76.30455372
C      62.86852611      98.10309141      79.90448234
H      62.53026510     100.07029651      79.47740420
C      64.22912906      97.57963723      82.11924158
H      64.95667369      99.19346350      83.13591434
C      70.29137108      95.26283277      88.00384932
O      71.73512197      93.40523180      87.59566844
N      69.97578678      96.13021715      90.33955104
H      68.76825166      97.55318107      90.75340111
C      71.63307675      95.29495812      92.42958835
H      73.59650239      95.78439724      92.03652527
C      70.82427390      96.93713028      94.89757091
H      71.81449048      96.08108427      96.48872047
H      68.77959003      96.77083436      95.08465381
C      71.59717195      99.66400536      94.71426746
C      69.76791689     101.55751111      94.28718931
H      67.80827070     101.28350081      93.78830156
C      70.50491014     104.13887726      94.55175099
H      69.17643255     105.66010694      94.25128451
C      73.02580506     104.84185546      95.02418257
O      73.70610652     107.37597843      94.98638805
H      72.28692206     108.49091696      94.78985651
C      74.84372176     102.92000379      95.37189221
H      76.79958849     103.31495659      95.80652927
C      74.13696412     100.31029175      95.10544080
H      75.55614858      98.86654085      95.37000249
C      71.42709659      92.35643371      93.00595487
O      69.35595655      91.37944520      93.39523849
N      73.62106883      91.10165543      93.23272203
H      75.24812320      92.08809256      93.06831584
C      74.00657301      88.36722145      93.39712822
H      72.18298712      87.49416790      93.79208102
C      74.91364164      87.25984184      90.84032852
H      76.51801928      88.24249951      90.00317976
C      75.47678007      84.61422500      90.97827854
H      77.08304745      84.26084617      92.22171845
H      75.96432946      83.79597350      89.15280292
H      73.88752024      83.55030908      91.74361769
O      72.77069199      87.39779185      89.16792073
H      72.32471659      89.13256062      88.88257206
C      75.96621920      87.81353164      95.44559154
O      78.05436676      88.92280100      95.35110523
N      75.59961229      85.96348959      97.04807945
H      74.09539014      84.85233051      96.66257529
C      77.44209545      85.16035591      98.99449756
H      79.24867380      86.11088824      98.71481806
C      76.44054049      85.43436621     101.62310686
H      76.14574319      87.46771173     101.77806442
C      73.86484354      84.09832971     101.78562332
H      72.83305297      84.41958318     100.03384703
H      72.86706804      84.71249076     103.48070782
H      74.28058332      82.08388147     101.85743292
C      78.06381540      84.75406474     103.99660311
H      78.38506888      82.72638842     104.15722984
H      77.18320293      85.64412583     105.63310609
C      80.73021922      85.81042175     103.85109418
H      80.51668015      87.85510562     103.96636749
H      81.68264129      85.52318336     102.04451583
H      81.84137831      85.01106753     105.38744167
C      78.30570037      82.42781165      98.29907827
O      77.08493717      81.08232651      96.87800409
N      80.26723628      81.36578547      99.51417229
H      81.44264605      82.39001712     100.61588273
C      80.63006373      78.53875491      99.77117507
H      78.91986142      77.49184652     100.24360665
H      82.04546874      78.14191238     101.21492597
C      81.61650087      77.39169103      97.36555347
O      83.46087375      78.32710556      96.18636426
N      80.43731166      75.39614004      96.63422939
H      79.14095939      74.73473583      97.87011040
C      80.48455480      74.31899604      94.15868792
H      81.91129817      75.32433045      93.06075693
C      81.07981860      71.53164974      93.97727420
H      79.64173687      70.50930779      95.03930038
C      81.35571863      70.47340300      91.12378746
H      83.21520933      70.92126813      90.35466885
H      80.14251434      71.50519356      89.81609685
H      81.28201931      68.41360131      91.09733129
C      83.15851754      70.73985441      95.61944636
H      82.65018116      70.60568383      97.60932817
H      84.48510541      72.31210669      95.70448405
C      84.58526090      68.23029786      95.04119011
H      83.20765042      66.70150928      95.06953600
H      85.98554810      67.88258823      96.50950745
H      85.70019944      68.44950611      93.31964944
C      77.86917360      74.67993377      92.74706237
O      75.96432946      73.31744109      93.12311790
N      77.93342429      76.54887310      91.01985252
H      79.40741080      77.76207738      91.00851416
C      75.84149726      77.45216227      89.36256254
H      75.22544647      75.89691751      88.16258633
H      76.41597405      79.08677554      88.24384456
C      73.34894825      78.48773230      90.74584220
O      71.61040005      78.98095086      89.34177555
N      73.04281259      78.72016862      93.28563436
H      74.64719023      78.64457957      94.31553521
C      70.61451428      79.20960774      94.39301398
H      69.34272846      78.07199250      93.23839121
C      70.56916084      78.24962677      97.15012468
H      71.71811444      79.64424479      98.14223099
H      71.36851508      76.35423128      97.10099179
C      67.96889744      78.31009801      98.37088787
N      66.30971773      76.27297305      98.38411596
H      66.68577328      74.55899129      97.63767406
C      64.27448250      77.01563549      99.59165107
H      62.47546304      76.08777987      99.86188193
N      64.59195651      79.50440504     100.31919570
H      63.15765424      80.65902782     100.81808345
C      66.89175343      80.26218529      99.65968122
H      67.59473162      82.15569106      99.93747099
C      69.59217234      81.83632731      94.15301874
O      70.74679511      83.48794811      95.39078948
N      67.31127268      82.22939039      93.02863159
H      66.37207870      80.77430112      92.23116708
C      66.25491567      84.75595447      92.63178906
H      67.65331314      86.08443207      91.91369306
C      64.12141467      84.79374900      90.60033327
H      62.78159870      83.41235907      91.33354708
H      65.17966139      84.09077080      88.97705837
C      62.70978910      87.21448840      89.93137016
H      61.52493071      87.72093505      91.53763753
C      64.25936468      89.50105724      89.31531938
H      65.43855390      88.91335236      87.73361846
H      65.26280936      90.25316831      90.94804292
H      63.00269668      91.02795611      88.72761450
C      60.89376212      86.45859787      87.76763353
H      62.11263559      85.89356971      86.20482987
H      59.90543525      88.21037417      87.32165812
H      59.43678313      85.07909767      88.24384456
C      65.13052851      85.90112862      95.14512506
O      63.66599062      84.60666609      96.52651499
N      65.51414295      88.31619885      95.49283470
H      66.95789385      89.14767842      94.56119963
C      64.57872843      89.65979425      97.63200488
H      63.87197079      88.21415362      98.91701878
C      66.92954796      91.08842734      98.95859276
H      66.18499579      92.45280974     100.30974707
H      68.16353924      92.12966654      97.68113777
C      68.73612632      89.13256062     100.29462926
H      69.76413743      88.10832894      98.83198109
C      70.47089507      90.83142456     101.85932265
H      71.47433975      92.31674944     100.84642934
H      71.83527747      89.58987437     102.77772964
H      69.45422231      91.95014254     103.25772012
C      67.37741310      87.28818773     102.07097199
H      66.62530202      85.73483271     100.94847456
H      65.78626354      88.18958718     103.02150433
H      68.69833180      86.61544516     103.49960509
C      62.49247058      91.66479388      97.09910206
O      60.50069904      91.60621235      98.28018101
N      63.00080696      93.31263522      95.14890451
H      64.62219213      93.06886052      94.17002628
C      61.26981765      95.31574511      94.27207150
H      59.40087833      94.48048608      94.03774544
C      60.98446898      97.52105572      96.11077520