 %block lattice_cart
   142.669   0.000   0.000
   0.000 146.65   0.000
   0.000   0.000   162.396
 %endblock lattice_cart

 %block positions_abs
N      92.85470326      44.38573125      83.19638558
H      94.76332683      44.36116481      83.19071640
H      92.31613125      42.60560906      82.77119716
H      92.43707374      44.93942106      84.97461804
C      91.62260169      46.16774316      81.53531615
H      91.65850650      47.89495301      82.65781358
C      92.65817172      46.23766303      78.88214041
H      92.08747437      44.58604224      77.79176832
H      94.70285559      46.46631992      78.89914794
C      91.57346881      48.49210653      77.53476555
H      89.64027880      48.00455714      77.01131136
H      92.58258266      48.89461823      75.78487898
S      91.53378456      51.41362341      79.20150415
C      89.67240415      52.81580033      76.57667430
H      89.40406301      54.77544652      77.15304083
H      87.86960525      51.85203991      76.31211262
H      90.65884127      52.81957978      74.76631650
C      88.81446840      45.53657457      81.33878461
O      88.04912924      43.59960510      80.23518445
N      87.28945927      47.15040084      82.39703135
H      88.18707926      48.75666821      82.90725745
C      84.52856912      46.96709739      82.30821421
H      84.21676428      45.85404859      80.60557080
C      83.74055325      45.58192800      84.74218170
H      84.64384243      43.74700375      84.99162558
H      81.68831048      45.60649445      84.54376044
C      84.19597728      47.12772413      87.23095126
O      84.53612803      49.41996215      87.34622456
N      84.45109035      45.89562257      89.29831184
H      84.20731564      46.92741314      90.88568195
H      84.11093960      44.01723462      89.37201117
C      83.52134499      49.96231360      82.18538200
O      84.99911098      51.58747823      82.19294091
N      81.01556791      50.41206846      82.10034432
H      79.76267935      49.05146551      81.62980247
C      79.76834854      52.96319898      82.35356764
H      80.18597805      53.80034774      80.51864339
C      76.87139810      52.79501334      82.50663547
H      76.00212400      51.89739334      80.86824276
C      75.94921165      51.27189393      84.72895362
H      75.88874042      52.55123865      86.34277989
H      77.13595979      49.69964164      85.32988659
H      74.01413192      50.57269520      84.66281320
C      75.27835881      55.26110618      82.69938756
H      75.82259999      56.39116251      84.33400082
H      73.31682291      54.64883485      82.84300676
C      75.40308075      56.66517283      80.22951527
H      74.23334016      58.35647788      80.34289885
H      74.87773684      55.53889595      78.58545338
H      77.39674202      57.11870714      79.97818167
C      80.70187333      54.71875473      84.40014124
O      81.16107683      56.98642630      83.80676718
N      81.33115219      53.70775115      86.69237926
H      81.12895148      51.84448100      87.04575808
C      82.30247152      55.31212879      88.67092271
H      81.01178845      56.90327834      88.87690288
C      81.91885708      53.98932037      91.22394296
H      82.52545922      55.29323153      92.69792948
H      83.25300386      52.42651671      91.38267997
C      79.37150601      52.81391060      92.09132733
C      77.75201057      53.99876900      93.75239676
H      78.29625175      55.79400900      94.55742017
C      75.43520610      52.95375035      94.43836742
H      74.23334016      53.84948062      95.82164708
C      74.75679436      50.55190821      93.36689260
H      72.95210572      49.61838341      93.57098304
C      76.65030013      49.20831280      91.97983348
H      76.33849527      47.24299743      91.52440944
C      78.99545047      50.30624379      91.37512106
H      80.61872537      49.33492446      90.60789218
C      84.95942672      56.23809468      88.17959387
O      85.83625972      58.12404154      89.19437690
N      86.47120778      54.81324104      86.63757720
H      85.65673573      53.18051751      86.08010793
C      88.90517526      55.57669047      85.57366128
H      89.64216852      56.86548382      87.00418410
C      90.80623994      53.23154012      85.52452840
H      92.67328953      53.84192172      84.90091871
H      90.17696107      51.82558374      84.15636655
C      91.13505231      51.96164404      88.18904250
H      89.38327602      51.05457541      88.78241656
H      91.87582503      53.45641755      89.39846734
C      93.02855808      49.94719579      87.92826027
O      95.26410430      50.39695065      88.47439117
O      92.30479289      47.81369478      87.20827454
C      88.72565127      57.21697291      83.10756844
O      90.05034940      59.20118554      82.96205952
N      86.94363935      56.73320298      81.36713051
H      86.31436049      54.93418353      81.45405792
C      86.29357350      58.23931485      79.11079729
H      87.88661278      58.28466828      77.80877586
C      84.07881425      57.11870714      77.83334230
H      82.48766470      57.23398045      79.13536373
H      84.48321569      55.12882534      77.47618403
C      83.44386621      58.52655325      75.31244740
H      85.05391303      58.34324980      74.04066159
H      83.56102924      60.50887615      75.86424748
S      80.54691578      57.70263258      73.70995949
C      81.69964882      56.75398997      70.74308918
H      83.55158062      55.87148778      70.93962071
H      82.04546874      58.41883885      69.58090749
H      80.26534656      55.50299115      69.95129385
C      85.92129741      60.95674129      79.95361523
O      87.49165998      62.51009632      79.29788020
N      84.09960125      61.41594478      81.67137644
H      83.23977577      59.88148701      82.41592861
C      83.68953064      64.01431846      82.60490124
H      83.26623194      65.22374330      80.98918525
C      81.58248579      63.90849379      84.48517892
H      81.66563375      65.65838035      85.56988183
H      81.99066669      62.39293328      85.81932570
C      78.92553061      63.59479922      83.37401985
H      79.12962104      62.13215105      81.93782785
C      77.11517280      62.88804158      85.36012221
H      76.75612480      64.08612806      86.99662519
H      77.49689750      60.94162348      85.92326065
H      75.39363213      62.57434701      84.27541930
C      77.94665237      65.93050094      81.92459977
H      77.75767974      67.56511420      83.16426023
H      76.11172812      65.66782898      81.02697977
H      79.15985667      66.55789008      80.38258310
C      86.01956319      65.17650014      83.95038638
O      86.45042079      67.32511896      83.72550895
N      87.38205586      63.69684444      85.41114482
H      86.90017564      61.85247156      85.51507977
C      89.89728157      64.43005825      86.58088541
H      89.65728634      66.21018044      87.58999926
C      90.75521732      62.37970520      88.38368431
H      92.79234228      62.16616613      88.58777475
H      90.03901104      60.55233986      87.76007462
C      89.47776233      62.98252789      90.93670456
H      87.49543944      62.58757509      90.53986203
H      89.80468498      64.96296107      91.39590805
C      90.71553306      61.32712764      92.96816034
H      92.69029707      61.90727362      93.03052131
H      90.70230499      59.38259927      92.28407942
N      89.67618359      61.50854137      95.55897512
H      90.81568856      62.07356954      96.98193903
C      87.71464768      60.16683569      96.19014371
N      86.04979880      59.25598760      94.75017226
H      84.58715064      58.34136007      95.57031348
H      86.00633509      59.65471986      92.88501239
N      87.33859215      59.96085552      98.62222147
H      86.47498723      58.43584638      99.37244282
H      88.55368616      60.88115223      99.77117507
C      91.94952435      65.32389880      84.71005636
O      93.34981154      66.97929905      85.40358591
N      92.14416617      64.19384246      82.56332726
H      91.03678654      62.65560524      82.33844983
C      93.65027803      64.84579804      80.38825228
H      95.44740776      65.56200431      81.09878937
C      94.21341648      62.52143467      78.71017531
H      92.41817647      61.84869211      77.95428479
C      95.72897697      63.15449299      76.24219275
H      94.44018364      63.94628831      74.84190555
H      96.77588535      61.61247632      75.36724946
H      97.10847718      64.65115623      76.55399759
C      95.67039546      60.32179324      80.04432209
H      95.15072072      60.08746718      82.02286554
H      97.63571082      60.94351320      80.02542483
C      95.02410907      57.76121409      78.78576436
H      95.50598927      58.07112921      76.80722091
H      93.01910944      57.45507843      79.14103291
H      96.06534827      56.34202963      79.85534946
C      92.76588612      67.19094839      78.92938356
O      94.28522607      68.85012810      78.40026020
N      90.33002891      67.35157513      78.57222529
H      89.28123079      65.80955846      78.98229590
C      89.09603762      69.43027407      77.20217371
H      90.29034465      69.67782822      75.54110429
C      86.29546322      68.76320069      76.43872428
H      84.99533152      70.16348788      77.20784289
H      85.82114191      66.99630658      77.38358744
C      85.69641999      68.52887462      73.64759852
O      86.70931329      70.15025980      72.24353187
O      84.14495468      66.90559972      72.89926690
C      89.35493013      72.03620666      78.56088693
O      89.89728157      73.95994805      77.29666003
N      88.94863896      72.30076834      81.14981198
H      88.23054297      70.77009003      82.03420390
C      89.26989244      74.70638994      82.50663547
H      90.44530220      75.80621065      81.22162158
C      86.72065165      76.06699288      83.00741295
H      87.07214074      77.53719996      84.40581042
H      85.33548225      74.78386872      83.83133362
C      85.61138229      77.26318964      80.60935026
H      84.31503004      75.90636615      79.76275287
H      87.02489758      77.62034791      79.15237127
C      83.84070875      79.33999886      81.48996272
O      81.57492690      78.79197823      81.86412853
O      84.60793763      81.52263275      81.61090520
C      90.86671118      74.45505634      84.90658789
O      92.33124907      76.26541415      85.56421265
N      90.61726730      72.45761563      86.52986280
H      89.32658423      71.17827091      85.94782709
C      91.85503804      71.87935938      88.94493302
H      93.86192739      72.31588615      89.05453715
H      91.62449143      69.87058030      89.33610637
C      90.59270086      73.20594725      91.02930115
O      89.75177264      75.40747840      90.92158675
N      90.44530220      72.02864775      93.21382476
H      91.18985438      70.28254064      93.40468712
C      89.27745135      72.85256843      95.47582716
H      87.38016612      73.29476438      94.80875377
C      89.21509037      70.62269138      97.35799457
H      91.10859615      70.44505710      98.15167962
H      88.78801222      68.97485003      96.19770261
C      87.34048187      70.60379411      99.54440791
H      87.70141960      72.19305394     100.80296564
C      84.57392255      70.86079689      98.81875301
H      84.28479443      72.60501428      97.76050627
H      83.34937991      70.62647083     100.45903545
H      84.16952112      69.28665487      97.55452611
C      87.76378056      68.20573142     101.14122665
H      89.47776233      68.40793214     102.26750353
H      88.06802651      66.52765446      99.98660387
H      86.04790908      67.93928001     102.25238572
C      90.54923715      75.24118249      96.60777322
O      92.69218679      75.21850577      97.56775419
N      88.88627800      77.05531975      97.05563836
H      87.26111336      77.04020194      96.05597314
C      89.44752672      79.36834475      98.31419608
H      91.47898249      79.41369819      98.64678791
C      88.76344578      81.58877317      96.62289103
H      88.33447792      83.30275494      97.68302749
H      87.05324347      81.07476761      95.59865937
C      90.88938788      82.27285410      94.60655306
H      91.23520780      80.66658673      93.36500287
H      92.63360528      82.79252883      95.56842375
C      89.88972268      84.41580374      93.04374940
H      89.62327126      86.13167523      94.14734956
H      87.99810663      83.74306117      92.57887672
N      91.33158385      84.92036066      90.67781205
H      93.19485399      85.32854154      90.77040864
C      90.48687618      84.92602984      88.33266170
N      88.20597653      84.14179342      87.55409446
H      88.06424706      83.97549750      85.65680924
H      87.30079763      82.80008774      88.56320831
N      91.93062708      85.80097312      86.65836418
H      91.52433594      85.25295249      84.87446255
H      93.57846843      86.66457805      87.08166288
C      88.13983611      79.50251532     100.95792319
O      85.98176865      78.72394808     101.24327187
N      89.59303564      80.23383941     102.91567966
H      91.46953386      80.33210517     102.57363919
C      88.92029307      80.37934833     105.56885540
H      87.23276748      79.24929200     105.92412395
C      91.12371395      79.34566804     107.11843098
H      90.58514196      79.75573865     109.06484908
H      92.79045257      80.51918808     106.81796449
C      91.42040098      76.52808611     106.91811999
H      92.08558465      76.13502303     105.00949641
C      93.36681909      75.73629078     108.83619219
H      95.14694127      76.75863272     108.67178600
H      93.79389724      73.72373226     108.76438259
H      92.38038195      75.94227095     110.63143219
C      88.94296979      74.93126737     107.09575426
H      87.88850250      75.19582905     105.34397797
H      87.91495868      75.24874139     108.85131000
H      89.35870958      72.91303967     107.06551864
C      88.08503404      83.09299532     106.60631514
O      87.55591068      83.33299056     108.94201687
N      88.11526966      85.08287712     105.02839367
H      88.77667388      84.91280176     103.24638176
C      87.31213597      87.65290491     105.53673005
H      86.02712209      87.96470975     107.12032070
C      89.82547197      89.33476133     105.89955750
H      90.94607967      89.40846065     104.17234765
H      90.81568856      88.46170777     107.47936870
C      89.34737122      92.27517547     106.42301169
H      88.23054297      92.50194263     108.13888318
H      88.18329980      93.11799341     104.94713544
C      91.87582503      93.74349282     106.49104184
H      91.39394481      95.73337462     106.70080146
H      93.03044780      93.70002911     104.78650871
C      93.73342600      92.87043926     108.49982091
H      94.17562194      90.92969034     107.96502836
H      92.81123955      92.74760705     110.33663489
N      96.12959896      94.30852098     108.59997640
H      97.06312375      93.93624490     110.22136158
H      95.70630027      96.15289387     108.85319973
H      97.14627172      94.31607989     106.98426041
C      85.85515699      88.73571809     103.25583039
O      86.65451122      88.44092078     101.08642458
N      83.96354095      90.26639640     103.82841746
H      83.23032714      90.25127859     105.58964239
C      82.45742909      91.64400688     101.95191924
H      81.14028985      90.36088272     101.02973279
C      80.76801375      93.73026473     103.28228656
H      81.77901733      95.00394027     104.54462374
C      79.22977653      95.25338414     101.35098627
H      77.73878247      96.43257336     102.14278159
H      78.20743461      94.12521753      99.96203743
H      80.61872537      96.35131513     100.29651899
C      78.74600660      92.20903505     104.97548134
H      79.60016290      91.37377602     106.65355830
H      77.85972496      90.59520878     104.04951544
C      76.59549806      93.83230995     106.11876576
H      75.78291574      92.73248924     107.65889270
H      75.13284989      94.06096684     104.68635321
H      77.23233583      95.60298351     106.95591451
C      83.94842314      92.86665981      99.87699974
O      85.45831447      94.50505252     100.45147654
N      83.73677380      91.93880419      97.49216514
H      82.48199553      90.50639164      97.34287676
C      84.84415341      92.96492558      95.17536068
H      86.01767345      94.47670663      95.93503066
C      86.49766393      90.95236705      93.96404611
H      88.09826212      90.31930874      95.09410245
H      87.44063736      91.97470899      92.44281643
C      85.05202331      88.63556259      92.95115281
C      84.38117046      88.45981805      90.42458873
H      84.67785750      89.97915800      89.09422140
C      83.16985590      86.21104373      89.60066805
H      82.69931404      85.90679780      87.63724241
C      82.62750444      84.30242016      91.31276009
O      81.37461590      82.14246298      90.34522022
H      81.26123233      82.00262323      88.54242132
C      83.31536482      84.44225990      93.93192076
H      82.91096340      82.99472955      95.31142097
C      84.56447392      86.70993148      94.66513457
H      85.36949732      87.08409729      96.50194855
C      82.84104353      94.03262094      93.31398026
O      80.56203358      93.51861539      93.63145428
N      83.45331484      95.43479787      91.23150186
H      85.25233429      96.06596646      91.14457445
C      81.70153855      96.10754043      89.23217142
H      79.73433346      95.78628696      89.74995643
C      82.07759409      98.84764359      88.17581441
H      81.00800900      99.13677171      86.43726621
H      84.10149097      99.18401487      88.00195959
C      81.03635489     100.85642266      89.88601673
H      81.93586461     100.88665828      91.73983824
H      79.01812720     100.53138973      90.13546060
C      81.28390905     103.43589908      88.83721862
H      80.45620891     103.45668607      86.95316149
H      83.27379085     103.66455596      88.34777951
C      80.36172261     105.89821246      90.06176127
H      81.08737751     107.32306610      88.76540902
H      81.20831999     106.17600223      91.91936224
N      77.52146396     106.12497962      90.14868868
H      76.95076660     107.48747229      91.35622380
H      76.76179397     104.44879238      90.65324561
H      76.71077136     106.57473448      88.48006035
C      82.10971943      94.27450591      87.07599370
O      84.22432319      93.94380381      86.21994768
N      79.88173212      93.25594343      86.16325589
H      78.21310378      93.70002911      86.97961766
C      79.94220336      91.20559038      84.21494806
H      81.52579400      89.93758402      84.57021661
C      77.63295780      89.61444082      84.53242208
H      76.00212400      90.82386566      84.17904326
H      77.82948934      88.77162289      86.39947168
C      77.25312282      87.50739598      82.58222453
O      78.22066269      85.40602032      83.10567872
O      76.29503157      87.87778234      80.44872352
C      80.37495068      92.26383711      81.49941135
O      80.22944176      94.60142856      81.07800238
N      80.73966787      90.71426154      79.60023641
H      80.92297132      88.89256537      80.13880840
C      80.79069047      91.51928495      77.00375245
H      82.10216053      93.10476532      76.94895039
C      81.86783447      89.53129286      75.21985081
H      80.91541241      89.74672166      73.40571355
C      84.70242394      89.73349358      74.68316854
H      85.37516651      91.58353564      74.07089721
H      85.47532201      88.36344200      73.35091149
H      85.72476588      89.34043051      76.42549620
O      81.47477140      87.09543565      75.94739544
H      79.76834854      86.60221708      75.57700909
C      78.15263254      92.56430360      76.24408247
O      78.14696337      94.07041547      74.50175481
N      75.87362261      92.13344600      77.47807376
H      75.92653494      90.91646225      78.94639110
C      73.50201609      93.58475581      77.27965249
H      73.41508867      94.19324768      75.31244740
C      71.38552261      91.74227265      78.14703687
H      69.56004699      92.69658444      78.09412453
H      71.71622472      91.22070819      80.11235224
C      71.24379314      89.35743804      76.58801266
H      70.16097996      88.12533649      77.83523203
H      73.01446670      88.58642971      75.87180639
C      69.51847301      89.89789977      74.18617052
O      68.15220089      88.14045430      73.58145810
O      69.49579630      92.07864393      73.18650530
C      73.48689827      96.20391648      78.78198491
O      72.01102202      97.95758249      78.16026495
N      75.28402800      96.70847340      80.38258310
H      76.56337271      95.37999580      80.87580167
C      75.99456509      99.21425049      81.42004284
H      75.18387251     100.65044249      80.18416184
H      78.03735923      99.45613546      81.53909560
C      74.93442863      99.52605533      84.18471244
O      75.72433423     101.32507478      85.43571126
N      73.43209622      97.75916123      85.02564065
H      73.36028662      96.26627744      83.83889253
C      72.12440560      97.76483041      87.42937252
H      72.03369874      99.76794030      87.89802465
C      69.53359083      96.63288435      86.91158751
H      68.20700296      97.04484469      88.43281719
H      69.74335045      94.58253130      86.96072039
C      68.19377488      97.04862414      84.47195084
C      67.84795496      94.88677724      82.87513211
H      68.67187562      93.06130162      83.27008491
C      66.22468005      95.10598549      80.71895438
H      66.05649442      93.50160785      79.47173502
C      64.65242776      97.38877487      80.58478381
O      62.95923298      97.49459955      78.72151367
H      62.02381845      99.04795458      78.77442601
C      65.06816754      99.54306287      82.05877034
H      64.04204616     101.25893436      81.64681000
C      66.87096646      99.29361900      84.02786516
H      67.21867610     101.01515967      85.06532490
C      73.80248256      96.36454321      89.35878309
O      75.57504585      94.89244641      88.75029121
N      73.08816602      96.65745079      91.76629441
H      71.84094666      98.05206881      92.13479104
C      74.46199706      95.53306364      93.83365499
H      76.48400420      95.46881294      93.44626110
C      73.89129970      96.99571180      96.28085057
H      74.67553613      95.95069315      97.87388985
H      71.84283638      97.10531593      96.43769785
C      75.10072454      99.66400536      96.26195331
C      73.65886337     101.90333104      96.45092594
H      71.63118704     101.77671937      96.65123693
C      74.76435327     104.23903276      96.81942257
H      73.54170034     105.83774122      97.15957331
C      77.52335368     104.45068211      96.80997394
O      78.66663809     106.71268450      96.92524724
H      77.55736875     108.06572854      97.39956855
C      79.02001691     102.18301053      96.50194855
H      81.04391380     102.36253453      96.30541701
C      77.80303317      99.80573483      96.36399853
H      78.90663334      98.08797361      96.34510126
C      73.76090859      92.74382760      94.18136464
O      71.47811920      91.96715008      94.26262287
N      75.64118627      91.11299379      94.58387634
H      77.34193995      91.98037817      94.66135512
C      75.63173764      88.37289064      94.70103937
H      73.77035722      87.59810285      95.12433807
C      76.33282611      87.34487952      92.05731226
H      78.23955996      87.93825358      91.55653479
C      76.01913153      84.53485649      91.42803340
H      77.20210020      83.56542689      92.80942333
H      76.64652066      84.17202904      89.49862283
H      74.00090384      84.12667561      91.46393820
O      74.79647861      88.49572285      90.26585172
H      75.29914580      90.23427105      90.39435311
C      77.32115297      87.25606238      96.81753284
O      79.18064366      88.45414887      97.56964392
N      76.68809465      84.90524285      97.71515284
H      75.40686020      83.93014407      96.69281091
C      78.37562024      83.34999810      99.17024210
H      80.15196298      84.34966331      99.47448804
C      77.36272694      83.12512066     101.99349321
H      76.92620017      85.01673670     102.68324332
C      74.99489987      81.43759507     101.70814454
H      73.53792089      82.62056374     100.85776770
H      74.51112993      80.90280252     103.63755511
H      75.35961704      79.62156808     100.80863482
C      79.14473885      81.78152526     103.76605650
H      79.66441359      79.96171882     102.95347418
H      78.32648736      81.25996079     105.58208348
C      81.40485152      83.49172757     104.34998193
H      82.75600583      82.50718016     105.55373759
H      80.72077060      85.15468672     105.35720605
H      82.52734896      84.09266054     102.73048648
C      78.78947031      80.81965456      97.81152888
O      77.00934813      80.03352842      96.50005882
N      80.89462542      79.64046534      98.21593031
H      82.13239616      80.62690248      99.28362568
C      81.45398440      76.93626699      97.74727819
H      80.04046912      75.69093735      98.57875777
H      83.16607644      76.42793061      98.77150985
C      82.06058655      76.45249705      95.04496956
O      84.12983686      76.91548000      94.06420161
N      80.26912602      75.29409482      93.88278788
H      78.79136003      74.74229474      94.95615242
C      80.04802803      74.86134750      91.05008814
H      81.45587413      76.09533878      90.19215239
C      80.53557742      72.08156009      90.31498460
H      79.00111965      70.84945853      90.92536620
C      80.69620416      71.95683815      87.41992389
H      78.93308950      72.60879373      86.57710595
H      80.95698638      70.02175841      86.75851968
H      82.25522836      73.20405752      86.91536696
C      83.10749494      71.18205037      91.57354232
H      82.87316888      70.28065091      93.40846657
H      84.43030336      72.75997184      91.57354232
C      84.57770200      69.07689525      90.17514485
H      85.18241442      69.81199879      88.34777951
H      83.45331484      67.38747993      89.82554549
H      86.26522761      68.50997736      91.20882515
C      77.46855161      75.92904286      90.20160102
O      75.63929655      74.65914678      90.36600721
N      77.32871187      78.28175212      89.36634199
H      79.02379637      79.14346732      89.53641736
C      75.23678484      79.30409406      87.91314246
H      74.54136555      77.84333562      86.64135665
H      75.53536160      80.86500799      86.60356212
C      72.95777491      79.88424004      89.54964544
O      71.08694585      80.82532374      88.49328843
N      72.92187011      79.54975848      92.09510679
H      74.56026281      79.00362758      92.90957883
C      70.50491016      79.79542290      93.51618097
H      68.85895853      78.90347208      92.66013495
C      70.83750198      78.51607819      96.08242931
H      72.12062614      79.69715713      97.17658084
H      71.84472611      76.74918408      95.74983748
C      68.46211600      78.15325073      97.56208501
N      67.11285141      75.97061684      97.78129326
H      67.44544326      74.35490085      96.82131230
C      65.02470385      76.40903335      99.17969073
H      63.64709336      74.95961327      99.58031271
N      65.03793192      78.92992825      99.92991208
H      63.70945433      79.87668113     100.91823894
C      67.12985896      80.07510239      98.84142972
H      67.67787958      82.03852803      98.75072286
C      69.97389705      82.61678429      93.94892830
O      71.18332190      83.94904134      95.41157647
N      68.07472212      83.44826386      92.51840548
H      67.10718224      82.08955064      91.58866014
C      66.98812949      85.95971013      92.62989933
H      68.65864755      87.02551577      92.06487117
C      64.83006203      85.95782041      90.68915041
H      63.38442140      84.59721746      91.23906077
H      65.52548132      85.43247649      88.82021109
C      63.63008582      88.64879068      90.49261887
H      62.90821037      89.28751817      92.31431504
C      65.62941627      90.46481766      89.40980570
H      64.76203188      92.32052890      89.18303854
H      66.43443967      89.86010524      87.61267597
H      67.03159318      90.79551977      90.88001277
C      61.52493071      88.54485573      88.55186995
H      60.76715047      90.46103821      88.57076721
H      60.00370103      87.24094457      89.03186043
H      62.39420481      87.90234878      86.79631421
C      65.97712591      86.49072323      95.30197234
O      64.66943529      85.05075178      96.53029444
N      66.70278081      88.62800369      96.23360741
H      68.20322350      89.48782916      95.42102510
C      65.79004301      89.74105249      98.60710366
H      64.68455310      88.40312626      99.71637301
C      68.04637621      90.74071771     100.12077444
H      67.44544326      91.37566575     101.98593431
H      68.83250236      92.39611796      99.18535991
C      70.15342105      88.70548247     100.60076492
H      70.79970746      87.69447889      98.92646741
C      72.50802004      89.96781964     101.61365823
H      73.05793041      91.47015206     100.31730597
H      74.24278879      88.89067564     101.34720682
H      72.37762893      90.81441703     103.48637700
C      69.41264835      86.81197670     102.67757414
H      70.91687049      85.51373472     103.22748450
H      67.83661659      85.82364984     101.79129250
H      68.83439209      87.75117068     104.41423262
C      63.63575501      91.65156579      98.07420084
O      61.62886565      91.65345551      99.18913937
N      64.01558999      93.17279547      96.13912110
H      65.66910051      92.83642419      95.25094973
C      62.21090136      95.09842658      95.28307508
H      60.34763121      94.33119770      94.86355584
C      62.08617942      97.12421319      97.46759869