 %block lattice_cart
   142.669   0.000   0.000
   0.000 146.65   0.000
   0.000   0.000   162.396
 %endblock lattice_cart

 %block positions_abs
N      95.76110232      42.85505293      82.57655535
H      95.16016935      41.12595336      82.03420390
H      95.40583377      43.15362969      84.43037686
H      97.64704919      43.12717352      82.48206903
C      94.43262473      45.00367175      81.27453392
H      94.62537681      46.73655078      82.37057518
C      95.43417967      45.32303549      78.62324790
H      94.62915627      44.00778598      77.25697578
H      97.47508408      45.48177250      78.38136293
C      94.69529669      47.94597562      77.53287582
H      92.64494364      48.12738934      77.59712651
H      95.20552278      48.08203591      75.54110428
S      96.23731335      50.55946711      79.17504798
C      94.76521655      53.17106887      77.44972786
H      94.96363781      54.98520613      78.40592938
H      92.71486351      53.04634693      77.32122647
H      95.57968859      53.18240723      75.55811182
C      91.61504279      44.63517512      81.52019834
O      90.59837004      42.66230084      80.96461880
N      90.22987341      46.58348295      82.33656011
H      91.12560368      48.16896332      82.91292663
C      87.49543944      46.52679115      82.85623484
H      86.59403998      45.67452460      81.21028322
C      86.81891742      45.04713545      85.29587151
H      87.86204634      43.27646190      85.40736536
H      84.81769725      44.56147579      85.34122494
C      87.14017089      46.53057061      87.81676641
O      85.28445964      47.49433103      88.76162957
N      89.33981232      46.69497680      89.06398578
H      89.48910069      47.68330366      90.68915041
H      90.86104199      46.03924178      88.11723290
C      86.65451122      49.30657856      82.85623484
O      88.20030734      50.95630963      82.30254503
N      84.21298483      49.67696493      83.44016027
H      82.98655245      48.25022155      83.77086238
C      83.31914428      52.28478723      83.52330823
H      83.75378134      52.92540445      81.61468465
C      80.54313633      52.48698795      83.88991514
H      79.67764168      51.36826997      82.39136217
C      79.57937591      51.36260079      86.27663947
H      80.16897052      52.44163451      87.93014999
H      80.28802328      49.46153612      86.63946692
H      77.53280231      51.55913234      86.17270452
C      79.63606770      55.12693562      83.56299248
H      80.58471031      56.52911253      84.73651252
H      77.69531878      55.34803358      84.21494806
C      79.67008277      55.84314188      80.82288933
H      79.06914980      57.81223670      80.77942562
H      78.43987094      54.56190744      79.78165013
H      81.59193443      55.94896655      80.08967552
C      84.80635889      53.95341558      85.37524002
O      85.23532676      56.20407960      84.96327968
N      85.46398365      52.85548458      87.63346296
H      85.05391303      51.01111170      87.90180410
C      86.65262150      54.35781701      89.66113930
H      85.79279603      56.22864605      89.68948519
C      86.23877144      53.08036201      92.18959310
H      87.64661753      53.84948062      93.48027617
H      86.69608521      51.07158294      92.25573352
C      83.78779640      53.67184634      93.53507824
C      81.72610500      52.15628584      93.33476725
H      81.55036044      50.50277532      92.15179858
C      79.53969166      52.80068251      94.73127499
H      77.90696812      51.59125767      94.53663318
C      79.48299987      55.06646436      96.22415878
H      77.66130370      55.52755758      97.01595411
C      81.56925771      56.75587969      96.22793823
H      81.65051594      58.51521488      97.25405962
C      83.72543544      55.92062066      95.02607230
H      85.31847472      57.19807564      94.99772640
C      89.47398288      54.93796297      89.00351454
O      90.39805904      56.68973928      90.17136540
N      90.56435497      53.76633267      87.07032452
H      89.86704596      52.09014542      86.48450936
C      93.08336013      54.11215258      86.00262915
H      94.30979251      55.03433902      87.37457046
C      94.11893016      51.57425015      85.42059345
H      95.84425029      52.09014542      84.41714878
H      92.88304915      50.64828424      84.05999050
C      94.72364258      50.14372733      87.78653079
H      93.14761083      49.79412796      89.06587551
H      96.18818047      51.18118706      88.79753437
C      95.74787424      47.59070707      87.18937728
O      97.98153075      47.20520291      86.42214839
O      94.04901029      46.00144724      87.01363273
C      93.10414712      55.79022954      83.68582469
O      95.03166796      56.85981463      82.98095678
N      90.90828516      56.04156314      82.32900120
H      89.25855409      55.28756234      82.92048554
C      90.61159813      57.78578054      80.21817691
H      92.25754973      58.03711413      79.00497262
C      88.32313956      57.05634617      78.76308765
H      86.70364410      57.48909350      79.95928440
H      88.68974647      55.06268491      78.40026020
C      87.96220182      58.42261831      76.25542083
H      89.59492536      58.14860798      75.02898845
H      87.50110861      60.38982340      76.66738117
S      85.15595826      57.01855164      74.84946445
C      85.22965759      57.96152507      71.55756122
H      85.08603838      60.01565758      71.47630299
H      83.47599157      57.33980512      70.67316930
H      86.77167425      57.11303796      70.48797612
C      90.31302136      60.49186861      81.15926061
O      91.81724350      62.01498803      80.42415708
N      88.44219231      61.10980911      82.71261564
H      87.31024626      59.78511097      83.48929316
C      87.79212646      63.68361635      83.71795004
H      87.37638667      64.64926650      81.94727649
C      85.27501102      63.57590195      85.33933522
H      84.41518555      65.35602414      85.91759147
H      85.77956794      62.43261753      86.97583820
C      83.13773055      62.20018119      84.03353434
H      83.72921489      60.32368297      83.42315274
C      80.88517678      61.79577976      85.72105993
H      79.69653894      60.40494121      84.77052760
H      79.54536083      63.35669370      85.82877433
H      81.38784399      61.34035572      87.66558831
C      82.28357425      63.40771631      81.55988259
H      83.88228272      63.55700469      80.27297897
H      81.60705223      65.34468578      81.73373741
H      80.86438979      62.27577025      80.58667354
C      90.09759257      65.06689601      84.97461804
O      90.42640495      67.39503884      84.66470292
N      91.65472705      63.60235812      86.37490524
H      91.28812014      61.74475715      86.60734157
C      93.99231850      64.55289045      87.43504170
H      93.56901981      66.13648111      88.68415079
C      95.14694128      62.40049218      89.19248717
H      97.01021142      63.05244776      89.78019205
H      95.39071596      60.64682618      88.13990961
C      93.40461362      62.02821610      91.51685053
H      91.45063660      61.61436604      91.01418334
H      93.54256363      63.67416772      92.74895209
C      94.51766241      59.65471985      93.07776447
H      96.39227092      60.24998365      93.69570497
H      94.66506107      58.08057783      91.75873550
N      92.73565050      59.05189716      95.16591205
H      91.79456680      57.42295308      94.83332021
C      92.93785121      60.12148225      97.37878156
N      94.20963703      62.09624625      97.97593507
H      94.23798292      62.62914908      99.80896960
H      95.60425503      62.62914908      96.78918695
N      91.55268183      59.29567185      99.24961061
H      91.55646128      60.00431922     101.02217389
H      90.81757828      57.55712364      98.97560029
C      95.86881673      65.56200431      85.41114482
O      97.25209639      67.46684844      86.02719560
N      95.99542838      64.43194797      83.21528284
H      94.82001862      62.93339500      83.08678145
C      97.07635183      65.52798924      80.91737565
H      98.70151646      66.59568461      81.60145657
C      98.04767116      63.41527521      78.96339864
H      96.33179968      62.38726410      78.46829034
C      98.99253432      64.69273021      76.64470445
H      99.93361803      63.38503959      75.35969056
H     100.38904207      66.10057631      77.20028399
H      97.50909917      65.63381391      75.56756045
C     100.12448038      61.65405029      80.13880840
H      99.28733163      61.15138309      81.95294566
H     101.86113887      62.73686347      80.37124474
C     100.88981954      59.37315063      78.68371914
H     101.64193060      59.88526647      76.83745654
H      99.37425903      58.00876823      78.38514239
H     102.53577115      58.54922996      79.60968504
C      95.48709200      67.59723955      79.69661245
O      96.40927845      69.68727685      79.50386036
N      93.00777109      67.12291824      79.00875207
H      92.17629150      65.49397416      79.55110352
C      91.51677703      68.96540140      77.45539704
H      92.57124430      69.19405829      75.69984130
C      88.85982183      67.65960051      77.09256959
H      87.37638667      68.38903487      78.32278142
H      89.17351640      65.64515227      77.39114635
C      87.75811139      67.95439783      74.39970959
O      89.42485000      68.38147596      72.72163263
O      85.46398365      67.67660806      73.87058622
C      91.18418519      71.69794565      78.74985956
O      91.08591943      73.55743634      77.31933675
N      91.25977425      71.78487305      81.26130583
H      91.29189960      70.16537761      82.27230941
C      90.73443034      74.08466999      82.69182865
H      90.93852078      75.92715313      81.79231893
C      87.90551004      73.87302063      83.52141850
H      87.67118397      71.99274296      84.32833164
H      86.73198999      73.94483023      81.83011345
C      86.85671193      75.84211545      85.60956608
H      87.84692853      75.49251609      87.38212936
H      84.82525616      75.59456130      85.84200242
C      87.37449695      78.45371722      84.77241732
O      86.85482222      79.25874063      82.60301152
O      88.17574090      79.93337292      86.51663471
C      92.56557513      74.33978304      85.01619202
O      93.71263900      76.31265730      85.48295442
N      93.02666834      72.41037246      86.41458949
H      91.96842162      70.92315787      85.85712023
C      94.69151723      72.30076834      88.68037134
H      96.59825109      72.91492940      88.20227058
H      95.09213920      70.31466599      89.05264742
C      93.51421774      73.41381714      91.09355184
O      91.53000511      74.63458034      90.84599769
N      94.76899600      73.20594725      93.17414051
H      96.50187504      72.40848274      93.10044119
C      93.93184726      74.04120628      95.69503541
H      91.91550928      74.47395360      95.65157171
C      94.45719117      71.91715390      97.66035078
H      96.48864696      71.81510868      97.98160425
H      94.04712055      70.17104678      96.64367802
C      93.18918482      71.94549979     100.31919570
H      93.33091429      73.86735146     101.04863006
C      90.40183849      71.40881752     100.03951621
H      90.14294599      69.48318642      99.35732501
H      89.80090553      72.84689925      98.69025162
H      89.25666435      71.38992027     101.75160825
C      94.25876991      69.96695634     102.03884665
H      96.23731335      70.28443036     102.51883713
H      93.91483971      68.04510468     101.37555271
H      93.52933555      70.12380364     103.95880858
C      94.95607892      76.66603613      96.34132181
O      97.19162515      77.18949032      96.21659988
N      93.29500949      78.42726104      97.13689659
H      91.44118797      78.03041852      96.92146779
C      93.79767668      80.77997031      98.45214610
H      95.82157356      80.73839634      98.83576055
C      93.04178616      82.95693503      96.68714173
H      91.96653188      84.45170853      97.61121789
H      91.75866200      82.41080411      95.16780177
C      95.41717214      84.19470576      95.59676964
H      97.05178539      83.10244395      94.98071887
H      96.14849621      85.30208537      97.17280139
C      94.83135698      86.12600604      93.52185015
H      96.54155930      87.13700962      92.97949870
H      93.50854856      87.60188229      94.07553996
N      94.13782743      84.93925792      91.21638405
H      93.28745058      83.24228369      91.42614367
C      94.46852953      85.76506832      88.93170494
N      95.43040021      88.08376251      88.50084734
H      95.95574414      88.62233450      86.74718132
H      96.04078182      89.09098664      90.00317976
N      93.97153151      84.25139755      87.06087589
H      94.45152198      84.78052092      85.29020233
H      93.31957593      82.49017262      87.40669580
C      92.41061758      81.10878268     100.99382799
O      90.21853505      80.30942845     101.36043490
N      93.66161639      82.28041300     102.83631115
H      95.26788376      83.04764188     102.14656105
C      92.93029230      82.34088424     105.48192799
H      91.23520781      81.18059228     105.60476020
C      94.93718166      81.23539436     107.13921796
H      93.82413286      80.69682235     108.78516958
H      96.28455651      82.67536580     107.72881257
C      96.26943870      78.79008850     106.36254045
H      97.22375049      78.95071523     104.54651346
C      98.02877390      77.61278900     108.21636196
H      99.03221858      76.07833124     107.28094744
H      96.91950456      76.70949984     109.69790739
H      99.28166244      79.05465018     108.99114975
C      94.39483019      76.55265255     105.76727666
H      95.30756801      74.71583857     105.97514656
H      93.58791706      76.70383065     103.87944007
H      92.94352040      76.57532926     107.22803510
C      91.97975998      84.94870656     106.41356306
O      90.16184326      85.04130315     107.81573998
N      92.93596149      86.98205207     105.35342660
H      94.14916578      86.67213695     103.91156542
C      91.77377981      89.52373396     105.53295060
H      90.57380360      89.58420520     107.20535839
C      93.69941092      91.68747058     105.91278559
H      94.02255411      91.72715485     107.94802083
H      92.79990120      93.52239484     105.65767254
C      96.04645100      91.50227741     104.26872369
H      95.51732763      92.25816793     102.42813027
H      96.51699285      89.54452094     103.83408664
C      98.51821302      92.67579745     105.45169237
H      98.26876914      94.69969434     105.74837940
H     100.09046531      92.58320087     104.12699422
C      99.29866999      91.39267329     107.90077767
H      99.50465014      89.35932777     107.64566462
H      98.16105475      91.97092954     109.51649367
N     101.79310872      92.48871454     108.57918941
H     101.76287310      94.33875660     109.04595181
H     103.01009247      92.46414810     107.10898234
H     102.51498417      91.59487400     110.10230882
C      89.85003842      90.14734365     103.37866260
O      90.13727682      89.02106677     101.34531709
N      87.84503879      91.57786646     103.62054757
H      87.41229148      92.39800769     105.29106563
C      86.06302688      92.22226313     101.51728218
H      85.21265005      90.45536903     100.87855469
C      83.75756079      93.88333256     102.43190972
H      84.43219308      95.52739446     103.47125919
C      82.27412563      94.81118818     100.13778197
H      83.25111413      96.12643769      98.89056261
H      80.65651991      95.90344999     100.79729646
H      81.66374402      93.23704617      98.95481330
C      82.11160917      92.52650908     104.40478399
H      83.44197648      91.85187677     105.82396845
H      81.24422479      90.83898347     103.59976058
C      80.06881502      94.27828536     105.55184786
H      80.99856037      95.98659796     106.23025961
H      78.82348538      93.29751741     106.86520765
H      78.79702922      94.89055669     104.04951544
C      87.43118874      93.47137223      99.25339006
O      89.13761160      95.07952932      99.65212231
N      86.93797016      92.63989265      97.00272602
H      85.45831447      91.44558561      96.85154792
C      88.10771075      93.42790852      94.71048800
H      89.33414314      95.04173479      95.08087436
C      89.70830894      91.32086369      93.72027142
H      90.86860090      90.65568003      95.28685453
H      90.95363858      92.07108503      92.26140270
C      88.33069847      88.83965303      92.89824047
C      88.20786625      88.11777758      90.25451336
H      88.44219231      89.46704217      88.73895285
C      87.37638667      85.69703817      89.76696397
H      87.46520381      84.98461135      87.85645067
C      86.82836604      83.92447490      91.67180809
O      86.26333787      81.41491835      91.08221348
H      86.67907766      81.09366488      89.34366527
C      86.83025577      84.64257090      94.24372560
H      86.74710781      83.01173708      95.46637853
C      87.75433194      87.15401716      94.83332021
H      87.92440731      87.65857408      96.80241503
C      86.22932281      94.09120246      92.57887672
O      84.05046837      93.52428456      92.64312742
N      87.25733392      95.12677247      90.39057365
H      89.11682461      95.55763007      90.43214763
C      85.72287615      95.72959517      88.12479180
H      83.71409708      96.05651782      88.44604528
C      86.70175438      98.21647499      86.91347724
H      85.92696660      98.38466064      85.01241257
H      88.75588688      98.05395853      86.90024915
C      86.03657072     100.48792603      88.48761926
H      87.21387021     100.40288835      90.17514485
H      84.12983687     100.34808628      89.25673786
C      86.01578373     102.83496611      86.69237926
H      84.89328629     102.67433937      84.97272831
H      87.96976073     103.10519697      86.10089492
C      85.14650962     104.90988560      88.58966448
H      86.27467624     104.55650678      90.27719007
H      83.24922441     104.70390543      89.36445226
N      85.67752272     107.44967776      87.84700203
H      84.51534104     108.58729300      88.84288780
H      85.18808361     107.77093124      86.03097505
H      87.53323396     107.77093124      88.16069660
C      85.78901656      93.55640991      86.12168191
O      87.97920937      92.76272486      85.43004208
N      83.58370597      92.81563719      85.06721463
H      81.96987970      93.37310645      85.92137092
C      83.34749017      91.27173079      82.75418962
H      84.35471430      89.49160861      82.99229514
C      80.53935688      90.47804575      82.52175328
H      79.40363136      92.14478435      82.08900596
H      79.97243898      89.84309770      84.39636179
C      80.16330133      88.54674546      80.56777628
O      80.89462542      86.40001636      81.01375169
O      79.06537034      89.28184899      78.63836571
C      84.37550129      92.53217825      80.30510432
O      84.86116096      94.83575462      80.21061800
N      84.55124584      91.00338966      78.16782386
H      84.14873414      89.14389897      78.32089169
C      85.28256992      92.11643846      75.71684883
H      87.03812566      93.18602355      75.82456323
C      85.64350764      90.07175459      73.65326770
H      83.72543544      89.51806479      73.14682105
C      86.79813043      90.82386566      71.13237280
H      87.04001539      89.23649556      69.84546918
H      88.57825261      91.81786170      71.41961120
H      85.47910146      92.08809257      70.17806101
O      86.99655169      87.89101042      74.34679725
H      88.76533552      88.27273514      74.42238631
C      83.42307923      94.05340793      74.73797060
O      84.36605266      95.76738969      73.36413957
N      80.97777337      93.90222983      75.43905906
H      80.22188286      92.52650908      76.52187224
C      79.18064366      95.99415685      74.84001582
H      79.79291498      97.12988236      73.23374846
C      76.52557819      94.91134367      74.06144858
H      74.94576699      96.23037264      74.09735338
H      76.23645006      93.54507155      75.57511936
C      76.39707680      93.29184822      71.61992219
H      74.56782173      92.35265426      71.72952631
H      78.01279279      92.02006241      71.51787696
C      76.26857541      94.80551901      69.30689718
O      74.16153056      95.45936431      68.32612922
O      78.32459764      95.42345951      68.27888606
C      78.73277852      97.88199345      76.94706066
O      77.19076184      99.60353412      76.61257910
N      80.14251434      97.83475028      79.00497262
H      81.48610976      96.47792680      79.00497262
C      80.28046437     100.08730404      80.72462356
H      79.41685945     101.56129057      79.57189051
H      82.25900782     100.65611166      80.80777152
C      78.99734021      99.95313348      83.36835067
O      79.34693957     101.53861385      85.00107421
N      77.69153931      97.88388316      83.75385484
H      77.56681739      96.64422271      82.30821421
C      76.08149249      97.12988236      85.85523050
H      75.46166227      98.98370389      86.50718608
C      73.63618666      95.48393075      85.25051808
H      72.68376459      95.14189028      87.04575808
H      74.46955596      93.66601403      84.74407143
C      71.81449048      96.46091925      83.34945341
C      70.63152182      94.68268679      81.68271480
H      70.84506089      92.65878991      81.81310592
C      68.88541470      95.65589585      79.81755493
H      68.05771458      94.22348331      78.61946845
C      68.45833656      98.28828459      79.51519872
O      67.17899184      99.23503748      77.46862512
H      66.48735201     100.88665828      77.76720188
C      69.69799701      99.94368485      81.12902499
H      69.49768603     101.96569200      80.94572154
C      71.27969794      99.13110253      83.14914242
H      72.34361386     100.37265272      84.37179535
C      77.57059684      95.90533971      88.05298220
O      79.11828268      94.27261619      87.47850540
N      76.94887687      96.47036789      90.55875929
H      75.47866981      97.62877012      90.93103538
C      78.14507364      95.41401088      92.76218018
H      80.15385270      95.86565547      92.72249592
C      77.27957899      96.97303508      94.91079899
H      78.03546951      96.17557059      96.65312665
H      75.24623347      97.17334607      95.18291958
C      78.46632711      99.59030602      94.86544556
C      76.99423031     101.82018307      94.62167087
H      74.98545123     101.59719537      94.89946064
C      78.11861746     104.16344370      94.22482834
H      76.89218508     105.78671861      94.07553996
C      80.83226446     104.18989988      94.23049752
O      81.99444614     106.37253376      93.71271251
H      80.96076584     107.85596892      93.86200089
C      82.34026604     102.04506051      94.56875853
H      84.37739102     102.10742147      94.67458320
C      81.17241519      99.73392523      94.90512981
H      82.43664209      98.14277567      95.06575655
C      77.61028108      92.54162688      93.11366927
O      75.41063966      91.73093429      93.11555900
N      79.50945603      91.02039719      93.65035154
H      81.27635014      91.70825758      93.42925356
C      79.36394710      88.30863995      93.89790569
H      77.38351393      87.79274466      94.14168038
C      80.12739654      86.98772124      91.42047449
H      80.47699590      85.00539835      91.85700127
C      78.23200105      87.18614252      89.28130431
H      76.40652543      86.46048760      89.89924481
H      78.84616210      86.00884301      87.70716229
H      77.97688799      89.17602432      88.81265218
O      82.34026604      87.69825834      90.19215239
H      83.74811216      87.85888507      91.32409845
C      81.02879599      87.37889459      96.01439916
O      82.43286263      88.78485097      97.18225002
N      80.92108158      84.99594971      96.86099655
H      79.70976702      83.85455502      95.92180257
C      82.36861194      83.75250980      98.85654753
H      84.25266908      84.57832020      98.94914412
C      80.97588366      84.09832972     101.42468559
H      80.38817876      86.04663755     101.73271098
C      78.47388602      82.60922539     101.54751780
H      77.30603516      82.87945625      99.87133056
H      77.28524817      83.04953162     103.17079271
H      78.95576622      80.64768946     101.94436033
C      82.52356951      83.46149195     103.77172567
H      82.68608597      81.41302863     103.62621675
H      81.51823511      83.97738724     105.49137662
C      85.20131169      84.44414964     103.98904420
H      86.40128789      83.89234955     102.40923300
H      86.00255565      83.83754748     105.78617392
H      85.33359253      86.49639240     104.07975106
C      82.94119901      80.78752922      98.45970501
O      81.55980909      79.36267557      97.12366851
N      85.01611851      79.74440029      99.72393191
H      86.28412486      80.76296278     100.72359713
C      85.43185830      76.97784096      99.61054833
H      83.61394158      76.21061209     100.20770185
H      86.67340849      76.25407578     101.08642458
C      86.21420500      76.01408054      97.09343288
O      88.27967585      76.74162517      96.17691562
N      84.69675477      74.37946729      95.99739162
H      83.12072302      73.81821858      96.91957806
C      84.68919586      73.71995280      93.25539874
H      86.19341801      74.67426460      92.21982872
C      85.49799871      70.94772431      92.64123769
H      83.97676904      69.58523163      92.90957883
C      86.07058579      70.63025028      89.86711946
H      84.50589240      71.40125861      88.77107820
H      86.11593923      68.59501504      89.54964544
H      87.85070798      71.62046688      89.56287353
C      87.82992099      70.20695158      94.30797630
H      87.02678730      69.74396864      96.14856973
H      89.14139105      71.79054224      94.44214687
C      89.51366713      68.06211222      93.29130354
H      90.48498646      68.53454380      91.53763752
H      88.52534027      66.27254140      93.05697748
H      90.95741804      67.47818679      94.64245786
C      82.41018593      74.76308173      92.02140746
O      80.52423907      73.45539113      91.59054986
N      82.70876268      77.09311428      91.33354708
H      84.40951637      77.75451849      91.88534717
C      81.05147271      78.41025351      89.54208654
H      80.64518155      77.27452799      87.86967875
H      81.80169405      80.21872160      88.90524877
C      78.46443738      79.19448994      90.39435310
O      77.13218033      80.54942370      88.99217618
N      77.72177494      78.59733642      92.62423015
H      78.97088404      77.76963629      93.80719883
C      75.13096017      79.15480568      93.69003579
H      73.79870311      78.01908016      92.60344316
C      75.48811844      78.19671443      96.46226430
H      76.91864126      79.16803376      97.58287200
H      76.03991852      76.21439154      96.48305129
C      73.14863726      78.00018291      98.00428097
N      71.57449525      75.91581478      97.99861179
H      72.01669121      74.25852481      97.16146303
C      69.52792164      76.57910871      99.20425718
H      67.92165429      75.36590442      99.54818737
N      69.60162098      79.09055499      99.85810248
H      68.23345912      80.18659625     100.61210328
C      71.92598434      79.91258594      99.09276332
H      72.71777966      81.79286361      99.05685852
C      74.50735049      82.11789653      93.61255702
O      75.66953216      83.38401316      95.19425794
N      72.63841116      82.98717064      92.21604927
H      71.67087129      81.81743005      91.05953677
C      71.76913706      85.52507309      92.20093146
H      73.46044210      86.67024722      92.46360342
C      70.47845399      86.19403619      89.63657285
H      68.73423659      85.10177438      89.55153517
H      71.67087129      85.71782516      88.02463631
C      69.91531554      89.01728730      89.15091319
H      71.53103154      90.10199022      89.81987631
C      69.74335045      89.73538330      86.34844907
H      69.91720527      91.78573636      86.27097029
H      67.97078717      88.95492634      85.64925033
H      71.30426439      88.90390372      85.29020233
C      67.41331791      89.62388946      90.26018254
H      66.99379867      91.60432263      89.87656810
H      67.67598986      89.26862091      92.27274106
H      65.83161698      88.54296601      89.50807146
C      70.43310056      86.10521905      94.62734005
O      69.30871340      84.41580373      95.81786762
N      70.81104581      88.44658996      95.47582716
H      72.08283163      89.42168874      94.43836741
C      69.78303469      89.58609492      97.97026589
H      68.56227151      88.07998305      98.66757490
C      72.00724257      90.23238133      99.68235793
H      71.29103629      91.24338490     101.32641983
H      73.36784551      91.15078831      98.43702829
C      73.43398594      87.89856933     100.77461974
H      73.80059285      86.37922937      99.43102433
C      76.03046989      88.71493109     101.63633494
H      77.28146871      88.81508659     100.00550113
H      76.86950838      87.46393227     103.04040159
H      75.83204862      90.54985534     102.55285220
C      72.08850080      86.40568555     102.82686252
H      71.49323702      87.33732062     104.56730045
H      73.32249208      84.79941817     103.19913860
H      70.34050397      85.73294297     101.97270622
C      68.01992005      91.86132541      97.43169389
O      66.47601366      92.32808780      99.02284345
N      68.47534409      93.32019413      95.42480455
H      69.85484429      92.75138650      94.23616670
C      66.81805411      95.33464237      94.50828729
H      64.93399698      94.50316280      94.45915440
C      66.71222945      97.60420368      96.34888072