 %block lattice_cart
   142.669   0.000   0.000
   0.000 146.65   0.000
   0.000   0.000   162.396
 %endblock lattice_cart

 %block positions_abs
N      94.29372984      42.60655393      83.29559621
H      96.19479451      42.73316558      83.21055853
H      93.96491746      41.01729409      82.29215154
H      93.94979965      42.32120525      85.15130745
C      93.28839544      44.92902756      82.11073782
H      94.22192024      46.51261821      83.04426261
C      94.09530858      45.23705295      79.31205315
H      93.26949818      43.73283080      78.17443791
H      96.14944108      45.17469198      79.16654422
C      93.41689683      47.79952184      78.23112970
H      91.36276433      47.85432390      78.11396665
H      94.07452159      47.98471501      76.28660131
S      94.66600592      50.51127909      79.77692581
C      93.03517212      52.79595820      77.97790637
H      92.68935220      52.08731083      76.07306225
H      94.31073738      54.40222556      77.78515429
H      91.29473418      53.41200898      78.89253389
C      90.53128475      44.85532823      82.36396113
O      89.36910307      43.05063961      81.49090759
N      89.33697772      46.86410730      83.39197225
H      90.49915940      48.22093080      84.06471482
C      86.65167663      47.08898473      83.82094013
H      85.55374564      46.00617156      82.45655773
C      85.95247789      45.74727905      86.22845145
H      86.98426846      43.96715686      86.34939394
H      83.97393444      45.17658170      86.14719322
C      86.49104989      47.22504504      88.73989771
O      87.12221848      49.47003989      88.77769224
N      86.14145053      45.92302360      90.71655145
H      85.98460324      46.93780664      92.32659826
H      85.58776072      44.10321716      90.54836580
C      85.60098880      49.71570431      83.43921540
O      87.04096025      51.49015732      82.99701946
N      83.16702131      50.00294271      83.81905040
H      81.99350127      48.49494111      83.80771204
C      81.89901495      52.44446910      83.63574695
H      82.40357188      53.11154249      81.75546927
C      78.96238026      52.16289988      83.58472434
H      78.39546237      50.65678801      82.29593098
C      77.99106094      50.98749013      86.06215554
H      78.20837946      52.32919580      87.61173111
H      79.05686658      49.27539808      86.47789533
H      76.02007639      50.48293320      85.73334316
C      77.25217795      54.55151394      82.88741533
H      77.57910060      55.94613196      84.37085049
H      75.35678246      53.82018986      82.55293377
C      78.13845959      55.85920455      80.45533757
H      76.87234296      57.36720615      79.85251487
H      78.15168767      54.60631601      78.81883457
H      80.13779003      56.28628270      80.69533281
C      82.85710619      54.49860161      85.61051095
O      82.79096577      56.68879440      84.97367318
N      83.79818990      53.74082136      87.87629279
H      83.83220497      51.85298477      88.15219284
C      85.00194556      55.47936956      89.74901157
H      83.97015499      57.22547668      90.12128766
C      85.04351954      54.16223032      92.37573115
H      86.21892930      55.43968531      93.48122104
H      86.00916968      52.36888005      92.07715439
C      82.50750683      53.90333783      93.61917106
C      81.52106969      55.79873331      95.18764390
H      82.63033904      57.51460480      95.13095211
C      79.25528784      55.36409627      96.52934957
H      78.37845483      56.84942115      97.61972167
C      77.91736161      52.99626919      96.00022621
H      76.20715930      52.70714106      97.07359075
C      78.88112203      51.28228742      94.31081089
H      77.89846435      49.50972414      94.06514646
C      81.19414704      51.62432788      93.10138604
H      82.00672935      50.25427631      91.82771052
C      87.40378770      56.45824779      88.80225868
O      88.01605903      58.73347827      88.53580728
N      89.04029069      54.73670712      87.84416744
H      88.55463103      52.89611369      87.97077911
C      91.46669928      55.27905858      86.68954466
H      92.67045494      56.14644295      88.11817776
C      92.71202892      52.70525135      85.93932333
H      94.27294285      52.96414384      84.62218409
H      91.47236845      51.51850321      84.80359781
C      93.73059140      51.14244767      87.99723528
H      92.40400353      50.71347980      89.51090606
H      95.15355531      52.38588759      88.81737650
C      95.06284845      48.67824456      87.22811667
O      97.28894605      48.84831993      86.29270215
O      93.94035102      46.48994149      87.16575570
C      91.25693966      56.84375196      84.23101073
O      92.58352753      58.68812484      84.00235386
N      89.49571473      56.26360598      82.49624198
H      88.27495153      54.83119344      82.81182628
C      88.94202492      57.82451992      80.31927726
H      90.59553545      57.67523154      79.09851407
C      86.73860404      56.53194712      79.02292501
H      85.19280792      56.66044851      80.37974851
H      87.05040888      54.56663175      78.49380165
C      85.89578611      57.74893086      76.63998014
H      87.47559730      57.31429381      75.39276077
H      85.67090867      59.78038666      76.87997538
S      83.20859529      56.05762582      75.21890595
C      83.50906177      57.10264447      71.96668697
H      83.11410897      59.12276189      72.03282739
H      82.25617323      56.10486897      70.67222444
H      85.43847234      56.62076426      71.43189442
C      88.41857073      60.66666830      81.00335820
O      89.72815107      62.38442952      79.97156763
N      86.61955128      61.05973137      82.73434750
H      86.04696421      59.55550923      83.75668943
C      85.79941006      63.50881667      83.56393734
H      85.24572025      64.69556479      81.97467752
C      83.42591381      62.92111179      85.14374855
H      82.94214388      64.77682302      85.89208017
H      83.80385908      61.47358143      86.56104328
C      81.04863811      62.09908084      83.58283461
H      81.40579639      60.41344497      82.45277828
C      78.81687134      61.51704513      85.42153832
H      77.52996772      60.53816690      84.14786278
H      78.31609386      63.28204951      86.35506310
H      79.48016527      60.34163537      86.97867280
C      79.91291260      64.16455171      81.79704324
H      77.91169243      63.86219549      81.41909799
H      80.98816687      64.13242636      80.04148749
H      80.33621129      66.06750609      82.46222691
C      87.93291107      65.01681826      84.89997385
O      87.85921174      67.28637957      84.75068547
N      89.69791545      63.76959890      86.16420076
H      89.45414075      61.88365204      86.33049666
C      91.99582264      64.87319906      87.42653793
H      91.57630340      66.67221851      88.33927574
C      92.94257553      63.13276113      89.51279578
H      93.80240100      61.57562666      88.47533603
H      91.38166159      62.08018357      90.34994454
C      94.59041687      64.40832639      91.49133923
H      93.71925304      66.18277940      92.06959549
H      96.32518563      64.74091823      90.43309249
C      95.26315944      62.94378851      94.06325675
H      93.59453110      63.22346800      95.23866650
H      97.04139190      63.45968378      94.96276647
N      95.09119434      60.25848741      93.58893544
H      93.51894205      59.38354414      94.22199375
C      96.84675009      58.81284678      92.67808736
N      98.90088259      59.71046679      91.60850226
H     100.26148554      58.57852072      90.89418572
H      99.05017097      61.61342117      91.61417144
N      96.52171716      56.32785669      93.04469426
H      97.74059063      55.14299828      92.18108934
H      95.09497380      55.60409150      94.08782319
C      94.03672706      65.55539026      85.50279655
O      95.79795199      66.86497060      86.12640622
N      93.85720306      64.93933949      83.11418249
H      92.59486588      63.52015503      82.92709957
C      95.53339030      65.78404715      81.01280682
H      97.19823918      66.60985755      81.90097818
C      96.17589725      63.47102214      79.49535660
H      94.44868740      62.66032955      78.72056880
C      97.83696668      64.10030101      77.11430144
H      96.91666996      65.32673338      75.73858069
H      98.59663665      62.39009869      76.25258625
H      99.43189569      65.24358542      77.74547003
C      97.39099127      61.02949574      80.80304720
H      96.69179253      60.62509431      82.69844269
H      99.43945459      61.24114510      80.80304720
C      96.89588297      58.49159331      79.51803331
H      94.87576554      58.30451040      79.15331613
H      97.70657556      57.20468969      80.90887188
H      97.68767830      58.59930771      77.62074810
C      94.07452159      67.90998925      79.38386275
O      95.28583615      69.71089844      78.54860371
N      91.53283970      67.72290634      79.08528598
H      90.78450808      65.97301978      79.22890519
C      90.01161001      69.72979569      77.90420703
H      90.88088412      69.87152516      76.04282662
C      87.18457945      69.10051683      77.73602140
H      86.02050804      70.78048352      77.48279808
H      86.50616770      68.34840576      79.52937166
C      86.57797730      67.19000352      75.62330738
O      87.61165760      67.62653030      73.49169610
O      85.22493326      65.33429229      76.01259099
C      90.46514433      72.11463030      79.48779769
O      91.06040812      74.07616622      78.50136056
N      90.28751006      72.14864538      82.04459739
H      89.24060168      70.74835817      82.81182628
C      90.52372585      74.60339985      83.65653393
H      91.15300471      76.18132132      82.49624198
C      87.84031448      75.20811228      84.56360256
H      88.22392892      76.56871522      86.06215554
H      87.05607806      73.65475724      85.66531301
C      85.89011693      75.90542129      82.60962556
H      84.06086186      75.94321582      83.55448872
H      85.82397651      74.40875804      81.19422055
C      86.42490947      78.44899290      81.44177470
O      86.92757667      80.33493977      82.80993654
O      86.67057389      78.57749429      79.07205790
C      92.33408365      74.27269775      85.86751373
O      93.23926256      76.21533641      86.81048716
N      92.97470087      72.01447480      86.78781043
H      92.43801860      70.36096428      85.99979457
C      94.18979489      71.84250971      89.32571288
H      95.69590676      73.24657636      89.28791835
H      94.82852239      69.92443751      89.71310677
C      92.37376791      72.77036533      91.47055223
O      90.31207650      73.78325863      91.04536382
N      93.11265089      72.16565291      93.88562246
H      94.86253746      71.53070487      94.30703143
C      91.39677940      72.66076121      96.12872761
H      89.44658185      72.60784886      95.47299256
C      91.58575203      70.44411224      97.97499020
H      93.61342837      70.30049304      98.30947176
H      90.89222248      68.73390992      97.05847295
C      90.41790117      70.71056366     100.56391525
H      90.44624707      72.60406941     101.37460784
C      87.65890076      69.93010668     100.23321316
H      87.49827402      68.10652079      99.29023973
H      86.84253899      71.49668979      99.17307670
H      86.88978215      69.78459775     102.13805728
C      91.58953149      68.96067709     102.46309021
H      90.67679368      69.14020109     104.29990418
H      93.54539822      69.60318403     102.54245871
H      91.53850888      66.93866992     102.07758604
C      92.03928635      75.10417732      97.37594696
O      94.21436133      75.59550617      97.96554158
N      90.09664770      76.81248992      97.82759155
H      88.32786387      76.43832410      97.21909969
C      90.37443747      79.39763552      98.92741228
H      92.33786311      79.79069859      99.41496165
C      89.79618122      81.46310637      96.98477363
H      90.16467785      83.30181007      97.83515046
H      87.79118160      81.29870019      96.54446739
C      91.36843351      81.34405361      94.44309173
H      91.13221772      79.53180607      93.49255940
H      93.33374887      81.65774819      94.96465620
C      90.38388610      83.14118333      92.49856336
H      90.42734980      85.02713019      93.32626348
H      88.40723238      82.76512780      92.06959549
N      91.87488016      83.03913812      90.21388425
H      93.68712769      83.56637175      90.49356374
C      91.09442319      82.35505720      87.88196198
N      88.92690711      81.10027892      87.45677355
H      88.77005983      80.54847883      85.63696712
H      87.65512130      80.67698022      88.81548677
N      92.40022407      83.10905800      85.82593974
H      91.87676989      82.72733327      84.03069975
H      93.98948390      84.13139992      86.09617060
C      88.97981945      79.68487391     101.37460784
O      87.08442396      78.43576481     101.81491408
N      90.27050252      81.00957205     103.15095058
H      91.62543629      82.13206949     102.41017787
C      89.65445174      80.81304051     105.93829690
H      87.88566791      79.81148557     106.26332982
C      91.94857949      79.59794650     107.53511563
H      91.20213759      79.15008136     109.40027550
H      93.48492698      80.95854945     107.71841907
C      92.97659060      77.03358789     106.51655315
H      93.82885717      77.44932769     104.68729808
C      95.15544504      76.12085009     108.25699108
H      96.17022807      74.50891354     107.47275466
H      94.40144424      75.72211783     110.13159958
H      96.50659935      77.65341813     108.51777331
C      91.03962113      74.87174099     106.63560591
H      90.57852791      74.58828204     108.62170826
H      91.84653426      73.20878183     105.72475782
H      89.29729347      75.41220271     105.67751467
C      89.33697772      83.62873272     106.75465866
O      88.48093170      83.98778072     108.82579870
N      89.76594559      85.55625356     105.09925841
H      90.34798130      85.03468910     103.35693074
C      89.00438589      88.17541423     105.16539882
H      88.09731726      88.61949991     106.96252856
C      91.30796227      89.81569667     104.73265151
H      92.01471991      89.60593705     102.80891012
H      92.83675085      89.10704931     105.91750991
C      90.95458344      92.62949916     105.04823579
H      89.98137439      92.93941428     106.83591689
H      89.85476273      93.35515405     103.46653488
C      93.39610984      94.23954597     105.02744881
H      93.09753308      96.27289149     104.88005016
H      94.60742441      93.47420682     103.54968283
C      94.94757514      93.74443768     107.28945121
H      95.47480879      91.75455587     107.36881972
H      93.94979965      94.11671377     109.05067613
N      96.99225902      95.57558248     107.60881495
H      97.90688655      95.13338651     109.22453094
H      96.46880483      97.39916836     107.39149642
H      98.28861127      95.27700572     106.24065311
C      86.91812804      88.46265263     103.15095058
O      86.80096501      87.06047571     101.27823181
N      85.25138943      90.36938648     103.39094583
H      85.06241680      91.27834484     105.05768443
C      83.54118712      91.24621949     101.41051264
H      82.10121567      89.81002749     101.07414137
C      82.06153142      93.48176573     102.60670941
H      83.30497133      94.81969195     103.56291092
C      80.24739416      94.90095018     100.71509337
H      79.18158852      93.39105885      99.80424527
H      81.34721487      95.89872567      99.29023973
H      78.89435012      96.11982366     101.67696405
C      80.51573529      92.36115802     104.82146865
H      81.57776148      91.57692160     106.40316956
H      79.37245087      90.86449477     103.98620960
C      78.57876582      94.15828774     106.03467294
H      77.88523626      93.43452256     107.83558211
H      76.94037311      94.45119533     104.82335837
H      79.69370435      95.88927705     106.14427706
C      85.32508876      92.15517786      99.09937737
O      87.27150686      93.49310408      99.37338768
N      84.35187971      91.64117230      96.89406675
H      82.85710619      90.45442416      96.86194141
C      85.30808122      92.52745393      94.43553283
H      86.37199714      94.28111995      94.60371847
C      87.05040888      90.51111595      93.36783746
H      88.38077621      89.86860902      94.80402946
H      88.08786863      91.57314214      91.94109409
C      85.68035731      88.25856219      92.20754550
C      85.34020657      88.09037655      89.54870057
H      86.08853819      89.48310484      88.25612779
C      84.21959887      85.86994814      88.50368193
H      84.01550842      85.47877478      86.51002066
C      83.45048026      83.90085331      90.04191915
O      82.86844455      81.59916666      88.94965733
H      82.99316649      81.40830431      87.14874817
C      83.90590430      84.01045745      92.59682912
H      83.46748779      82.38529281      93.75334163
C      84.73738388      86.24978312      93.74956218
H      84.82809074      86.54835988      95.76590015
C      83.24450009      93.32680817      92.55903459
O      80.96737988      93.10382046      93.11083468
N      83.96070636      94.40584189      90.37073152
H      85.81074842      94.71575701      90.01735271
C      82.25806295      95.12015843      88.34116547
H      80.36266746      95.06724610      89.14618888
C      82.88545209      97.83947459      87.23000640
H      81.49650325      98.17206644      85.74468152
H      84.83375992      97.61648689      86.59883781
C      82.69081028     100.07880028      89.06115118
H      84.29518792     100.21864002      90.34427536
H      81.01651276      99.92762217      90.25356850
C      82.60577259     102.44851707      87.40575094
H      80.92013672     102.45229652      86.22089254
H      84.39723314     102.58646710      86.39852681
C      82.72671508     104.91838936      88.84572240
H      84.13645091     105.00909624      90.34427536
H      80.96171070     105.32090107      89.82649035
N      83.19158775     107.00842667      87.10528446
H      83.27473571     108.64115021      88.08794214
H      81.98594236     107.01598558      85.62373903
H      84.89423116     106.83646158      86.25679735
C      82.38089516      93.20964514      86.31348913
O      84.38967423      92.62571970      85.27413965
N      80.27196060      92.30068678      85.40831023
H      78.63356788      92.86004576      86.20766445
C      80.14534893      90.33537141      83.55070927
H      81.65335053      88.99555546      83.96266960
C      77.58288005      89.05980614      84.19699567
H      75.95204625      90.30135633      83.97589769
H      77.44870949      88.82548008      86.23978981
C      77.05375669      86.88851062      82.39419676
O      78.69970831      85.28413297      81.95578026
O      75.06387488      86.86961335      81.27358906
C      80.57053736      91.44842021      80.85595953
O      80.81998123      93.72365070      80.38919714
N      80.58754489      89.78357132      78.95678460
H      80.17558456      87.97321351      79.39142165
C      80.18503319      90.61883036      76.32250612
H      81.72138068      91.96809495      76.05605471
C      80.48172022      88.45698345      74.37041884
H      79.76740367      89.02012190      72.52226649
C      83.20292611      87.41007507      74.01326056
H      83.10655007      85.68097550      72.89454258
H      84.38778451      87.07181406      75.66299163
H      84.33109272      88.92752531      73.19689880
O      79.01340287      86.48977836      75.19811895
H      77.49973210      86.07970776      74.28349143
C      77.80775749      92.04179428      76.07684169
O      77.69248418      93.82569591      74.63498052
N      75.77441197      91.52400927      77.49602616
H      75.96716406      89.86860902      78.42577151
C      73.39713627      92.99988552      77.44500355
H      73.01352183      93.20586568      75.43244503
C      71.23906882      91.66573874      78.66198729
H      69.61579392      92.93374509      78.72056880
H      71.42426200      91.31047018      80.68399445
C      70.16948373      89.28657331      77.57539465
H      68.49329649      88.71209650      78.62608248
H      71.68126478      87.88628610      77.59618165
C      69.46083636      89.87805764      74.86363741
O      70.73451190      88.93886366      73.07595631
O      67.58244841      91.28779348      74.51592776
C      73.76374318      95.51322151      78.61663386
O      72.27841829      97.19129847      78.21601188
N      75.68181538      95.91384349      80.12652519
H      76.64935526      94.38505489      80.73690679
C      75.98795105      98.18529451      81.66854186
H      74.93159404      99.66495022      80.70289170
H      77.98539176      98.69552061      81.67232130
C      74.90135842      97.83758488      84.40297582
O      75.66669757      98.93740558      86.15097266
N      73.11934650      96.00832981      84.55793338
H      72.89446907      94.99921595      82.95544548
C      71.92126002      95.36960231      87.04859267
H      71.00474276      97.14405532      87.55692905
C      69.68382407      93.58003150      86.84639196
H      69.05076575      93.15862252      88.76068471
H      70.27530840      91.71676134      86.20199528
C      67.23284904      94.41340080      85.48767874
C      66.67349005      92.92051700      83.46000240
H      67.87724571      91.39550787      82.83072354
C      64.39070066      93.10382046      82.27514400
H      63.94661498      91.97943331      80.63108211
C      62.77498467      95.22031393      82.83828245
O      60.64904256      95.65306125      81.52303293
H      59.89315204      97.16484230      82.17687824
C      63.61213342      96.93429570      84.59005873
H      62.55766614      98.62371101      85.03036497
C      65.71728853      96.41273123      86.09239116
H      66.15948449      97.39916836      87.82338046
C      73.87901648      94.54001245      88.96099570
O      75.62701332      93.11704855      88.33360656
N      73.47083560      95.36393313      91.39118373
H      71.98740044      96.49021002      91.80503379
C      74.99773446      94.61938097      93.45098542
H      76.91769639      94.73276454      92.71210242
C      74.61789947      96.47509220      95.66196521
H      75.67803593      95.56424411      97.17941544
H      72.62801766      96.84925802      96.03046183
C      75.83677294      99.08291451      95.34449119
C      74.53097206     101.27688677      94.60371847
H      72.54109025     101.19751825      94.16908142
C      75.79897841     103.61636793      94.57537258
H      74.69915770     105.30767298      94.26167801
C      78.43136717     103.80723029      94.62261573
O      79.51418035     106.08057105      94.15963278
H      78.26318153     107.33156987      93.76090054
C      79.83543382     101.56223543      95.03268634
H      81.86311015     101.54900736      95.26134323
C      78.57309664      99.28133578      95.54102271
H      79.70315298      97.58247182      95.49566929
C      74.42892684      91.76967369      94.22010402
O      72.25196213      90.97220918      94.00278549
N      76.47361071      90.44686526      94.64718217
H      78.13090068      91.37472089      94.47143763
C      76.62478881      87.64251142      94.57726229
H      74.85600498      86.80347294      95.21598979
C      77.36934098      86.75245032      91.93353518
H      79.19670633      87.53479701      91.39118373
C      77.51107045      83.90841222      91.51779540
H      75.59866743      83.22244156      91.85416669
H      78.83954805      83.01268194      92.81414765
H      78.13656986      83.60983547      89.57893619
O      75.57221126      87.63306278      90.22144315
H      75.67425648      89.44153087      90.13640547
C      78.51073567      86.75056059      96.56336466
O      80.05653180      88.29068754      97.36271889
N      78.49750759      84.32415201      97.33059354
H      77.14635328      83.08638127      96.80335989
C      80.41557980      82.89173947      98.89528693
H      82.25050405      83.70243206      98.43230397
C      79.88834616      83.56637175     101.73932502
H      79.45559883      85.57704055     101.80546545
C      77.53185744      82.24923252     102.70308544
H      75.99173050      82.61772914     101.38594621
H      76.90635803      82.96921824     104.52856107
H      77.94948696      80.24045344     102.86560191
C      82.23727596      82.89740864     103.31157732
H      83.93047074      83.16008061     102.17018263
H      81.84421289      80.96043918     103.88605412
C      82.31664447      84.28635748     105.88538456
H      80.46471268      84.32415201     106.78678401
H      83.11032952      86.18742215     105.81924414
H      83.62622480      83.19031623     107.03622788
C      80.69903874      79.88329518      98.40017863
O      79.16269125      78.84772515      96.96965581
N      82.32987255      78.43009564      99.58503703
H      83.71504194      79.22000123     100.63194541
C      82.59443424      75.67109523      99.12394381
H      81.01462304      74.63741493      99.95164394
H      84.19692215      74.87174099     100.14061657
C      83.08765280      75.08339034      96.42163518
O      84.68636126      76.36840423      95.32370420
N      81.71193205      73.33161404      95.11961375
H      80.09432632      72.62107695      95.83959947
C      81.98216291      73.00658112      92.44187156
H      83.42969327      74.26513884      91.68787076
C      82.99883567      70.30427249      91.72188584
H      81.70437314      68.77926335      92.20943523
C      83.45048026      70.11152040      88.91186282
H      83.43158299      71.93888576      87.96133047
H      82.07853895      68.82461679      88.07660379
H      85.37044219      69.53326415      88.44132096
C      85.41390590      69.69956007      93.38106554
H      85.01517364      69.56538950      95.39740352
H      86.54396223      71.41354184      93.24878469
C      87.22237398      67.53582345      92.55147570
H      88.24282619      66.76481510      94.16719169
H      88.54896185      68.29171396      91.17197549
H      86.18491423      65.98624786      91.67653241
C      79.49528308      73.81916343      91.01701793
O      77.60744650      72.49635501      90.89040627
N      79.37434060      76.13029871      90.07026504
H      81.05430729      77.03547762      90.06648559
C      77.11044848      77.22256052      88.86650938
H      76.28085862      75.88652402      87.53425232
H      77.73783761      78.75323884      87.64196673
C      74.94104267      78.28836616      90.43876168
O      73.22895063      79.43543003      89.29736698
N      74.88813033      78.06348873      92.88595725
H      76.46605180      77.33216465      93.66830395
C      72.70927589      78.52458196      94.42230473
H      71.04442701      77.61184414      93.61917106
C      72.95871977      77.29814957      96.96398663
H      74.39869122      78.25624081      98.08081489
H      73.55965273      75.32716503      97.00178116
C      70.47372966      77.43609960      98.46820878
N      68.68226912      75.54826302      98.51356220
H      68.79943215      73.90987030      97.54035316
C      66.94183119      76.15297544     100.26344878
H      65.60012550      74.85473346     101.08547972
N      67.55977169      78.44143399     101.30468798
H      66.83789624      79.21244233     102.89394781
C      69.74051586      79.28614165     100.07258642
H      70.74207080      81.00390287     100.53745909
C      72.12912991      81.36295087      94.72466094
O      73.51996848      82.62717779      95.93597552
N      69.94460630      82.08671605      93.73444437
H      69.03942739      80.83382751      92.61194694
C      69.08478082      84.66997192      93.74011354
H      70.47561939      85.96632417      92.94642848
C      66.77553527      84.70965617      91.92786600
H      65.50374946      83.19787512      92.50612226
H      67.46717510      84.14840746      90.07215477
C      65.26942340      87.09449079      91.25701317
H      64.49841506      87.98077242      92.94831822
C      66.73207156      89.14295411      89.89452050
H      67.25930521      88.45887319      88.02369144
H      68.40636908      89.61727541      90.99245149
H      65.68516319      90.90984821      89.76412938
C      62.91671414      86.28757764      89.70365813
H      61.33312349      87.60282716      89.62428963
H      62.18916951      84.41296914      90.14774381
H      63.57622862      85.81703579      87.80826264
C      68.15692520      85.38050902      96.32525914
O      66.89458803      83.90463277      97.66318537
N      68.80510133      87.64440115      97.17752571
H      69.93893712      88.75744993      96.11927897
C      67.83378201      88.66107390      99.64361855
H      67.27442302      87.04913735     100.79824131
C      69.91437068      90.13506042     101.01933930
H      69.01297122      90.83047971     102.73521080
H      70.57955434      91.79046067      99.98565901
C      72.22550596      88.49855743     101.90373122
H      73.31209859      87.85982995     100.27478713
C      74.08688638      90.14828850     103.23787800
H      75.60433660      88.97665819     103.98998907
H      73.16658966      90.95898109     104.89327825
H      74.91647623      91.53723734     101.96420246
C      71.63402162      86.25545230     103.52133694
H      73.41603353      85.42964190     104.14116716
H      70.62112832      85.01579184     102.22498469
H      70.30176457      86.76567841     105.00855155
C      65.47918302      90.32970223      99.20898150
O      63.82756222      90.02923574     100.80391049
N      65.34501245      91.92085178      97.16240790
H      66.86057295      92.13628058      96.01723374
C      63.23607789      93.79923974      96.97910445
H      61.42005090      92.83736905      97.12839283
C      63.20584226      95.66062016      99.17874587