 %block lattice_cart
   142.669   0.000   0.000
   0.000 146.65   0.000
   0.000   0.000   162.396
 %endblock lattice_cart

 %block positions_abs
N      95.79795199      42.48466657      77.77570565
H      95.47669851      41.41130203      79.31961204
H      97.64421459      42.21821516      77.36374531
H      94.66033675      41.97066102      76.33384448
C      95.40299919      45.21532110      78.34829272
H      96.26093493      45.70287049      80.15865053
C      96.37998769      46.97465629      76.30171913
H      95.28583616      46.71954324      74.57450927
H      98.34530306      46.40206922      76.05416498
C      96.17400752      49.80735604      77.12752952
H      97.46280087      50.01711566      78.72056880
H      94.20680243      50.22498555      77.56783576
S      97.01871518      52.22242627      74.80883535
C     100.22747046      51.06024458      74.20412293
H     101.20256924      52.36415574      72.94367546
H     100.02715948      49.37082926      73.04383096
H     101.36697543      50.59537191      75.85952317
C      92.55518163      45.70853966      78.92276953
O      90.95647317      45.15673958      77.40342957
N      91.94857949      47.14851112      80.92398969
H      93.24871119      47.48866185      82.28081318
C      89.38422088      47.51700775      81.80649188
H      88.10865562      46.60238021      80.47612455
C      89.23115305      46.44364320      84.62407382
H      90.05696345      44.56903470      84.84328207
H      87.21481507      46.23766303      84.98501153
C      90.07019153      47.99699823      86.89552484
O      88.56407966      49.26689431      88.21266407
N      92.46258504      48.01778522      87.47189137
H      92.93879608      48.87005179      89.11028408
H      93.80240100      47.53401528      86.20199529
C      88.46770362      50.26278008      81.83672749
O      89.98515385      51.87660635      81.45878224
N      86.01294914      50.75977810      82.46789609
H      84.79218594      49.36893953      82.93087904
C      84.87344417      53.33358534      82.53403650
H      85.48004632      54.12349094      80.73123760
C      81.90468413      53.17673805      82.57561048
H      81.52295942      51.86148854      81.03548355
C      80.74817163      52.17329338      85.05493140
H      78.69781858      52.16006530      84.85462043
H      81.36422241      53.37326959      86.61017616
H      81.68358615      50.36104585      85.33650063
C      80.57998599      55.88849531      82.07483301
H      81.07320456      57.35492293      83.43543596
H      78.55986856      55.57669047      82.34506387
C      81.07131483      56.79367422      79.36874493
H      79.90157424      58.44340529      78.97946132
H      80.78029698      55.43496100      77.84751525
H      83.01395348      57.45507843      79.19866956
C      86.12255326      55.24598837      84.44832926
O      86.13011217      57.38893801      83.90975726
N      87.31497057      54.41072934      86.43443161
H      87.32630893      52.52478248      86.73111865
C      88.54140294      56.02644533      88.34872437
H      87.58898088      57.85003123      88.26368669
C      88.14456042      54.96252942      91.06048164
H      89.34075718      56.04345287      92.34360580
H      88.87777423      53.06713393      91.39496318
C      85.47626687      54.90772736      92.08471330
C      84.65234619      57.00343384      93.59838407
H      85.89956556      58.59269367      93.89318137
C      82.22593761      56.90516807      94.47710681
H      81.64390190      58.64371628      95.37472680
C      80.43825651      55.10614862      93.79491560
H      78.49750759      55.15906096      94.42041502
C      81.47004708      52.97453734      92.42864349
H      80.22849689      51.36638025      92.27935511
C      84.07031049      52.79690307      91.64629679
H      84.60699276      51.46464601      90.19309725
C      91.24938075      56.82579956      87.49078862
O      92.32652475      58.66072381      88.49801275
N      92.69691111      55.40850483      85.93554388
H      92.03928635      53.67373607      85.48011984
C      95.05339982      56.15872618      84.63730190
H      96.30439864      56.94863177      86.06782472
C      96.40266441      53.97420256      83.24079414
H      97.90121737      54.88316091      82.16176042
H      95.06473818      53.03500858      81.98979533
C      97.37398373      51.98054130      85.07571839
H      96.04550613      51.63850084      86.61206590
H      99.12198057      52.63060715      85.95255141
C      97.88609956      49.45397722      83.87196274
O      96.23069931      47.69275229      84.09684017
O      99.97424714      49.20642307      82.46411664
C      94.12365447      58.14671826      82.55671323
O      95.35197658      60.12148225      82.40175566
N      92.33408366      57.43618116      80.90509242
H      91.62543629      55.66550761      80.97690202
C      91.16245334      59.01788209      78.80560650
H      92.52305629      59.04244853      77.25981036
C      88.76817010      57.66105859      77.86641252
H      87.36788290      57.55523392      79.37252438
H      89.28028593      55.71653022      77.43366518
C      87.75338707      58.98008756      75.54582860
H      89.09887221      59.19173691      74.00003247
H      86.94269448      60.80178373      76.05794443
S      85.09454215      57.07524344      74.46679488
C      85.40445727      58.05034222      71.05016971
H      84.10054611      56.89571944      69.95034899
H      87.34331646      57.96719426      70.35852987
H      84.89612089      60.00053977      70.62120183
C      90.82041288      61.77688250      79.54826894
O      91.93535140      63.46251838      78.48435302
N      89.32185991      62.19640175      81.52114320
H      88.27495153      60.73375358      82.16176042
C      88.56785911      64.71162747      82.49057280
H      88.19369330      65.79633037      80.78037048
C      86.22459849      64.36013837      84.32360732
H      85.92035255      66.25175441      85.08138758
H      86.75750131      63.16772107      85.91664661
C      83.83598443      63.37937042      83.02914480
H      84.31408518      61.66349893      81.99735423
C      81.82909508      62.65749497      84.75446493
H      82.60766232      60.96241046      85.62562876
H      80.02062700      62.12081269      83.92487507
H      81.52106969      63.96329585      86.31726858
C      82.71537672      65.21240494      81.11296232
H      84.10810501      65.37870086      79.60496072
H      82.78340687      67.04354974      82.05593576
H      80.86533466      64.54533155      80.50069099
C      90.73726492      65.96451601      83.90408808
O      90.75427246      68.22084923      84.03258948
N      92.77250016      64.64359732      84.85462043
H      93.08430500      62.85402650      84.26880526
C      95.11387106      65.89648587      85.78436576
H      94.57907851      67.63692380      86.74623646
C      96.65588773      64.47541168      87.74212223
H      98.33396470      65.53365841      88.30148121
H      97.29461523      62.69528949      86.92009128
C      95.10442243      64.00109037      90.14774382
H      93.40744820      62.92394638      89.69987868
H      94.49026138      65.62625500      91.25512345
C      96.57273978      62.09057707      91.79180572
H      98.43412019      62.91071829      92.10361055
H      96.95068504      60.52588369      90.50490210
N      95.20835738      61.44240095      94.18041977
H      94.04239624      59.95329661      93.92341699
C      95.57874373      62.75765046      96.30069270
N      96.54250415      64.97051997      96.45753999
H      96.66344664      66.04577425      98.02790254
H      97.30973304      65.59601938      94.82481645
N      94.70757990      61.64460166      98.29057450
H      94.92489843      62.54411139      99.96109257
H      93.79484210      59.98353223      98.06380734
C      96.80895556      66.78654696      83.69054901
O      97.92389409      68.76320068      83.70188737
N      96.93934668      65.34846524      81.63641650
H      96.12109519      63.62692456      81.63641650
C      98.31884689      66.15537837      79.13252915
H     100.16133004      66.90182027      79.67488059
C      98.72324832      63.78755130      77.48468779
H      96.85241927      62.99764570      77.14453707
C      99.67000120      64.59257471      74.84096068
H      98.16199960      65.82656599      74.17577703
H      99.84952520      63.05622722      73.47846802
H     101.40854941      65.69806460      74.84096068
C     100.39943556      61.73530853      78.81316539
H      99.79094369      61.36303244      80.74635542
H     102.31183859      62.47041206      78.99457913
C     100.22936019      59.08969169      77.64153508
H     101.12509046      57.69129422      78.86040855
H     101.47280010      59.26732596      76.01070128
H      98.39254621      58.32624226      77.10863226
C      97.10942205      68.43438831      77.78326455
O      98.36231059      70.16348788      76.80816577
N      94.60742441      68.40037323      77.67366043
H      93.80807018      66.88292300      78.50891946
C      92.99548786      69.95561799      76.13353348
H      93.54728795      69.80443988      74.15499003
C      90.37065802      68.78020822      76.22424034
H      89.49004555      68.71595753      78.08373105
H      90.55585119      66.91693808      75.36441487
C      88.51116732      70.17860569      74.52348667
O      89.24627086      71.03843116      72.47124389
O      86.20192177      70.26931256      75.16977306
C      93.09375363      72.69005196      77.23902337
O      93.37343313      74.39836455      75.80094166
N      92.71580837      72.87335541      79.72590321
H      92.68746248      71.25763942      80.74257596
C      92.86320702      75.24874139      80.96367395
H      93.51705233      76.72083819      79.67677033
C      90.17034703      76.00652164      81.84239668
H      90.03617646      77.03453276      83.62062914
H      89.17068181      74.23017891      82.15609124
C      88.65856598      77.38791158      79.82227925
H      86.87655406      77.81876918      80.76147323
H      88.60376391      76.02352918      78.27648312
C      89.82263739      79.82943797      78.93410789
O      91.12276909      79.92014484      76.92721854
O      89.73948943      81.73239237      80.33628480
C      94.51293809      75.28842564      83.37874418
O      95.40110946      77.20460812      84.11195797
N      94.64899839      73.20027807      84.90942248
H      93.63988454      71.69983537      84.29904089
C      95.90377666      72.96784173      87.34716943
H      97.65744268      74.04876518      87.37551533
H      96.46502538      71.00630582      87.61929001
C      94.28806066      73.90136653      89.50145742
O      92.39266517      75.23362358      89.16508615
N      94.93056761      73.24941095      91.90329956
H      96.00393215      71.67715866      92.04880850
C      93.38855094      73.91837407      94.10672045
H      91.50638353      74.52875566      93.53413338
C      93.20902694      71.65259222      95.85660702
H      95.13087860      71.09890241      96.35171530
H      92.60620424      69.95750771      94.85316234
C      91.43835338      71.86046211      98.13939640
H      91.54417806      73.51775209      99.35449042
C      88.65289680      71.70361483      97.25878393
H      88.36943785      73.13791710      95.80747414
H      87.48126648      71.86991074      98.94441982
H      88.26172345      69.93105154      96.28368517
C      92.01094046      69.55310628      99.73243568
H      91.61787738      67.85802178      98.62883551
H      90.96214235      69.39814872     101.50121952
H      93.98003527      69.42838435     100.32580974
C      94.42412096      76.34667238      95.45409531
O      96.68612335      76.53564501      95.78857687
N      92.82352277      78.12112539      96.42541464
H      90.97914989      77.80932054      96.05313856
C      93.54161877      80.45682711      97.63106003
H      95.55228757      80.45304766      98.08270461
C      92.86131730      82.69615279      95.92274743
H      93.08241528      84.32509687      97.16240790
H      90.91300947      82.76796239      95.26512267
C      94.83608129      83.25929123      93.95554234
H      95.25182108      81.56609645      92.86139080
H      96.60297540      83.78274542      94.87394933
C      94.20491270      85.24539359      92.01290370
H      95.91889447      85.98616630      91.14551932
H      92.98792896      86.65323969      92.89729561
N      92.72147755      84.04919683      89.86617460
H      91.74448905      82.47694454      90.33293700
C      92.86320702      84.47438525      87.48322973
N      94.43356959      86.09199097      86.55537410
H      94.60931414      85.97482794      84.65808888
H      95.24993136      87.60944120      87.37740504
N      91.32119035      83.12323094      86.04136854
H      91.61976711      83.00606790      84.16109087
H      90.31018677      81.91191637      87.11473309
C      92.14700075      80.74028606     100.04613026
O      89.80374012      80.57399014     100.09148368
N      93.57941330      81.30720395     102.00766616
H      95.38221220      81.80420197     101.62594144
C      92.88399401      81.27696833     104.67595972
H      91.29851364      79.99195444     104.94997004
C      95.31796150      80.41714286     106.04979074
H      95.14032723      81.08610597     107.98864994
H      96.84297064      81.50751494     105.19752417
C      96.40266441      77.80554109     106.01766539
H      98.11664617      77.63924518     107.14772174
C      94.36553944      76.11990522     107.30078957
H      95.21213683      74.24151726     107.30834848
H      92.67801384      76.17281756     106.12160034
H      93.71169414      76.89469301     109.09413983
C      97.05461998      76.75674299     103.44763761
H      95.35953548      76.67359503     102.28356620
H      97.65555295      74.78764817     103.53834448
H      98.60608529      77.68270888     102.45553129
C      92.10731650      83.81865022     105.77955988
O      90.57474846      83.86778310     107.53322590
N      92.97848033      85.88790053     104.59281175
H      93.74381948      85.50050664     102.88638890
C      92.47392340      88.63556259     104.89516796
H      91.64244382      88.93602907     106.75654839
C      94.97970049      90.16435118     104.59659121
H      94.35420108      92.07297475     104.14116717
H      95.86598213      89.37066613     102.91662453
C      96.84486036      90.01695253     107.00221280
H      97.31351249      88.10643922     107.61826358
H      95.78850336      90.95236705     108.50265551
C      99.22024634      91.56463838     106.28978599
H      98.93489767      93.55829964     105.85892838
H     100.03471838      90.71615126     104.59848093
C     101.22146651      91.16212667     108.44218426
H     101.29327610      89.13634006     108.79934253
H     100.69423286      91.85376650     110.30923386
N     103.77637648      91.80085417     107.60692522
H     103.83684772      92.79485021     105.97987087
H     104.43400124      90.07742377     107.11748611
H     104.80438759      92.69469471     108.94485145
C      90.70891903      89.73727303     102.92796287
O      90.45380597      88.68847493     100.91540435
N      89.06296741      91.53251303     103.75377327
H      89.51650172      92.13722545     105.50554956
C      87.30363221      93.03106600     102.23443332
H      85.98649297      91.66857332     101.42752018
C      85.78051280      95.02472726     103.61015407
H      87.21859453      95.92801643     104.77611522
C      84.62211057      96.96736591     101.85648805
H      86.13956080      97.64766738     100.63950432
H      83.57520219      98.37899146     102.92985261
H      83.01017403      96.18123976     100.84170503
C      83.91913238      93.72081610     105.44507832
H      84.84320855      92.45092002     106.77922510
H      82.66813356      92.54540633     104.30557336
C      82.09743622      95.44613622     106.94741074
H      80.73305382      96.23415210     105.62271261
H      83.24450009      96.97303508     107.71652936
H      81.05241757      94.35954359     108.35147739
C      88.88911259      93.80774351      99.94975421
O      90.96781153      94.79040119     100.33336865
N      87.87243983      93.44680578      97.62539084
H      86.14711971      92.65501046      97.43074903
C      89.18202016      94.10632027      95.35960900
H      90.48782105      95.67101365      95.65251657
C      90.63144025      91.88589185      94.46198899
H      91.63866437      90.86732937      95.94353442
H      92.24337679      92.57564195      93.38295528
C      89.15745372      89.85065661      92.97666412
C      88.59998446      90.04529842      90.32348838
H      88.88911259      91.82920006      89.37484577
C      87.60031924      88.08565223      88.89107583
H      87.20914589      88.35021392      86.90308375
C      86.95970202      85.80286285      90.07971367
O      85.98082379      83.87912146      88.59060934
H      86.31152590      83.85644475      86.80670771
C      87.40756716      85.43814567      92.76690450
H      86.89734105      83.68070020      93.67019368
C      88.40156320      87.44503501      94.09349237
H      88.83997970      87.43369666      96.08526389
C      87.25071987      95.26850195      93.52090530
O      84.89234143      95.22881770      93.96310124
N      88.01983848      96.35887403      91.41763990
H      89.89255726      96.23604182      91.08126863
C      86.33231288      97.33586254      89.47122180
H      84.36888725      96.99382207      89.98900682
C      86.71025815     100.20635681      88.99879022
H      85.80885870     100.41989588      87.16008652
H      88.66990433     100.83752539      89.09138681
C      85.08320379     101.69357141      90.80347886
H      86.08475874     101.68790223      92.60438803
H      83.11788843     101.17200695      91.11717343
C      85.24949971     104.30517318      89.67531224
H      84.65801537     104.42422594      87.70810715
H      87.22048425     104.78327394      90.04380887
C      83.69236523     106.15710497      91.12473232
H      84.34243108     106.13631798      93.08059907
H      81.74405740     105.49570076      91.23622617
N      83.99094198     108.77626564      90.22900205
H      82.72482535     109.99324938      90.97733367
H      83.52984876     108.87264168      88.38084972
H      85.81452788     109.28082256      90.48222538
C      86.74616295      95.77116915      87.03536458
O      88.82675162      96.00927466      85.88452126
N      84.88478253      94.40678675      86.08105280
H      83.18024939      94.33686688      86.93709881
C      84.90179007      93.36743728      83.46000240
H      86.81419309      92.62288511      83.28047840
C      83.20859529      90.97504377      83.51858391
H      81.18091896      91.24149518      83.75102025
H      83.81519744      89.92246621      85.18154308
C      83.73960838      89.42546819      81.06004999
O      85.75972581      88.09699059      80.83139310
O      82.10877458      89.58798465      79.39520110
C      84.68069209      95.43857732      81.45878224
O      84.55597015      97.60042422      82.06727410
N      84.97737912      94.76205530      78.90954143
H      85.13611613      92.87799816      78.65820784
C      85.29485314      96.55162612      76.78548907
H      86.98237874      97.64577765      77.22957475
C      85.57831209      95.04173479      74.35719076
H      86.01105941      96.34564595      72.82084325
C      87.77417406      93.13122149      74.43089008
H      89.39177979      94.24427029      75.05638949
H      88.15022960      92.21659395      72.62431172
H      87.59842951      91.57219728      75.76314712
O      83.31441996      93.84175858      73.54082898
H      83.92480156      92.55674469      72.41455210
C      82.95159251      98.26182843      76.29227049
O      83.27095626     100.37076299      75.28315664
N      80.70470792      97.44357694      77.19933912
H      80.76895862      95.66723420      77.89475841
C      78.42758772      99.03472649      77.11430144
H      78.50884595     100.33485819      75.51937244
C      76.05031202      97.39255433      76.45478696
H      75.64780031      96.13399660      78.03459815
H      76.54542031      96.22470346      74.83151205
C      73.63524179      98.94212990      75.97290674
H      74.13035008     100.28005613      74.48758187
H      73.12690541     100.13643693      77.57161522
C      71.54709421      97.38688515      74.81639424
O      71.44315926      97.05051386      72.48447197
O      69.90681177      96.49682405      76.23935815
C      78.22160755     100.89988636      79.37063466
O      76.72683404     102.69134691      79.20244901
N      79.99228110     101.06051310      81.25280206
H      81.20926485      99.59597521      81.39264181
C      80.31731403     103.10330724      83.01024753
H      79.50284199     104.74736914      82.07483301
H      82.33743146     103.27149289      83.37496472
C      78.86789395     102.90488598      85.55381915
O      79.08143302     104.55650678      87.12796117
N      77.59232869     100.69957537      85.96955894
H      77.85878010      99.40511285      84.59194847
C      76.39991138     100.06084788      88.36195245
H      76.26763054     101.81829335      89.42775810
C      73.88657539      98.75693672      87.95188185
H      72.78486495      98.63788397      89.68665060
H      74.31176381      96.80862889      87.43787629
C      72.33699981     100.07596569      85.88074180
C      71.73984630      98.80417988      83.68110039
H      72.33511008      96.85398233      83.56771681
C      70.34900773      99.99092801      81.73279256
H      69.75752339      98.89866620      80.11329710
C      69.33989388     102.47402838      82.21656248
O      68.00574710     103.54739293      80.38163823
H      67.59756622     105.27271305      80.76903214
C      70.19405017     103.68534295      84.44454981
H      69.54398432     105.57506926      84.85273069
C      71.79275863     102.53827908      86.12829595
H      72.45038339     103.57384910      87.75912976
C      78.00806848      98.59819971      90.25545822
O      80.01117837      97.54184270      89.66397388
N      76.91769639      98.43946270      92.48911473
H      75.14702284      99.01204978      92.90296478
C      78.32932195      97.32641390      94.60749792
H      80.27196060      97.95380304      94.33159789
C      77.76240406      98.42245517      97.10949557
H      78.59388363      97.39444405      98.68741704
H      75.70827155      98.42623462      97.26634284
C      78.47483088     101.28916998      97.17563598
C      76.55108949     103.13921204      97.21532024
H      74.63112755     102.46646948      97.37594698
C      77.14635328     105.69223229      97.40240313
H      75.66291812     107.07173250      97.66129564
C      79.66346873     106.54071941      97.32114490
O      80.25873251     109.11074719      97.74444360
H      78.74884119     110.10474323      97.88050390
C      81.55319504     104.68500817      97.27390174
H      83.45236998     105.40310417      97.05280378
C      81.06753538     102.11498038      97.29468873
H      82.55474999     100.71469318      97.29090928
C      78.09121643      94.45402991      94.72277123
O      75.96338461      93.66979349      94.63584381
N      80.19448182      93.04618381      94.77379383
H      81.82720535      94.02884149      94.68308698
C      80.40424144      90.29852175      94.20309650
H      78.52585349      89.46137299      94.30325199
C      81.39634776      89.93569429      91.54614129
H      83.43536245      89.82420044      91.26835152
C      80.48549967      87.48660899      90.39529798
H      78.59955281      86.88378630      90.96788505
H      81.79130055      86.10332933      91.18520356
H      80.64612641      87.48093981      88.34305520
O      80.50628666      91.88589185      90.02302188
H      79.94125849      93.04240435      91.30425632
C      82.06909032      88.92469072      96.31014132
O      83.53362822      90.06986486      97.77278949
N      81.78374165      86.44914925      96.53879821
H      80.44014624      85.53263199      95.53913299
C      82.98749731      84.74839557      98.30191286
H      84.92446678      85.37767443      98.61560743
C      81.45114982      84.98083190     100.83981531
H      81.48705462      86.96504453     101.39350512
C      78.70159803      84.15313178     100.57336389
H      78.58065555      82.11789654     100.26533850
H      77.75484515      85.30019565      99.15039997
H      78.07231917      84.63690171     102.47442857
C      82.63789794      83.60700087     103.12827386
H      82.95348224      81.59822180     102.80702039
H      81.55319504      84.02274066     104.82902755
C      85.33453739      84.67280651     103.43818899
H      86.58364648      83.85644475     102.01711479
H      85.92035255      84.15880096     105.34303310
H      85.16446202      86.71749038     103.27756224
C      83.00450485      82.18592668      97.05280378
O      81.43036283      81.57365536      95.37283708
N      84.46526329      80.43415039      98.01278473
H      85.86555049      80.88201553      99.23165821
C      84.23471668      77.67137052      97.30035792
H      82.29018830      77.00240741      97.45342575
H      85.35532438      76.75674299      98.76678553
C      85.18713874      77.17437250      94.62072600
O      87.44914114      77.68270888      94.14073552
N      83.46181862      76.19360455      93.10894495
H      81.72327041      76.06510316      93.88562247
C      83.89645567      76.15958947      90.26868630
H      85.50272303      77.40302939      89.93042529
C      84.45392493      73.52720072      88.99312105
H      82.71537672      72.42926973      88.86461965
C      85.77862308      73.84089529      86.48545422
H      87.58331170      74.78764817      86.77836181
H      84.83942910      75.01063587      85.07382867
H      86.26239301      72.02486830      85.64074657
C      86.46459373      72.17037723      90.76757405
H      85.41957508      71.61479769      92.45698938
H      87.99716177      73.48373701      91.18142411
C      87.80818914      69.76286590      89.72633486
H      88.54518240      68.72162670      91.34205085
H      89.44469212      70.14081117      88.53391755
H      86.44191701      68.47974174      88.87406828
C      81.60988683      77.46728008      88.99879022
O      79.59543858      76.25029634      88.62651414
N      81.67791698      79.90691675      88.60194770
H      83.17835967      80.98028130      89.08760736
C      79.57843104      81.08043679      87.33583107
H      78.76017955      79.87101195      85.88452126
H      80.22660717      82.86433843      86.53458711
C      77.26729576      81.59444235      89.08571764
O      75.37567972      82.54119523      87.97266884
N      77.35611290      81.06720871      91.53480293
H      79.02285151      80.56454151      92.31525991
C      75.15458174      81.11256214      93.23933607
H      73.56154246      80.35478189      92.17730988
C      75.39835644      79.48739751      95.61661177
H      76.76462856      80.45871683      96.81469825
H      76.18259286      77.61467873      95.26323296
C      73.12879514      79.25685090      97.31169628
N      71.83244289      76.94949507      97.34193189
H      72.10645320      75.32244072      96.38384066
C      69.97484192      77.26885882      99.14095134
H      68.52353211      75.88557916      99.52267606
N      70.23940360      79.64613452     100.25022069
H      69.09611918      80.36989970     101.59381611
C      72.09700457      80.86878744      99.02756776
H      72.63368684      82.83032336      99.18252533
C      74.54042069      83.94526188      93.82704096
O      76.16180587      85.44381485      94.59049039
N      72.19527034      84.84288188      93.19398263
H      70.88002082      83.63345704      92.52124008
C      71.56410175      87.50739598      93.19209291
H      73.21572255      88.68847493      92.85005245
C      69.60823501      88.16502074      91.11528369
H      67.94338613      87.00094933      91.44787553
H      70.50774474      87.81164192      89.29925671
C      68.46117114      90.99772048      91.28724879
H      68.03598272      91.56652810      93.22043880
C      70.43971459      92.84398309      90.31592947
H      69.39280622      94.53150869      89.76223966
H      71.29765034      92.24116040      88.54336618
H      71.88535522      93.38444482      91.67842214
C      65.87791527      91.30574587      89.85483625
H      66.13680778      90.92402116      87.84605717
H      65.25808504      93.25783315      90.08916231
H      64.55888631      89.82231072      90.41041578
C      70.74773998      88.22927143      95.89251182
O      69.23973838      86.95748563      97.19831269
N      71.76819219      90.26450667      96.77690373
H      73.03808827      91.25094381      95.74700289
C      70.91025644      91.46259316      99.09937737
H      70.27152895      89.87711278     100.24833097
C      73.03619855      92.81374747     100.56391526
H      72.18015253      93.74727227     102.18719017
H      73.95649526      94.16490178      99.30913699
C      75.04497762      91.09598625     101.73743530
H      75.49473248      89.86577442     100.14817547
C      77.57721088      92.23360149     102.41395732
H      77.36178208      93.49593867     104.02589387
H      78.25562262      93.34854002     100.81902831
H      78.89057066      90.76150469     102.99977247
C      74.21916722      89.29696680     103.77833971
H      73.51429930      90.47804575     105.31090775
H      75.77063252      88.12155703     104.45297202
H      72.72817316      88.04218853     103.10937660
C      68.53487047      93.03673517      98.55513619
O      66.36924411      92.51706044      99.31858562
N      69.05454521      95.18913344      97.31358600
H      70.87813110      95.57463761      96.89406676
C      67.23284904      97.23759677      96.76556537
H      65.51319809      96.38721993      96.01156457
C      66.44672289      98.64733260      99.26189383