 %block lattice_cart
   142.669   0.000   0.000
   0.000 146.65   0.000
   0.000   0.000   162.396
 %endblock lattice_cart

 %block positions_abs
N      91.33063898      43.47677289      78.18766599
H      90.32341486      41.88184388      77.89097896
H      93.12020980      42.84182485      77.99491390
H      90.92812728      44.96209777      77.05949938
C      91.27772665      44.27990658      80.90698215
H      92.35487064      42.93631116      82.03892821
C      92.52305629      46.79135285      81.34539866
H      94.50537919      46.61560830      80.81816502
H      92.70447001      47.23354880      83.34850855
C      90.97537044      49.06469360      80.17187862
H      91.79551166      50.78245482      80.95989449
H      88.97226054      49.07414223      80.64619992
S      91.47236846      49.33492445      76.78170961
C      94.36931889      50.95630964      76.90643155
H      94.96458268      51.81235566      75.13008881
H      95.96802735      49.86026838      77.60940974
H      94.02538871      52.55123865      78.16120982
C      88.61321254      44.38951070      81.89341929
O      86.88411297      44.49155591      80.32683617
N      88.28817962      44.44053331      84.37651966
H      89.78295313      44.29691410      85.55381916
C      85.69169566      44.73344089      85.45366366
H      84.62966948      43.31236670      84.40675528
C      85.94113954      44.24400178      88.34494492
H      86.86521571      45.82759243      89.28602862
H      87.04473970      42.52813028      88.62273469
C      83.33331723      44.18919971      89.66775334
O      82.47349175      46.06758767      90.50868155
N      81.89523550      42.11994939      89.56192867
H      80.22849689      42.26167887      90.47844593
H      82.45270476      40.58171217      88.57927098
C      84.58242632      47.43574952      84.86784850
O      86.06019230      49.29901966      85.16453554
N      82.13523074      47.88550438      84.46344707
H      80.99383605      46.36427470      84.31037924
C      81.01840249      50.46498080      83.93810316
H      82.01806771      50.90906648      82.19388577
C      78.20837947      50.48576779      83.48645857
H      77.84366229      49.34815255      81.80838160
C      76.55108949      49.48610257      85.73523288
H      76.87234296      50.69930686      87.36795642
H      77.13879437      47.56992008      86.20577473
H      74.55931795      49.79790741      85.31004446
C      77.08588204      53.12382572      82.64742009
H      77.21060397      54.18774163      84.40675528
H      75.06765433      53.01989076      82.25246729
C      78.35955757      54.35214782      80.54415470
H      76.95360119      55.55590348      79.64086552
H      79.11355837      53.02367023      79.16276477
H      80.09432633      55.13638424      81.33595002
C      81.89334578      52.43407562      85.99034593
O      82.67947192      54.43529578      85.02091634
N      82.14845883      51.81991456      88.45076959
H      82.03885470      49.93207798      88.72289018
C      82.96671032      53.64350046      90.28191439
H      81.92169167      55.39716647      90.00601435
C      82.50561710      52.63816605      92.98611274
H      83.43725217      54.00254846      94.21632457
H      83.67157824      50.94308155      93.10327578
C      79.75228586      52.45108315      93.99144714
C      78.10822397      50.64450480      92.97855384
H      78.67892132      49.44263886      91.43086799
C      75.62134414      50.30435406      94.11994853
H      74.32310217      48.92485385      93.35271965
C      74.87679198      51.75377414      96.20998583
H      72.99084512      51.64417002      96.98477362
C      76.50195660      53.50932988      97.23610722
H      76.00495858      54.47309030      98.96520680
C      79.03041041      53.75310458      96.22888310
H      80.30219622      55.11937671      97.05658322
C      85.79563061      54.38427317      89.94932256
O      86.63277937      56.44785429      90.51246100
N      87.30741166      52.67218113      88.99501077
H      86.65923554      50.95630964      88.46588740
C      89.96625658      53.30901890      88.59060934
H      90.70136012      54.63560677      89.98144791
C      91.57252395      50.96197882      88.66808812
H      90.79584644      49.43885941      87.51346534
H      91.56307532      50.31758215      90.62395485
C      94.28806066      51.41362341      87.99534555
H      94.71513881      53.39405658      88.36006273
H      94.66411620      51.25488639      85.97711785
C      96.11731573      49.62405259      89.34083069
O      96.60675485      47.53968447      88.28636340
O      97.05461998      50.20041911      91.50834677
C      90.47459296      54.82835885      86.23223090
O      92.24904597      56.47242075      86.23412063
N      88.88722286      54.58836361      84.26502581
H      87.36788290      53.44507919      84.43699090
C      88.92123793      56.32124264      82.01436177
H      90.87521494      56.67840091      81.46445141
C      87.39433907      55.03622875      79.92621420
H      85.45925933      54.70363692      80.54982388
H      88.15589878      53.15217160      79.60118127
C      87.16001301      56.53289198      77.39776039
H      88.89856122      56.40439060      76.30360885
H      86.70080952      58.50954571      77.75302894
S      84.64100783      55.52377814      75.48157791
C      86.38711495      53.22398121      73.52760090
H      86.87088488      51.62338303      74.73135656
H      88.00283095      54.04790189      72.54683294
H      85.09643188      52.38872218      72.15565960
C      88.07086109      58.97630811      82.79859819
O      89.40500787      60.74509194      82.25435701
N      86.09231764      59.12937594      84.35006349
H      84.96793049      57.59491818      84.47667516
C      85.11343941      61.46318794      85.36862598
H      84.82998047      62.72363539      83.76424834
C      82.62655959      60.76776866      86.72922892
H      82.01806771      62.34002094      87.91408732
H      83.06875554      59.13126567      87.89707978
C      80.54597091      60.17250487      84.86028960
H      81.21682376      59.02355127      83.28803731
C      78.25940208      59.33724584      86.22278227
H      78.65624460      57.70074285      87.40764067
H      76.76462856      59.02166153      84.83950261
H      77.49973210      60.79989400      87.46055301
C      79.41402485      62.55356002      83.61495996
H      80.81053260      63.63637320      82.55482350
H      78.70915694      63.98030338      84.92265057
H      77.83988283      62.09435653      82.36396114
C      87.10521095      62.89560048      87.02024677
O      87.08253423      65.22374330      86.99190088
N      88.82297217      61.68617564      88.24100997
H      88.57352829      59.79455960      88.32604766
C      91.04718004      62.66127442      89.52413414
H      90.31585595      64.25620342      90.60694732
C      92.11676513      60.78288647      91.43275772
H      93.96491746      61.43106258      92.07148521
H      92.41912134      58.96496975      90.51057127
C      90.45380597      60.44273573      93.83082041
H      88.70013996      59.64338149      93.10138605
H      90.05129427      62.11325379      94.96654592
C      91.67078972      58.36403679      95.53724327
H      93.35264614      59.02922044      96.51801122
H      92.47959258      56.83335847      94.42230474
N      89.89633671      57.36626129      97.31358600
H      89.27083730      55.57858020      97.06414213
C      89.10076193      58.68717999      99.33748288
N      90.25349498      60.73186386     100.17274191
H      89.88877781      61.54255644     101.86404696
H      91.84464454      61.32901737      99.30535754
N      87.37355208      57.68940449     100.76233652
H      86.55908004      58.68717999     102.16829290
H      86.48538072      56.10203439     100.18030082
C      93.05784883      63.67794717      87.74779140
O      94.59797578      65.15571314      88.80603814
N      93.28272626      63.00331488      85.31004446
H      91.81629865      61.98286267      84.63730189
C      94.97781077      64.13526094      83.57716543
H      96.24203767      65.44484128      84.53903613
C      96.87887544      62.14348941      82.48679335
H      97.96735779      63.22630258      81.11485205
C      98.71190996      61.20429543      84.41053474
H      99.55661762      62.79166553      85.41586913
H     100.27093417      60.18762268      83.52047364
H      97.71791392      59.87959729      85.63318766
C      95.48614715      60.14415897      80.97312257
H      94.97403131      60.92839539      79.14008805
H      93.66445098      59.65283013      81.79893297
C      96.96202340      57.66672778      80.34384371
H      98.85363943      58.10136483      79.65409361
H      95.96424790      56.67651119      78.83773184
H      97.17934192      56.61603995      82.10317891
C      93.72870167      65.84357353      81.43232607
O      94.94946487      67.67849778      80.72934788
N      91.48937599      65.39003922      80.61974375
H      90.71080875      63.71763143      81.10729314
C      89.91712370      67.09646208      78.98324077
H      91.08308484      67.11724907      77.28626654
C      87.47559730      65.76798448      78.41254342
H      86.17924505      65.55822486      79.99802380
H      88.09353781      63.85558145      77.96278856
C      86.35687933      66.82812094      75.96156839
O      87.61732678      66.51820582      73.90743589
O      84.22526805      67.65582106      75.98046565
C      89.36343389      69.74207892      79.90164775
O      89.71303326      71.59590042      78.56561125
N      88.82486189      69.98963306      82.45844745
H      88.92879684      68.34557116      83.41842842
C      88.17479604      72.37446766      83.59417297
H      87.94424943      73.79554186      82.12207617
C      85.44792097      72.10612653      84.73556766
H      85.34020657      70.80599482      86.32860694
H      84.38778451      71.36724355      83.13119002
C      84.28951874      74.59489609      85.54059107
H      85.59342990      75.54164897      86.82371524
H      82.56419862      74.25285562      86.61206589
C      83.62811453      76.10667714      83.16331537
O      81.29430253      76.52052719      82.67009680
O      85.23816135      77.13657797      81.84239668
C      90.06263263      73.04532051      85.60484177
O      90.67301423      75.26196948      85.98278703
N      90.92245810      71.16693256      87.00512896
H      90.17601621      69.42649461      86.76891317
C      92.67045494      71.45039149      89.26335191
H      94.25215586      72.69761087      88.83627376
H      93.42634546      69.63814397      89.87940269
C      91.43268420      72.35934986      91.60850226
O      89.28028593      73.04343078      91.54236184
N      92.91045018      72.55021222      93.69853956
H      94.74726416      72.07967036      93.48689022
C      92.05629389      73.33444864      96.36872284
H      90.00972029      73.28531574      96.12116870
C      92.84053031      71.12157913      98.06191762
H      94.89844226      71.03843116      98.11105051
H      92.04495553      69.34145693      97.39673396
C      91.95613839      71.44094287     100.81146941
H      93.07485637      72.91870884     101.71097913
C      89.02517288      71.61101823     101.24799619
H      88.25794400      73.30043356     100.35415564
H      88.59431528      71.51842164     103.26244443
H      88.09731726      69.91782345     100.53178991
C      92.92745772      68.90304043     102.13049837
H      92.80840496      69.10146170     104.17707197
H      94.93245734      68.69517053     101.71097913
H      91.86921098      67.22118400     101.58814692
C      92.92367826      75.91203533      97.42130040
O      95.19701902      76.27486278      98.00522583
N      91.01883414      77.64491435      97.62161139
H      89.42012568      77.39924994      96.60871809
C      91.29473418      80.32454627      98.33214848
H      93.26382900      80.69682235      98.79891088
C      90.84308959      82.23128012      96.23833173
H      90.38199637      84.13801396      96.86950032
H      89.11399002      81.81931977      95.19709253
C      93.04651047      82.34088425      94.26734718
H      93.51705233      80.40391476      93.74767245
H      94.67167510      83.24795288      95.15173910
C      92.41723161      83.64479539      91.65196597
H      94.02538871      84.01140230      90.41608496
H      91.71992260      85.53641143      92.07715439
N      90.59931490      82.17458833      90.31592946
H      89.74137915      80.71005043      91.18709329
C      90.00594084      82.20860340      87.90274896
N      91.06229785      83.75439952      86.30781995
H      90.70324985      83.73928172      84.43510118
H      92.49660012      84.78241063      87.03347486
N      88.35054059      80.70438126      87.11095364
H      87.63244459      80.64768947      85.34216981
H      87.36410345      79.59700163      88.31470930
C      90.03617646      80.97839157     100.91540435
O      87.71181309      81.09366488     100.96453724
N      91.53472942      81.54719919     102.88638890
H      93.40177902      81.46972042     102.50088473
C      90.77694917      81.77585608     105.55090300
H      89.06863659      80.63446138     105.69641193
C      92.94446525      80.89335389     107.23653887
H      92.47770285      81.41113889     109.17350834
H      94.69057237      81.82120951     106.66017235
C      93.49815506      78.03041853     107.07402241
H      94.42412096      77.83199726     105.24476734
C      95.09875325      76.92114918     109.21130287
H      96.60864457      78.19671443     109.78955912
H      96.07385203      75.34511743     108.31179314
H      93.85153388      76.53753474     110.80812160
C      91.27961637      76.30131894     106.93607239
H      90.32908404      76.46761485     105.11815567
H      90.02861755      76.47517376     108.56312674
H      92.03172744      74.38324674     106.90394704
C      89.88499835      84.39879619     106.29356544
O      88.90989958      84.62367363     108.40627946
N      89.83208602      86.07687316     104.53234052
H      90.82608206      85.48349910     103.01300056
C      88.83997970      88.71304137     104.57391450
H      87.74582817      89.02484620     106.29167571
C      91.32685953      90.31174982     104.35092679
H      92.15644938      90.40623615     106.23309420
H      90.41223199      92.13344600     104.06368839
C      93.02950294      89.53129287     102.10971138
H      92.02983772      89.31208460     100.32203029
H      93.91200513      87.76061931     102.67662928
C      95.22158546      91.42857807     101.68263324
H      94.30506820      93.24649479     101.36704894
H      96.43667948      90.80307867     100.14250629
C      97.01304601      91.37566574     103.97109180
H      97.37965291      89.45948326     104.63249601
H      95.93779173      92.22037341     105.51310847
N      99.33740937      92.83264474     103.68952258
H     100.57140065      92.11076927     102.42529568
H     100.42400200      92.97437421     105.25421597
H      98.94812575      94.57119293     103.00355193
C      86.84820817      89.20625993     102.39883951
O      86.60632320      87.82109055     100.42596524
N      85.31375040      91.23393627     102.75032860
H      85.68035731      92.18635833     104.36415488
C      83.65079125      92.13911518     100.74154953
H      82.37711571      90.59898822     100.25022069
C      81.93114030      94.31419016     101.67696406
H      83.07064527      95.79384587     102.54623816
C      80.59321407      95.58597596      99.43763838
H      79.54630569      97.20169197     100.16896246
H      79.41591458      94.29718263      98.34537657
H      81.76673411      96.48170624      97.99955665
C      80.01495782      93.59798388     103.66684587
H      81.11099908      92.66067964     105.13894266
H      78.86033504      92.15423298     102.75977724
C      78.46538224      95.79195613     104.74021041
H      76.78919500      96.28139526     103.64983833
H      79.78063176      97.36420843     104.94052140
H      77.88523627      95.35542936     106.66962098
C      85.20792573      92.85154199      98.38695055
O      87.35276509      93.90034009      98.64584305
N      84.21392969      92.34698507      96.04180019
H      82.40546161      91.74605210      96.13250706
C      85.15690312      92.96870502      93.49822858
H      86.24538547      94.71481214      93.55114091
C      86.93702531      90.85788074      92.54769624
H      88.35809949      90.66512865      94.02546222
H      88.12377343      91.37377602      90.94520833
C      85.70870320      88.28596322      91.79558517
C      85.19658737      87.80597274      89.17453477
H      85.58965044      89.16657568      87.70243797
C      84.22715777      85.52129362      88.53958673
H      83.86622005      85.10555383      86.57616109
C      83.70559331      83.68070020      90.26490685
O      82.68514110      81.43948478      89.55436976
H      82.29774721      81.33743957      87.78369620
C      84.17991461      84.08132217      92.80091957
H      83.65079125      82.58087948      94.07837455
C      85.05674762      86.51528967      93.65696559
H      85.32508876      86.79874861      95.66007548
C      82.75884043      93.35420920      91.97699889
O      80.62533942      93.10098587      92.89918533
N      82.98749731      93.80585379      89.53547250
H      84.65990510      94.24238056      88.72666964
C      80.90123946      94.26505728      87.74590168
H      79.11166864      94.40489702      88.75501553
C      81.12989635      96.91067412      86.52702821
H      79.82787492      96.92390220      84.93020947
H      83.00072540      97.12610291      85.68987945
C      80.50439694      98.98748334      88.46777713
H      81.81208754      98.78528261      90.04569860
H      78.63734734      98.62087643      89.25390328
C      80.44392569     101.58774673      87.27724955
H      79.18536797     102.82740720      88.33738601
H      79.62945365     101.29861862      85.40831023
C      82.98938704     102.85386336      87.15819680
H      84.51250645     101.70490976      86.38151928
H      83.44670080     103.23936754      89.12918134
N      82.75695070     105.29350003      85.98278703
H      83.06308636     105.15743975      84.10250935
H      84.11377419     106.56717557      86.40797545
H      81.09399155     106.13064880      86.40419600
C      80.65368531      92.24305012      85.74279179
O      82.60766232      91.24527463      84.82438480
N      78.23672536      91.91045829      84.83950261
H      76.77785665      92.49438373      85.92042606
C      77.69437391      90.58953959      82.54159541
H      78.44837471      88.67335712      82.58127967
C      74.78986457      90.53473754      82.54159541
H      73.89413429      92.34887480      82.15798097
H      74.02830486      89.86199497      84.33494568
C      73.90169320      88.64312150      80.52714716
O      74.31743299      86.42836225      81.02225546
O      73.20816364      89.16846541      78.23490915
C      78.69781858      92.02762133      80.22668068
O      79.14001454      94.28773399      80.36085125
N      78.76206927      91.07897872      77.88530978
H      77.92303079      89.40468119      77.51303369
C      79.29686182      92.55485497      75.65165328
H      80.86722439      93.84931749      75.97479647
C      79.79385984      90.85221155      73.33484882
H      79.65590982      91.93502474      71.58685198
C      82.45081504      89.54641068      73.45390157
H      83.89456594      91.00716912      73.27815703
H      82.56041916      88.27651459      71.83440612
H      82.47538148      88.42580297      75.17922170
O      78.00617875      88.87744756      73.22713442
H      78.57120692      87.92691523      71.78905269
C      77.11044848      94.37277167      74.83151206
O      77.46760675      96.27005690      73.47657829
N      74.92592486      93.80018460      75.90676633
H      74.87301252      92.14856381      76.86107812
C      72.85289509      95.55196090      75.96723757
H      72.98139648      96.77461382      74.31372705
C      70.44538377      94.05340793      75.67432999
H      68.87880066      95.38944444      75.66677109
H      70.35656663      92.69847416      77.22012612
C      70.21294743      92.48871454      73.19689879
H      71.36001131      90.80118895      73.47279884
H      70.92726398      93.55452019      71.58496225
C      67.48040319      91.74794182      72.60730419
O      66.61490854      89.53696204      73.00414671
O      66.12924887      93.22381807      71.39221017
C      72.69982726      97.08641866      78.35207218
O      71.01797084      98.57552300      78.68844346
N      74.54608987      96.98626316      80.00747243
H      76.07865791      95.95825206      79.51992304
C      74.96749884      98.71347302      82.07294329
H      74.17948297     100.52005138      81.47201032
H      77.00084435      98.68134767      82.40175567
C      73.70138221      98.12009896      84.59383819
O      74.78419539      98.98370388      86.35317339
N      71.70961067      96.50249322      84.69021423
H      70.79309341      96.14344524      83.05560097
C      70.53609063      95.59164515      87.02213650
H      69.48162335      97.12988237      87.89896951
C      68.57833417      93.55074072      86.27947406
H      67.40859359      92.88177762      87.83660854
H      69.55910213      91.87644321      85.59539313
C      66.76419691      94.68268679      84.27258472
C      66.42782563      93.33720166      82.01247205
H      67.55410251      91.70258839      81.54004047
C      64.82533772      94.33686687      80.14164300
H      64.64770344      93.46192360      78.30482902
C      63.39859435      96.57808228      80.63864102
O      61.81689343      97.59664477      78.81505512
H      61.19706320      99.25582446      79.21189765
C      63.64992795      97.77427904      83.00835781
H      62.63892437      99.52227587      83.30882430
C      65.39792479      96.79540081      84.93209920
H      65.76453169      97.75727151      86.69332412
C      72.45794229      94.59009020      88.95154707
O      73.92248019      92.80429883      88.52824837
N      72.41825804      95.63510885      91.31937414
H      71.39402638      97.23003787      91.53291321
C      74.23428503      94.79229091      93.26579224
H      76.07487846      95.16645672      92.41919485
C      74.31554326      96.34375622      95.64684739
H      75.66669757      95.28739921      96.79013181
H      72.42014777      96.26249799      96.45187080
C      75.16214065      99.04039567      95.45598504
C      73.37068010     101.10964599      95.61661177
H      71.40347501     100.71847264      95.99455703
C      74.29664600     103.61353335      95.18953363
H      72.92659442     105.12531440      95.16685691
C      76.80620254     104.01793478      94.77379384
O      77.59043896     106.45001254      94.30892116
H      76.32999151     107.75392369      94.28246500
C      78.47672060     101.98269953      94.56781367
H      80.42502843     102.41355713      94.13695607
C      77.67736637      99.53361424      94.84371371
H      78.96049054      97.95758249      94.64907190
C      73.96216444      91.91234801      93.74011354
O      71.94015729      90.93724923      94.24844992
N      76.09377572      90.61788549      93.85916630
H      77.66980747      91.67424250      93.66074504
C      76.47927989      87.87967206      94.12183826
H      74.63868646      87.05197194      94.53379859
C      77.38445879      87.00283906      91.47244197
H      79.32709744      87.61322065      91.17008576
C      77.30698001      84.13612424      91.22488782
H      78.64868570      83.36511591      92.58738049
H      78.09688561      83.72227417      89.36728686
H      75.44937905      83.28952685      91.51023649
O      75.84433185      87.88345151      89.53358277
H      75.43048179      89.64467645      89.66208416
C      78.28396852      87.38834322      96.26100845
O      79.65024064      89.00216950      97.16051817
N      78.10066507      85.21326824      97.43830794
H      76.57754566      84.14557286      97.01122979
C      80.03574481      84.13612424      99.06536229
H      81.83665399      84.92602984      98.45687042
C      79.51795980      84.68414487     101.96231273
H      78.82820970      86.59087872     102.30813265
C      77.30698001      83.22527615     103.07536153
H      75.63079277      83.36322617     101.88483395
H      76.78730528      83.63723649     105.02555908
H      77.78697050      81.22972516     102.90150671
C      81.87066906      84.47249552     103.51377803
H      83.55063575      85.16413536     102.54434844
H      82.30908556      82.47694454     103.77644999
C      81.75728548      85.76128887     106.14427706
H      80.02062700      85.11689219     107.04189706
H      81.72327041      87.79652411     105.83625167
H      83.41457546      85.33232100     107.29323066
C      80.34377020      81.29964505      98.73088074
O      78.82443024      80.04108731      97.43074903
N      82.50939655      80.23761885      99.61527265
H      84.01928788      81.21271763     100.25777960
C      82.98371786      77.53531022      99.71920760
H      81.32642788      76.66792585     100.57714334
H      84.53329343      77.14035742     101.01555985
C      83.60732754      76.43737924      97.08870857
O      85.37989082      77.31232253      95.90007072
N      82.30719584      74.42860017      96.40651737
H      81.05241757      73.88624871      97.73499497
C      82.15601773      73.36846371      93.81381287
H      83.63000426      73.94671995      92.49856336
C      82.52262464      70.44127765      93.76090053
H      80.93147508      69.61168779      94.77379384
C      82.61144177      69.26019870      91.13418096
H      82.24105542      67.23630182      91.09260698
H      84.50305781      69.42271516      90.33104727
H      81.07509428      70.04821458      90.01168353
C      84.93391541      69.44917133      95.29724803
H      84.51250645      69.63625423      97.30224764
H      86.22081903      70.99685719      94.85883152
C      86.33231288      66.93772506      94.93442057
H      87.50961238      66.68639146      96.60682836
H      87.42457469      67.14748468      93.20154154
H      85.15312367      65.24830973      94.96087674
C      79.69559407      74.17915630      92.55336542
O      77.73216843      72.92815748      92.69698462
N      79.80897765      76.51674775      91.50456732
H      81.42469365      77.52775132      91.39307346
C      77.89279517      77.33499923      89.68287115
H      77.63957185      75.77408530      88.36195246
H      78.65246515      78.96016386      88.67375730
C      75.43237151      78.17214799      91.03780492
O      73.81665551      78.78063987      89.53547250
N      75.11489749      78.11356647      93.53035392
H      76.50006688      77.80932054      94.80591918
C      72.66392246      78.78441932      94.82859590
H      71.12001607      77.91514521      93.77979780
C      72.76596768      77.80176163      97.57436823
H      73.95460553      78.98284058      98.77434444
H      73.62768288      75.93471203      97.64428811
C      70.21861661      77.68648834      98.97843488
N      68.65014377      75.58511268      99.30724726
H      68.90525683      73.89947681      98.45120124
C      66.58467291      76.51863747     100.56202553
H      64.85935279      75.45472155     100.80957968
N      66.82655788      78.93559742     101.07036191
H      65.66815565      80.00896198     102.14183673
C      69.19249523      79.60078108     100.30502275
H      70.07499741      81.40169027     100.68674747
C      71.91559084      81.63790606      94.76434521
O      73.20816364      83.03441380      96.08526390
N      70.06932824      82.52229797      93.35460938
H      69.47784390      81.28074778      92.02991123
C      69.12824453      85.09610521      93.31681485
H      70.68159956      86.42269308      93.07492988
C      67.31788672      85.52507307      91.09827616
H      65.96484268      86.98205207      91.64062761
H      66.06688790      83.90368790      90.88095763
C      68.41203826      86.06931425      88.41675452
H      69.81799464      87.53574188      88.74934635
C      69.53831514      83.64290567      87.37173587
H      70.89702836      82.94748638      88.75501553
H      70.16570428      83.95282079      85.43287667
H      68.03598272      82.26340547      87.08449747
C      66.47506879      87.28251855      86.63096315
H      67.78275940      88.19714609      85.32894172
H      65.22406997      88.65634958      87.52291397
H      65.57177961      85.77640668      85.55381916
C      67.79409775      85.66113337      95.82637139
O      66.50908386      84.01518176      96.92997156
N      68.22495535      87.87967206      96.81847771
H      69.49863089      89.05697155      96.02290293
C      66.73963047      88.88500647      99.07670065
H      66.17649203      87.12756100      99.99132819
C      68.54998828      90.43458204     100.77178515
H      67.33489426      91.37566574     102.14183673
H      69.24351784      92.07486447      99.73621513
C      70.72884272      88.79618933     101.67885378
H      71.48095379      87.50928570     100.25400014
C      72.97761703      90.33820600     102.49332583
H      72.59022314      91.60243291     104.07124730
H      73.95649526      91.36621712     101.00044204
H      74.21727749      88.92658045     103.33614376
C      69.89925287      87.18992195     103.93329728
H      71.17859758      85.59310322     104.17896170
H      68.03787245      86.40757526     103.51755749
H      69.87090697      88.31808857     105.65672767
C      64.20928694      90.20214570      98.37372246
O      62.11924964      89.08153799      98.68363758
N      64.50219452      92.66067964      97.74255387
H      66.21239683      93.32208385      97.21154078
C      62.13814690      94.07797437      96.80713935
H      60.65093229      92.74382759      96.30447215
C      60.96840631      95.74282325      98.92741227