 %block lattice_cart
   142.669   0.000   0.000
   0.000 146.65   0.000
   0.000   0.000   162.396
 %endblock lattice_cart

 %block positions_abs
N      96.20896746      46.01184074      81.93310354
H      98.10436295      46.22160036      81.84806585
H      95.67228519      44.30919733      81.26036097
H      95.50787900      46.09687842      83.70377709
C      94.91450494      48.00550200      80.36841015
H      95.55512216      49.84231597      81.04115272
C      95.87826536      47.83731636      77.71334468
H      95.14694127      46.07609143      76.93666717
H      97.93617731      47.92991295      77.73791112
C      94.77844464      50.15412082      76.17132801
H      92.73942995      49.96514818      75.94267113
H      95.66661601      50.28451193      74.31939622
S      95.39449542      53.30429458      77.49224670
C      93.67295475      54.98993045      75.07150730
H      94.36837403      54.54395504      73.18556044
H      94.18507058      56.93445883      75.51559298
H      91.70008048      54.43435091      75.28693610
C      92.04590039      47.65968208      80.49124236
O      91.13316258      45.96459758      79.31961205
N      90.69096663      49.36232549      81.80082270
H      91.38638591      50.93646751      82.62852282
C      87.90739977      49.35098713      82.30726935
H      86.97954415      48.28896094      80.80493693
C      87.46709354      48.08109105      84.88485604
H      88.24944023      46.18569556      84.69588341
H      85.47532200      47.92046431      85.37807461
C      88.73132044      49.16012478      87.14307898
O      89.19619311      51.49771622      87.12607145
N      88.90517526      47.79574238      89.16319641
H      89.63271989      48.70281101      90.67875691
H      88.56502452      45.92869278      88.98178269
C      86.64884204      51.95880944      81.95766998
O      87.92629703      53.66145285      81.13185958
N      84.18652866      52.30840881      82.39041731
H      83.40607169      50.80040721      83.26347086
C      82.70120377      54.73481740      82.10506863
H      83.01300862      55.12977020      80.10573819
C      79.88551157      54.19813513      82.49246253
H      79.20143064      53.06051989      80.91832051
C      79.45465397      52.47281500      84.75635465
H      80.34849451      52.93201850      86.55537410
H      79.45843342      50.43946949      84.42943200
H      77.53658176      52.79028902      85.43665612
C      78.27735448      56.49415260      82.62663309
H      79.22788681      57.66956236      84.02692029
H      76.45187886      56.21258338      83.54126063
C      78.17152980      57.79806375      80.10762792
H      77.46666189      59.71046678      80.41187386
H      77.06981936      56.83430333      78.65820784
H      80.05369721      58.04372817      79.30827369
C      83.65362584      56.87020813      83.71700518
O      83.77645805      59.04339339      82.83828244
N      84.55124584      56.19557584      86.06026581
H      84.57581228      54.36443104      86.59316863
C      85.67941244      58.00782337      87.77424757
H      84.53801775      59.68212089      88.14274420
C      86.00066592      57.07429857      90.48978428
H      86.48254613      58.44435015      91.94865300
H      87.51433669      55.68157028      90.52001990
C      83.65551556      55.60976068      91.39118373
C      81.68075157      56.70580194      92.72722024
H      81.76767898      58.68623512      93.21476963
C      79.59638344      55.41511887      93.40374226
H      78.07893321      56.50360123      94.22955266
C      79.39796218      52.83564245      92.81603737
H      77.68209069      51.90211766      93.40374226
C      81.42185906      51.49393677      91.65007624
H      81.34815973      49.49649606      91.23622618
C      83.54402171      52.89989315      90.81481721
H      85.19375278      51.87944094      90.17608972
C      88.23621215      58.93567899      86.77836180
O      88.67273892      61.20713002      86.59505835
N      89.78578772      57.38610342      85.68421027
H      89.37004793      55.52283327      85.65208492
C      92.25754974      58.13821449      84.46911625
H      93.09280877      59.56495785      85.69743835
C      94.09247399      55.97447786      84.77903137
H      94.01499521      54.59119820      83.25780168
H      93.68240338      55.20913870      86.64797069
C      96.80612097      57.10831365      84.67509642
H      96.86281276      58.85820021      85.75979932
H      97.37870805      57.08563693      82.69655297
C      98.49553630      55.26772022      86.16231103
O      98.90938636      55.55306889      88.44699014
O      99.66338716      53.68790902      84.84328206
C      91.94952435      59.28149891      81.84239668
O      93.34981155      60.99170122      81.16020548
N      89.90673021      58.59174880      80.46856565
H      88.85604238      57.16689516      81.18288219
C      89.20375202      59.82951954      78.00814199
H      90.66451046      59.52338388      76.58895752
C      86.89261674      58.41222480      77.03871239
H      85.16540689      59.15299752      77.87397142
H      87.10804554      56.40155601      77.43366519
C      86.53923792      58.81284678      74.18144620
H      87.99621690      57.89066034      73.05516932
H      86.63750368      60.79327996      73.62208721
S      83.31536483      57.71302607      73.38398170
C      83.43630731      57.57696577      69.92011337
H      81.87350365      56.39966628      69.27571669
H      85.35060007      57.09319584      69.33240848
H      83.10749493      59.46291263      69.16044339
C      88.71053345      62.73024943      78.48435302
O      89.87082541      64.30628117      77.25792064
N      86.97009552      63.26504198      80.31738754
H      85.96098166      61.86475478      81.13185958
C      86.41262625      65.76137043      81.17532329
H      86.01389400      66.65143153      79.35929630
C      84.00511493      65.62153069      82.92143040
H      83.70842790      67.27693094      84.11006825
H      84.10338070      63.94534345      84.11384770
C      81.56169881      65.35696900      81.42665689
H      81.66752348      63.76392972      80.12463546
C      79.30914504      64.80705865      83.18410236
H      79.65496496      63.00425974      84.11573743
H      77.63106808      64.71635178      81.99168505
H      78.93875869      66.37364176      84.46911625
C      80.86061035      67.80794403      80.00558270
H      78.99167102      67.36763780      79.26103053
H      82.14751396      68.01770365      78.41254342
H      80.70943224      69.40665249      81.29626577
C      88.75966633      67.04071515      82.46222691
O      88.96753623      69.38019632      82.36585086
N      90.43207412      65.60263342      83.83983739
H      89.68752195      63.90376947      84.28770252
C      92.85281353      66.64765208      84.93965810
H      92.54856759      68.54493729      85.68421027
C      93.65405748      65.12075321      87.14874816
H      95.66850573      65.42688888      87.45866328
H      93.78444860      63.09874606      86.77458235
C      92.21408603      65.69145056      89.67153279
H      90.16751244      65.44767587      89.71310677
H      92.75832721      67.63786866      90.06837532
C      93.28178140      64.11352909      91.89196121
H      92.68651761      64.88831688      93.70420874
H      95.33402418      64.24203048      92.00723451
N      92.53156005      61.38098484      91.99967561
H      90.93096187      61.14098960      93.01256891
C      93.84491984      59.29094754      91.40252209
N      95.96141331      59.25315301      90.20065616
H      96.44518325      57.55428906      89.47689098
H      96.93084291      60.88209709      89.97955818
N      92.80746010      57.10642392      91.98077834
H      93.64838831      55.42645723      91.63873788
H      91.36559892      57.18768215      93.22799771
C      94.91639466      67.23346723      83.03481398
O      96.37904283      68.98146407      83.63385722
N      95.05812414      66.04293966      80.82005474
H      94.15672468      64.37431132      80.60462594
C      96.54344902      66.93111102      78.64309003
H      98.41427807      67.41866041      79.35173739
C      96.95162990      64.72957987      76.63620068
H      95.23386868      63.80550370      75.97290675
C      98.38782190      65.55161081      74.21168182
H      97.20863268      66.44545136      72.78115900
H      99.30433916      64.00014551      73.21201660
H      99.85613924      66.84040416      74.86363740
C      98.69206784      62.49214391      77.74358030
H      98.00987664      62.05561714      79.63519634
H     100.61391950      63.21590909      77.89475841
C      98.64671440      60.06195587      76.33951365
H      99.59724674      58.72591937      77.58673302
H      99.39693575      60.31328947      74.43655925
H      96.70596548      59.38543385      76.18644582
C      95.22819950      69.24224630      77.40153984
O      96.55100792      71.07528083      76.84785003
N      92.74131968      69.20067232      77.06894801
H      91.91550928      67.49235974      77.26736927
C      91.40717290      71.19433358      75.73858068
H      92.33880797      71.60062474      73.94712014
C      88.61037796      70.41765607      75.12252991
H      87.96031210      72.05604878      74.05672427
H      87.48032162      70.11529986      76.81950414
C      88.14550528      68.12919751      73.34618717
O      89.85003842      67.73046525      71.72669172
O      86.10271114      66.96890555      73.38020225
C      91.58291745      73.68499287      77.21445693
O      92.12337917      75.66353631      75.93700195
N      91.19363383      73.72845657      79.79393335
H      90.45853029      72.13163784      80.53281634
C      91.11993450      76.01502541      81.33595002
H      91.74732363      77.61562360      80.20211424
C      88.43085396      76.45911109      82.38663785
H      88.63116494      77.84994966      83.89463945
H      87.94330457      74.63741493      83.21433798
C      86.57514272      77.29248040      80.36463070
H      84.85927122      77.36806945      81.50602539
H      86.37294200      76.00746650      78.76781196
C      86.97198524      80.14407740      79.84684569
O      86.62427560      81.04169740      77.64909399
O      87.34237160      81.65396873      81.60429116
C      92.98509437      75.80526579      83.42409760
O      94.60270009      77.52491673      83.59417297
N      92.96430738      73.78136891      85.07193894
H      91.59425580      72.46422967      84.91698139
C      94.47041925      73.59239628      87.37551532
H      95.93495714      75.03992663      87.42086875
H      95.29622965      71.71589805      87.56259822
C      92.71297378      74.23490322      89.55248003
O      90.89505707      75.45377669      89.12729161
N      93.42351087      73.56782983      91.95243245
H      95.08269058      72.64942285      92.18108933
C      91.98164970      73.91364975      94.18797868
H      90.01633433      73.53192503      93.71176765
C      92.55990595      71.84061998      96.04746937
H      94.47986788      72.02581316      96.76745510
H      92.51833197      70.02837245      95.06859114
C      90.77033513      72.03715152      98.42285535
H      90.35081589      73.93254701      99.11071572
C      88.13983610      70.89197737      97.95420322
H      87.22520857      72.25069059      96.70320440
H      86.98899278      70.89575683      99.66251581
H      88.29668339      69.10429628      96.94697909
C      92.07424629      70.40820744     100.55257690
H      90.82891665      70.30427249     102.18907989
H      93.88460409      71.22267948     101.10437698
H      92.17440178      68.47879687      99.83448090
C      92.67328953      76.56493577      95.38606516
O      94.88426931      77.39641534      95.30480693
N      90.77600431      77.93687707      96.26856735
H      88.97887459      77.29248040      96.34415640
C      90.94985913      80.53336102      97.51578672
H      92.90761559      81.13429399      97.72743606
C      89.64027880      82.53080174      95.66763438
H      89.17540612      84.38084380      96.43864272
H      87.80724427      81.79191875      95.08181922
C      91.28056124      82.85961411      93.24878470
H      91.95897298      81.18909605      92.25289893
H      93.07958069      83.64196081      93.87617384
C      89.94074528      84.74556098      91.49133923
H      89.87460486      86.66174346      92.24345030
H      88.04534979      84.01234717      91.15874740
N      91.10859614      84.89862881      89.11973271
H      92.62037719      86.05514131      88.96099570
C      90.35081589      84.12195129      86.95221663
N      88.53478890      82.50623529      86.62718370
H      88.11715939      82.04514207      84.82249507
H      87.77511893      81.82782355      88.24100997
N      91.32024549      84.86461373      84.84139233
H      90.73254060      84.40163079      83.08583659
H      92.87549024      85.97010363      84.91320193
C      89.73854456      80.52580212     100.10282204
O      87.55213122      79.69810199     100.37494263
N      91.26166397      81.44798856     101.81680380
H      92.96997656      82.16230511     101.35949004
C      90.66828991      81.17019879     104.50588435
H      89.08091981      79.90408216     104.84792481
C      93.05879370      80.11951096     105.89861264
H      93.23453824      80.40863909     107.93195815
H      94.63860489      81.20799332     105.14461184
C      93.79578696      77.43232014     105.60192561
H      92.41439702      76.08116583     106.31246270
C      94.50065487      76.74634949     102.94874986
H      94.99954262      74.75457796     102.77867450
H      96.19384965      77.79514760     102.42529568
H      92.97375601      77.11295640     101.61649281
C      96.00109757      76.80493101     107.27433340
H      95.45118721      76.87107143     109.25854602
H      97.74153550      77.83861130     106.90205731
H      96.26376952      74.76213686     107.23086969
C      89.81791307      83.71188068     105.68885302
O      88.97320541      83.81014645     107.85258965
N      90.25255012      85.87183786     104.24321239
H      90.72876115      85.61483508     102.41206759
C      89.16595749      88.34737933     105.04445635
H      87.90928949      88.12628135     106.66206207
C      91.41284208      90.10671453     105.85514893
H      92.70730460      89.05980615     107.06646350
H      90.64939265      91.72054080     106.88316005
C      92.74131968      91.17063044     103.42874035
H      91.30134823      92.15517785     102.33269909
H      93.28178140      89.56436307     102.25522031
C      95.03355769      93.00933414     103.92573837
H      94.47608843      94.67985220     102.85993273
H      96.81179015      92.22131827     103.24354717
C      95.42095159      93.64050273     106.71119495
H      95.78566877      91.89250589     107.73920607
H      93.66728557      94.29056858     107.57291015
N      97.25398611      95.67951742     107.07402241
H      98.86214320      95.20141667     106.16317432
H      97.43539984      95.89683595     108.96185899
H      96.65305314      97.36893275     106.42017710
C      87.36882777      89.28657331     102.99410330
O      87.59181547      88.48721907     100.80957968
N      86.00066592      91.30669073     103.66873559
H      86.20475636      91.89061616     105.47342422
C      84.12038824      92.63705806     102.08136549
H      82.75978529      91.26511676     101.36326949
C      82.82214626      94.72709536     103.58369791
H      84.16196221      95.94596883     104.56068641
C      81.61083169      96.80768403     101.90184149
H      80.12550681      95.80990854     100.88516873
H      82.88450723      97.72609102     100.56769471
H      80.70754251      98.25143493     103.06402317
C      81.23288643      93.50066298     105.56413108
H      82.34404550      92.12872168     106.62615727
H      79.48111014      92.66540395     104.87816043
C      80.32770753      95.37149203     107.49354165
H      79.08426761      94.48332067     108.87493158
H      79.33371148      96.92106761     106.57324493
H      82.02846121      96.13683119     108.37037466
C      85.31847472      93.70475343      99.67007471
O      87.32347434      94.93874471     100.00833572
N      84.19597729      93.37405132      97.40240314
H      82.62750445      92.28934842      97.40051341
C      85.11438428      94.16584665      94.81536781
H      86.19719745      95.90628458      95.02701716
C      87.10048663      92.12305250      93.98577796
H      88.39872861      91.71298189      95.53157409
H      88.34014709      92.98854715      92.58738049
C      86.00633510      89.80813777      92.85383190
C      85.94208440      89.49822265      90.16853081
H      86.83592495      90.90795848      88.99501077
C      84.49266432      87.51778948      89.06871010
H      84.22999236      87.29102232      87.05804130
C      83.31158537      85.68475495      90.62206513
O      82.20420575      83.60416628      89.61106155
H      82.13617561      83.76101357      87.80448319
C      83.43630731      85.85672005      93.27335114
H      82.88828668      84.35627735      94.54324722
C      84.86683013      87.86927857      94.36750268
H      84.87438903      88.21509849      96.38006120
C      83.08481822      94.81780222      92.82170655
O      80.99100146      93.98443292      93.30925594
N      83.72921489      96.17084626      90.78647131
H      85.60193367      96.51855591      90.69009527
C      81.96798997      96.93807515      88.86461965
H      80.13684517      96.07635995      89.24067519
C      81.80358378      99.83313586      88.87973746
H      81.22910698     100.46619417      87.00512896
H      83.68386146     100.61548255      89.19343203
C      80.18408833     100.92350794      91.01134875
H      80.74722677     100.13549207      92.82926546
H      78.19420652     100.40950238      90.88284736
C      80.11227873     103.83746592      91.22488782
H      78.60994631     104.27966187      92.56470378
H      79.47733068     104.56123109      89.40508138
C      82.47632634     105.10169282      92.17164070
H      84.15440331     104.64437905      91.06804054
H      82.83915380     104.49887013      94.10672045
N      82.17208041     107.89092886      92.25478866
H      80.33904588     108.40115496      92.40596676
H      82.81458735     108.86413791      90.74111788
H      83.18497371     108.54855361      93.73255464
C      82.58593047      95.81179826      86.16986993
O      84.56258419      96.04990378      85.13429991
N      80.73210896      94.69308029      85.04926223
H      79.12773132      94.43985696      86.05270690
C      80.58660003      93.65373081      82.50191116
H      82.53868731      93.32491844      81.92743436
C      79.40363136      91.16118181      82.75513448
H      77.37028585      91.39928732      83.00457836
H      80.14440407      90.12372206      84.37085048
C      79.79102525      89.11271848      80.73501706
O      81.45587413      87.28346341      80.99390956
O      78.33593599      89.25255823      78.87552636
C      79.61528071      95.53211877      80.45911701
O      79.91007801      97.74876773      80.79170885
N      78.63640248      94.56268917      78.31238792
H      78.73655797      92.68619094      77.98735500
C      78.14885309      95.94974829      76.03526772
H      79.86283485      97.04578955      75.71212452
C      77.61028109      94.24143570      73.70334544
H      76.73155835      95.29023380      72.16321850
C      79.95165199      93.00366496      72.87564532
H      80.54502605      91.86793945      74.48758186
H      81.35949809      94.46253368      72.50525896
H      79.65496496      91.78479149      71.24103206
O      75.88118151      92.27989979      74.38742637
H      76.92053098      90.85693587      74.82206342
C      75.89818905      97.85459241      76.09195950
O      75.85283562      99.62904542      74.68222368
N      74.24278880      97.54089784      78.00436253
H      74.39396690      95.86660033      78.90576198
C      72.04692682      99.14149603      78.51269891
H      71.84094665     100.25643455      76.79115824
C      69.65831276      97.60136908      79.32906068
H      68.14275226      98.94496449      79.70322649
H      70.19310531      96.53745317      81.00902737
C      68.67754481      95.71164277      77.40909874
H      67.77614535      94.19419254      78.47112493
H      70.25357655      95.02567212      76.27337323
C      66.94844523      97.02878201      75.41732721
O      67.89141866      97.52766976      73.26870839
O      64.70911955      97.47475742      75.94456085
C      72.55715293     101.14649565      80.54793415
O      71.01702598     102.85858769      80.85218009
N      74.74545600     100.85925725      81.89530901
H      75.85094589      99.36448373      81.46445141
C      75.52402324     102.59024655      83.85873465
H      75.21221840     104.57634890      83.41464897
H      77.56303793     102.55812120      84.13652442
C      74.37506964     102.19340402      86.46844669
O      74.10861823     104.03210773      87.88952088
N      73.62862775      99.95785779      87.20166050
H      73.68909899      98.53300415      85.93176442
C      72.40219537      99.45519060      89.63751772
H      72.38329811     101.26932786      90.60883704
C      69.73390181      98.40828222      89.22555738
H      68.89297361      98.06813148      91.07370971
H      69.92665390      96.52989426      88.40163671
C      68.04637622      99.76321598      87.41708930
C      67.14119731      98.34781098      85.43854585
H      67.64575424      96.40328260      85.08138758
C      65.65965188      99.63471460      83.73779217
H      64.98690932      98.61615211      82.10128918
C      65.18722031     102.28600061      83.96455932
O      63.66410090     103.38393160      82.20333440
H      63.24647138     105.09035446      82.65686872
C      66.10940675     103.67305973      86.00168429
H      65.60862927     105.64404427      86.17742884
C      67.53237066     102.42773009      87.85361608
H      68.58494822     103.41983640      89.29358753
C      73.85539490      97.64672251      91.22488782
O      75.10072454      95.91006403      90.34049590
N      73.24312358      97.83191569      93.73066491
H      71.88818981      99.14527548      94.00656495
C      74.80592724      96.59036551      95.72432617
H      76.80903713      97.04578955      95.58259670
C      73.94988122      97.49554441      98.34726629
H      74.70010257      96.33525245      99.87605488
H      71.90330762      97.26499780      98.39261972
C      74.74167654     100.16950714      98.88583829
C      72.97289272     102.05167455      99.52456579
H      70.96789310     101.68317792      99.61905210
C      73.89885861     104.47997286     100.18219054
H      72.63841116     105.95017993     100.82847694
C      76.39518707     105.12814899      99.86471652
O      77.25879199     107.40715892     100.39383989
H      75.86606370     108.56556115     100.49399538
C      78.21121405     103.34424735      99.09937737
H      80.20298559     103.76943577      98.95197871
C      77.41752900     100.83091135      98.87072048
H      78.88584635      99.52133102      98.33025876
C      74.46388678      93.70475343      95.47299257
O      72.30015015      92.82036151      95.52212545
N      76.59171860      92.38005528      95.25189459
H      78.22255241      93.36271296      95.38228571
C      76.77880151      89.65129048      94.86639042
H      74.96844370      88.83492872      95.41441106
C      77.45721326      88.97854792      92.10172083
H      79.44331561      89.43775141      91.80125434
C      76.67864602      86.39151259      91.37795565
H      77.09627553      84.91563634      92.75367641
H      77.88051195      86.02490569      89.74523212
H      74.73033819      86.26490093      90.72222062
O      76.06259524      90.49221869      90.34049590
H      76.30259048      92.20997991      90.87339872
C      78.88773607      88.38895331      96.59171055
O      80.61683565      89.52278909      97.47043328
N      78.55136479      85.95687554      97.15295926
H      76.97155359      85.00823293      96.65029206
C      80.21810340      84.44509449      98.78946225
H      82.03790984      85.39373710      98.62316633
C      79.21087927      84.68886919     101.46909416
H      79.28835805      86.66363318     102.04546069
C      76.32715692      83.88195605     101.80924490
H      76.09283086      81.84672081     101.60326473
H      75.18198278      84.82492948     100.37872208
H      75.46166227      84.41107942     103.60070544
C      80.57148222      83.30747925     103.59125681
H      80.23322121      81.27602346     103.61960271
H      79.64551633      84.16730472     105.21831117
C      83.40985114      83.73644712     103.89928220
H      84.24511017      83.79502864     102.01900452
H      84.25833826      82.21521744     104.99721319
H      83.85204710      85.62617344     104.58903230
C      80.31069999      81.61050502      97.93908541
O      78.84805182      80.73367201      96.34415640
N      81.95098243      79.94376641      99.13528217
H      83.30969565      80.59572199     100.30691248
C      81.86594474      77.31893657      98.18097038
H      79.94031363      76.60273029      98.33403821
H      82.95631683      76.23612339      99.55291168
C      82.82970516      76.70099606      95.55425080
O      84.96131644      77.53436536      94.95709729
N      81.39540289      75.47456368      93.79680533
H      79.69653894      74.93977114      94.48277598
C      81.48233030      75.68810276      91.04347409
H      82.93552984      77.02035981      90.44254113
C      82.14940369      73.09917771      89.88885132
H      80.55636441      71.81227409      90.11561847
C      82.68419624      73.37696748      87.10150500
H      81.17430491      74.50135463      86.26057679
H      82.46687771      71.58172748      86.11317814
H      84.50400268      74.27269775      86.75379536
C      84.46620815      71.77070011      91.32504331
H      83.48732992      70.65198213      92.74989695
H      85.46020419      73.16153868      92.47777636
C      86.30491185      70.16632247      89.74145266
H      85.29201855      69.45011620      88.09739077
H      86.94741880      68.60162908      90.91875216
H      88.04157034      71.16976714      89.26902109
C      78.96710458      76.73312141      90.19309725
O      76.97155359      75.42732053      90.32348837
N      78.94253814      79.15008136      89.63940744
H      80.56770277      80.14785686      89.60350264
C      76.74478644      80.00612738      88.25423806
H      76.48022475      78.85339433      86.56671246
H      77.12651115      81.88262561      87.49078862
C      74.27680387      80.17809248      89.71121704
O      72.33416522      80.78091517      88.55470454
N      74.28436278      80.04770136      92.22833249
H      75.97566783      80.07415753      93.11272441
C      72.06960354      80.38596237      93.87995329
H      70.38963685      79.64518966      92.94642849
C      72.60439608      78.70788541      96.25155981
H      74.23900935      79.43165058      97.27579147
H      73.13162973      76.78414402      95.73377480
C      70.40853411      78.28647644      97.98821829
N      69.04793116      76.03203295      98.15640394
H      69.27091887      74.38608133      97.21720996
C      67.09395416      76.52525151      99.77023021
H      65.87508068      75.00402183     100.37494263
N      67.36040557      78.83638679     100.86627147
H      66.32861500      79.63007185     102.26088949
C      69.51847302      79.95510477      99.76267130
H      70.16097996      81.88640506      99.89873160
C      71.65386375      83.25078746      94.31648007
O      72.95210573      84.54713971      95.83393030
N      69.59217234      84.18431226      93.13729085
H      68.32416599      82.94843125      92.42486403
C      68.75313386      86.83748800      93.33760184
H      70.39908548      88.03746421      93.03713535
C      66.86718700      87.19464628      91.34583030
H      65.19477921      86.00411870      91.52535430
H      67.87441112      86.58615440      89.65452525
C      65.82783753      89.87616792      91.18898302
H      64.90754081      90.38828375      92.95965657
C      68.03125841      91.84148328      91.07937889
H      68.48857217      92.22698745      93.05036344
H      67.45489188      93.70097397      90.41230550
H      69.61862851      91.16685099      89.95121228
C      63.89086806      90.36182758      89.07437927
H      64.81116477      90.00088985      87.26591119
H      63.34095770      92.34604021      89.13107106
H      62.31672604      89.16185137      89.64318690
C      67.54181929      87.34960383      95.96999059
O      65.69555668      86.04947213      96.70887358
N      68.45077765      89.21476371      97.38161615
H      69.96444842      90.15962686      96.70131467
C      67.28481651      90.06136109      99.82692200
H      66.72545752      88.30391562     100.73965981
C      69.21800653      91.55046543     101.55980102
H      68.18810569      92.34981966     103.15284031
H      70.16475941      93.10193073     100.59226115
C      71.23623423      89.75144598     102.58592241
H      72.42865154      88.88595133     101.14595096
C      73.10517356      91.47487638     104.19785896
H      72.29448097      92.16084703     105.96286333
H      73.61917911      93.16618143     103.14528140
H      74.83994231      90.43930636     104.60037066
C      70.36507040      87.81069705     104.65328300
H      69.13296885      86.40096123     103.79534725
H      69.35028737      88.80280337     106.14616679
H      72.04314737      86.93386405     105.46586531
C      64.91698944      91.72243052      99.54346305
O      62.87608502      90.83047970      99.78345829
N      65.35162649      94.06191170      98.92930200
H      67.16765348      94.56646862      98.64017387
C      63.36552414      96.03478597      98.29057450
H      61.59485058      95.27133654      97.56114015
C      62.87041585      97.71097321     100.48832621