 %block lattice_cart
   142.669   0.000   0.000
   0.000 146.65   0.000
   0.000   0.000   162.396
 %endblock lattice_cart

 %block positions_abs
N      91.15961874      41.82515209      82.97717732
H      90.66640017      40.45887997      81.73940659
H      90.69474607      41.44531710      84.78753513
H      93.06635259      41.78735757      82.93560334
C      90.43585356      44.34793672      82.07577787
H      91.24843588      45.70098076      83.39858630
C      91.51488729      44.74666897      79.40370486
H      90.33002889      43.56747975      78.20183893
H      93.49721019      44.18164081      79.40370486
C      91.18796464      47.46787486      78.34734786
H      89.18296503      47.83637149      78.64025544
H      91.54134346      47.31480703      76.32534071
S      93.08902931      49.89239372      80.08400634
C      92.17062232      52.77233662      78.38325267
H      90.13916654      52.88572020      78.05821973
H      93.02288889      52.63249688      76.51431333
H      93.10603684      54.37293481      79.28276238
C      87.61260246      44.77123542      82.25341214
O      86.14806456      43.48055234      81.05343594
N      86.88883728      46.88583916      83.34000477
H      88.15495390      47.77401053      84.45872275
C      84.22054372      47.43385979      83.72361922
H      83.07159013      46.39640004      82.36490600
C      83.42874839      46.32081099      86.32199291
H      84.58715062      44.66541074      86.71127653
H      81.43508713      45.81436434      86.20294014
C      83.88039299      47.98188042      88.54998022
O      82.08515300      48.93430248      89.66680847
N      86.20475636      48.25778046      89.45137967
H      86.21609471      49.09303949      91.16725116
H      87.81669289      47.81558451      88.53108296
C      83.31536482      50.20230884      83.45716781
O      84.83281505      51.87660635      83.17181913
N      80.68486579      50.54245958      83.64236098
H      79.56614781      49.01934017      83.90125349
C      79.49055876      53.01233187      83.52330824
H      79.84393758      53.92884913      81.71484015
C      76.68431518      52.87816130      83.96172473
H      76.04369796      51.41929258      82.65970330
C      75.96432946      51.52511726      86.38057441
H      76.03802878      52.89516883      87.91503219
H      77.16241594      49.91696017      86.85489572
H      73.96499902      51.07725212      86.16514562
C      75.20465948      55.41984319      83.83511307
H      76.05125687      56.56123788      85.32799686
H      73.29414618      54.85481502      84.36234672
C      75.43142664      56.81635093      81.24807775
H      77.31170432      57.25665717      80.52998175
H      74.42042306      58.61159093      81.29343118
H      74.64719022      55.59180828      79.78920903
C      80.62061509      54.79623351      85.60578662
O      81.30280629      56.95619068      85.00674338
N      81.15918709      53.90806214      87.89235546
H      80.57526166      52.12416050      88.24006510
C      82.63317362      55.42929182      89.69515438
H      81.80358377      57.29445169      89.95782632
C      82.64451198      54.21041835      92.32376367
H      84.28290469      54.95119106      93.32909807
H      83.20954014      52.24321326      92.08754788
C      80.23700065      54.28222795      93.66168990
C      79.91763691      56.22675632      95.52873949
H      81.41996932      57.60058735      95.67991760
C      77.65941396      56.29667620      96.86666572
H      77.42130845      57.76499354      98.26317348
C      75.89818904      54.18774163      96.73438488
H      74.20310453      54.23309506      97.87200012
C      76.34794390      52.15628585      95.09410244
H      74.92120053      50.69930686      95.00339558
C      78.47199628      52.23376463      93.41035630
H      79.02379636      50.76922673      92.09888624
C      85.17107606      56.35714744      88.77485765
O      85.68319189      58.57568613      89.12256729
N      86.65262148      54.62615814      87.62212460
H      86.00822481      52.83847705      87.45393896
C      89.10170679      55.38015894      86.60923130
H      90.15806380      56.44596458      88.01896713
C      90.77789403      53.14839216      85.83255379
H      92.15739423      53.64350045      84.38502343
H      89.47020342      51.81424538      84.95950023
C      92.16495314      51.90117279      87.83566367
H      91.09158859      52.06557898      89.58555024
H      93.95830341      52.88572020      88.07187946
C      92.52400114      49.05713469      87.22906153
O      90.66828990      47.65495777      86.96261012
O      94.72931175      48.19919895      86.95505121
C      88.77667386      57.07335371      84.31699328
O      90.43774329      58.61726011      83.91826104
N      86.90206536      56.61981940      82.57655534
H      85.73043504      55.15528151      82.92426500
C      86.67340847      58.08057784      80.15959539
H      88.34770599      57.76121409      79.00497261
C      84.40762662      56.72375434      78.86324314
H      82.97899354      56.30612483      80.28998651
H      85.28823909      55.00032395      78.16026496
C      83.09615657      58.29600664      76.83556681
H      84.49266431      59.37881981      75.77732007
H      82.16452149      59.70385274      78.01664575
S      80.81525690      56.70107763      74.96095830
C      82.91852229      55.18173767      72.77076551
H      84.21676427      54.20285944      74.03688214
H      83.81425256      56.56690706      71.53866395
H      81.88862145      53.69830252      71.78243864
C      86.15184401      60.72619468      80.66226260
O      87.28190035      62.43828672      79.48685282
N      84.42463417      61.35736326      82.47073067
H      83.67063337      59.83235413      83.33811505
C      83.90495943      63.78566158      83.60456646
H      83.23032713      65.11602890      82.18349227
C      81.62405977      63.44173139      85.34500439
H      81.31792410      65.12736726      86.49017854
H      82.21365438      62.09624625      86.79064502
C      79.04836280      62.61025181      84.21683778
H      79.18820255      60.78855564      83.26819517
C      76.99423030      62.34569013      86.20482988
H      76.99800975      64.21085000      87.07977315
H      77.69153931      61.01910225      87.61645542
H      75.16308550      61.74097771      85.47728523
C      78.16775034      64.59824389      82.20994844
H      76.45754803      63.92361160      81.28020309
H      79.64929577      64.71729665      80.78320507
H      77.87862221      66.36513799      83.23040065
C      86.17641045      64.98374806      84.92737488
O      86.39939816      67.24575046      84.79509404
N      87.97165045      63.51921017      86.04609286
H      87.89984085      61.61436604      85.99507024
C      90.25821929      64.38092537      87.11567795
H      90.07113639      66.22340852      88.01896713
C      91.38827563      62.70473813      89.24539950
H      93.41028278      63.09591147      89.29264266
H      90.97064611      60.72241522      88.86745424
C      90.36971314      63.07134503      92.03841499
H      88.40628750      62.45718398      91.97794375
H      90.39994876      64.98374806      92.79997470
C      92.12526889      61.56901261      93.72594059
H      94.12837878      62.04333392      93.62956456
H      92.20085794      59.58291026      93.17603023
N      91.23331807      62.02821611      96.31486564
H      92.00999558      63.46629783      97.29941306
C      89.84436923      60.58257548      97.77562408
N      88.34581626      58.73442314      96.92335751
H      87.09859690      57.99742988      98.16679743
H      88.27778611      58.19585114      95.09410244
N      89.81035415      61.14571392     100.15478951
H      88.86927045      60.11203362     101.45492121
H      90.91395432      62.49875796     100.92768757
C      92.26888809      65.07445492      85.12201669
O      93.41595196      67.01898330      85.41681399
N      92.38038194      63.71763143      83.02819993
H      91.46197495      62.04711337      82.96394924
C      93.73720543      64.59446444      80.69627766
H      95.57590913      65.28610427      81.31610790
C      94.18507057      62.16616613      79.02953906
H      92.30479289      61.33846600      78.86891232
C      94.68395832      63.26787657      76.34423796
H      96.33746884      64.48863977      76.46518045
H      93.11359575      64.36013838      75.57322963
H      94.93718164      61.86569964      74.85513364
C      95.97086193      60.11581308      79.86290836
H      95.06379330      59.27110541      81.50697025
H      97.76232248      61.01154335      80.34856802
C      96.39227090      58.10703401      77.88814437
H      94.69529667      57.57224146      76.85068462
H      97.28044227      56.44974403      78.72529312
H      97.73208686      58.56056832      76.38959140
C      92.49376553      66.90182027      79.36780006
O      93.81279448      68.64414793      78.56844583
N      90.04468022      67.03410111      79.24685759
H      88.90328553      65.70940296      80.00841728
C      88.79935058      69.22996308      78.14892659
H      89.69697058      69.43027407      76.30644344
C      85.99310700      68.68761163      77.78609914
H      84.97454452      70.42993929      77.37791826
H      85.58114667      68.12636292      79.72495834
C      85.34682060      66.76198052      75.75275363
O      86.46553858      66.90182027      73.63059098
O      83.67063337      65.07823437      76.07211738
C      89.32658422      71.69038674      79.68338436
O      89.85759731      73.80688021      78.72151367
N      88.90895470      71.67526893      82.28553749
H      88.30046283      70.04632485      83.07733282
C      88.84848347      73.92782270      83.86534869
H      89.93507609      75.35456606      82.85245539
C      86.18018991      74.67804404      84.33400082
H      86.04979880      75.76652640      86.07821820
H      85.10304591      72.93949584      84.56265770
C      84.49077458      75.97061684      82.33278065
H      82.52923867      76.25785524      82.88836019
H      84.32636839      74.75741255      80.67549067
C      85.72665559      78.47450421      81.41437366
O      85.66618435      79.07543718      79.11268701
O      86.85671193      79.95982909      82.93182389
C      90.29034464      73.79743158      86.25774220
O      91.71330855      75.50007499      86.93993340
N      90.08247474      71.64692304      87.65802940
H      89.45130615      70.08222965      86.76418886
C      91.53756400      71.27842641      90.05231265
H      93.42729033      72.08344982      89.91436262
H      91.78700788      69.23563226      90.16380649
C      90.19207887      72.45194645      92.32754312
O      89.03556637      74.45883579      92.07809925
N      90.55868578      71.21795517      94.54230236
H      91.40528317      69.50964258      94.60844278
C      89.35681984      72.27242245      96.96493150
H      87.33859214      72.08156009      96.60777322
C      89.74988292      70.45072628      99.18913936
H      91.52055647      70.99874691     100.08675936
H      89.94452472      68.62147121      98.26506319
C      87.80346481      70.35246051     101.22815405
H      87.77322919      72.15714914     102.22215009
C      85.15217879      69.62113643     100.11699498
H      83.95409231      69.19405828     101.73838016
H      85.27690073      68.05266359      98.78662766
H      84.32258894      71.23307298      99.14000649
C      88.45731011      68.29265883     103.06496803
H      88.78612250      66.48230103     102.13900214
H      86.82269685      67.69550532     104.16667847
H      90.18640969      68.77264932     104.08164079
C      90.07113639      74.98984889      97.42602471
O      92.23865247      75.77786476      96.99327739
N      88.41951559      76.25029634      98.72237696
H      86.81324822      75.27897701      99.07008661
C      88.76911496      78.75607343      99.58409217
H      90.75521731      79.08866526     100.02250867
C      87.90173058      80.75540387      97.65468160
H      88.29101420      82.55253359      98.58631667
H      85.95342275      80.48139355      97.05374863
C      89.69319112      81.03130391      95.29819288
H      89.72531647      79.16425431      94.42891878
H      91.56779962      81.61144989      95.92747175
C      88.81068893      82.77174184      93.20437613
H      88.76533550      84.66902706      94.00562009
H      86.92285235      82.06498420      92.77918771
N      90.32435971      82.35789178      90.84032851
H      92.05534901      83.15535628      90.86867442
C      89.65917605      81.37901355      88.69170970
N      87.42929900      80.64391001      88.46305281
H      86.70553382      80.27541338      86.73584296
H      86.41451598      80.21116269      90.02018729
N      91.18796464      81.46972041      86.84166763
H      90.66451045      81.03886281      85.05587627
H      93.04556560      81.56042728      87.27441496
C      87.43496818      79.27952762     102.04640555
O      85.21076031      78.73717617     102.41679190
N      88.81068893      80.42848122     103.77739485
H      90.50199398      81.15224639     103.27283792
C      88.34770599      80.68926345     106.53261581
H      86.63750367      79.66503178     107.05229055
C      90.56246523      79.71038522     108.00849206
H      90.44530220      80.67225591     109.82640878
H      92.35203604      80.29431065     107.17134332
C      90.48687617      76.86067794     108.58863804
H      89.22453900      76.44304842     110.16089034
C      89.94830417      74.98606943     106.39844525
H      91.42795988      74.99362834     104.96414298
H      88.21542515      75.64936337     105.50460470
H      89.70641921      73.11713011     107.22803510
C      93.29878893      76.25029634     109.45224297
H      93.32524510      74.32844468     110.18734650
H      93.88838354      77.53531023     110.94890621
H      94.59892063      76.22950935     107.85542424
C      87.80346481      83.51251456     107.21291729
O      86.80757904      83.91880572     109.34074913
N      88.26455803      85.37200525     105.58775266
H      88.99588212      84.75028529     103.93802159
C      87.52378532      87.95715085     105.92034449
H      86.63561395      88.09132141     107.77605573
C      89.86704595      89.56341821     106.13577329
H      90.99899200      89.32720242     104.42935043
H      91.22386944      88.92091127     107.54739884
C      89.43807807      92.34698507     106.73103708
H      88.39872860      92.43580221     108.50549009
H      88.27589639      93.01216873     105.16445396
C      91.80023596      93.86821475     106.96158370
H      92.49565524      93.91356818     105.02461422
H      92.98887381      92.79862966     108.25793594
C      91.41851125      96.41556582     108.23903867
H      91.17284684      96.10943016     110.26293556
H      89.69508086      97.25082485     107.48503788
N      93.62760131      98.12765786     107.79873244
H      95.13938236      97.08452894     108.31651745
H      93.64271912      99.69424098     108.88910454
H      93.89216299      98.70402439     105.99782328
C      85.64917681      88.93413935     103.73204142
O      85.81169328      87.88345152     101.73271098
N      83.91440806      90.75016634     104.15911957
H      84.01078410      91.44369589     105.93357257
C      81.99633585      91.51928495     102.29206997
H      81.00422955      89.83364908     101.64956302
C      80.02913076      93.37499619     103.31252218
H      80.90407405      95.07763959     104.07786133
C      78.14318391      94.50316279     101.31130201
H      79.41496971      95.49715884     100.03384703
H      76.78636040      95.85242738     102.07475144
H      77.01690702      93.06697080     100.35321077
C      78.81403674      91.96337063     105.54050950
H      80.31825888      91.22259792     106.73859598
H      77.72555438      90.40245670     104.75438336
C      77.12462141      93.69058048     107.22236592
H      76.07204386      92.76650431     108.73225724
H      75.65819380      94.24993947     105.89010887
H      78.00145442      95.37999580     108.00471261
C      83.40229223      92.74193787     100.04140594
O      85.08981782      94.29340317     100.46092517
N      82.59915854      92.14856381      97.64712269
H      81.22154806      90.83142457      97.55074665
C      83.59693404      92.90823379      95.20937575
H      84.63250406      94.67323816      95.44559154
C      85.42429938      90.75583552      94.30797630
H      86.54490708      90.36277244      95.98983271
H      86.78301260      91.49093905      92.94548362
C      84.44920061      88.32186802      93.19681722
C      84.39628827      87.94392276      90.58332573
H      85.36949732      89.33854078      89.45515912
C      83.43063813      85.80664230      89.34744472
H      83.52323472      85.27562921      87.37834992
C      82.42152427      83.99817422      90.91780729
O      81.23666587      81.79475334      89.98239277
H      81.03824461      81.94971090      88.18337332
C      82.41774482      84.21927220      93.49539398
H      81.73366389      82.78496993      94.77662842
C      83.61961075      86.31308895      94.56497907
H      83.51567581      86.46804651      96.59832459
C      81.69775909      93.18035438      93.13067680
O      79.66252385      92.26194739      93.56909331
N      82.22688246      94.38788949      91.01040389
H      83.96543067      95.10976494      90.69481959
C      80.52045960      94.72992995      88.87501315
H      78.58349013      94.48993471      89.53263791
C      80.94375829      97.29806801      87.56543281
H      79.67575194      97.35664953      85.94404763
H      82.94875792      97.53806325      87.16859028
C      80.06881501      99.49015053      89.34933445
H      81.29713711      99.44857656      91.00473470
H      78.08649211      99.35031079      89.89546535
C      80.16897050     102.22269478      88.21360894
H      78.84994154     102.17545163      86.63379774
H      81.94909269     102.54394826      87.22717180
C      79.49811766     104.22958413      90.23939554
H      81.11950284     104.54894787      91.46771766
H      77.63484752     104.04817040      91.09733129
N      79.08426760     106.70134614      88.95060220
H      78.88773606     108.23202446      90.07498935
H      77.52713312     106.54449886      87.86023013
H      80.59604865     107.18133663      87.89235546
C      80.70943223      92.54162688      86.86056490
O      82.78624145      92.38100014      85.75885446
N      78.58349013      91.27551025      86.38435388
H      77.19076184      91.71392676      87.61267598
C      78.05625649      89.34798941      84.52675290
H      79.44142587      87.82109055      84.51730428
C      75.66197325      87.94581249      85.16737012
H      74.09727986      89.18547295      85.67570650
H      75.98133701      86.89512466      86.90969778
C      74.94576698      86.02396083      83.12268625
O      76.14952264      83.94904134      83.24929791
O      73.30359481      86.59276845      81.48051408
C      78.18286815      90.62166495      81.85656962
O      77.83704823      92.96681530      81.73562714
N      78.10727910      89.29696680      79.67204600
H      77.85972495      87.42235830      79.91960015
C      77.88996057      90.32875737      77.08501069
H      79.30536558      91.82353088      77.04910588
C      78.52301889      88.29352213      75.20662272
H      77.98822635      88.99272087      73.34146285
C      81.35193918      87.61133093      75.24252752
H      81.72043581      86.25261771      76.74485995
H      82.42152427      89.36499695      75.35591110
H      81.66374402      86.66646777      73.43783889
O      77.20776937      86.01640192      75.61858306
H      75.65819380      86.11088824      74.68316853
C      75.38040403      91.73093429      76.50297498
O      75.40686021      93.12933176      74.64915346
N      73.32438181      91.56841783      77.91649026
H      73.47744963      90.57253206      79.53787543
C      71.12663010      93.30696604      77.67271556
H      71.10773283      93.93057572      75.70928992
C      68.74557495      92.05029804      78.51931295
H      67.30371377      93.52050511      78.44372390
H      68.96100374      91.44180617      80.47706941
C      67.98023579      89.60877164      77.05666478
H      66.30971773      88.82453522      77.97507177
H      69.49957575      88.23494061      77.26453469
C      67.08450552      90.01317307      74.34868699
O      67.28670623      88.07998306      72.93139224
O      66.67254519      92.12966655      73.48319233
C      71.41764795      95.73337462      79.27709320
O      69.66587166      97.27161184      79.51897818
N      73.63807637      96.18879867      80.52053313
H      74.88718546      94.74693749      80.44305434
C      74.25412715      98.16545239      82.32711147
H      73.03147422      99.73392523      81.78853947
H      76.25534731      98.64544287      82.38002382
C      73.55681814      97.61743176      85.03886873
O      74.34105456      98.95913744      86.73395324
N      71.84283637      95.88077328      85.55287429
H      70.81104580      95.07386014      84.16392545
C      70.59372728      95.91289862      88.13613016
H      70.08917035      97.81018384      88.75973984
C      68.09928854      94.50127307      87.95282670
H      67.04482126      94.58631075      89.72161053
H      68.62841192      92.60965703      87.32732730
C      66.39853487      95.50282801      85.96672435
C      65.39697992      93.92679627      84.02597543
H      65.72390257      91.92368638      83.80298772
C      63.82283791      94.97181492      82.18916145
H      63.35985496      93.65278595      80.70383657
C      63.28426590      97.62688039      82.25719160
O      61.65721154      98.68512713      80.59612217
H      61.48902590     100.46902876      80.88714002
C      64.22912906      99.14244089      84.25841176
H      63.46001046     100.99626241      84.61368031
C      65.66154160      98.00671538      86.26908056
H      66.13586290      99.24259639      87.82432532
C      72.19432546      94.89811559      90.33010241
O      73.94421203      93.34854002      89.92948044
N      71.55748770      95.61054241      92.66769386
H      70.08539090      96.80673917      92.89824047
C      73.12785026      94.85465189      94.79741541
H      75.12529098      94.97559437      94.31364548
C      72.91620092      96.57052338      97.03485138
H      74.01791136      95.57652734      98.46915364
H      70.90553212      96.55540557      97.47704733
C      73.96499902      99.12165390      96.77595886
C      72.56093237     101.36097958      97.08020480
H      70.57483001     101.12098434      97.48271650
C      73.68342980     103.71746830      96.96871094
H      72.46266660     105.21413154      97.62822543
C      76.25723704     103.89132312      96.47171292
O      77.24934335     106.17600223      96.14290055
H      76.12873565     107.49503120      96.68525200
C      77.59516327     101.70113032      95.77251419
H      79.61528070     101.65010771      95.49661415
C      76.48967337      99.23314776      96.18258480
H      77.58193518      97.51538654      96.03707587
C      72.45699742      92.00116516      95.39456893
O      70.29137108      91.11299379      95.41724564
N      74.47144567      90.44403067      95.78007309
H      76.16086101      91.31708423      95.62322581
C      74.43554088      87.68314053      95.78574227
H      72.61195498      86.81575615      96.19581288
C      75.01001768      87.03874386      93.08343364
H      76.76368369      87.96093030      92.51273630
C      75.26702045      84.24194891      92.47305205
H      75.37473485      83.76762761      90.47183189
H      73.89507915      83.05331106      93.44437137
H      77.03769400      83.57109607      93.28374463
O      72.99745916      87.71337615      91.61700603
H      72.93320845      89.49349834      91.26929638
C      76.40652542      86.61544516      97.67546859
O      78.15641198      87.95715085      98.37277760
N      76.04747742      84.27974344      98.54285296
H      74.46199704      83.30842412      98.11010564
C      77.89185030      82.71316033      99.89778673
H      79.75134099      83.54652963      99.59543052
C      77.39485228      83.02307544     102.84387005
H      76.90163371      84.97705245     103.27472765
C      75.15552660      81.47349987     103.73204142
H      73.63429691      81.51885330     102.34498231
H      74.62451350      82.17080888     105.59342184
H      75.66575270      79.47794888     103.76416677
C      79.76456907      82.36167123     104.49360112
H      81.55036044      82.61111511     103.49582563
H      79.77779716      80.39824559     105.11343135
C      79.78724579      83.97738723     106.90300217
H      81.41996932      83.57109607     108.08975030
H      78.17719897      83.49550702     108.09541948
H      79.70220811      85.96159986     106.35498155
C      78.02791059      79.92959347      99.06252770
O      76.57660078      79.01496593      97.36366374
N      79.86850402      78.53308572     100.06786210
H      81.03446517      79.48928724     101.23760269
C      80.09338145      75.81943874      99.93936071
H      78.43798120      74.67048514     100.36832859
H      81.64295703      75.25063112     101.17335199
C      80.93241994      74.99551807      97.35988430
O      82.82592570      76.14447166      96.65690610
N      79.55669918      73.40814796      95.82164708
H      78.12239691      72.38580603      96.55675061
C      79.69275947      73.59901032      93.02863158
H      81.15162820      74.98984889      92.61100208
C      80.68486579      71.10268186      91.72094097
H      79.57181699      69.46806860      92.29919723
C      80.49967261      71.73007100      88.77107820
H      81.70342827      73.37035344      88.44793500
H      78.47388600      71.80943950      88.39880211
H      81.36327753      70.20884131      87.68259584
C      83.42874839      70.47907218      92.60533289
H      83.25867304      70.17671597      94.63678867
H      84.47376705      72.25541491      92.58076645
C      84.77045408      68.21706978      91.24661967
H      86.30113239      67.58401147      92.47116232
H      85.61327201      69.03154182      89.55342489
H      83.50244772      66.63725858      90.87245386
C      77.17375430      74.63835979      91.91747252
O      75.23678483      73.39303015      92.08754788
N      77.13784950      76.98162042      90.78174700
H      78.69120453      78.07199250      90.97260935
C      74.90419300      78.14191238      89.39279817
H      74.46955594      76.86256766      87.83755340
H      75.50323624      79.97494690      88.66903299
C      72.71966938      78.81465494      91.11244910
O      70.83939170      79.77652564      90.15624759
N      72.85383995      78.46883503      93.59554948
H      74.39963607      77.66759107      94.37789617
C      70.57294029      78.83544193      95.12811752
H      69.14430719      77.83577671      94.03207625
C      70.81104580      77.24051293      97.48838568
H      72.37951864      77.94349111      98.62222147
H      71.35528698      75.38291196      96.78918694
C      68.36951941      76.94571562      98.94347494
N      67.10718223      74.66859541      99.12110921
H      67.44544324      73.05287942      98.16679743
C      65.01525521      75.08055575     100.48360189
H      63.56772485      73.66893019     100.75761221
N      64.98312986      77.44271364     101.29996365
H      63.38253167      78.19482471     102.01616993
C      67.22623499      78.58032888     100.40234365
H      67.45867132      80.59666686     100.61966218
C      69.90964635      81.57365536      95.51740114
O      70.97923144      82.80197746      97.22760345
N      68.00291250      82.55064386      94.08498859
H      67.42465626      81.42436698      92.65824523
C      66.88230481      85.12445110      94.35332973
H      68.25991528      86.52851775      93.74105840
C      64.48235238      85.46649157      92.72438565
H      63.17655150      83.89234955      92.97760897
H      65.11352098      84.77674146      90.88757167
C      63.00647613      87.91746659      92.54486165
H      62.57183908      88.44092078      94.48939002
C      64.77525997      89.95648129      91.26362721
H      63.80016118      91.73849320      90.92725592
H      65.36674430      89.21192912      89.43626186
H      66.36263007      90.29285257      92.52974383
C      60.67266414      87.77006794      90.97638881
H      59.56906397      86.09577043      91.44315120
H      61.48713618      87.55274942      89.09611112
H      59.46512902      89.43302710      90.84410796
C      66.29271019      85.63656693      97.25216989
O      65.00580657      83.99817422      98.48049199
N      66.88608426      87.93447413      98.08742892
H      67.65898232      89.10799417      96.79107667
C      65.92610328      88.81319687     100.47604298
H      65.07383672      87.28251855     101.55885616
C      68.21267212      89.87711278     101.97837540
H      67.29993432      90.78418141     103.58653250
H      69.03659280      91.50794659     101.02973280
C      70.08161146      87.89667960     102.99504817
H      70.63341153      86.86488904     101.29996365
C      72.28881178      89.21570857     104.19502437
H      73.82137982      87.90234878     104.60887443
H      71.69921718      90.15679227     105.93168285
H      73.15430643      90.62922385     102.97237144
C      68.98557019      85.98994575     104.90367173
H      70.43687999      84.71249077     105.61609855
H      67.54370902      84.93547847     103.87377089
H      67.99346388      86.79874862     106.51371855
C      63.92866258      90.97693349     100.08486963
O      62.08051024      91.09409653     101.42657533
N      64.31416674      92.53973716      98.04774467
H      65.82405807      92.29029328      96.90634998
C      62.62286169      94.71859159      97.58476172
H      60.68022304      94.09309218      97.87011040
C      62.81561378      96.85209260      99.50472367