 %block lattice_cart
   142.669   0.000   0.000
   0.000 146.65   0.000
   0.000   0.000   162.396
 %endblock lattice_cart

 %block positions_abs
N      86.40695707      42.37033813      77.47712889
H      87.52378532      42.06798192      75.95967867
H      84.81202806      43.17347181      76.80249660
H      85.73988368      40.81131392      78.34829272
C      87.79401619      44.18825484      79.17221339
H      89.30201778      43.33031909      80.28526220
C      88.86738073      46.34443256      77.66232207
H      87.50110861      47.24205256      76.40565408
H      90.28278574      45.51106326      76.42077188
C      90.27144738      48.43258014      79.48401824
H      91.83047159      47.51417315      80.46667591
H      88.94485951      49.31697205      80.78792939
S      91.93818599      50.79851748      77.62641726
C      93.75232325      52.40100540      80.25502657
H      94.96741727      53.85987411      79.45756206
H      94.63482544      50.83820174      81.26980961
H      92.43140456      53.31941238      81.54004047
C      85.87216453      45.20303787      81.01091709
O      83.90873889      46.22349008      80.20967314
N      86.15940293      44.95170427      83.48834830
H      87.81669290      44.31108705      84.18754702
C      84.28479442      46.12522431      85.25902185
H      82.44987017      45.23327349      84.97556291
C      85.07281030      45.22382486      87.85928526
H      86.68096739      46.37844764      88.42053397
H      85.77011931      43.28496566      87.85739552
C      83.02434697      45.37689269      89.90963830
O      81.19320218      46.66190658      89.52980332
N      83.32103400      43.97093631      91.88818176
H      81.90184954      43.98416440      93.16563675
H      84.68163695      42.63301008      91.91652765
C      83.83881901      49.04485146      85.12107183
O      85.33170280      50.67001609      85.71822535
N      81.51067620      49.51539332      84.33305595
H      80.32392807      48.14534174      83.73590243
C      80.63951237      52.15345125      84.08361208
H      81.87539337      53.21547744      82.82316463
C      77.90696812      52.02683959      83.15575646
H      77.60461191      50.86654763      81.47767949
C      76.01157263      51.07063807      85.15319718
H      76.03802879      52.11565672      86.92765019
H      76.26479595      49.06374873      85.53681162
H      74.13885385      51.53173129      84.43132173
C      76.74289671      54.66867697      82.25435701
H      76.86950837      55.96691895      83.84928601
H      74.91175191      54.28317280      81.39453153
C      77.98066744      55.91778606      79.86007377
H      79.91196774      56.52816766      80.23612930
H      77.07737827      57.69601853      79.33661958
H      77.75956946      54.62521327      78.27270366
C      80.87383843      53.64633504      86.68576522
O      81.04391380      55.99715457      86.72355974
N      80.66407881      52.33864443      88.82493540
H      80.25022875      50.47726401      88.79092033
C      81.04391380      53.37232472      91.40252209
H      79.85527595      55.03717360      91.64440705
C      79.91196774      51.50149567      93.33760183
H      80.58282058      52.11187727      95.18575416
H      80.72266032      49.62310772      93.10894495
C      77.04336319      51.26150043      93.63617859
C      75.62039928      49.67035087      91.96188108
H      76.57282134      48.37777808      90.70143362
C      72.96533381      49.62877689      92.09983110
H      72.15275149      48.30407875      90.77702268
C      71.58772333      51.21425727      93.75712107
H      69.56571617      50.99126957      93.92152727
C      73.04281259      52.51249925      95.56180971
H      71.94866105      53.73137272      96.77879345
C      75.59016366      52.59564721      95.48433092
H      76.64274121      53.61609942      96.90540512
C      83.86149573      54.11498716      92.13951535
O      84.59093009      55.05796059      94.15585333
N      85.58870558      53.91089672      90.31970892
H      85.02745686      52.97359247      88.75690525
C      88.23810187      54.75560438      90.61639594
H      88.48187656      56.10864842      92.15274343
C      89.85948705      52.43691020      91.02457682
H      91.91739900      52.50305062      91.05292273
H      89.54201303      50.95914422      89.62428963
C      89.34926094      51.27850797      93.74389300
H      90.29223437      49.45492207      93.88940192
H      87.33670242      50.83253256      93.76467998
C      89.85003842      53.29106649      95.88873236
O      91.27300233      55.12977019      95.67330355
O      88.93730061      52.77895066      97.99199774
C      89.08091981      56.00849293      88.13707503
O      90.72876115      57.59019385      88.39029834
N      88.01133471      55.61165040      85.93365414
H      87.16284760      53.90333781      85.87507263
C      88.59526014      57.09886501      83.68299010
H      90.55112688      56.80595743      83.10662357
C      86.86994002      56.11998678      81.47201032
H      85.01422878      55.62109903      82.21656248
H      87.53701341      54.23215019      80.98635065
C      86.77167425      57.77916648      79.16276476
H      88.71809235      58.05506652      78.54671398
H      86.17263101      59.72369486      79.49346686
S      84.65518078      56.77005263      76.54171436
C      86.62238587      54.27372417      75.17733197
H      86.80379960      52.67501571      76.46612531
H      88.43085395      54.94457701      74.45923597
H      85.65673573      53.30429457      73.63720502
C      88.13227720      59.86353461      84.10250934
O      89.54768221      61.43011772      83.42220787
N      85.86838507      60.39454770      85.02091634
H      84.77045409      59.07173928      85.85239591
C      84.76856436      62.94945768      84.91509165
H      85.20509114      63.75448108      83.07071877
C      82.00011531      62.88142753      85.56515751
H      81.30658575      64.82028673      85.62940821
H      81.90940845      62.16900071      87.49645781
C      80.38439931      61.81184243      83.44677431
H      81.27635013      60.01660244      82.97434273
C      77.59327355      61.32429305      84.42565254
H      77.52713313      59.90132913      85.91286715
H      76.61817477      60.51926964      82.80048791
H      76.47266585      62.93245014      85.06060059
C      80.23889039      63.35385911      81.03926300
H      79.20521009      62.27293566      79.62196826
H      81.92641598      63.96613043      80.02636968
H      78.89151553      64.89776550      81.25280206
C      86.09515223      65.02437717      86.59316863
O      86.11404949      67.32606383      86.10183979
N      87.64472781      63.99258660      88.19943599
H      87.77322920      62.09908083      88.41297507
C      89.22264928      65.28326967      90.15719246
H      88.39494915      66.82717607      91.24000563
C      90.30924191      63.13276113      91.85227696
H      91.87771475      62.12931646      90.96977477
H      88.87871909      61.69467940      92.21132496
C      91.21253109      64.21179485      94.52057050
H      89.47587261      64.74847714      95.48622066
H      92.58447239      65.74814234      94.45065063
C      92.71486351      62.26159730      95.94731387
H      93.79578696      62.92678096      97.57247850
H      94.19640894      61.49058896      94.74355822
N      91.18418519      60.15833191      96.88461813
H      90.97631530      58.59741798      95.80747412
C      90.30168300      59.94668256      99.31102671
N      90.37916178      61.73058420     100.86627147
H      90.00688570      61.21846837     102.66718065
H      91.09158860      63.47291186     100.55635635
N      89.45697534      57.83774800     100.19730835
H      88.88816772      57.83396855     102.01900452
H      89.23776709      56.35809230      99.01056023
C      91.47709277      66.62686508      88.84572238
O      92.46541963      68.43533317      89.83404925
N      92.50510389      65.55727999      86.82182550
H      91.28623041      64.30061199      86.06404525
C      94.37215348      66.79694045      85.25146294
H      95.30378855      68.06305708      86.57994053
C      96.48108805      64.84107371      84.34439431
H      97.86436771      65.98624786      83.33905992
C      97.88893415      63.79038588      86.64041178
H      96.51699285      62.74536723      87.76857839
H      98.61647878      65.27382105      87.86873389
H      99.30811861      62.44868020      85.98656647
C      95.64015984      62.67355763      82.60584611
H      94.37215348      63.54094201      81.23390481
H      94.37404321      61.29594715      83.46756131
C      97.74153550      61.22035810      81.19233082
H      98.79600278      59.98636682      82.46222690
H      98.87159183      62.70568298      80.32305672
H      96.79856207      59.92211612      79.89975803
C      93.46886430      68.26147835      82.91387149
O      94.93529192      69.67499362      81.77814598
N      91.07836052      67.84573855      82.13908370
H      90.14672545      66.32261915      82.81182627
C      90.11837955      68.96256680      79.74291074
H      91.67740376      69.37830659      78.46356603
C      88.67273892      66.89331649      78.48813247
H      87.12694280      66.50403287      79.79204362
H      89.89917130      65.24736487      78.30860846
C      87.60693328      67.27693093      75.79905192
O      89.22642873      67.17488571      74.11152632
O      85.34493089      67.65487619      75.56283613
C      88.64439303      71.39653430      80.01503132
O      88.67840810      72.88752837      78.25758586
N      87.95653265      72.24313169      82.37907895
H      87.83181071      70.87308011      83.70188737
C      86.83592495      74.63741493      83.15764619
H      86.43341324      75.77314044      81.48523840
C      84.25266908      73.99301826      84.44832926
H      84.46809788      72.72312217      86.05648636
H      82.96765518      73.30326815      82.99324000
C      82.76545447      76.31927135      85.55759861
H      84.13928550      77.10728721      86.87473784
H      81.16296655      75.58416780      86.62151452
C      82.05491737      78.30915315      83.53748118
O      80.01968214      78.03136338      82.23357001
O      83.34749017      80.27068906      83.37874417
C      88.51589164      76.20210832      84.94154782
O      88.84281429      78.53781004      84.70722176
N      89.92751719      74.88874852      86.55348438
H      89.75177265      73.00280166      86.31726858
C      91.53945374      75.97723088      88.47344631
H      92.46730936      77.43798932      87.35283860
H      93.09469849      74.67520945      88.84005322
C      90.43207412      76.90319677      90.99056175
O      88.12282857      77.20366326      91.07181998
N      91.92117845      77.19988380      92.88595724
H      93.77311024      77.02224953      92.45132019
C      91.36181947      77.88018528      95.33504254
H      89.34926094      77.60239551      95.68086246
C      92.65628199      76.03770212      97.08303939
H      94.63860489      76.59706112      97.15295926
H      92.64116418      74.15931416      96.23833172
C      91.51677702      75.81282469      99.73810485
H      89.65350688      74.96622730      99.52267606
C      92.91517450      73.94199564     101.42185101
H      94.76899601      74.75079851     101.80168599
H      93.00399163      72.20155770     100.32203029
H      91.86070721      73.53948393     103.14528140
C      91.40906262      78.33749904     101.06091327
H      89.64783770      79.22189097     100.46375976
H      93.05312452      79.52991635     100.70753446
H      91.18040574      78.13718805     103.09803824
C      91.99487778      80.66942131      95.88873236
O      94.00554658      81.44798855      95.10638567
N      90.15995353      82.01490645      97.01122979
H      88.49510465      81.20988304      97.48177164
C      90.42073576      84.62650822      98.04302036
H      92.41250730      85.05547609      98.35671493
C      89.58925618      86.60883111      96.17030157
H      88.77478414      88.20187040      97.19264351
H      88.09637240      85.71688029      95.06670142
C      91.78322843      87.51967920      94.54513694
H      92.44274292      85.86994813      93.50200803
H      93.15516974      88.49099853      95.73377480
C      90.58892140      89.28657330      92.61194693
H      92.28778536      90.27678990      91.99967560
H      89.21886983      90.56213856      93.47366213
N      89.76878018      88.08281765      90.28002467
H      89.23020818      86.25356257      90.31592947
C      89.61571235      89.07870340      87.97644829
N      89.50043905      91.55046542      87.68920988
H      89.05635336      92.36682719      86.02058156
H      89.89917130      92.65784504      89.19154231
N      89.30390751      87.68219566      85.96388977
H      89.57791783      88.57792593      84.30093060
H      89.38894519      85.79246936      86.21333363
C      89.13761160      84.83437811     100.51667209
O      86.87938865      84.71910481     100.59226115
N      90.79301185      84.87784181     102.56324570
H      92.69785597      84.82870894     102.44608267
C      89.91050966      85.18775693     105.17484745
H      88.61793686      83.60416628     105.43562969
C      92.08180519      84.43564585     106.95119020
H      91.46764414      84.49233764     108.91839529
H      93.45185677      85.97388308     106.99276417
C      93.29311976      81.72388860     106.48631753
H      93.62004241      81.27791318     104.50210490
C      95.79700712      81.45554746     107.73542661
H      96.92706346      83.11661689     107.28000257
H      96.62848670      79.81904447     106.79434291
H      95.67984409      81.19287550     109.77444131
C      91.39394481      79.68487390     107.42740123
H      91.03678654      80.31793222     109.35492207
H      92.31235180      77.84050103     107.39905533
H      89.57602810      79.92675887     106.48820725
C      88.54423753      87.61605524     106.04979074
O      87.04757429      87.62172442     107.89416363
N      88.89194717      89.57948089     104.60981929
H      90.19585833      89.20909452     103.26622388
C      87.60315383      92.01155865     104.91784469
H      86.35215501      91.97754357     106.55434766
C      89.66862469      94.04301444     105.28256186
H      90.46042001      94.69497001     103.49488077
H      91.34481193      93.25688829     106.18396132
C      88.64061358      96.42595932     106.71119495
H      87.66551480      95.80801881     108.41572809
H      87.28567981      97.32546903     105.44507832
C      90.81190911      98.24387602     107.05323541
H      91.83236132      98.45741510     105.27878240
H      92.10637163      97.66184032     108.54422948
C      89.80846444     100.79689627     108.02455474
H      88.81257867     100.50398870     109.80467692
H      88.52723000     101.25609977     106.47875862
N      91.82669214     102.92094865     108.04156227
H      91.04056599     104.62548179     108.39683082
H      92.56557513     103.25731993     106.31435243
H      93.35926018     102.49198078     109.09225011
C      86.02712208      92.64839642     102.55757651
O      86.44286187      91.89628534     100.42407550
N      83.81803202      93.94285894     103.19063483
H      83.53646280      94.21497952     105.05957416
C      81.75634062      94.68174192     101.37838730
H      81.07036997      92.88461220     100.64139403
C      79.63606769      95.98565308     102.87882999
H      79.14851830      94.73843371     104.44163366
C      80.51479043      98.42717948     104.28100692
H      82.29491262      98.41773084     105.31657694
H      79.02946555      98.87315489     105.63594069
H      80.52612879      99.91817355     102.86182246
C      77.23611528      96.56390934     101.35571058
H      76.67864601      94.91417827     100.25400014
H      77.32682214      98.18151506     100.08392477
C      74.96466425      97.00799502     103.24354716
H      74.98923069      95.63983316     104.78178439
H      73.23367495      96.99854638     102.12482919
H      74.98923069      98.92228778     104.00510687
C      82.85616133      96.35603944      99.26567328
O      84.27912524      98.10214655      99.71731787
N      81.85838584      95.94596884      96.94508937
H      80.64518154      94.50032820      96.65785096
C      82.67852706      97.17429093      94.62450545
H      83.33237236      99.07724533      95.06859113
C      85.01611851      95.72487086      93.70420874
H      86.23688170      95.56802357      95.35393981
H      85.93830495      96.94563405      92.32659825
C      84.60793762      93.10759991      92.57415241
C      84.19219783      92.75989026      89.92853557
H      84.16952112      94.34537065      88.64352167
C      83.45520457      90.46198308      88.97989295
H      83.11505384      90.16907549      86.98812143
C      83.40985114      88.25478273      90.42175413
O      82.95631683      85.99844952      89.41830946
H      83.27757030      84.62461849      90.55970415
C      83.91818752      88.52879305      92.99556137
H      83.86716491      86.93386405      94.26545745
C      84.41707527      90.91173793      94.12372798
H      84.58904036      91.05157768      96.15329404
C      80.54124660      97.24421080      92.63084420
O      78.46821683      96.27289149      92.96910521
N      81.20831999      98.33458289      90.40852606
H      82.95442710      99.08858369      90.24600958
C      79.21843818      98.99787682      88.40163670
H      77.32115296      98.33836235      88.86084020
C      79.10127515     101.86081219      88.08605242
H      80.96454529     102.56568010      87.56448794
H      78.38317915     102.65071778      89.84538761
C      77.17186458     102.71874793      86.04325826
H      75.26702046     101.96096768      86.22467199
H      77.88240168     102.08002045      84.21967237
C      77.07926799     105.70073605      85.83727809
H      75.95677056     106.19206490      84.18187785
H      78.93875868     106.57189988      85.70877670
C      75.61095065     106.60591496      88.25990723
H      76.92053098     106.72118826      89.84727734
H      74.16531002     105.18862022      88.63974222
N      74.17475865     108.95106531      87.72322496
H      72.75557419     108.52776662      86.52135903
H      75.21032867     109.92616409      86.45143916
H      73.55492842     109.97718671      89.20854984
C      79.77212799      97.70152458      85.91853633
O      81.88295228      97.91884311      84.97367317
N      77.99767498      96.38438533      84.75068547
H      76.23267060      96.55635043      85.45177394
C      78.29058256      95.32991806      82.11451726
H      80.10660955      94.38694462      81.87074257
C      76.31014938      93.24743965      81.59295280
H      74.43932033      94.09781649      81.74413090
H      76.72210972      91.88116754      83.07827768
C      76.93753852      92.05313262      79.04749145
O      75.30859444      92.09092716      77.40531929
O      78.92364087      90.83614889      78.68466401
C      78.09972020      97.32546903      80.08684092
O      77.07926799      99.37204263      80.48935263
N      79.01434774      96.75477169      77.80972073
H      79.74756155      95.02189266      77.48657753
C      78.71199153      98.41206166      75.66110191
H      79.49811767     100.24698591      76.16943829
C      79.82126087      97.32546903      73.24981113
H      78.36617161      96.36359834      72.15376986
C      81.25367342      99.33802757      71.56984443
H      82.48388525     100.45107637      72.79060763
H      79.73244374     100.50587842      70.81584363
H      82.04924820      98.46119455      69.88609830
O      81.78846596      95.61715645      73.86775163
H      81.63917759      94.22442817      72.71312886
C      75.94921166      99.07535560      75.13008880
O      75.44654446     101.23342306      74.39309554
N      74.05003671      97.52766976      75.60629984
H      74.48845322      95.78156265      76.23935815
C      71.45166303      98.35914933      75.33039980
H      71.20410888      99.33613783      73.53327007
C      69.66398194      96.07824967      75.30394363
H      67.71189466      96.73587443      75.32284090
H      69.64508468      94.97842895      77.04438157
C      70.10806762      94.07136033      73.23280360
H      69.11029213      92.33848130      73.72602216
H      72.13763368      93.76711439      73.04761042
C      69.05171061      95.00677486      70.64765800
O      70.14964160      96.86248610      69.57618318
O      67.33205967      93.87293906      69.60830853
C      70.62207318     100.09013863      77.56783576
O      68.37707832     100.80445518      77.68121934
N      72.22456109     100.71563804      79.42732645
H      74.00090383     100.02210848      79.42165726
C      71.49134728     102.35592048      81.49279731
H      70.05137583     103.62392684      80.74635542
H      73.19021124     103.31401173      82.15609124
C      70.10806762     100.89138259      83.73590243
O      69.55059836     102.13860195      85.64074657
N      69.70555592      98.40261304      83.62629831
H      70.23845874      97.59192046      81.98223642
C      68.60384548      96.79067649      85.63885684
H      67.05238018      97.70341430      86.64230151
C      67.47756860      94.32269392      84.64486079
H      66.09428893      93.69530479      86.03758909
H      68.89675306      92.83547932      84.50502105
C      66.04704578      94.29623777      82.17498850
C      66.25869512      92.29501759      80.53848551
H      67.34150830      90.61883036      80.96556366
C      65.25525045      92.53123339      78.09884884
H      65.50469432      90.95898109      76.82139385
C      63.75291803      94.62693986      77.34106859
O      62.72679664      94.86315565      74.84285041
H      61.38887042      96.08391886      74.75592299
C      63.27481728      96.54690179      79.09662435
H      62.08995888      98.10781574      78.53159618
C      64.44077841      96.28234011      81.53248156
H      64.35196127      97.87537939      82.80615710
C      70.78647937      96.23320724      87.60417220
O      72.95777490      96.04990377      86.92765019
N      70.04003748      96.02533733      90.03436024
H      68.17865706      96.16517708      90.42364387
C      71.85984392      95.79101127      92.04880848
H      73.65130446      96.47509220      91.29858714
C      71.00190817      97.35948411      94.28813418
H      72.14141314      96.77177923      95.89818099
H      69.05549007      96.81524293      94.68686643
C      71.10017394     100.29989825      93.89885055
C      68.87785579     101.40160869      93.12217304
H      67.21867609     100.22997839      92.92753122
C      68.93076813     104.00376184      92.82737574
H      67.27347815     104.92405855      92.07337494
C      71.15308627     105.35491615      93.21854907
O      71.18143217     107.86447269      92.55525514
H      69.52225247     108.48619264      92.16597153
C      73.46422156     104.27021325      93.70231902
H      75.21410812     105.31523189      93.63617859
C      73.41508867     101.63215530      94.06703619
H      75.06481974     100.49831951      94.47710681
C      72.30015015      93.00366496      92.74422778
O      70.56538139      91.50133254      92.63651337
N      74.70388202      92.41596007      93.41130116
H      76.00023427      93.77467329      93.07870934
C      75.67142189      89.74199734      93.62484023
H      73.98578602      88.56469785      93.72499572
C      77.02257620      88.82736981      91.20221111
H      78.96521485      89.35082399      91.64629679
C      76.73155835      85.92663991      90.61261649
H      77.64429616      85.23688981      88.90052446
H      74.73411764      85.59215836      90.21955342
H      77.02068648      84.91374662      92.38517978
O      76.47077612      90.35426867      89.00445939
H      77.49500778      91.85282163      89.03091556
C      77.50823587      89.32436784      95.90762962
O      79.06348062      90.90606876      96.55958520
N      77.24556391      87.19086683      97.11138529
H      75.77535684      86.11561255      96.53879821
C      78.95954567      86.02112623      99.02567803
H      80.76423430      87.01323254      99.06914174
C      77.53847149      86.16096598     101.66562569
H      76.83360357      88.09415601     101.69775104
C      75.24056429      84.47344039     101.88483394
H      76.04558770      82.68575929     102.51411282
H      74.22956071      84.30903420     100.09715285
H      73.98011684      84.97232813     103.44007870
C      79.22221763      85.91530156     103.99943770
H      80.49778289      84.30147529     103.89550274
H      78.04302841      86.01545705     105.68507357
C      81.05714188      88.10738409     104.21297677
H      82.04546874      87.72187991     105.97987087
H      80.13684517      89.92908026     104.49076654
H      82.31003043      88.36438687     102.59726076
C      79.77968689      83.26023609      98.44364233
O      78.52490862      81.97900165      96.88461813
N      81.73177417      82.42686678      99.86660624
H      82.92608120      83.65140944     100.71509337
C      82.32136878      79.72266844     100.12927820
H      80.53557742      78.86284296     100.69430637
H      83.65929501      79.41275332     101.66184624
C      83.40229224      78.65686279      97.74255387
O      85.53390352      79.11606628      96.93753047
N      82.07192491      76.80493100      96.75800646
H      80.67352744      75.99612815      97.77089976
C      82.51223114      75.83928087      94.22766293
H      84.02401219      76.89374814      93.30736622
C      83.49110937      73.02358865      94.30325199
H      82.18719822      71.68377269      95.16307746
C      83.80480394      72.01825425      91.51590566
H      85.21453977      73.17098730      90.55214524
H      82.00578449      71.79148710      90.54269662
H      84.51723076      70.08506424      91.56503856
C      86.16129265      72.89697699      95.64306794
H      86.08948305      73.98734907      97.38728532
H      87.34237160      73.78325863      94.20687593
C      87.08725855      70.17388138      96.31581051
H      86.04601935      69.45578538      97.94286486
H      89.04879446      70.25702933      96.93753047
H      87.24410583      68.86241132      94.73410958
C      80.11227872      76.22289531      92.57037296
O      78.38317915      74.54292861      92.31337017
N      80.03291022      78.40363946      91.41386045
H      81.21965834      79.71888899      92.12250782
C      78.21688323      79.07071285      89.45232454
H      78.10349965      77.54759344      88.07093460
H      78.65152028      80.86406313      88.53958672
C      75.55992804      79.68487390      90.53891716
O      73.82137983      79.82282392      88.90997308
N      75.06670947      79.97400203      92.95209766
H      76.51423982      79.97211230      94.19364785
C      72.55337347      80.14407740      94.22955265
H      71.34961781      78.81182036      93.21854907
C      72.70455158      79.23889850      97.10760583
H      73.75523941      80.68075967      98.13561695
H      73.85539490      77.54759344      97.33815244
C      70.19121558      78.72489294      98.30380258
N      69.08761541      76.34194806      98.51734165
H      69.86240320      74.81882866      97.66696482
C      66.92009933      76.45155218      99.73432540
H      65.51036350      74.97945538      99.85337817
N      66.45522666      78.96866764     100.18974944
H      64.76959079      79.68487390     100.72454200
C      68.43754956      80.37840346      99.42252057
H      68.73801605      82.35316746      99.84203981
C      71.32505137      82.75945861      94.17097114
O      72.13007478      84.60572122      95.43141858
N      69.48067849      82.93709290      92.57037296
H      68.93643731      81.31759744      91.71999611
C      68.14653171      85.10082952      92.23400166
H      69.43154560      86.60127221      91.64818651
C      66.28326157      84.60761095      90.04758832
H      65.25147100      82.88229082      90.49356374
H      67.36418502      84.01423689      88.39974697
C      64.29149003      86.59749276      89.27280053
H      63.32395016      87.23999971      90.97544394
C      65.43477445      88.86894378      87.98967637
H      63.97023656      89.89317546      86.96733443
H      66.82183357      88.25856219      86.59505835
H      66.40987323      90.01789738      89.39185330
C      62.56805963      85.33137613      87.33205162
H      61.83673555      83.51912859      87.99156609
H      63.47701799      85.09516034      85.49901708
H      60.87675458      86.48221946      87.08071802
C      66.62530203      85.90963239      94.69064588
O      65.44422308      84.33926981      96.01912347
N      66.41743213      88.35871768      95.17630554
H      67.43410489      89.57570143      94.11616907
C      65.22879428      89.57759115      97.42885931
H      64.48424212      88.07714846      98.63072523
C      67.32261104      90.78701599      99.15039997
H      66.20767251      91.86415999     100.50533375
H      68.32416598      92.19864155      98.03546145
C      69.11596131      88.94642257     100.70942418
H      70.14397242      87.62739361      99.50755825
C      71.24946232      90.53568240     101.78845791
H      70.50113070      92.12116277     102.86749163
H      72.62518307      91.07803384     100.35604536
H      72.23023027      89.46609731     103.25110607
C      67.72134329      87.47054632     102.88260944
H      66.37963761      86.11561255     102.10404221
H      66.72734725      88.84059790     104.05801920
H      69.06304897      86.59749276     104.17896169
C      62.83451104      91.31424963      96.73155030
O      60.92399774      91.21787359      97.99199774
N      63.01214532      92.81091287      94.78135274
H      64.53526473      92.75233137      93.62861968
C      60.87675458      94.30379666      93.68342176
H      59.19867762      93.11137937      93.63050942
C      60.36274903      96.69430045      95.31236584