 %block lattice_cart
   142.669   0.000   0.000
   0.000 146.65   0.000
   0.000   0.000   162.396
 %endblock lattice_cart

 %block positions_abs
N      97.43728957      44.41596687      83.34000477
H      97.25776556      44.92052379      85.17114958
H      99.31378779      44.24589150      83.03386912
H      96.47919832      42.92308308      82.63324714
C      96.51132367      46.43419457      81.89436414
H      97.14249226      48.21620648      82.71261564
C      97.54878342      46.21120687      79.21662197
H      97.01777033      44.47076893      78.25475126
H      99.58968784      46.46254047      79.36402062
C      96.74564974      48.34092842      77.52531692
H      94.68773777      48.35982568      77.40437443
H      97.35981079      47.87038657      75.61480361
S      97.99853828      51.50810972      78.41726773
C      96.51132367      53.61704429      76.18739068
H      97.00832170      52.95564008      74.30144382
H      96.96485799      55.59747746      76.52565169
H      94.45341172      53.65861827      76.30077427
C      93.68051365      46.42663567      81.92459976
O      92.52967033      44.42163605      81.59011822
N      92.54289841      48.59793120      82.20805871
H      93.63138077      50.15695541      82.35545736
C      89.85381788      48.96264838      82.39514162
H      88.97131569      47.64739886      81.08178184
C      88.85226292      48.30502362      85.08989134
H      89.54579248      46.37561306      85.27319479
H      86.82080713      48.36738459      85.42059344
C      89.97476036      49.93963688      87.24417934
O      90.87993926      51.98998993      86.89457997
N      90.00688571      49.01745044      89.47972556
H      91.09536805      49.76578206      90.85922577
H      88.99966158      47.47165432      89.97294413
C      89.02611774      51.71597962      81.66381753
O      90.60592894      53.31090862      81.34067434
N      86.62427561      52.21675709      81.68082508
H      85.36949732      50.81646989      82.01341690
C      85.47154256      54.71119582      81.31988734
H      85.95909194      55.29701098      79.40748432
C      82.52167977      54.57135607      81.56555178
H      81.71476664      53.41862302      80.06321936
C      81.90562900      53.14650243      84.07888777
H      82.96009628      51.38149806      84.19605080
H      79.89684992      52.69107839      84.13368983
H      82.23822083      54.17829300      85.82877433
C      81.40296180      57.23964963      81.48618326
H      82.01145368      58.37915460      83.09056091
H      79.39796219      56.95052150      81.86601826
C      81.51634538      58.75332041      79.02386988
H      79.75512045      59.80778769      78.84434588
H      81.65429539      57.52310858      77.37791827
H      83.18119426      59.96841442      79.01253152
C      86.65451122      56.62737830      83.25118765
O      86.90206536      58.80056356      82.62001906
N      87.45197573      55.81668572      85.48106470
H      87.55024149      53.99121010      86.03475450
C      88.47431767      57.64594079      87.29142249
H      87.39150449      59.39771708      87.23851016
C      88.08881350      56.61603995      90.14490924
H      88.58581151      58.11081346      91.47527655
H      89.25477463      54.96819860      90.55120039
C      85.39406378      55.93384875      90.85544633
C      83.64606693      57.78389081      91.73038960
H      84.22054374      59.70196301      92.12534240
C      81.17241519      57.07902289      92.54486164
H      79.83259924      58.47175118      93.19681723
C      80.28802328      54.62426841      91.88723690
H      78.30003120      54.28600740      92.21226981
C      82.05680710      52.74777018      90.92347648
H      81.39540289      50.84481579      90.60600245
C      84.60226844      53.42429220      90.59277436
H      85.95342276      52.06179953      89.89357564
C      91.23898726      58.38671350      86.83788818
O      92.04212094      60.58068575      87.38023963
N      92.69029707      56.86359409      85.49240305
H      92.12337917      55.05512601      85.26941534
C      95.15450018      57.43240171      84.42470769
H      96.12770922      58.66261354      85.75885446
C      96.49809559      54.87938146      84.04487269
H      97.82468346      55.13827397      82.49151767
H      95.00710152      53.61704429      83.39102739
C      97.62059301      53.91373132      86.45616347
H      95.97653113      53.93262858      87.69582392
H      99.05300557      55.19496576      87.20260536
C      98.53522055      51.23031995      86.41081003
O      97.18406623      49.58247861      87.45582869
O     100.62336813      50.57647465      85.37901946
C      94.65372271      58.82513001      81.93215867
O      95.97086194      60.57123712      81.31610790
N      92.74698886      58.28655801      80.53565092
H      91.71897774      56.73698243      80.96272907
C      92.31046208      59.56590272      78.08278617
H      93.91672945      59.12559649      76.86958189
C      89.98231925      58.34324980      76.92816339
H      88.28156558      59.15394238      77.75775325
H      89.96909117      56.28344811      77.00186272
C      89.52311577      58.98953619      74.07278693
H      91.05946325      58.12215182      73.01076075
H      89.42296028      61.04177897      73.90460129
S      86.42774407      57.74231683      73.11280598
C      86.58648107      57.19240647      69.80389519
H      84.87627876      56.25699195      69.14060127
H      88.17763064      56.03778369      69.19162388
H      86.72443109      59.02922045      68.88548821
C      91.75677226      62.35702848      78.32845059
O      93.06635260      63.80833829      77.23240933
N      89.92940692      63.04299914      79.96684330
H      89.06580200      61.57657152      80.83422769
C      89.40595273      65.53743787      80.92304483
H      89.10548625      66.70906818      79.25441648
C      87.02489758      65.55066595      82.58222453
H      86.58081190      67.32133951      83.53842604
H      87.15528869      64.15037876      84.08644668
C      84.67596778      65.01398368      80.89658866
H      85.09926646      63.20740533      80.00463783
C      82.40640648      64.77398844      82.46128205
H      82.53112841      63.16583135      83.74251648
H      80.81903636      64.29777741      81.23484966
H      81.95854134      66.45206540      83.56677193
C      84.10338071      67.19094839      79.11457674
H      84.12605741      69.07689525      79.94605633
H      82.28546399      67.00764494      78.16026496
H      85.54146242      67.17772031      77.63681076
C      91.51488729      66.87536410      82.32900120
O      91.58669689      69.25641925      82.08711623
N      93.39138553      65.58090157      83.54598495
H      93.31390674      63.69873417      83.85590007
C      95.67795437      66.84512848      84.40392069
H      95.05056523      68.58367669      85.31476878
C      96.87226140      65.32578852      86.45805320
H      97.34280324      63.37748069      85.98562161
H      95.58157833      65.26342755      88.06243084
C      99.29489054      66.50497774      87.45015951
H      99.02276994      68.41738077      88.16636578
H     100.73675170      66.42182978      85.98184217
C     100.34557836      65.14626452      89.79153041
H     102.22396632      65.89459614      90.18648321
H     100.65738321      63.12803682      89.51374064
N      98.73553155      65.34279606      91.96093622
H      97.54122452      63.87636844      92.22738762
C      98.90938636      67.12480797      93.66357962
N     100.73486199      68.85012810      93.61255701
H     100.79533323      70.12380363      95.03174148
H     102.25609167      68.92193770      92.45982396
N      97.47319437      67.24764018      95.50795250
H      98.11948076      68.23407732      97.00839520
H      96.22975446      65.83412490      95.82920599
C      97.47508409      67.58590119      82.14380802
O      98.86970211      69.43783298      82.20994844
N      97.64704919      66.03254616      80.18605156
H      96.40738873      64.58312608      80.23140499
C      99.08324118      66.63536886      77.85223957
H     100.97296750      67.24008128      78.41159855
C      99.50276042      64.16549657      76.24975165
H      97.67350536      63.23764095      76.07211738
C     100.61958867      64.92138709      73.59846563
H     101.30933878      63.27921493      72.55722644
H     102.11058274      66.32923319      73.79310745
H      99.23819875      65.84735298      72.38526135
C     101.27532371      62.38348465      77.53665528
H     100.67250101      62.20207093      79.49630145
H     102.99497465      63.33401699      78.16026496
C     102.32790127      59.95707607      76.39148112
H     102.87781162      58.67773135      77.91082108
H     103.98519124      60.47864053      75.28599123
H     100.76320788      59.17283965      75.30488850
C      97.85869854      68.86713563      76.41982703
O      99.12103570      70.74174414      75.97763106
N      95.46441530      68.61202258      75.98896942
H      94.58569256      66.92260726      76.11747080
C      94.21152675      70.72662632      74.72852196
H      95.12237483      71.11213049      72.92383334
C      91.39394481      70.07089129      74.56222605
H      90.30168301      71.81510868      74.46585002
H      90.81190911      69.09201306      76.27809754
C      90.66828992      68.30777664      72.41927641
O      91.86259695      68.42682940      70.36703363
O      88.99210268      66.78465724      72.75942715
C      94.21341648      73.31744110      76.16282424
O      94.38916102      75.24118249      74.94773023
N      93.67484448      73.36090480      78.63836571
H      93.37248827      71.73385045      79.58889804
C      92.99832245      75.81754901      79.84401109
H      94.01499521      77.30287389      78.84056642
C      90.17129189      75.96116821      79.61346448
H      89.43618836      74.92748792      81.23673940
H      89.65917606      75.23929276      77.75397379
C      89.18107531      78.55576244      79.94038715
H      89.93129665      79.68770850      78.39270129
H      89.70263977      79.53275094      81.67515590
C      86.40128789      78.90536181      79.42827132
O      85.15784798      77.44838282      78.07900672
O      85.38083568      80.84611073      80.35234748
C      93.88838355      76.16714838      82.61812932
O      94.21908566      78.29120076      83.44205000
N      94.45719117      74.04876518      84.06565968
H      93.74854380      72.34612177      83.57433084
C      95.88393454      74.28687070      86.55253951
H      97.40516422      75.67392981      86.58088541
H      96.62848671      72.44816700      87.10622933
C      94.25499046      75.11079137      88.79753437
O      92.00243668      75.98762438      88.55375967
N      95.32268583      75.06354821      91.06520595
H      97.06123403      74.28120152      91.15591280
C      94.06979728      75.46417019      93.48783507
H      92.05345930      75.62290720      93.10044118
C      94.64427407      73.14547601      95.13567642
H      96.59636135      73.36846371      95.75361693
H      94.51199324      71.53920864      93.85255225
C      92.96619710      72.76375129      97.57909254
H      92.71297379      74.60245499      98.47482281
C      90.25255012      71.91148472      96.83076092
H      89.55902056      73.52720072      95.75550666
H      89.14139106      71.90014636      98.56552969
H      90.37538234      70.21451049      95.67046897
C      93.93751643      70.90992978      99.44425241
H      95.99542838      70.89481197      99.39889899
H      93.34981154      69.01075483      98.89812151
H      93.08147042      71.19716818     101.29429448
C      94.80301109      77.84144589      94.65190648
O      96.94596072      78.18348636      95.33031823
N      93.00210190      79.42692627      95.41157646
H      91.32780440      79.12645979      94.54419208
C      93.56524035      81.63601633      97.04052054
H      95.59291669      81.73995128      97.38823018
C      92.78478338      83.99628449      95.42291482
H      92.87926970      85.51562445      96.80997394
H      90.85726254      83.66180294      94.77851816
C      94.42695554      84.29297153      93.12122817
H      94.37971240      82.62623292      91.90991360
H      96.34880721      84.66902706      93.75428648
C      93.72019790      86.67969586      91.56787314
H      95.41906187      87.68314053      90.97449909
H      92.48620662      87.88534125      92.69792949
N      92.50321417      85.90868752      89.16036182
H      92.07991546      84.07565300      88.82965971
C      92.45219156      87.13700963      87.01363274
N      93.08336013      89.52562369      86.59411348
H      92.45597101      90.39489779      85.01430229
H      93.73153626      90.60654714      88.02652604
N      91.32591466      85.98805603      85.22595164
H      91.15961875      86.71938011      83.47039589
H      90.61348785      84.27218454      85.66247841
C      92.51833197      81.36200601      99.71070382
O      90.44341249      80.36234079     100.06408264
N      93.86003766      82.59788702     101.41334724
H      95.28489129      83.69581801     100.77650947
C      93.80145613      82.59788702     104.12321477
H      92.35014634      81.22972517     104.64477924
C      96.30156406      81.63601633     105.15500533
H      96.19762911      81.53775056     107.20724811
H      97.68673344      83.08543641     104.69202239
C      97.15194089      79.03953238     104.02494900
H      97.57146013      79.26440981     102.02183910
C      99.62370291      77.98128564     104.93012790
H     101.10335861      79.39480092     104.69202239
H     100.34179890      76.32210594     103.94747023
H      99.40827411      77.68459861     106.95780423
C      95.02977824      77.08555537     104.17234765
H      94.50065488      76.98351015     106.16222946
H      95.87826535      75.34322771     103.47881809
H      93.35548073      77.39358076     103.01205570
C      93.20619235      85.13956891     105.30429372
O      92.51833197      85.16035590     107.56818583
N      92.98698409      87.19559114     103.87377089
H      93.41973143      86.98016234     102.02750828
C      92.21219630      89.71837577     104.61454362
H      91.19552355      89.44247573     106.38521717
C      94.44585281      91.68747059     104.72792718
H      93.89216301      93.59609416     105.27594781
H      95.27733238      91.68747059     102.84387005
C      96.45274216      90.93158006     106.71025009
H      97.52421698      89.34798941     105.93924175
H      95.44362831      90.39867724     108.42423186
C      98.38971162      93.02350709     107.11843097
H      97.21997104      94.71292242     107.23937345
H      99.61803373      93.12177286     105.46681017
C      99.99975844      92.44903029     109.48247860
H     101.54744429      91.16212667     109.04028263
H      98.65805277      91.58542537     110.78261029
N     100.98808530      94.84331353     110.48214382
H     102.08412656      95.57652734     109.10075387
H     102.16727453      94.61087719     111.96557896
H      99.72952758      96.14911441     111.06984870
C      90.22231451      90.69536427     102.73426593
O      90.32247000      89.91112785     100.57808821
N      88.45731012      92.39800768     103.41645712
H      88.41573615      92.86288036     105.26649919
C      86.28790431      93.13311122     101.64767330
H      85.53201380      91.34543013     100.95603347
C      84.29424306      94.53906759     103.24638176
H      85.11438427      96.23226237     104.08542024
C      82.21554412      95.30818620     101.29618421
H      80.85116171      96.45902953     102.32419531
H      81.44075632      93.59042499     100.46281491
H      82.99600108      96.47981652      99.79007234
C      83.02812643      92.90256461     105.29862454
H      84.36605266      92.14667408     106.66678638
H      81.96610025      91.47015206     104.26494424
C      81.32359329      94.52772924     106.95969396
H      79.78535608      95.40456225     105.90333696
H      82.24389000      96.08486372     107.94802083
H      80.61494593      93.37877564     108.51682845
C      87.36504831      94.83197517      99.52929011
O      88.24377105      96.97492481      99.81463877
N      86.98332361      93.95136271      97.17658085
H      85.88917206      92.39044878      97.06508698
C      87.88283333      95.05307315      94.75962089
H      89.05635337      96.60642818      95.42858401
C      89.73476511      93.01405846      93.44248165
H      90.94607967      92.08809257      94.82576131
H      90.81568856      93.82475105      91.88912661
C      88.33636764      90.83898347      92.08565816
C      87.86582578      91.11488352      89.43059268
H      88.45731012      92.73437897      88.34022060
C      87.06647155      89.01728731      88.04731302
H      86.82647632      89.24027501      86.03097505
C      86.90395510      86.68725476      89.27941458
O      86.08003443      84.61800445      87.96794451
H      86.21042554      84.88634559      86.17648397
C      87.06836129      86.55497392      91.89668552
H      86.73199001      84.77863119      92.84343841
C      87.71464768      88.58642971      93.37823095
H      88.19652790      88.45792832      95.35677440
C      85.70775833      95.95636233      93.06264665
O      83.51378610      95.21936907      93.46515836
N      86.13672622      97.30751664      90.88001277
H      87.96976073      97.47381256      90.37545585
C      84.16952112      98.22592363      89.07154468
H      82.38750921      97.77616877      90.00317976
C      84.32258896     101.21736038      88.65769463
H      82.88261751     101.83341116      87.31976839
H      86.19341801     101.72569676      87.96416507
C      83.81236284     102.70457499      91.15402308
H      85.17674525     102.01671462      92.53730275
H      82.01901258     102.13576737      91.99684102
C      84.12605741     105.62798160      91.16347172
H      86.08192414     106.26670909      91.12567719
H      83.34371072     106.24403238      92.96816035
C      82.61994555     106.62008791      88.87690287
H      80.62250484     106.33851869      89.28508376
H      83.07347985     105.39176581      87.28764304
N      83.06970040     109.32239654      88.57643640
H      84.94430891     109.59073768      88.35722813
H      82.98655245     110.32962067      90.19593185
H      82.10971943     110.23513435      87.20449509
C      84.12227796      96.86721041      86.59222376
O      86.16696183      96.36454321      85.54909483
N      81.88673174      96.37210212      85.69271403
H      80.46376782      96.86154123      86.86623407
C      81.39351317      95.26283277      83.10189927
H      82.72765994      93.70947774      82.88647047
C      78.62128466      94.38788949      83.08111227
H      77.43075709      96.06974591      83.10756844
H      78.26223666      93.25972288      84.76674814
C      78.26601612      92.84965227      80.67360095
O      78.77246278      90.61977522      80.66604204
O      77.41563927      93.96081134      78.82922806
C      82.27223591      97.19980224      81.18382705
O      82.52734896      99.35409024      81.74129631
N      82.56136402      96.39855829      78.80277191
H      82.49900307      94.57119294      78.25286155
C      82.85049216      98.16923184      76.66171198
H      84.45675952      99.34086216      77.20406343
C      83.37394635      96.75571656      74.18239107
H      83.28890866      98.11442978      72.63470521
C      86.08192414      95.87699382      74.37136369
H      87.31402571      97.52672490      74.31656163
H      86.63750369      94.63733336      72.82178812
H      86.42963380      95.09275740      76.24408247
O      81.69208993      94.69402515      73.90838075
H      82.04924819      93.99293669      72.27376748
C      80.60549729      99.81329373      76.24786192
O      80.73777814     101.99781735      75.60724470
N      78.26034695      98.85520249      76.63903527
H      78.33404627      97.01271934      77.13036411
C      75.86039453     100.36887327      76.92060449
H      75.66764244     101.87309542      75.52787620
C      73.48689828      98.64355315      76.52754142
H      71.73323225      99.71691769      76.67305034
H      73.38107361      97.23003786      78.02042520
C      73.43398594      97.17901525      73.97830063
H      74.91175191      95.75038216      73.84035060
H      73.82326955      98.29017433      72.28510585
C      70.84317117      95.89022191      73.65137798
O      70.29137108      93.98537778      74.96473776
O      69.50146548      96.80862890      71.94684483
C      75.71488559     101.72380704      79.45850694
O      73.98389629     103.30361823      79.68527409
N      77.37406530     101.20791175      81.28020310
H      78.89340526     100.16856228      80.78131536
C      77.79925371     102.83874556      83.54220550
H      76.64841040     104.53571979      83.74251648
H      79.77401772     103.36219975      83.26630545
C      77.16241596     101.56507003      86.13679973
O      78.40774559     102.11875984      88.01140822
N      75.63929655      99.57329849      86.04798258
H      74.66419777      99.36353887      84.42092822
C      74.45254841      98.63221479      88.35722813
H      73.94610177     100.12320885      89.68381602
C      72.05637545      97.11287483      87.70149310
H      70.87340679      96.52139050      89.27941458
H      72.85006050      95.38566498      86.90591833
C      70.32916561      98.50749285      85.85900996
C      69.74712991      97.41712077      83.49874178
H      70.30459917      95.47070267      83.24551847
C      68.42243175      98.85520249      81.66759699
H      67.88574948      98.07852498      79.85912890
C      68.32605571     101.45546590      81.98696073
O      67.05804936     102.78583322      80.21061801
H      66.50058010     104.44690265      80.67927013
C      68.73423659     102.55906607      84.35667754
H      68.35629134     104.54138897      84.66092348
C      69.66776140     101.06051310      86.33711071
H      70.17987723     101.91466939      88.11912263
C      76.24400897      97.16389744      90.17514485
O      78.03169006      95.79195614      89.46082830
N      75.71677533      97.32830363      92.65257605
H      74.20121482      98.31096132      93.27051656
C      77.43453655      96.32863841      94.53285374
H      79.29402724      97.11098511      94.11333448
C      76.64274122      97.18846389      97.22382400
H      77.92586539      96.15100414      98.45403582
H      74.75490462      96.71225285      97.89656657
C      77.06603992     100.01927390      97.63578433
C      75.00434850     101.47436316      98.32175498
H      73.17509344     100.60130961      98.57497831
C      75.32560198     104.05383958      98.36521869
H      73.69476816     105.25381579      98.62789066
C      77.76523865     105.23302880      98.12333372
O      77.96365991     107.77471069      98.39923376
H      76.40085624     108.67233069      98.19892277
C      79.87417322     103.72124775      97.50728295
H      81.68642074     104.65099310      97.60743844
C      79.44709507     101.08130009      97.19736783
H      80.92297132      99.80384510      96.60210405
C      77.35705777      93.44680579      94.29285848
O      75.24812320      92.44336111      94.03396598
N      79.46977179      92.19202751      94.51206674
H      80.95509667      93.35609892      94.80119486
C      79.94031363      89.36121750      93.93381048
H      78.06003595      88.52595847      93.86389062
C      81.07792887      89.22893666      91.17292034
H      82.89395586      90.18891762      91.33543681
C      81.07981860      86.61355544      89.88790645
H      79.15040803      85.89734917      89.95593661
H      82.26089755      85.24350386      90.87623331
H      81.76012008      86.66835750      87.94526781
O      79.53402248      90.67079783      89.54208653
H      79.79480470      92.40745631      90.00129003
C      81.47855086      88.32375775      95.88967722
O      82.92986065      89.61255110      97.19925756
N      81.24422479      85.85010601      96.20904096
H      79.90818828      84.82776407      95.30764152
C      83.10371549      84.15313178      97.62633571
H      84.85927123      85.21893742      97.49405486
C      81.92074680      83.85644475     100.38722585
H      81.05336243      85.59499296     101.07319650
C      79.75134101      81.84199650     100.55352176
H      79.42819780      81.26374025     102.50371931
H      80.08015338      80.01463115      99.65968121
H      78.09405102      82.80953637      99.80896959
C      83.82559094      83.09866450     102.46403507
H      84.56825338      81.28452724     101.82719730
H      82.75978530      82.95126584     104.22148053
C      85.95909194      84.85422024     102.60009537
H      87.28379008      84.58398938     101.04674033
H      86.90962427      84.37045030     104.36132029
H      85.18052470      86.75339519     102.75127346
C      83.29646757      81.58121427      96.37722661
O      82.14940369      81.19382037      94.37411671
N      84.97832399      80.03919760      97.43736307
H      86.11782895      80.60233604      98.86221672
C      85.12950209      77.34066842      96.71359789
H      83.16796618      76.73784573      96.53029444
H      86.13483648      76.23517853      98.13089263
C      86.32947830      76.93815672      94.23994615
O      88.11149020      78.32332610      93.59177003
N      85.18241442      75.39047087      92.61100206
H      83.84070875      74.21317137      93.28563436
C      85.42996858      75.43771402      89.79153041
H      87.04379485      76.63391078      89.34366527
C      85.89295151      72.75052321      88.74462203
H      84.25455880      71.53542919      89.03375015
C      86.23688171      72.88469377      85.82499488
H      87.78834701      74.13758232      85.30720987
H      84.55313556      73.65003293      84.92170570
H      86.12349812      71.01764418      84.96516940
C      88.21920461      71.33700792      90.21482910
H      87.53890313      70.34112216      91.88345743
H      89.62894044      72.64847798      90.94237374
C      89.89917131      69.53609875      88.84666725
H      91.65850650      69.04099045      89.79153041
H      90.34703644      70.09734746      86.91536697
H      88.91840335      67.73707930      88.63501790
C      83.01300861      76.79642724      88.84855699
O      81.22343779      75.39991950      88.37990485
N      82.97710381      79.27385844      88.84477752
H      84.67785750      80.03730787      89.25673787
C      81.15162820      80.81965456      87.55409445
H      80.78880075      79.92392429      85.73617774
H      81.62783924      82.78119048      87.13835466
C      78.44554012      80.97083267      88.84477752
O      76.59738778      81.57932454      87.41047525
N      78.17341953      80.42092231      91.27685530
H      79.83826842      80.48328328      92.20849037
C      75.68842943      80.57587987      92.61478152
H      74.13507440      80.04675650      91.36945189
C      75.52969241      78.82032412      94.98449831
H      76.97533305      79.27385844      96.37911633
H      75.90574796      76.90414164      94.32876328
C      72.92942902      78.50851928      96.17313617
N      71.00568763      76.89280328      95.57976211
H      71.26458013      75.29787428      94.56308936
C      69.04604144      77.48050817      97.09532262
H      67.14497676      76.76997107      96.86855545
N      69.57138535      79.54975848      98.44269748
H      68.31660709      80.40769423      99.59543052
C      72.13574396      80.15825035      98.07420084
H      73.27902837      81.63223688      98.90190096
C      75.20088004      83.35188782      93.25350901
O      76.34605419      84.31564824      94.96749078
N      73.19210097      84.30242016      92.04786363
H      72.25668645      83.31409330      90.70993739
C      72.41164400      86.92158083      92.36533764
H      74.08216207      88.11777758      92.52218493
C      70.88474515      87.71148643      90.03719483
H      69.28414696      86.41513418      89.96538523
H      72.01669121      87.12756100      88.41958911
C      70.10428817      90.49505328      89.84444274
H      71.32694109      91.70069867      90.98016827
C      70.00980186      91.25472326      87.05709643
H      71.93921242      91.15456777      86.34277988
H      69.18777092      93.13878040      87.17425946
H      68.71722905      89.97537855      86.08955656
C      67.30371378      90.64245194      90.93481483
H      67.36985420      90.35899299      92.97571924
H      66.25113623      89.00783868      90.25262363
H      66.47979310      92.51328099      90.68537095
C      71.01513626      87.19181169      94.91268872
O      68.99879828      86.10521906      95.54007785
N      71.77858568      89.01728731      96.51139717
H      73.10328384      90.21726352      95.83487515
C      70.63719099      89.51617505      98.98693864
H      69.93421281      87.78140630      99.84865385
C      72.69510295      90.69536427     100.64989780
H      71.92787406      91.51928495     102.37332820
H      73.61539967      92.30919055      99.75605726
C      74.67553613      88.70359274     101.49649519
H      74.92686972      87.26551102     100.04329565
C      77.21343856      89.87144360     101.91223498
H      77.95043183      90.51017110     100.09809773
H      78.53624698      88.63745232     102.89678240
H      76.96777414      91.60054318     103.00449679
C      73.72878324      87.08598702     103.62621674
H      73.22044687      88.04407826     105.37799304
H      75.07048893      85.56097788     103.95313941
H      72.01480148      86.02774028     103.19535914
C      68.14842143      91.12811160      98.85465781
O      66.30593828      90.67835674     100.19825321
N      68.34495298      92.96492558      97.18036029
H      69.93799226      93.08208861      96.14101082
C      66.35507116      94.79040119      96.84398901
H      64.54093391      93.82475105      96.71359789
C      66.16987798      96.64422271      99.05307907