 %block lattice_cart
   142.669   0.000   0.000
   0.000 146.65   0.000
   0.000   0.000   162.396
 %endblock lattice_cart

 %block positions_abs
N      96.80234152      44.97532585      82.95639033
H      96.35636611      45.36083002      84.77052760
H      98.71096510      45.01689982      82.93938280
H      96.02944346      43.25000572      82.69560811
C      95.71196944      46.95008984      81.42382229
H      96.39227091      48.79446273      82.04365252
C      96.79289289      46.70820487      78.81788971
H      96.35258666      44.82792720      78.10546290
H      98.84702539      46.72521242      78.95772946
C      95.80456603      48.79824218      77.10012849
H      93.85247875      48.49777570      76.51431333
H      97.03855731      48.83981617      75.45039742
S      96.25999007      51.90117278      78.39459102
C      93.67484447      53.32413671      76.80533119
H      93.96775205      53.08414145      74.78143431
H      93.80145614      55.35937194      77.09634904
H      91.80590515      52.57958453      77.23996825
C      92.86037243      46.92930286      81.18004760
O      91.84180995      45.09248888      80.14636731
N      91.60181471      48.74344011      82.38947244
H      92.57124431      50.17774239      83.19071641
C      88.89383690      48.68107915      82.61623961
H      88.16440254      47.43952896      81.14603254
C      88.18329981      47.32236593      85.15225231
H      89.38894519      45.66696568      85.39035782
H      86.40128789      46.31703153      85.37901947
C      88.34959572      48.88139014      87.56921227
O      89.00533075      51.18496651      87.59566843
N      87.90551004      47.81558449      89.77830232
H      88.50077383      48.94375111      91.19937651
H      87.62394082      45.93908627      89.98050304
C      87.62016137      51.26622475      82.24585324
O      88.80879922      53.20508394      82.05877034
N      85.03312604      51.37582887      82.40081080
H      84.13739577      49.69019300      82.37624437
C      83.55158061      53.72664841      81.64303055
H      84.06936562      54.31057383      79.73629671
C      80.63762264      53.25988600      81.82255455
H      80.37873013      51.90495225      80.29565569
C      79.52835329      51.93896731      84.21683778
H      77.58571464      51.33425490      83.90692268
H      79.47355123      53.20130450      85.84578188
H      80.47510618      50.16073486      84.64580566
C      78.73277852      55.42362264      81.12335581
H      78.69876344      56.81635092      82.64080605
H      76.96399469      54.39561152      80.88147084
C      79.16741557      56.84847627      78.53065132
H      78.56648260      55.54267540      77.05855451
H      81.12706175      57.37004074      78.16782387
H      78.01657224      58.54922996      78.37947320
C      83.92385670      56.16817480      83.20016503
O      83.97487931      58.31679363      82.34978820
N      84.65896023      55.83747270      85.59822773
H      84.69297531      54.11215257      86.41647921
C      85.44319665      58.05034220      87.13646495
H      84.12227796      59.61503559      86.90591833
C      85.35815897      57.12248659      89.93892906
H      86.02523236      58.67395190      91.11811828
H      86.57136326      55.47086579      90.15435786
C      82.76167501      56.17573370      90.81765180
C      80.87950761      57.78200107      91.48283546
H      81.15729737      59.80022877      91.36567243
C      78.47577574      56.75398995      92.03463555
H      76.88840563      57.92184083      92.56753837
C      77.97310854      54.17262381      92.19715200
H      76.17975827      53.25610656      92.52029520
C      79.80236361      52.60604070      91.27307584
H      79.47166150      50.59159245      91.31464983
C      82.26845645      53.53389633      90.72127575
H      83.80102449      52.29423587      90.19026266
C      88.06046760      59.15583211      86.62623883
O      88.26833749      61.48964410      86.70560735
N      89.96909117      57.52688803      86.17837370
H      89.35304039      55.72219940      86.21427850
C      92.47486826      58.07490866      85.36579138
H      93.28178140      59.57724108      86.52230389
C      94.23798291      55.83558297      86.01774697
H      94.10759180      54.48253893      84.47006111
H      93.76744106      54.87560201      87.77708216
C      96.96863744      56.47053102      86.42781757
H      97.35414160      58.49064845      86.54309088
H      97.93050813      55.93762820      84.68548992
C      98.28010750      54.89638899      88.46305281
O      99.60480564      53.01800103      87.71850064
O      97.94373621      55.41606373      90.79686481
C      92.62226692      59.08969169      82.61246015
O      93.97720068      60.93217483      82.04554226
N      90.98387420      58.04845248      81.03264895
H      89.85381787      56.63115774      81.62791275
C      90.27522684      59.16717046      78.55143831
H      91.84369967      58.76465875      77.27776276
C      88.05479842      57.64216133      77.41193334
H      86.47876667      58.09191619      78.65726297
H      88.50644301      55.64094117      77.59334707
C      87.49732916      58.23364566      74.61891784
H      88.85793210      57.22075236      73.45106698
H      87.80535454      60.23675556      74.24853149
S      84.27723552      57.52121884      73.75342319
C      84.45864924      56.75776941      70.48230695
H      86.38428036      56.28911729      69.91727877
H      83.94275396      58.36025732      69.29366909
H      83.04135451      55.29701097      70.17050210
C      89.61760208      61.95829622      78.71017532
O      90.93852077      63.56267386      77.59145734
N      87.45197572      62.61403126      80.03676318
H      86.66395985      61.24020022      81.10256882
C      86.52978928      65.25964810      80.46006187
H      86.40506735      66.14592973      78.60435064
C      83.91062861      64.91949736      81.71672987
H      83.55158061      66.79410587      82.49529711
H      84.26778689      63.62881429      83.28142327
C      81.47477140      64.25998288      80.02731456
H      81.60705224      62.50631685      78.95961918
C      79.27701969      64.00109036      82.01341690
H      79.76267936      62.84457787      83.64803016
H      77.83893797      62.93150527      80.99863387
H      78.82348538      65.90404476      82.66348276
C      80.98533228      66.40860170      78.23018482
H      81.28012959      68.24919512      79.10323838
H      79.09749569      66.41994005      77.40815389
H      82.16452150      66.17805508      76.55777704
C      88.56880397      66.86213600      81.78853947
O      89.26233353      68.88414316      80.80588180
N      89.97098090      65.86813996      83.64614045
H      89.61571235      64.10124586      84.27541930
C      92.10448191      67.28165524      84.72139472
H      91.30890713      68.98240894      85.56799211
C      93.16839782      65.79066119      86.91536697
H      94.97119672      66.57867706      87.52196912
H      93.43106978      63.80833829      86.42025867
C      91.55835100      66.04010507      89.37957008
H      89.63838907      65.49019470      88.87312343
H      91.31268658      68.04321495      89.78964068
C      92.79612174      65.23130219      91.82109648
H      92.15550452      66.25553387      93.48972480
H      94.81812889      65.58279129      91.66991837
N      92.50321416      62.57623673      92.49194931
H      90.95552831      62.11892296      93.51051179
C      94.16239386      60.76965838      92.13479105
N      96.37904283      60.89438031      91.12378746
H      97.43351011      59.35425337      90.72316548
H      97.18028678      62.57434700      90.69859904
N      93.38193689      58.53978132      92.87367402
H      94.65183298      57.20941400      92.36344793
H      91.86259694      58.27899910      93.99995091
C      94.16995277      67.83156561      82.72773345
O      95.59480641      69.68160767      83.16614995
N      94.38916102      66.40293252      80.49407695
H      93.42729033      64.75698089      80.39959063
C      95.93306742      67.04354973      78.20561838
H      97.67539508      68.01675879      78.70828558
C      96.90627647      64.63792813      76.82233872
H      95.25843512      63.40393685      76.90737642
C      97.62815192      65.00453504      73.94050610
H      96.36014556      65.98719272      72.64793330
H      97.85113962      63.29055327      72.81800866
H      99.50653987      65.84735297      73.88759376
C      98.88859937      63.06000667      78.19994920
H      98.42939588      62.87481349      80.19927965
H     100.76887705      63.81778691      77.82389367
C      98.76954661      60.34069050      77.40626416
H      98.72419318      60.18573294      75.35213165
H      97.20107377      59.25598759      78.18105194
H     100.50053591      59.30889993      77.83712175
C      94.87671041      69.00319592      76.46329072
O      96.22975445      70.68883179      75.46173579
N      92.31046207      69.04665963      76.12125027
H      91.22008999      68.05077386      77.33256483
C      91.18607492      71.16882227      74.83434664
H      92.21786548      71.46172986      73.07690118
C      88.41951560      70.61891191      74.12758901
H      87.50110861      72.42926972      73.77609992
H      87.26489282      69.87435976      75.66015705
C      88.14550528      68.96162195      71.79566673
O      89.82169252      68.68194245      70.15916375
O      86.22743307      67.62180599      71.79377700
C      91.28245096      73.69160691      76.18172150
O      92.18385041      75.50952362      75.05355490
N      90.99143311      73.89380762      78.77253629
H      90.46042001      72.45005672      79.90070289
C      90.35459534      76.18037646      80.10479333
H      90.09570284      77.69026779      78.72718285
C      87.69764014      75.86857162      81.37090996
H      87.28379008      77.40302938      82.68049029
H      87.57291821      74.05254462      82.33467038
C      85.57925695      75.87802025      79.40370488
H      84.03535055      74.71961802      80.11991115
H      86.11027004      74.95772353      77.64059022
C      85.02367741      78.55765215      78.53632049
O      83.38150525      79.81432016      79.59078777
O      86.25010979      79.64802425      76.89603806
C      92.28211618      77.04587111      82.03420390
O      92.76588612      79.27196871      82.30065530
N      93.40650334      75.26574892      83.49874180
H      93.00399163      73.49507537      82.91103691
C      94.40994801      75.77597503      86.01585723
H      94.96930700      77.75640820      86.07254903
H      96.05400990      74.53442483      86.06499012
C      92.54856759      75.14669617      88.10211508
O      90.31680081      74.57221937      87.59188898
N      93.31579647      74.97473107      90.46238325
H      95.02410906      75.58889213      91.05575731
C      91.43740852      75.05032012      92.56942809
H      89.47020343      74.85945777      91.99495129
C      92.22353466      72.81666361      94.24750506
H      94.21341647      73.18704998      94.62356060
H      91.95330380      71.07244624      93.18547888
C      90.69285635      72.46139507      96.71737735
H      91.09914751      74.00530147      98.01939877
C      87.78267783      72.20628203      96.53407389
H      87.04190511      71.61290795      98.36143924
H      87.54835177      70.63214000      95.22449357
H      87.16095787      74.03175764      95.80463955
C      91.61882224      70.28065091      98.12144401
H      90.85726254      69.96128717     100.00739087
H      93.66350611      70.38458585      98.35010089
H      91.57346881      68.46840338      97.14823494
C      91.82291269      77.60900955      93.96026665
O      93.99987740      78.58032888      93.77507348
N      90.02956241      78.71072000      95.25094973
H      88.27778612      77.95671920      95.14890451
C      90.23176313      81.17492311      96.66068556
H      92.25754974      81.54908891      96.60588350
C      88.87493964      83.52007346      95.22638328
H      88.15117446      85.00917779      96.44714649
H      87.17985513      82.68859388      94.40435234
C      90.46608919      84.85988941      93.16091242
H      92.45975045      84.73894693      93.65980018
H      90.10326174      86.88567603      93.08532338
C      90.01822406      83.64479540      90.63812780
H      88.01511416      83.95282079      90.27341062
H      90.30924191      81.60578071      90.64190725
N      91.59803525      84.58020991      88.49517816
H      93.21375125      85.48916827      88.94871247
C      91.23142835      83.96226942      86.10278464
N      89.55524111      82.24450820      85.41303455
H      89.78767745      81.49995603      83.67070689
H      88.78423277      81.26374024      86.85489572
N      92.66762035      84.97894218      84.34344945
H      92.26888810      84.31753796      82.59734233
H      94.13782742      86.09954988      84.81210157
C      89.27745134      80.83855182      99.40267844
O      87.15150924      80.02219005      99.75227780
N      90.72120225      81.59444235     101.24516159
H      92.39549976      82.38623766     100.78217865
C      90.24121176      81.47538959     103.87944008
H      88.56880397      80.29620037     104.12699423
C      92.60714911      80.29809010     105.23059439
H      92.66762035      80.99350938     107.16756387
H      94.35892540      80.84611073     104.29329013
C      92.73942995      77.41058829     105.47247936
H      91.18607492      76.84556011     106.70080146
C      92.63549500      76.02541890     102.84575978
H      92.71486351      73.98829394     103.13299819
H      94.28144662      76.58099843     101.73838016
H      90.78923239      76.41848198     102.01994939
C      95.12237483      76.46572513     106.85953847
H      95.12237483      77.29531499     108.74548533
H      96.75509836      77.31799170     105.93168286
H      95.27355293      74.42104126     106.65733776
C      89.40217328      84.03218929     105.07941628
O      88.53856835      84.07943245     107.22047620
N      89.95586309      86.14301357     103.62243729
H      90.46986865      85.65924365     101.84798428
C      89.20375202      88.81508659     104.07030244
H      88.51211219      89.03618456     105.99782328
C      91.55079210      90.68591564     104.03061818
H      93.10225740      89.72971413     104.99059915
H      91.08402970      92.31108027     105.20980740
C      92.32746961      91.60432263     101.33019928
H      90.95552831      93.09720642     100.97115129
H      91.83425104      90.27206557      99.83920521
C      94.98820426      92.66445909     100.94658483
H      95.53055571      94.03073121     102.39033575
H      94.98064535      93.58286607      99.10599140
C      96.97808607      90.63678275     101.06941704
H      96.50187504      89.03618456      99.86188193
H      96.84769495      89.90734839     102.99126870
N      99.58212893      91.56085891     100.63100054
H     100.76320787      90.06419568     100.65178753
H     100.15849545      92.65312073     102.08797954
H      99.72574813      92.40934603      98.92835713
C      86.90962427      89.46893189     102.31852614
O      86.81702768      88.43525159     100.26250391
N      85.02556714      90.81819648     103.25016121
H      84.88383766      91.21503901     105.11154163
C      83.17930453      92.14100490     101.60987877
H      81.97743859      90.66701837     100.81997318
C      81.46532276      93.88144284     103.18402079
H      82.42530373      95.57274788     103.86054282
C      79.32237312      94.71481214     101.47948765
H      77.98066744      93.19925163     101.09587321
H      80.07259447      95.41023141      99.69180656
H      78.25845721      96.23982127     102.36765902
C      80.29936163      92.40367686     105.44602319
H      81.69397965      91.56085891     106.70269118
H      79.26001216      90.74638687     104.79784706
C      78.49089355      94.18379905     106.97292205
H      76.93942824      94.91134367     105.82963763
H      79.40363136      95.94502397     107.52661186
H      77.65752424      93.25216397     108.61320450
C      84.56447392      93.64144759      99.53117984
O      86.14806457      95.31574511     100.00550114
N      83.91062861      92.88555707      97.24839044
H      82.51223114      91.58731509      97.22760345
C      84.79691025      93.85687639      94.75395171
H      86.01956318      95.47070267      95.12622779
C      86.63561396      91.81030279      93.51429124
H      87.62583054      91.12055269      95.18291958
H      88.15117446      92.77595294      92.51273631
C      85.29201855      89.65034562      92.10077596
C      85.38839459      89.48593942      89.42681323
H      86.13672621      91.04874308      88.34588978
C      84.13739577      87.42991720      88.28541854
H      83.86149573      87.27118019      86.26908056
C      83.27190112      85.34554908      89.69704409
O      82.33459687      83.22905560      88.62367955
H      82.60671746      83.32732137      86.83221900
C      83.34371072      85.35877715      92.34833011
H      82.55191539      83.81865022      93.42925356
C      84.32825813      87.53574187      93.55586523
H      84.34148621      87.84943644      95.57220320
C      82.81647708      94.80740873      92.79241579
O      80.59415893      94.80362928      93.46704809
N      83.52701417      95.55951979      90.46238325
H      85.42996857      95.55385062      90.28474898
C      81.64484676      96.11320961      88.42525828
H      79.75134100      95.57463761      89.03375017
C      81.65429540      98.96858606      88.00573904
H      80.67541717      99.35786968      86.23695521
H      83.57614706      99.62810055      87.67503695
C      80.35983287     100.41611642      90.26585171
H      81.39540289     100.02683280      92.00251019
H      78.45498875      99.64132864      90.37923530
C      80.40140685     103.33763330      90.23372638
H      78.82537510     103.90266147      91.43559231
H      80.10849927     104.07084712      88.33266169
C      82.91096339     104.34107798      91.33921627
H      84.55691501     103.55873127      90.37923530
H      83.00355998     103.86486695      93.34043642
N      83.21709906     107.11708592      90.89891004
H      82.13428588     108.06005936      92.15368831
H      82.88261750     107.70857027      89.11311867
H      84.94997809     107.84085110      91.24284022
C      82.00956394      94.71103269      86.01018806
O      84.06558617      94.17246069      85.29209206
N      79.93842390      93.85309693      84.77808651
H      78.23011132      94.02128258      85.61334553
C      80.08771228      92.32619808      82.45750259
H      82.05302765      91.74605209      82.25530188
C      78.51357026      89.79774427      83.03953829
H      76.49912201      90.03962924      82.69182865
H      78.67419700      89.22515720      85.01241257
C      79.53591220      87.78140629      81.25941610
O      81.92074681      87.39779186      81.26886475
O      78.04869759      86.72126984      79.75897341
C      79.40552108      94.00994422      80.20116937
O      79.82126087      96.25682880      80.15581595
N      78.33971544      92.85154200      78.14136769
H      78.20932433      90.94858760      78.24152318
C      77.75767974      94.08742299      75.67716458
H      79.45465397      95.19480262      75.31244741
C      77.98822635      92.19958641      73.38303683
H      78.02791060      93.32019412      71.65582699
C      80.61683565      90.77095331      73.29610942
H      80.74344731      89.18169350      71.99219827
H      81.04013434      90.05474704      75.18205629
H      82.15507287      92.12210764      73.07690118
O      76.15708155      90.31174983      73.66271633
H      74.59616762      90.81630675      72.88603881
C      75.28402799      95.65967529      75.58834744
O      74.31459840      96.37210212      73.63059098
N      74.29192168      96.22092401      77.85601902
H      75.25001292      95.86943491      79.46984529
C      72.20944328      97.95191331      78.02609438
H      71.86551309      98.77394426      76.17038315
C      69.79437305      96.51194186      78.61190955
H      68.22401049      97.83852974      78.49474652
H      70.04003748      95.75605134      80.51108448
C      69.04604143      94.46914772      76.66927089
H      70.02680939      92.65690018      76.67871953
H      68.83250236      95.24582523      74.77387540
C      66.36074034      93.64711677      77.40437443
O      64.49180102      94.85654161      76.58612293
O      66.17743689      91.79329526      78.89914794
C      72.48156387     100.35375545      79.68149463
O      70.75435402     101.96947146      79.63047203
N      74.63396214     100.52761028      81.12335581
H      76.16464046      99.39377449      80.97217772
C      74.97600261     102.37954206      83.18504723
H      74.55648336     104.27682728      82.50285602
H      77.00745839     102.18867970      83.45905753
C      73.50012635     101.92222829      85.66814759
O      73.57571541     103.59652580      87.25173824
N      72.35873166      99.71691768      85.99318052
H      72.57793991      98.46780860      84.56832689
C      71.34205891      98.80795932      88.35533841
H      70.81671499     100.49170548      89.41925432
C      68.87785579      97.32263445      87.80920751
H      67.94055154      97.06185222      89.62334477
H      69.57327508      95.60298350      86.91158751
C      66.96734249      98.73237028      85.99507026
C      66.25680540      97.45869475      83.81243636
H      66.85773836      95.55574035      83.37779930
C      64.65053803      98.43568325      82.08144705
H      64.27448249      97.32641390      80.40903927
C      63.59607075     100.82807675      82.47073067
O      62.20145273     102.00348652      80.60935025
H      61.50981290     103.48881141      81.38602778
C      64.16109892     102.16222353      84.60423169
H      63.42599538     104.01982451      85.02186119
C      65.81838889     101.20224257      86.43159703
H      66.49680064     102.30017356      88.01329795
C      73.16375507      97.19224334      89.81609685
O      74.91175191      95.96770068      88.79942409
N      72.82360433      97.49459954      92.26329243
H      71.60284114      98.74559837      93.02485214
C      74.56971145      96.20958565      94.13979065
H      76.43865077      96.75382683      93.47082754
C      74.02924972      97.35475980      96.71737735
H      75.14229852      96.43257336      98.18569469
H      72.01291175      97.13933100      97.07642535
C      74.59049844     100.11564994      97.02351301
C      72.65163924     101.88443376      97.50539322
H      70.68254442     101.41956110      97.77751381
C      73.31304345     104.43367457      98.03451659
H      71.81260076     105.78860832      98.32364472
C      75.80559246     105.17633701      97.83798506
O      76.50101174     107.68211410      98.07987003
H      75.07615810     108.69689713      98.55797078
C      77.67453178     103.46424497      97.30697195
H      79.56236837     104.23525330      97.39200965
C      77.13973923     100.98114458      96.77784859
H      78.70065317      99.73392523      96.35454990
C      74.14641275      93.30696604      94.17947492
O      72.07527271      92.28273436      94.42513933
N      76.18542745      91.80463362      94.34577083
H      77.93720374      92.56430359      94.29096877
C      76.27991376      89.10421471      93.87522897
H      74.45443814      88.30863994      94.40624207
C      76.94131797      88.41824406      91.11433883
H      77.45532353      86.43025198      90.95749154
C      74.78702997      89.02106676      89.33421664
H      74.59805734      91.06197117      89.13579538
H      73.06737903      88.23305088      90.14301950
H      75.06859919      88.25761732      87.44071087
O      78.90096416      89.95837101      90.23939554
H      80.55069523      89.36310721      90.71182712
C      78.21121405      87.84376726      95.75739638
O      80.08582256      88.97004415      96.63800885
N      77.95421127      85.36444633      96.39423415
H      76.43676105      84.58965855      95.53629840
C      79.48111014      83.71093581      98.06664193
H      81.40674125      84.37800920      98.36332896
C      78.33026681      83.60322142     100.85965742
H      78.08460239      85.58365459     101.37555271
C      75.91141713      82.11789653     100.94091565
H      76.45187886      80.15636061     100.62344163
H      74.58293953      82.87378706      99.56330517
H      75.13096016      82.38245821     102.82875225
C      80.38439931      82.62812263     102.72103784
H      81.01367818      80.72516823     102.25427545
H      79.40363136      82.26529518     104.49738059
C      82.57459211      84.53674622     103.32197082
H      83.70653817      84.86744832     101.63444521
H      83.76322996      83.70148719     104.78461898
H      81.79980432      86.36033210     103.87944008
C      79.70976702      80.95949431      96.95926232
O      78.36617161      80.28108255      95.22449357
N      81.69775910      79.51763313      97.56208501
H      82.93175038      80.34533325      98.76206122
C      82.43853182      77.06665810      96.52462526
H      81.03068571      75.60778939      96.88556300
H      84.21676428      76.42226143      97.33909730
C      83.11694356      77.32366088      93.70893306
O      84.92163219      78.63891039      92.99083706
N      81.46532276      76.23706825      92.22738763
H      80.12739653      75.26196947      93.17603023
C      81.17241519      76.53753474      89.55720435
H      82.27601535      78.19104526      89.02052208
C      81.94720297      74.06010353      88.14935825
H      80.47132672      72.65225743      88.43848637
C      82.26656672      74.73662556      85.24862835
H      82.39884756      72.84311978      84.45116386
H      84.09015261      75.69093735      85.17681875
H      80.60549729      75.84589490      84.74785089
C      84.29046360      72.84878896      89.23973032
H      83.64417720      71.77920388      90.87623331
H      85.59815421      74.26419397      89.96727497
C      85.75500149      70.87969415      87.68637530
H      87.01355922      69.96695634      89.03563988
H      86.69608520      71.78865251      86.09333601
H      84.43219308      69.40003845      87.13646495
C      78.41341477      77.46161090      88.78808575
O      76.61817477      75.99707301      89.15658237
N      78.14885308      79.73495166      88.10211508
H      79.66252386      80.86311826      88.38179458
C      75.90196850      80.95382513      87.16292112
H      75.48622871      79.66503178      85.61145580
H      76.41219460      82.85111035      86.54498060
C      73.66831200      81.22972517      88.91658712
O      71.95621996      82.57143085      88.24006510
N      73.76846749      80.23950858      91.26740666
H      75.38040404      79.50440504      91.97605404
C      71.64630484      80.32076681      92.98516788
H      69.89452855      79.47416942      92.30486640
C      72.38329810      78.89213371      95.31897987
H      73.87429216      79.75006946      96.44714649
H      72.63463170      76.93815670      94.71804692
C      70.31026834      78.79575768      97.10099179
N      68.77770030      76.66225667      97.46192951
H      69.18021200      74.90670092      96.82509174
C      66.96545276      77.08744508      99.11921949
H      65.64453407      75.70038598      99.82408741
N      67.15820485      79.52519204      99.90534564
H      66.03759714      80.25840584     101.26405886
C      69.32761066      80.58532849      98.74505369
H      69.87752101      82.54308495      98.89623178
C      71.10395339      83.13456928      93.68814607
O      72.69132349      84.30619961      94.90135036
N      68.77959002      83.94526187      93.22327339
H      67.59662135      82.68859388      92.40880135
C      67.96700771      86.52662803      93.41224603
H      69.36729491      88.00250428      93.09477200
C      65.89397794      86.86110958      91.38456969
H      64.29526948      85.58743405      91.64346219
H      66.72167807      86.51906912      89.52885846
C      64.52581609      89.50105724      91.32220872
H      63.48079744      89.59932301      93.09477200
C      66.38530679      91.75172128      91.15591281
H      67.91220565      91.66857332      89.77452288
H      67.32072131      91.99549597      92.97382952
H      65.17966140      93.34098110      90.64757644
C      62.71734801      89.63900725      89.05075770
H      61.67799854      91.27739998      89.73861808
H      61.40587795      88.04974743      89.05831661
H      63.51103306      89.91112784      87.17048001
C      66.81616439      86.93102946      96.07487040
O      64.89242300      85.83876765      96.95926232
N      67.97078716      88.80374823      97.30508224
H      69.12918939      89.91868675      96.27518140
C      67.26591925      89.77506756      99.81274905
H      66.60451504      88.19147691     100.95225401
C      69.80382169      90.68780537     101.21492597
H      69.35973600      91.82164115     102.87599540
H      70.72978758      91.80652334      99.75416753
C      71.59906168      88.72815918     102.18813502
H      72.46077688      87.83431863     100.54407314
C      73.72689351      89.89789977     103.56574550
H      75.27079991      88.53540709     103.59031196
H      73.42453730      90.54418616     105.50082525
H      74.62829296      91.42857808     102.52450631
C      70.46711562      86.59087872     103.85298391
H      68.93832704      85.59688268     102.89867211
H      69.71878400      87.44503501     105.57263486
H      71.90330762      85.18870180     104.31407712
C      65.24958127      91.64400688      99.60676888
O      63.34284742      91.27362052     100.71792795
N      65.66532106      93.53751265      98.03073713
H      67.46434051      93.81341269      97.45248088
C      63.73024132      95.53495335      97.32586923
H      61.91043488      94.62977446      96.98760821
C      63.71701323      97.29239883      99.61243806