 %block lattice_cart
   142.669   0.000   0.000
   0.000 146.65   0.000
   0.000   0.000   162.396
 %endblock lattice_cart

 %block positions_abs
N      92.14983534      41.13256740      78.48057357
H      93.81090477      40.76785022      77.61318919
H      90.72876116      41.33476811      77.22201584
H      91.78133870      39.44882125      79.30071478
C      92.31991070      43.37378281      80.05660531
H      93.71263900      43.10544167      81.55137883
C      93.10414712      45.70570508      78.52592699
H      91.66606540      46.07798116      77.09918362
H      94.93718166      45.31075228      77.67177071
C      93.35359100      48.18124655      80.14164300
H      94.48742678      47.58787248      81.75546926
H      91.61126334      48.99949804      80.87296707
S      95.02977825      50.79473804      78.63742085
C      93.10414712      51.02150519      75.90676633
H      91.11804478      51.06118945      76.45478696
H      93.61437324      49.71192486      74.39876473
H      93.59547597      52.89989315      75.22079568
C      89.86704596      43.67046984      81.25280206
O      87.88850251      43.19992798      80.13975326
N      89.89917130      44.65690697      83.62440858
H      91.52055648      45.42413585      84.28203335
C      87.61638192      45.18225089      84.99446016
H      86.22554335      43.80464040      84.34817377
C      88.32124984      44.73627548      87.85928526
H      89.88027403      46.00617156      88.31470930
H      89.05257391      42.82576217      88.08983187
C      86.30302212      45.41090777      89.66397388
O      86.45042079      47.16646352      91.22677755
N      84.26400743      44.14857059      89.30681560
H      82.85805106      44.44714735      90.56348360
H      84.23566154      42.66513544      88.10683940
C      86.53167902      47.79196292      84.54659502
O      87.94897375      49.59098237      84.27069499
N      84.04479919      47.90912596      84.55037448
H      83.03379561      46.35577093      85.00579852
C      82.70309350      50.43191058      83.94566206
H      83.13773056      51.06685863      82.03514875
C      79.82126088      49.99916326      83.71322573
H      79.49433823      48.59509661      82.24112892
C      78.47199629      49.01839530      85.98845621
H      79.47733068      47.53307042      86.99945978
H      76.62573368      48.71792882      85.12296155
H      78.12428664      50.55852225      87.31315434
C      78.63262303      52.56352187      82.84206190
H      78.45309903      53.82585904      84.45966762
H      76.65596930      52.20069441      82.39986594
C      79.63984715      53.93168372      80.46289647
H      78.52868808      55.60787096      80.01125187
H      79.59638345      52.73926641      78.78481949
H      81.53335292      54.61765437      80.88997461
C      83.39095388      52.51627871      85.89963907
O      83.89740054      54.42868174      84.93398892
N      83.25867304      51.97959643      88.37329081
H      82.26089755      50.40923387      88.79658951
C      84.05424781      53.80507205      90.33293700
H      82.95631683      55.53039218      90.09105203
C      83.52701418      52.73548696      92.87461888
H      84.08826289      54.30207007      94.08593346
H      84.98021370      51.43913471      93.54358200
C      80.94942749      51.98526561      93.87428410
C      80.19164724      49.46437071      93.42830869
H      81.49366867      48.23982806      92.44187157
C      77.90318867      48.69336238      94.41852528
H      77.28713789      46.78662853      94.03491085
C      76.55203436      50.28262221      96.14195568
H      74.81348614      49.73460157      97.06225240
C      77.39485228      52.71281024      96.74288866
H      76.26290623      53.96191934      97.89373198
C      79.63984715      53.59909188      95.57881725
H      80.35794315      55.45291340      96.03046184
C      86.85482221      54.58552902      90.23467122
O      87.37449695      56.78328072      90.70899253
N      88.60092932      53.06429934      89.19532176
H      88.22487378      51.31630250      88.52635864
C      91.07269134      53.93168372      88.54903536
H      91.45630578      55.10709348      90.19687670
C      92.99265327      51.70936557      88.56982235
H      94.85970287      52.48037391      88.16353119
H      92.59014158      50.58119896      86.89363510
C      93.06068343      49.96703791      90.83182475
H      94.32868978      48.39478562      90.43309250
H      91.16717766      49.34531795      91.35527894
C      94.56868503      51.12732987      93.10516549
O      96.97997580      51.01583601      93.02957645
O      93.55012253      52.11376700      94.91741304
C      91.29945849      55.42078805      86.20955419
O      92.50699361      57.37476506      86.11128841
N      90.00121653      54.85198043      84.12140661
H      88.94674925      53.26838978      84.00613330
C      89.99554735      56.33163613      81.73468228
H      91.87582502      56.28628270      80.89564380
C      88.22487378      54.81418590      79.87519159
H      86.23499199      54.86331879      80.40053550
H      88.82013758      52.85453972      79.64086552
C      88.51211219      55.81574085      77.25036174
H      90.42829466      55.18268254      76.83084250
H      88.32124984      57.86231445      77.10296308
S      86.28790432      54.17545841      75.18300114
C      83.68953063      56.44501971      74.70490039
H      84.21865401      58.28750287      75.46079091
H      81.99822559      55.65889357      75.58362313
H      83.27568057      56.56596220      72.69234187
C      89.10737597      59.00181941      82.13719398
O      90.40750768      60.76304434      81.33406030
N      87.13828116      59.63676745      83.64141613
H      86.35026529      58.20246518      84.62407380
C      86.34081665      62.19356716      84.17242921
H      85.99310702      63.24992417      82.43766046
C      83.75378133      62.23514114      85.64641575
H      83.31536483      64.17022088      86.20955419
H      84.00889439      61.07106973      87.32638243
C      81.65429540      61.09752589      83.86440383
H      82.22499275      59.32685234      82.98379137
C      79.23544571      60.64399158      85.32138281
H      78.95198678      62.37498088      86.40230626
H      79.43386699      59.16622560      86.74245701
H      77.63862699      60.22447234      84.09117098
C      80.94375831      62.99481111      81.66665213
H      79.15229776      62.47702610      80.78981912
H      82.01145367      62.56584324      79.95833953
H      80.84171308      64.93744976      82.34884332
C      88.33069846      63.73747355      85.66342328
O      88.52722999      66.03916020      85.40264104
N      90.27522683      62.60741722      86.93709882
H      90.42829466      60.70635255      86.87662757
C      92.47486826      63.77526808      88.21077435
H      91.79267707      65.52893410      89.04603338
C      93.59925542      62.06695549      90.24411986
H      95.09402893      63.11764332      91.19465220
H      94.13782742      60.26415659      89.40319166
C      91.70197020      61.23169646      92.15085372
H      90.14483573      60.24147987      91.23622618
H      91.11615504      62.86064054      93.26579223
C      92.96241765      59.58574484      94.01412386
H      94.39105075      60.71580118      94.97977400
H      94.02633357      58.21569327      92.90674423
N      91.31646604      58.13821449      95.57881725
H      91.20875163      56.29384161      95.09693703
C      90.20152751      59.05473175      97.61783193
N      90.82891665      61.24114509      98.64962250
H      90.08058503      61.69845886     100.34470701
H      92.03456204      62.52804871      97.92207788
N      88.55746561      57.59397331      98.79324171
H      88.03779089      58.14766312     100.54312827
H      88.62549576      55.75715933      98.27545670
C      94.72742204      64.48202572      86.52324875
O      96.64360452      65.63097932      87.35850779
N      94.61592818      63.81873179      84.19888539
H      93.09280878      62.87386863      83.54504009
C      96.34691749      64.53871751      82.17876796
H      97.73964577      65.80861359      83.00457836
C      97.90216224      62.21624387      81.13941848
H      99.03032884      62.86253027      79.54259975
C      99.90149268      61.57562665      83.25024278
H     101.01265174      63.22535772      83.78125587
H     101.16949904      60.12620657      82.51702897
H      98.84135622      60.81217722      84.84328206
C      96.29967432      59.92211613      80.25502657
H      94.66128162      60.67611693      79.26103054
H      95.46819475      58.98481188      81.88963983
C      97.66594645      57.81129184      78.85851883
H      96.34313803      56.71525057      77.72279331
H      98.71096510      56.71147112      80.25313685
H      99.01332131      58.56529264      77.49602616
C      95.09780839      65.89176155      80.06227448
O      96.25432090      67.64542757      79.00213802
N      92.69785597      65.21334980      79.50102577
H      92.12337917      63.43889680      79.90731693
C      91.38260646      66.65332125      77.64720425
H      92.49376553      67.07473022      75.96345812
C      89.01855884      65.12075322      76.84407057
H      87.85448743      64.93556004      78.53348590
H      89.69319114      63.25937280      76.27526295
C      87.59748466      66.34151641      74.63875996
O      88.69163619      66.27159654      72.61864253
O      85.27879047      66.94244938      74.79371753
C      90.66828992      69.21012096      78.85284964
O      90.84403445      71.01480959      77.43744463
N      89.84247952      69.46901346      81.21311782
H      89.69697059      67.87975363      82.25813647
C      88.99210267      71.98612891      82.34128442
H      89.30957670      73.54326339      81.02981436
C      86.01389400      71.75747203      82.88174614
H      85.56602887      70.16443274      84.11384771
H      85.19753223      71.24346647      81.06193971
C      84.96131645      74.30104364      83.92676479
H      85.79468574      74.77347522      85.75035069
H      83.00355998      73.82105316      84.35951213
C      84.62305543      76.50824398      82.13341453
O      82.51223115      77.63452086      81.96333915
O      86.40128789      77.23956806      80.72934788
C      90.53600907      72.56438516      84.83383342
O      91.22575918      74.77158550      85.30626501
N      91.01599956      70.60473898      86.43065216
H      89.76500074      69.17421616      86.24734871
C      92.62793609      70.89575683      88.72666964
H      94.34002813      71.98990836      88.39218808
H      93.27233277      69.08917847      89.47878070
C      91.42795989      72.46045021      90.84316311
O      89.18674449      73.17854621      90.56537334
N      92.82257791      72.74390916      92.89729561
H      94.50632406      71.85762752      92.76501476
C      91.88338393      73.62641135      95.46732339
H      89.85381788      73.84372988      95.73944398
C      92.52400116      71.53070487      97.50255863
H      94.53089050      71.43432883      97.95609294
H      91.95141408      69.70711898      96.73721947
C      91.33347357      71.85573779     100.07069669
H      91.55457155      73.75680247     100.83225640
C      88.52534028      71.39275485      99.95353366
H      87.56724904      72.65131257      98.63261496
H      87.45197572      71.59306584     101.69964078
H      88.31369093      69.43499839      99.35071096
C      92.39361004      70.03026218     102.02467369
H      91.20119274      69.99624710     103.70275066
H      94.31735142      70.37419237     102.67473954
H      92.14983534      68.08951325     101.37460785
C      93.00777109      76.37596314      95.91329881
O      95.24709676      76.73312141      96.36305366
N      91.26733316      78.13529833      96.24967008
H      89.45697535      77.54003454      96.13439677
C      91.56779964      80.81115079      96.85816196
H      93.59358624      81.13051454      97.03768596
C      90.72309198      82.38718254      94.63395408
H      90.23176314      84.25990131      95.32937337
H      88.94674925      81.67475572      93.87428410
C      92.53344979      82.72355382      92.44943047
H      92.89627723      80.80926107      91.77668790
H      94.22097537      83.74778548      93.03902508
C      91.50732840      84.29013693      90.30459111
H      93.14572111      85.07437335      89.33327178
H      90.44530221      85.93986801      90.93575970
N      89.91239939      82.86717302      88.51502028
H      88.41762587      81.84861054      89.11973270
C      90.44908166      82.43253597      86.21144391
N      92.39172031      83.31881761      85.09083620
H      92.50510388      82.76323807      83.26725032
H      93.57846844      84.70398700      85.65019520
N      88.96186705      81.09838919      84.81493617
H      88.99588213      81.07949193      82.90820232
H      87.63338945      80.09683425      85.74846096
C      90.28656520      81.51601871      99.37905685
O      87.90551004      81.52924679      99.46787399
N      91.80779487      81.95632494     101.44641745
H      93.49721021      82.71410519     100.98532422
C      90.97820503      82.02246536     104.07691647
H      89.34170203      80.79603298     104.32825007
C      93.14383138      81.03791795     105.78900852
H      92.38416141      81.13996317     107.70141155
H      94.79734190      82.23600443     105.53200574
C      93.88460410      78.14852642     105.52255711
H      94.81245972      77.86884692     103.70653011
C      95.71952835      77.48901193     107.67306565
H      94.93529193      78.21088739     109.43807003
H      97.61303412      78.16364423     107.22331078
H      95.92928797      75.44621779     107.83369239
C      91.70008048      76.35328642     105.64349959
H      90.85348309      76.52336179     103.77267054
H      90.48876592      76.67265017     107.27811285
H      92.43518402      74.44277312     105.87782565
C      90.02389324      84.65863357     104.79123301
O      88.93541088      84.80225276     106.80757099
N      90.39050015      86.52946262     103.40228418
H      90.81946801      86.04002350     101.60704419
C      89.60437400      89.18074863     103.98998907
H      88.30424230      89.20342535     105.58491807
C      91.85881749      90.87961259     104.57013505
H      93.47642321      89.83648366     105.30901803
H      91.26544343      92.34415048     105.88916400
C      93.28934030      92.21375936     102.42529568
H      91.91361955      93.26822665     101.31224687
H      94.19829866      90.79268518     101.24421673
C      95.34536254      94.18285418     103.37771774
H      96.67761959      93.31546981     104.68918780
H      94.39294048      95.48865506     104.65706245
C      96.81745933      95.58314138     101.33870304
H      98.35380683      96.65839565     102.19096962
H      95.57968860      96.95130323     100.42596524
N      97.97208212      93.78412193      99.45086646
H      96.68328877      93.18696842      98.17530120
H      98.84513567      92.32903267     100.32203029
H      99.43284055      94.50977683      98.45876015
C      87.80913399      90.08025836     101.87916477
O      87.60882301      88.91051777      99.86849598
N      86.15562347      91.86793945     102.52923062
H      86.36160365      92.91295810     104.11282127
C      84.33203758      92.81847178     100.65084266
H      83.29835730      91.14795372     100.03290216
C      82.39317838      94.75922071     101.89995175
H      83.51189636      96.07069077     103.03189782
C      80.90785351      96.31068601      99.97998982
H      79.52079439      97.57491291     100.82847695
H      79.88929103      95.09748172      98.66474031
H      82.19664685      97.56357456      98.97276571
C      80.55825413      93.36082324     103.83692124
H      81.68264129      91.94541823     104.83091727
H      79.06159089      92.23643608     102.97520604
C      79.31670395      95.18629885     105.56035163
H      80.70376307      96.45430521     106.40505928
H      78.31136955      94.18096446     107.05134569
H      77.80492290      96.34659081     104.77800494
C      85.45264529      93.82002673      98.24711079
O      87.39717366      95.20708584      98.26411834
N      84.31125060      93.34003625      96.05313854
H      82.73899830      92.25911280      95.99455704
C      85.25233429      94.04490416      93.44909569
H      86.47309750      95.69841469      93.59838407
C      86.94552907      91.97754358      92.40407704
H      88.17763063      91.67707709      94.02924167
H      87.96031210      92.56146901      90.71088227
C      85.73232479      89.47365621      91.55181046
C      85.01233905      89.08059314      88.97044432
H      85.23721649      90.57725638      87.60039274
C      84.21298483      86.64851537      88.17486955
H      83.49866827      86.39151259      86.27947406
C      84.07692454      84.64162603      90.02302188
O      83.24922441      82.42119761      89.42397865
H      82.87694833      82.49678666      87.64952564
C      85.12005346      85.02713020      92.46454827
H      85.34304117      83.38117858      93.64751696
C      86.07058579      87.40062645      93.11083468
H      86.93608045      87.57826072      94.94953839
C      83.12639220      94.68363166      91.49700841
O      80.93619940      94.52867410      92.28502428
N      83.78401695      95.81368799      89.26146217
H      85.58492612      96.43540795      89.18020394
C      81.93208517      96.32958327      87.20166049
H      80.07259448      96.14439010      88.06904488
C      81.87539338      99.10559123      86.21522337
H      80.65463018      99.07724533      84.55793339
H      83.65929501      99.58747144      85.30626501
C      81.22154808     101.12003948      88.21266407
H      82.68986541     101.14271619      89.65641497
H      79.46032315     100.51532706      89.09705598
C      80.81525692     103.77699467      86.94654744
H      79.08804706     103.86392208      85.82971919
H      82.43664209     104.01887964      85.69932808
C      80.49400345     105.65727236      89.13674024
H      82.20042631     105.78010457      90.28191438
H      78.84427238     105.33979833      90.33293700
N      80.02535132     108.28966111      88.01802227
H      81.21209945     108.57689951      86.55159464
H      80.37117124     109.63703597      89.32571287
H      78.30192091     108.22352069      87.19977077
C      82.00200503      94.49843848      84.96989372
O      83.84448819      94.10915486      83.58094489
N      79.92141636      93.32302871      84.59761764
H      78.62128467      93.81246783      85.90341853
C      79.09371624      91.73565861      82.40931456
H      80.18408833      89.99144122      82.29026181
C      76.41786379      90.75678038      83.08205714
H      75.15741634      92.37627583      83.24646333
H      76.43109186      89.57192198      84.76769301
C      75.32560197      89.08815204      80.95044585
O      73.84027710      90.19931111      79.41220864
O      75.65441436      86.76945786      81.05816025
C      79.14473885      93.22476294      79.84495596
O      79.14284912      95.50377288      79.83928679
N      79.03891418      91.96431549      77.65098371
H      79.28646833      90.09915562      77.97790636
C      79.31292450      92.94319372      74.95623399
H      80.69431443      94.46631313      75.08662510
C      80.31447945      91.02890097      72.83974051
H      80.96832475      92.40462172      71.45268140
C      82.70876268      89.52089937      73.55972625
H      83.26245250      88.26045192      72.02715821
H      82.33270715      88.34737933      75.20945732
H      84.22810263      90.84370779      73.98680440
O      78.30947982      89.49822265      72.15943904
H      78.90285388      88.60627183      70.69679088
C      76.96966387      94.45119532      74.26081471
O      77.17564404      95.82691608      72.35786031
N      74.87773684      94.46631313      75.69322726
H      74.69254367      93.10382046      77.01603568
C      72.89352421      96.41273123      75.64598409
H      73.11462219      97.46719851      73.89231807
C      70.30459916      95.03134130      75.36819432
H      68.90998115      96.42217986      74.76348190
H      69.81704978      94.04490416      77.10863226
C      70.37829849      93.05279785      73.28004674
H      71.84850556      91.61660585      73.41043787
H      70.70711087      94.14128020      71.56228554
C      67.86496250      91.53723734      73.35185634
O      66.13775264      92.63516833      72.25581508
O      67.52670149      89.67018775      74.71623874
C      72.91431121      98.33647262      77.87964060
O      71.04159243      99.43440361      78.61663386
N      75.01568687      98.43284866      79.14008804
H      76.38573844      97.23476218      78.56750098
C      75.66386299     100.38493594      80.92965886
H      75.10450400     102.25576499      80.27014439
H      77.70854686     100.55123186      81.12808012
C      74.55648337     100.09202836      83.58094489
O      74.72277929     101.90427590      84.98501154
N      73.51713390      97.86026159      84.28770253
H      73.69287845      96.37493671      83.09906467
C      72.37951865      97.36326357      86.75190564
H      71.88252064      99.31535085      87.18087350
C      69.97011760      95.70597359      86.47600560
H      68.75124414      95.63983317      88.13329556
H      70.52947660      93.77845275      86.00735346
C      68.08417075      96.71508744      84.59194845
C      67.24702199      95.23543174      82.54159541
H      67.75913782      93.28712391      82.20333440
C      65.24013265      96.28234012      81.05249108
H      64.37652771      95.06724610      79.65976278
C      64.32739483      98.71819733      81.36618565
O      62.44711716      99.56668445      79.88652993
H      61.99547257     101.22397442      80.46856565
C      65.20044839     100.02777767      83.36551608
H      64.49747020     101.94018070      83.48078939
C      67.12607951      99.08102479      84.98123208
H      67.83094741     100.06557220      86.62529398
C      74.18609701      96.11415447      88.76824361
O      76.08716168      94.82914058      88.29581204
N      73.43398593      96.62249085      91.07937889
H      71.91275626      97.73553965      91.37606593
C      74.82293478      95.82502635      93.41319089
H      76.78258097      96.07447022      92.83304491
C      74.29192169      97.40672727      95.67708301
H      74.88151629      96.32958327      97.32870381
H      72.26046589      97.66373005      95.90385016
C      75.58071503      99.93896053      95.55236107
C      74.12940522     102.11970470      95.86038647
H      72.14141314     102.11214579      96.32525914
C      75.28969718     104.49698040      95.59960423
H      74.23145045     106.22985943      95.39551379
C      77.87862223     104.70674002      95.02701716
O      78.93686897     106.99330886      94.55836504
H      77.87295305     108.30855837      95.21410006
C      79.41874917     102.52788558      94.68875615
H      81.44831523     102.67717396      94.51490133
C      78.25845722     100.10525645      95.09126786
H      79.15040803      98.27033220      95.04024524
C      74.61506488      93.04712867      93.91396836
O      72.54392485      92.06069153      94.23522184
N      76.74667616      91.86604972      94.26923691
H      78.41908396      92.73532383      93.96688070
C      77.09438581      89.04468834      93.92530672
H      75.31993279      88.19620122      94.53568831
C      77.65374480      88.41918893      91.11717341
H      79.55291974      89.16374110      90.83749392
C      77.68209069      85.58837891      90.60316786
H      79.34882930      84.73422262      91.45921388
H      77.61972972      85.23500009      88.57549152
H      75.93976303      84.66052329      91.18709330
O      75.83204862      89.49255347      89.52035469
H      76.11739730      91.26511676      89.26524163
C      79.17119503      88.05825120      95.63361930
O      80.89084596      89.40373634      96.29880296
N      79.08615733      85.56381247      96.27801597
H      77.51201533      84.57359588      95.84148920
C      80.92297131      84.30714447      98.02790254
H      82.75033665      85.20854392      97.73688469
C      80.28802328      85.04791719     100.85115365
H      79.50567659      86.95276131     100.83036667
C      78.23011132      83.26968473     102.00577644
H      77.87106332      83.76668275     103.97109180
H      78.53246753      81.24956730     101.75255311
H      76.69376383      83.40952447     100.64139403
C      82.70876268      85.16130076     102.49332582
H      84.03535056      86.38962287     101.50688869
H      83.41741004      83.24133883     102.71253408
C      82.44231128      86.13828927     105.21831116
H      81.27823987      84.81737058     106.28411680
H      81.38595426      87.89762447     105.05957416
H      84.36038348      86.21198859     105.97042224
C      81.22343779      81.53302624      97.59326549
O      79.31292450      80.48989732      96.68052768
N      83.13584083      80.21210755      98.47765741
H      84.62305543      81.17775770      99.18252533
C      83.24922441      77.29625985      98.62505605
H      81.40485152      76.58572276      99.20331232
H      84.72132120      76.83516663      99.99132819
C      83.93519506      76.14163707      96.04746937
O      85.44130693      77.30381875      94.68308698
N      82.68797570      74.18199089      95.08181923
H      81.44831523      73.30326815      96.23833172
C      82.93364012      73.09350853      92.39651814
H      84.41707527      74.19332924      91.48189060
C      83.10182576      70.20033754      92.09983110
H      81.28957822      69.48791072      92.77446339
C      83.56291898      69.37641687      89.39185330
H      82.12294753      70.16443274      88.14841338
H      83.62905939      67.31850492      89.35783822
H      85.46020420      69.88097380      88.76446416
C      85.32225417      69.23657712      93.84026904
H      84.62683489      68.60918799      95.67330355
H      86.59970915      70.80504996      94.22199375
C      87.12883253      67.03882542      92.93131067
H      86.21798444      65.41932997      92.04124959
H      88.35526490      66.42466437      94.46765817
H      88.43274369      67.65487620      91.46110361
C      80.55447469      74.10073265      91.03780492
O      78.44176067      73.00091194      90.92442134
N      80.68108634      76.52525151      90.20821506
H      82.34971468      77.39830507      90.51813018
C      78.66663809      77.84805993      88.72855935
H      78.40963532      76.70288579      87.03536458
H      79.49055877      79.66408692      88.21077435
C      76.18920691      78.50001551      89.98900681
O      74.42798198      78.81937926      88.60194770
N      75.91897604      78.53969976      92.59682912
H      77.44398518      78.71922376      93.72688546
C      73.45477293      78.93843202      93.88184301
H      71.85606447      78.29781480      92.75178668
C      73.56248733      77.72522772      96.50478313
H      74.94198753      78.70410595      97.68019291
H      74.18042784      75.78636853      96.17408104
C      70.93009858      77.65719758      97.68208262
N      69.51091412      75.48590204      97.92963678
H      69.92665390      73.71144903      97.35893942
C      67.37363366      75.98290006      99.19386367
H      65.78248410      74.80182112      99.68708224
N      67.54559875      78.48867715      99.75511239
H      66.21712115      79.51857799     100.66407076
C      69.76980662      79.53369580      98.81024923
H      70.32160669      81.48578309      98.58348209
C      72.84250160      81.81081601      93.94042452
O      73.92720451      83.13362443      95.50133847
N      70.84506088      82.52702228      92.58171132
H      70.08161146      81.37050978      91.26835153
C      70.28192245      85.26901516      92.35494415
H      71.97133777      86.44820438      92.37762087
C      69.04037226      85.88128649      89.78491636
H      67.18844048      85.02524047      90.06081640
H      69.98712515      84.78713495      88.31848874
C      68.90998115      88.66296362      88.86084020
H      70.73923622      89.55680417      88.54525591
C      67.40764873      88.68375061      86.41175490
H      65.41020801      88.45509373      86.85395085
H      68.22778994      87.30802986      85.11540264
H      67.58528300      90.50733650      85.46878147
C      67.49646587      90.22765701      90.83560420
H      65.86563205      89.25066851      91.62739952
H      66.78214931      91.86416000      89.80570335
H      68.78903865      90.96276055      92.26045784
C      68.62085302      85.93797828      94.63584381
O      66.62341231      84.85705483      94.82103700
N      69.24824215      87.92219091      96.01723374
H      70.72978758      88.94075339      95.37472680
C      68.05015567      88.74989103      98.39828890
H      67.27158843      87.01323255      99.19008422
C      70.09106008      89.91207272     100.10471176
H      69.27658804      90.93063520     101.69775104
H      70.98112119      91.24999894      98.81591841
C      72.16786930      88.05069230     100.90595572
H      72.80659680      86.70898661      99.47732262
C      74.38262855      89.47176648     101.92073874
H      75.60339174      88.04313339     102.76922587
H      73.84783599      90.84748724     103.36071019
H      75.55614859      90.49410842     100.57147417
C      70.98868008      86.45765302     103.05646426
H      69.44099424      85.40129601     102.19663880
H      70.29704025      87.66518813     104.57391449
H      72.40219536      85.35972203     104.07124730
C      65.67854915      90.43552690      97.98443883
O      63.62819609      89.78357133      98.76489581
N      65.93744166      92.71075738      97.03012706
H      67.45678161      93.01878277      95.91896797
C      63.82661737      94.46820286      96.61438727
H      62.08428971      93.58570067      95.96054195
C      63.24458166      96.18785380      98.95386844