 %block lattice_cart
   142.669   0.000   0.000
   0.000 146.65   0.000
   0.000   0.000   162.396
 %endblock lattice_cart

 %block positions_abs
N      90.41034227      41.20437700      84.17337408
H      92.31896585      41.16847219      84.12613093
H      89.73948943      39.47338769      83.73117813
H      89.96058741      41.26484824      86.02719560
C      89.62232640      43.33031910      82.68426975
H      90.19113402      44.99705771      83.75196512
C      90.55774092      43.10544167      79.86857754
H      89.56185516      41.53885856      78.97662672
H      92.60242479      42.85410806      79.93093851
C      90.30640732      45.62633657      78.56277666
H      88.29195907      46.02506882      78.41915746
H      91.07741566      45.63011602      76.65415309
S      91.86543153      48.29840958      80.33911940
C      91.07363621      50.98560039      78.32089169
H      91.79551166      52.71658970      79.17504799
H      89.01761398      51.03095383      78.19239030
H      91.88054934      50.66245720      76.45195237
C      86.73293487      43.53629927      82.54254028
O      85.50461276      42.10199700      81.12713527
N      85.49327440      45.06508786      84.04676242
H      86.71025815      46.19514419      84.98973585
C      82.84198839      45.38634133      84.51541455
H      81.71571150      44.24872609      83.22095202
C      82.41302051      44.27707198      87.19693619
H      83.45614944      42.53474432      87.53330747
H      80.58187572      43.34732664      87.33866566
C      82.69836919      45.94381059      89.49484338
O      84.09676666      47.86755197      89.55909408
N      81.49272380      45.37689270      91.55653479
H      81.98216291      46.25939488      93.17414051
H      80.52518393      43.73472053      91.65291083
C      81.96515538      48.15101093      84.36423644
O      83.55063575      49.71570431      83.47228562
N      79.62000502      48.73493636      84.88013173
H      78.35388839      47.32331080      85.10122970
C      78.62222953      51.40889909      84.51163509
H      79.15702208      51.71503475      82.54631973
C      75.79330924      51.57519500      84.77241733
H      75.09222078      50.37899824      83.24929792
C      74.75207004      50.71536952      87.30087113
H      75.61567497      51.88322040      88.76162957
H      74.86923307      48.69714183      87.68637530
H      72.73951152      51.14811685      87.18748755
C      74.74640086      54.27561391      84.16770491
H      75.05631598      55.71747508      85.60767636
H      72.71683480      54.01105221      84.40203097
C      75.16969956      55.30362502      81.56366205
H      74.29475627      54.32474679      79.97440222
H      77.18603753      55.38299353      81.15170171
H      74.28908709      57.16689516      81.51452916
C      80.04708317      53.40067062      86.21616823
O      80.75195108      55.41700859      85.32988659
N      80.63667778      52.66745682      88.51029597
H      80.10755441      50.94402642      89.13957484
C      81.92736085      54.59119820      90.24128528
H      80.99572578      56.42801217      90.22616747
C      81.91413277      53.60854052      93.00217542
H      82.98938704      55.10709349      93.91869268
H      83.06875554      51.90400738      92.97949870
C      79.38189951      53.25516169      94.25128451
C      78.30286578      55.48314902      95.16024287
H      79.42347349      57.17256434      94.93914489
C      75.81031678      55.59275315      95.91235394
H      75.05631598      57.38799315      96.52084581
C      74.30609463      53.22870553      95.90101558
H      72.32188200      53.28539732      96.37344716
C      75.44559960      50.99504903      95.04874902
H      74.42514739      49.22815492      95.05063874
C      77.98161231      51.07252781      94.16246738
H      78.77340764      49.33020014      93.45382001
C      84.68825099      55.00693799      89.27374540
O      85.62366552      57.09130611      89.27374540
N      86.02995668      52.98682056      88.51407543
H      85.12477777      51.31063332      88.39880212
C      88.48282143      53.13421921      87.52385884
H      89.88499836      54.09042073      88.68981997
C      89.43902295      50.33742427      87.14024440
H      90.86954576      50.25049686      85.66058869
H      87.78551242      49.30563370      86.47506073
C      90.59175600      49.35098714      89.57988107
H      89.45980994      49.80452144      91.24095050
H      92.45124669      50.22970987      89.65169067
C      90.71269848      46.42947025      89.43626187
O      92.36053983      45.37500297      90.84977715
O      89.29918320      45.09910293      88.01140823
C      88.76061120      54.53072695      85.01430229
O      90.64088888      55.93290388      84.64958512
N      86.83309036      54.32096733      83.32110752
H      85.67090868      52.81863492      83.50630070
C      86.51750607      56.00849293      81.15737089
H      88.23337756      55.85164564      80.02731455
C      84.21959887      55.46236203      79.27142403
H      82.36955681      56.07652308      79.93849742
H      84.05330295      53.41389871      79.38480761
C      84.38211533      55.83085866      76.41793730
H      85.74649773      54.52316804      75.59968580
H      85.28729424      57.64499592      76.06266875
S      81.29808199      55.47747984      74.91749460
C      81.98405264      55.84030729      71.78999756
H      82.62089041      57.76215896      71.41583175
H      80.37778527      55.51527437      70.54466792
H      83.42402409      54.57985984      71.02654813
C      86.25672383      58.75615500      81.85467990
O      87.68913638      60.28116413      80.87013249
N      84.44258657      59.41000030      83.51952878
H      83.40890628      57.97569802      84.23573505
C      83.84732279      62.03860960      84.27352958
H      83.72071112      63.09874605      82.51041493
C      81.30942035      62.05561713      85.60389690
H      81.20548540      63.94534344      86.41269977
H      81.25650801      60.64021212      87.09867042
C      78.97749808      61.81184244      83.94849665
H      79.02663096      60.27549494      82.57655535
C      76.51329496      61.55483967      85.53586676
H      74.93537349      61.09563617      84.29809602
H      76.14290861      63.10441524      86.84166764
H      76.75706966      59.98069764      86.84355736
C      78.41246991      64.02093250      82.19861009
H      77.96082532      65.65554575      83.36457122
H      76.70982650      63.44456598      81.19327569
H      79.98094275      64.35352434      80.90414756
C      85.98649297      63.23858580      85.93459901
O      86.41168139      65.58751562      86.09522574
N      87.56252472      61.77026847      87.25929715
H      87.18457945      59.90510859      87.10433960
C      90.02294838      62.55261515      88.32699252
H      89.52406063      64.16644143      89.50240229
C      91.16434307      60.30762029      89.81987631
H      91.95235894      59.13032081      88.32510279
H      89.57508324      59.21913793      90.55120039
C      93.07296665      60.62509431      91.96282595
H      92.22636926      61.47736089      93.63334401
H      94.68679292      61.70223832      91.27118612
C      94.61687304      58.33285629      93.05508776
H      96.20613287      59.10008518      94.11900367
H      95.50693414      57.25760203      91.53952725
N      92.86131730      56.87965677      94.66702430
H      91.33630816      57.69790826      95.46826826
C      92.98981869      54.38521803      95.02040312
N      94.88899363      53.04729179      94.13223175
H      94.86631692      51.17457303      94.50072839
H      96.44801784      53.78995425      93.31775971
N      91.14355608      53.34208910      96.24305605
H      91.02450332      51.43724498      96.34321154
H      89.80185040      54.40978448      97.07453562
C      91.85787263      63.61653107      86.44860457
O      92.81029469      65.65554575      86.95694094
N      92.14322130      62.53938706      84.20738916
H      91.17946088      60.89343546      84.12802065
C      93.82696744      63.20835019      82.19105118
H      95.48236769      63.83573932      83.24551846
C      94.53561481      60.90855327      80.59801190
H      92.85753785      59.88999078      79.97440222
C      96.06440340      61.90821848      78.29065607
H      97.48547759      63.16110702      79.09756921
H      94.90789090      63.15165839      77.12658466
H      96.92989805      60.42289359      77.15682028
C      96.06818285      59.04150367      82.13435939
H      94.92678816      58.58418990      83.78975964
H      97.72925228      60.14132438      82.65403413
C      96.84863982      56.60942590      80.67171123
H      97.93523245      55.37921406      81.91704087
H      97.97491670      56.93256909      78.97851645
H      95.20457793      55.58897369      79.97251249
C      92.42290079      65.33807173      80.76997699
O      93.40555848      67.31661519      80.19738992
N      90.03239701      64.95634702      80.04432209
H      89.16501263      63.30283651      80.43549544
C      88.58675638      66.48513562      78.15837523
H      89.59587023      66.34907531      76.36691469
C      85.80507925      65.48169094      77.88247519
H      84.76572977      66.02593212      79.57566997
H      85.78429226      63.42377898      77.86168820
C      84.55408043      66.30561162      75.44472824
O      86.06019230      66.37364175      73.53799440
O      82.29963694      66.75536648      75.31055768
C      88.42612964      69.16665725      79.15048154
O      88.89478177      70.86741094      77.76909161
N      88.17668577      69.39909359      81.62224356
H      87.75905625      67.92132761      82.75796908
C      88.00472067      71.82550217      82.98284651
H      88.64911735      73.38263665      81.79798811
C      85.24194080      72.26769813      83.71795004
H      85.26839697      73.85317850      85.03508928
H      84.61833112      70.69922529      84.89524954
C      83.48449533      72.77036533      81.43138120
H      81.58721012      72.24880086      82.03987308
H      84.06842076      72.07116659      79.58322887
C      83.12544733      75.60117535      80.93249346
O      81.02218195      76.75768784      81.33878462
O      85.03407091      76.83894609      80.37502420
C      89.66390038      71.95589329      85.26185644
O      91.42890475      73.49224077      85.07477354
N      89.36343389      70.36096428      87.24228962
H      87.73071036      69.38019633      87.34055539
C      90.95836290      70.51592184      89.47027694
H      92.92178854      71.12819316      89.37768035
H      90.87899440      68.60729826      90.24128528
C      89.73948943      72.26013922      91.42425395
O      88.09731726      73.85506824      90.97827854
N      90.40278337      71.82361245      93.84310363
H      91.69157671      70.45734032      94.19270300
C      88.87966396      72.62485641      96.04652451
H      86.97293011      72.84973383      95.30575179
C      88.80596463      70.61985678      98.08742893
H      90.72781629      70.63875405      98.83009137
H      88.51872623      68.78682227      97.19547811
C      86.85954653      70.93544107     100.33809297
H      86.94269449      72.83272630     101.13744720
C      84.27251121      70.29860332      99.20047773
H      82.88734182      70.29671358     100.72359713
H      84.29329820      68.42210508      98.35199061
H      83.68102687      71.79715627      97.91735356
C      87.47181785      68.90209556     102.36198985
H      85.93547036      68.67910786     103.71503389
H      89.30296265      69.36318879     103.18402079
H      87.56630417      67.11630419     101.33775819
C      89.76783532      75.20055336      96.89690135
O      92.04306581      75.58983699      96.57186842
N      88.03873575      76.78036457      97.56397474
H      86.29640809      76.02447403      97.36744320
C      88.37321731      79.50346018      98.37655705
H      90.42546008      79.67542528      98.44836665
C      87.32819865      81.63129201      96.51706636
H      87.11088013      83.50023133      97.35043567
H      85.42146480      81.05303575      95.99550190
C      89.12721810      81.66719681      94.24183588
H      89.42201541      79.87951571      93.26295765
H      90.94702454      82.41741816      94.85410721
C      88.03306657      83.31881760      92.15746776
H      87.91023436      85.26145626      92.82832060
H      86.12255327      82.67442094      91.73983824
N      89.62799558      83.49456216      89.86145029
H      91.25504993      84.48288902      89.98617222
C      88.90612013      82.73300245      87.65236023
N      86.75183213      81.48389335      87.21772317
H      85.86177104      81.45743719      85.53019758
H      85.81452788      80.56737610      88.60478229
N      90.27050252      83.46243681      85.80420789
H      90.06074290      82.67820038      84.07699804
H      91.92212332      84.19754034      86.42025867
C      87.35087537      79.80770612     101.04863006
O      85.15123394      79.01780052     101.40200888
N      88.79840573      80.99445425     102.78528854
H      90.48782105      81.70877079     102.25994463
C      88.24471592      81.19287550     105.43468483
H      86.40412249      80.30281442     105.68034925
C      90.15711894      79.71510953     107.02016521
H      89.23493250      79.38818688     108.83241274
H      91.58575204      81.12295564     107.49070706
C      91.47992736      77.25090642     106.32285620
H      92.47959258      77.56460098     104.55218264
C      93.40177902      76.69154743     108.50360036
H      94.95891351      78.03514283     108.41289350
H      94.19168462      74.83772591     108.07274277
H      92.54951246      76.49690562     110.36876024
C      89.46547911      75.16086911     106.09230959
H      88.36565840      75.38196709     107.82140917
H      90.47837242      73.42610035     105.64066500
H      88.25983373      75.58416780     104.47659359
C      88.07464055      84.01234716     106.30206921
O      88.13322206      84.54336026     108.57352024
N      88.05385356      85.81514606     104.56541073
H      88.62644063      85.43720081     102.78528854
C      87.18646918      88.37761495     104.76383199
H      86.46270400      88.60816156     106.67812475
C      89.40311815      90.04246382     104.09297915
H      89.94169015      89.89695491     102.11065625
H      91.04906976      89.44908976     105.17768205
C      88.88911259      92.79390535     104.63722033
H      88.79651600      92.80524370     106.69324256
H      87.13355684      93.53845750     103.85865309
C      91.22292459      94.34726037     103.72826197
H      91.67645890      93.85593152     101.77995414
H      92.74982345      93.61404656     104.89800256
C      90.97537044      97.27633615     104.27628260
H      90.67301423      97.53711839     106.29640003
H      89.44658185      98.04734450     103.13299818
N      93.13154816      98.83913982     103.37866260
H      93.63610509      98.45552538     101.57964315
H      94.73592580      98.38560551     104.30651822
H      92.92367827     100.73453531     103.48637700
C      85.05674763      88.83303899     102.77961936
O      84.93580514      87.50078193     100.79918619
N      83.41646519      90.68308104     103.20480778
H      83.44292135      91.53345788     104.91312037
C      81.67980670      91.67518736     101.28106640
H      80.33243184      90.29946660     100.55541149
C      79.99039138      93.59892876     102.50182959
H      81.20926485      95.16551187     103.04607077
C      78.00617875      94.44363642     100.71981768
H      76.85911488      92.97531907      99.84109495
H      78.84710696      95.33558723      99.06819688
H      76.83454844      95.88927705     101.60609932
C      78.80931244      92.67107314     105.01705532
H      80.21904826      92.57469708     106.51560828
H      78.00239930      90.80969272     104.66934568
C      76.79297446      94.26222269     106.13766302
H      76.40747029      93.67073834     108.07085304
H      75.19615572      93.99199183     104.86776694
H      77.29186221      96.25588394     105.99782327
C      83.18591858      92.69374985      99.11355032
O      84.57297769      94.58536588      99.31197158
N      82.59632397      91.75644560      96.93658560
H      81.33776624      90.32025359      96.92902670
C      83.34276586      92.47265186      94.47049276
H      84.67124346      94.03734525      94.62922977
C      85.03407091      90.38828374      93.28941382
H      86.37766632      89.79868913      94.73316472
H      86.14145053      91.09882083      91.70582317
C      83.58465083      88.02234641      92.36344793
C      83.26339735      87.84660185      89.70271328
H      84.02495706      89.32247810      88.51596515
C      81.85366153      85.83782279      88.68226107
H      81.80263891      85.69042414      86.64891555
C      80.91446755      84.04636224      90.28096953
O      79.57276187      81.99789892      89.43815159
H      79.62756393      81.84294135      87.63157324
C      81.27729500      84.15974582      92.84532813
H      80.33432157      82.85772439      94.09821668
C      82.60955205      86.22710641      93.93758994
H      82.63033904      86.77134759      95.90479504
C      81.01651277      93.07358483      92.66391441
O      78.85088641      92.70697793      93.30453163
N      81.53807723      94.31513502      90.48317024
H      83.33898641      94.78189743      90.05231264
C      79.69370435      94.56646862      88.35722814
H      77.81720612      94.21308981      89.13201593
C      79.77496258      97.16106286      86.94182313
H      78.55797884      97.09870188      85.28075370
H      81.64579163      97.83380542      86.40325113
C      78.59955281      99.03378162      88.66147408
H      79.74472696      99.37582209      90.33766132
H      76.73817240      98.22119932      89.00918372
C      78.07420890     101.74553889      87.44826979
H      77.32965673     101.52822036      85.53964621
H      79.84110300     102.80189590      87.39535745
C      76.12401134     103.03244251      89.09422140
H      77.04808751     103.26298912      90.91969702
H      74.71994469     101.52633063      89.10933921
N      75.22639135     105.46829973      88.18904250
H      74.12090145     106.42450124      89.41736460
H      74.18515215     105.07334693      86.63946692
H      76.67014225     106.55111289      87.56543282
C      80.18881264      92.44808542      86.49206827
O      82.29396776      92.13250114      85.32043796
N      78.22916646      90.96654000      86.16703534
H      76.79108473      91.51645035      87.29331223
C      77.97216368      89.14673355      84.06943914
H      79.80708793      88.25856218      83.77275211
C      76.21471821      86.98677639      84.98028722
H      74.26830011      87.63306278      84.77619678
H      76.63234772      86.75811949      86.98339711
C      76.75140048      84.46399175      83.69905278
O      77.83043421      82.77835588      84.77808650
O      76.00684831      84.07470814      81.44649901
C      77.26351631      90.37505566      81.59578739
O      77.16903000      92.73343410      81.31988735
N      77.07832313      88.83492871      79.68338436
H      77.00651353      86.95087158      79.98574058
C      77.07454368      89.75900488      77.04532643
H      78.64301652      91.05535714      76.72785241
C      77.11422793      87.48188468      75.18205629
H      77.04808751      87.95242652      73.17894640
C      79.56898241      85.92097075      75.68850294
H      81.09399155      87.28724286      75.46929469
H      79.77118313      84.31848282      74.41293768
H      79.39701732      85.18586720      77.60657515
O      75.08088242      85.91719129      75.53543511
H      75.31331876      85.45798780      77.27398332
C      74.85222554      91.36527224      76.10613245
O      74.71427551      92.33092239      73.98396980
N      72.90769716      91.48621474      77.71239982
H      73.24973762      90.60371255      79.37157952
C      70.67782011      93.02067250      77.40815388
H      70.10334331      93.10948963      75.43338989
C      68.53676020      91.77534285      78.82544862
H      66.92671338      92.99988551      78.43805472
H      68.85423422      91.76589423      80.86068386
C      67.48985182      89.16941027      78.22262592
H      65.76453170      88.88028214      79.30921855
H      68.92226437      87.75589500      78.66671161
C      66.73585102      88.79524446      75.38614673
O      67.93393750      87.29102231      74.06144858
O      64.91226513      90.02923574      74.44506303
C      71.06899346      95.69841468      78.42860609
O      69.54398432      97.34247658      77.91271081
N      73.15525131      96.15572846      79.87424672
H      74.31743299      94.71575701      80.33533994
C      73.52941712      98.34403152      81.46539628
H      73.07777253     100.05423383      80.41092900
H      75.58165989      98.30812672      81.62413329
C      72.28408748      98.13427190      84.30943438
O      72.58833341      99.76321598      85.91003257
N      71.10300853      95.99321198      85.07666326
H      70.87246192      94.75166180      83.64614044
C      69.86901725      95.67195852      87.45771842
H      69.04509658      97.39349918      88.23439593
C      67.59567649      93.79923974      87.27252524
H      66.55632702      93.82380618      89.05075770
H      68.20038891      91.84715246      87.00607383
C      65.64736867      94.22442815      85.11256806
C      64.57022467      92.03801481      83.97495282
H      65.02564871      90.15395768      84.61368032
C      62.89781688      92.50666695      81.92082032
H      61.90004139      90.99677561      80.97595716
C      62.31011200      94.95764196      81.07800238
O      60.76620560      95.31668996      79.08812058
H      60.11613975      97.00232583      79.26575485
C      63.19261418      97.02878201      82.38191354
H      62.89970661      98.96764121      81.81499565
C      64.84801443      96.62438058      84.44171522
H      65.70972963      98.20986096      85.39224756
C      71.78142028      94.81024332      89.45137968
O      73.37634929      93.13783553      88.95627138
N      71.49985106      95.77967291      91.77007386
H      70.28286731      97.23476218      91.98361294
C      72.81699030      94.96520087      94.11522422
H      74.84466663      94.91984744      93.75428649
C      72.30865392      96.72075661      96.23360741
H      72.78297522      95.80234964      98.01561933
H      70.30743375      97.19129847      96.11833411
C      73.74673564      99.19062891      96.14479028
C      72.62045876     101.52066146      96.70981845
H      70.69104819     101.51499227      97.37689183
C      73.95460554     103.82234811      96.44714649
H      72.96627868     105.55522713      96.88178354
C      76.52463332     103.86959126      95.63645390
O      78.01562738     105.99364364      95.70070459
H      77.00840326     107.36369522      96.33187318
C      77.81531639     101.52444091      95.27551617
H      79.80897765     101.45641076      94.84087912
C      76.41124974      99.30401248      95.39645866
H      77.41469442      97.53522867      95.22260384
C      72.11968129      92.30635596      95.12244834
O      69.86334807      91.70353325      95.41535592
N      74.06609939      90.82670025      95.16969150
H      75.81031678      91.51645035      94.81442295
C      74.04909185      87.99966969      95.19992712
H      72.22928541      87.21543327      95.76117584
C      74.39491177      87.16441066      92.46927260
H      75.96527433      88.11872245      91.53763753
C      74.30798436      84.29013693      92.10455542
H      75.81976541      83.26779500      93.06075693
H      74.82387964      83.82148481      90.16758595
H      72.52597244      83.39440666      92.61856098
O      72.35022790      88.07525874      91.01796279
H      72.58077451      89.86105011      90.79875454
C      76.05598120      86.91496678      96.97815958
O      78.08932671      88.01667722      97.19736783
N      75.69504347      84.61328013      98.02317823
H      74.06043021      83.72510876      97.60176926
C      77.64146157      83.12795525      99.34976610
H      79.49717281      83.78180055      98.74127423
C      77.64335130      83.61172519     102.31096724
H      77.06509505      85.57893028     102.51694740
C      75.63646196      81.86750779     103.49393591
H      75.88401610      82.16986400     105.51594306
H      75.58543935      79.89841298     102.88544404
H      73.74673564      82.59694215     103.11410092
C      80.25306334      83.22433130     103.58464277
H      81.53996696      83.94809646     102.14656105
H      80.64990586      81.27602347     104.12321477
C      80.37589555      84.98177677     105.87310134
H      79.66346873      86.88473115     105.53861978
H      82.36388763      85.14996240     106.38521717
H      79.53874679      84.13328964     107.55495776
C      77.49406292      80.31982195      98.81119411
O      75.81598596      79.28236220      97.56208501
N      79.55575433      79.01402107      99.52551065
H      81.08454292      79.71510953     100.43068956
C      79.96960439      76.36840423      98.89056261
H      78.21404865      75.52558630      99.56519490
H      81.43981146      75.54448355     100.07542101
C      80.45904351      75.78258908      96.06542177
O      82.62466986      76.27391791      95.20181685
N      78.48994869      75.00780128      94.76529007
H      77.01218271      74.61851767      95.90857449
C      78.26885071      74.69221698      92.06487117
H      79.54819542      75.98856923      91.10489020
C      79.29119264      71.95022410      91.12756692
H      78.27074044      70.47434785      92.13479104
C      79.01907206      71.71400832      88.31376444
H      79.49906254      69.84506899      87.59188898
H      80.59321407      72.87619001      87.66747804
H      77.23139096      72.41320706      87.56732254
C      82.06342115      71.44188773      91.80786839
H      82.05586224      71.14142125      93.84688308
H      83.28229462      73.00847085      91.25417858
C      83.00639458      68.82083733      90.85355660
H      82.78340687      68.41643591      88.84666726
H      81.99728073      67.38464534      91.93448005
H      85.03785036      68.71879212      91.17292035
C      75.60244688      75.21756090      91.17103062
O      74.11334255      73.51113804      91.10300047
N      74.93537349      77.58538798      90.60222300
H      76.01440722      79.15953000      90.58710519
C      72.53542108      78.28080726      89.41358515
H      71.81543535      76.84650498      88.12290208
H      72.62990739      79.94376641      88.20227058
C      70.33955910      78.72489294      91.23528132
O      68.25897043      79.21811150      90.50584696
N      70.75340916      78.50001550      93.74105841
H      72.52786217      78.08616545      94.30986603
C      68.96761780      79.00457244      95.84621352
H      67.19883397      78.13340860      95.24717028
C      69.65925763      77.82916267      98.44269747
H      71.40725447      78.58316347      99.22882362
H      70.25452142      75.89597265      98.05908303
C      67.42560113      77.67042566     100.10187718
N      66.18405094      75.42165135     100.59509574
H      66.59601127      73.70011067      99.88266892
C      64.29432462      75.81471441     102.21270147
H      62.96017785      74.50702380     103.03473241
N      64.16015406      78.31104287     102.77961936
H      62.96584703      79.26346494     103.92290378
C      66.08578517      79.40708413     101.35854518
H      66.48262770      81.40830431     101.28862530
C      68.67471022      81.81648519      96.21659988
O      70.41703788      83.10527853      96.97249040
N      66.30877287      82.71599492      95.75550666
H      65.08611995      81.43476047      95.04307984
C      65.74941389      85.35405285      95.47582716
H      67.28576138      86.42174822      94.60844279
C      63.35702037      85.47688505      93.76373512
H      61.92838728      84.22021706      94.55364072
H      63.82567250      84.57359587      91.97416430
C      62.16838252      88.08848682      93.56531386
H      61.81122425      88.96720956      95.39456893
C      63.67827385      89.90262409      91.82676565
H      63.02064909      90.08970698      89.88223728
H      65.67193511      89.38861852      91.80597866
H      63.67827385      91.81691684      92.59021508
C      59.56056021      87.98833132      92.35021984
H      58.63459432      89.81569667      92.57131782
H      58.41160661      86.47844001      93.14957407
H      59.70795886      87.44409014      90.36789694
C      65.36957890      86.38773313      98.19892278
O      64.52298151      85.11405760      99.95825798
N      65.77020088      88.93508421      98.35199061
H      66.64514416      89.75144597      96.86477600
C      65.48674193      90.55457965     100.61399301
H      64.46439999      89.46609731     102.03506720
C      68.10968205      91.01189343     101.85554320
H      67.77520049      91.88872643     103.69046745
H      68.97895615      92.60115326     100.87477524
C      70.00318782      88.81414173     102.19947338
H      70.18271182      87.89006556     100.36643886
C      72.64691493      89.83081448     102.85898787
H      72.88313072      89.81380695     104.90367174
H      72.94738141      91.73187916     102.12199461
H      74.03586377      88.50611634     102.11254597
C      69.06777329      86.98110721     104.32352576
H      67.31221755      86.07403858     103.74904896
H      68.84856504      88.13950944     106.01294108
H      70.25074196      85.30114051     104.45769633
C      63.99952732      93.05657730     100.15667924
O      62.95828812      93.91073360     102.04451583
N      63.78787797      94.15450828      97.99672206
H      64.83667608      93.39105886      96.59454514
C      62.13436745      96.30690656      97.21248564
H      60.12747810      95.88927705      97.40523773
C      62.28743528      98.85803707      98.66946463