 %block lattice_cart
   142.669   0.000   0.000
   0.000 146.65   0.000
   0.000   0.000   162.396
 %endblock lattice_cart

 %block positions_abs
N      91.61693253      43.50228420      78.21790160
H      89.79901581      43.28496567      77.67555015
H      92.45219155      41.96971616      78.98890995
H      92.80934982      43.96715686      76.80060687
C      91.50921812      45.63200575      80.03392859
H      93.15328002      45.64145438      81.27358906
C      91.34481193      48.18880546      78.65442839
H      91.01599956      49.57586456      80.13975326
H      89.89728157      48.03006844      77.19555967
C      93.61437323      48.88800418      77.12752952
H      93.46697459      47.81652937      75.37197378
H      95.14316182      47.94314103      78.13286392
S      93.86570683      52.13833345      76.16565884
C      97.02154978      51.85676422      74.52726612
H      97.37303887      49.83475707      74.70679012
H      98.44262396      52.94902603      75.54582860
H      97.01021141      52.48037391      72.56384047
C      89.12627324      45.52429135      81.54381992
O      87.18174486      44.94603509      80.40620467
N      89.16595749      46.13656268      83.97589768
H      90.91017489      46.42947025      84.69210395
C      86.97198524      46.41813189      85.62940821
H      85.69264054      44.86099741      85.20610951
C      87.92818675      46.08742979      88.38462918
H      89.13761160      47.66157181      88.93642925
H      88.97698486      44.31297678      88.39218807
C      85.87594398      45.98538457      90.39907743
O      83.55913953      46.23104899      90.06837531
N      86.57703244      45.72271261      92.69320516
H      85.22209867      46.14601130      93.96688070
H      88.36093408      45.36177488      93.27146142
C      85.94775358      49.02784393      85.15886636
O      87.38394558      50.94402641      84.72422930
N      83.41174087      49.25272136      85.56893696
H      82.47254689      47.70503551      86.16420075
C      82.01334339      51.74338064      85.33272118
H      82.41774484      52.59753694      83.50157637
C      79.11072379      51.32575113      85.17398416
H      78.91986142      50.07286258      83.54881953
C      78.06759486      50.05396533      87.59850302
H      78.17908872      51.18780111      89.31626424
H      78.99356076      48.24549724      87.93676403
H      76.23078089      49.28484672      87.08260775
C      77.47988997      53.75404944      84.55982312
H      77.79736399      55.18268253      86.01113292
H      75.56937668      53.02650481      84.31793814
C      78.13751473      54.98048182      81.88397065
H      76.65218985      56.34864367      81.48334868
H      78.34727435      53.58208434      80.38541768
H      79.76645881      56.19746556      82.22412139
C      82.75978530      53.75971862      87.30559544
O      83.11883330      56.07652308      86.76891317
N      83.34937991      52.90178287      89.56192866
H      82.85427161      51.10465316      89.97388901
C      84.13172660      54.58552902      91.64818651
H      82.83915379      56.18990666      91.65385570
C      83.81614230      53.09453497      94.24844993
H      84.70809313      54.25671664      95.69787000
H      85.01611851      51.42590662      94.37695131
C      81.18375355      52.52383761      94.97788427
C      80.20109586      50.14656191      94.36939240
H      81.38217481      48.71414936      93.51712584
C      77.71799548      49.71003513      95.00811989
H      77.03769401      47.81841909      94.64340273
C      76.15519183      51.67724022      95.78668713
H      74.13129495      51.42401690      95.87361456
C      77.12840088      54.09986935      96.34226668
H      75.90574796      55.58519424      97.01878869
C      79.69842866      54.44568927      95.94542415
H      80.75478567      56.03116965      96.68052769
C      86.95875717      55.48314902      91.44976526
O      87.93196621      56.46769642      93.37539637
N      88.26833749      54.66678725      89.50145742
H      87.37638667      53.47059049      88.31092985
C      90.94041050      55.14866746      88.95910597
H      91.59236609      56.52627794      90.34427535
C      92.41439702      52.73926641      89.40508139
H      91.87015584      51.24827235      88.09172159
H      91.93629627      51.92668409      91.23622617
C      95.18473581      53.08319660      89.18398340
H      95.76866123      54.90489276      89.94176366
H      95.62126258      53.40822952      87.19788105
C      96.77021618      50.84765038      90.28380411
O      97.16705870      50.72103871      92.56470377
O      97.37303887      49.15445559      88.74178744
C      91.20308245      56.25982653      86.46655696
O      92.42006620      58.22703162      86.23034117
N      89.95964255      55.30929419      84.46533679
H      88.93919034      53.70869602      84.65997860
C      89.91995829      56.57541082      81.89719874
H      91.82480241      56.45635807      81.12430068
C      87.98109909      55.01260716      80.43266085
H      86.10082141      55.07685787      81.27547879
H      88.70486428      53.08886578      80.57439032
C      87.91873813      55.91967579      77.76625701
H      87.51433669      54.26049610      76.61352396
H      89.83492061      56.41100464      77.18611105
S      85.40729186      58.27427478      77.35807614
C      87.10993526      59.82007090      74.96568262
H      85.89106179      61.23925537      74.10585715
H      87.85826689      58.37065082      73.71090435
H      88.67651838      60.73280871      75.94267113
C      89.14706023      59.36086742      81.86696312
O      90.21475559      60.84430258      80.48935264
N      87.48410107      60.23770042      83.53937090
H      86.83781468      59.13598998      84.95855536
C      86.72821056      62.98158303      83.44299487
H      86.70742356      63.72046601      81.52114321
C      84.21487455      63.50881667      84.73556767
H      84.04101973      65.50625738      85.20421978
H      84.09393207      62.54505625      86.55159464
C      81.81870158      62.85686109      83.10851331
H      82.15318314      61.20335057      81.92554463
C      79.32804230      62.56206378      84.67698615
H      77.75012083      62.10286029      83.43543596
H      79.19576147      64.40454694      85.58783422
H      79.72866429      61.10886426      86.07916307
C      81.57114745      64.83918399      80.97690203
H      82.95253737      64.47446681      79.49346687
H      81.93397490      66.77426374      81.58539389
H      79.72677456      64.61997575      80.08684093
C      88.81635812      64.68422643      84.51824914
O      88.91651362      67.00292063      84.17431894
N      90.51144263      63.56928791      86.00546375
H      90.21664533      61.71357667      86.33616584
C      92.76399639      64.99225182      87.09961528
H      92.32180044      66.86119116      87.83849826
C      94.00554658      63.41810981      89.19154230
H      95.52677626      64.58029149      89.94743284
H      94.84080561      61.68145132      88.46021823
C      92.10070246      62.66221928      91.28346933
H      90.58703168      61.64554653      90.32348837
H      90.99332283      64.06628593      92.30770100
C      93.26477386      61.22413755      93.37539637
H      94.69529668      62.39765760      94.28435473
H      94.06601782      59.51204552      92.55714487
N      91.39016537      60.63265322      95.29913776
H      90.04279050      59.29661672      95.08937814
C      91.06324272      61.85341642      97.42507985
N      92.30290317      63.75070164      98.41718617
H      92.11204082      63.95668180     100.30691248
H      93.62571159      64.68044699      97.40429287
N      89.34170205      61.04272383      98.88394856
H      89.31902532      61.72680475     100.66596048
H      88.63305468      59.30417562      98.55135673
C      94.56112612      65.58940534      85.03981359
O      95.93495714      67.37897616      85.39508215
N      94.46097062      64.32517843      82.78725984
H      93.29500949      62.89087616      82.31671798
C      96.21085719      64.88453742      80.57061086
H      97.54311423      66.28671436      81.28681715
C      97.97208212      62.64143230      79.80716143
H      99.11536653      63.45968378      78.30104956
C      99.23819875      61.69089995      82.26569537
H      98.02499445      60.79516968      83.66976202
H     100.33046056      63.31228513      82.91765095
H     100.29266602      60.04872779      81.60240144
C      96.35069694      60.47958540      78.52970645
H      94.89749740      61.65121570      77.65476317
H      95.90283179      59.03583448      79.92810393
C      97.83980127      59.22480712      76.38108764
H      98.59002262      60.54572581      74.98835933
H      96.56423600      57.90766788      75.44000392
H      99.22119120      58.01160282      77.31083297
C      94.94474056      66.33584723      78.47679412
O      96.04267154      66.92544184      76.51525820
N      92.68651761      67.25425422      79.09851407
H      91.80779487      66.69300551      80.69533280
C      90.99899201      68.80760925      77.58673301
H      91.63960923      69.36885797      75.71401425
C      88.62927522      67.28448984      77.16532405
H      87.20820104      67.93266597      78.50702974
H      89.00344104      65.27571077      77.42610629
C      87.63716891      67.89298171      74.42144144
O      89.05824309      67.74369333      72.45045690
O      85.30902608      68.26147835      74.04916536
C      90.44530220      71.37763703      78.88119554
O      91.12938313      73.18988457      77.60563029
N      89.62516099      71.50991788      81.28492741
H      89.25477463      69.89609160      82.23545974
C      88.89761635      73.93632646      82.50569061
H      89.05824309      75.61818288      81.32839112
C      86.02523236      73.78892781      83.04237288
H      85.59815421      71.94644465      83.85873465
H      84.93675000      73.99490798      81.30571441
C      85.17107606      75.90731102      84.77714165
H      86.25199951      75.87329594      86.52891793
H      83.23032714      75.42354108      85.26280130
C      85.27123156      78.49056688      83.67543120
O      84.68919586      80.24990207      85.20421978
O      85.90051042      78.98378544      81.44177469
C      90.36404397      74.54670807      84.91887112
O      91.25599479      76.57438441      85.35917734
N      90.98198448      72.47367830      86.33805557
H      90.57569333      70.68977666      85.79759384
C      92.79423202      72.63430503      88.47344630
H      94.50443433      73.65853669      87.95755103
H      93.16461838      70.63497460      88.81737650
C      91.57724827      73.85317851      90.86772955
O      89.54012331      74.98134511      90.70521308
N      93.05501424      73.75869219      92.99934083
H      94.58569256      72.63052559      92.84816272
C      91.94763463      74.46544984      95.46543366
H      89.91239938      74.70922452      95.25567404
C      92.54478814      72.32438992      97.39484423
H      94.58947201      72.07872550      97.33437299
H      91.77377981      70.50458348      96.82036743
C      92.07424628      72.79115232     100.30124330
H      93.26099441      74.31049228     101.02500847
C      89.21698011      73.18799484     100.75855707
H      88.47620739      74.19332925      99.12016436
H      88.99210267      74.26135939     102.50277445
H      88.37605189      71.30771716     100.79635160
C      93.12304439      70.44222251     101.68452296
H      93.35170128      70.88819793     103.68196367
H      94.98631453      69.97168066     100.94186052
H      91.90039146      68.80949899     101.39728456
C      92.77344503      76.94666048      96.57659274
O      95.06190359      77.53058592      96.81658798
N      91.09914751      78.54914840      97.53468397
H      89.31146642      78.01435585      97.12461337
C      91.47520305      80.94343163      98.95953762
H      93.50854856      81.08894057      99.25433492
C      90.60970839      83.23000047      97.29657846
H      88.57825261      83.56259230      97.19075379
H      91.24087698      82.69520792      95.40874188
C      91.91739900      85.74522620      97.64239837
H      91.79267706      86.17041461      99.65495690
H      90.81379884      87.21921272      96.71832222
C      94.71986312      85.85483032      96.90729484
H      94.80679054      85.36917066      94.90796441
H      95.96708249      84.51690410      97.85404773
N      95.71385917      88.46454236      97.51200726
H      96.50376476      88.61949991      99.24110683
C      96.10881197      90.39962210      95.95865224
N      95.62882149      90.29379744      93.52468475
H      95.69496190      91.87549836      92.46076883
H      95.19985361      88.63650746      92.68186680
N      96.55100792      92.62194025      96.65596125
H      96.23164417      94.10348568      95.49377956
H      96.78344426      93.10193073      98.48899576
C      90.25821930      80.88673984     101.60893391
O      87.88661279      80.73556174     101.73365585
N      91.60559416      81.61806393     103.70464039
H      93.51232802      81.68042490     103.68574313
C      90.73065088      82.20009964     106.12915926
H      89.04123555      81.08327139     106.50332506
C      92.52967033      81.29681045     108.19651984
H      91.58102772      81.39129678     110.02388518
H      94.30412333      82.33427020     108.08124654
C      93.20997181      78.52836140     107.88471499
H      94.03389247      78.22411548     106.02144485
C      95.40961323      78.04837093     109.70074198
H      94.72931175      78.22978466     111.63771146
H      96.85525387      79.51479855     109.73664679
H      96.48675723      76.35895560     109.22264123
C      91.08591942      76.63296591     108.61225962
H      90.70797416      76.85028444     110.62481814
H      91.83425105      74.79426222     108.05856981
H      89.47587261      77.11484612     107.42173204
C      89.50043905      84.67942055     106.56001686
O      88.28912449      85.12917541     108.49509659
N      89.88972268      86.42174821     104.64761382
H      90.63616457      85.73010838     103.03378756
C      89.11493488      89.02579108     104.76288712
H      88.08881350      89.44720005     106.49954560
C      91.51488731      90.66796324     104.67595972
H      92.53533952      90.24844400     102.93741151
H      92.66195117      90.04057411     106.26521954
C      91.06513244      93.56113423     105.13138376
H      90.03145215      93.85215207     106.88693951
H      90.16184326      94.20742062     103.39661501
C      93.38382662      95.21842420     105.33736393
H      92.55612650      97.09114299     105.10492758
H      94.76899601      94.88772210     103.84825960
C      94.64238435      95.15984269     107.87526637
H      95.34347281      93.24743965     108.17006367
H      92.98509437      95.62660508     109.01099188
N      96.57746410      97.00799502     108.03589310
H      97.77555058      96.78500732     106.56568603
H      97.81523483      96.83980938     109.47964400
H      96.03133318      98.81268366     107.73542661
C      87.43307846      89.70042337     102.51600254
O      87.57102848      88.46643208     100.54690772
N      85.72665560      91.51645036     102.84103547
H      85.54524187      92.17407511     104.62304737
C      84.01456357      92.40462172     100.84359475
H      82.96954492      90.67363242     100.45809058
C      82.21365438      94.53056383     101.56358047
H      83.17741480      96.31824491     101.90751067
C      80.79824938      95.25810845      99.06347256
H      82.17774958      96.26722231      97.91262925
H      79.26757106      96.58091687      99.45653563
H      80.15196298      93.62727464      97.98632856
C      80.70943224      93.79735001     103.84825960
H      82.01712285      93.60837738     105.42996052
H      80.05369721      91.85471137     103.65928695
C      78.54191617      95.66062016     104.60792956
H      79.37528546      97.53144921     104.84603508
H      77.47988997      95.12204816     106.28600653
H      77.04525292      95.88738731     103.21142183
C      85.71720698      93.13783553      98.50789303
O      87.60315384      94.58914534      98.88205885
N      85.20509114      92.34604020      96.20998583
H      83.85393683      91.00244480      96.28179543
C      86.26144816      93.01878277      93.84593822
H      87.16473733      94.86693510      93.96877043
C      88.19085871      91.08181330      93.15618811
H      89.61004317      90.66229406      94.59049038
H      89.25477463      91.97754357      91.63873788
C      87.30835652      88.68375061      92.17919960
C      87.12694280      88.03368477      89.54114167
H      87.57858739      89.43586168      88.13140585
C      86.36916256      85.70743167      88.71344156
H      86.05735770      85.36161175      86.72733919
C      85.81736247      83.91597112      90.68820555
O      84.97832399      81.61617420      89.96821983
H      84.26022799      81.66341737      88.30148121
C      85.90806933      84.48666848      93.36594773
H      85.35815898      83.09582991      94.75489658
C      86.74710781      86.86205444      94.07459511
H      86.69230576      87.35527301      96.05502827
C      84.36227321      93.22665267      91.69165021
O      82.30058179      92.26856143      91.83337970
N      84.92730137      94.67607275      89.71310676
H      86.75655645      95.17307077      89.49200880
C      83.14528946      95.26944681      87.58905440
H      81.33115220      95.47542698      88.54147645
C      83.78779640      97.96041709      86.76324399
H      85.14839936      97.76199582      85.23067595
H      84.89706575      98.75221240      88.30715039
C      81.70909746      99.67439885      85.85617536
H      79.84015813      99.27566660      86.62529398
H      81.24611451      99.55723581      83.85117574
C      82.33270715     102.52788558      86.53269738
H      83.54402171     102.79622672      88.18053873
H      80.55825413     103.53321999      86.80859743
C      83.73110461     103.95084949      84.39919638
H      82.62183527     103.82045838      82.66820707
H      85.47910146     102.88315413      84.18187785
N      84.40762663     106.64370949      84.83761288
H      85.32036444     107.20873767      83.25780169
H      85.48666037     106.99897803      86.37207064
H      82.75411611     107.59235211      84.88863550
C      83.04702370      93.51767052      85.37996433
O      85.06525139      92.53312311      84.81493616
N      80.74155759      93.22098349      84.28014362
H      79.34127040      94.30757612      84.98879098
C      80.09716091      91.92652096      81.94066245
H      81.29146794      90.26167209      81.73657200
C      77.43453654      90.87394341      82.46222690
H      76.26479596      92.50099776      82.94221740
H      77.46288243      89.61916514      84.09872990
C      76.25723705      89.29224249      80.32872590
O      76.37628980      86.93197432      80.64053074
O      75.62606847      90.22198783      78.32372628
C      80.38061986      93.77467330      79.75235937
O      80.52045961      96.09336749      79.92243475
N      80.48266509      92.64272723      77.47901862
H      80.15952189      90.76244956      77.48090835
C      80.90596378      94.06380142      75.10363265
H      82.34593523      95.50944205      75.38520186
C      81.67319266      92.17974429      72.91910902
H      81.86783447      93.10571018      71.08985395
C      84.08826289      90.72465503      73.36319470
H      85.55846997      91.98132304      74.07184207
H      84.67218833      89.84404258      71.59441089
H      84.02212248      89.22421234      74.77293054
O      79.74000265      90.38828374      72.79249737
H      80.24455958      89.37539044      71.37331290
C      78.57593123      95.60581810      74.28916060
O      78.73655798      97.35759439      72.64887816
N      76.41975351      95.05401801      75.35874569
H      76.19109663      93.31546980      76.11085676
C      74.12373604      96.62438058      75.24536211
H      73.66453254      97.52578003      73.45201185
C      71.70866581      95.00488513      75.69700670
H      70.03247857      96.18785381      75.51181352
H      71.99590421      94.26978159      77.59996111
C      71.22489587      92.73154437      73.97735576
H      70.06460393      91.36338252      74.99024907
H      73.03147423      91.87927781      73.47279883
C      69.79437305      93.33058761      71.57173416
O      70.45766700      95.21653448      70.31884562
O      67.97645635      91.96620522      70.81962309
C      74.24089907      98.72386651      77.30894326
O      72.41164400     100.15438934      77.62074809
N      76.34227473      99.05267889      78.74891471
H      77.84649687      97.92451228      78.43522013
C      76.65596930     101.00665591      80.75202459
H      75.80559246     102.79811644      80.19077587
H      78.68553536     101.18995935      81.04682189
C      75.46355199     100.31123661      83.28236813
O      76.09661031     101.45452103      85.24201431
N      73.91586614      98.22875822      83.41653869
H      73.12785027      97.75254718      81.74413090
C      72.57982964      97.03634091      85.41964859
H      71.29670548      98.38371577      86.30593022
C      70.74679513      95.06346664      84.21400320
H      69.82082923      93.85215207      85.60106231
H      72.01858093      93.82947536      83.16331537
C      68.76069276      96.06502160      82.34884333
C      67.69299739      94.31324530      80.56494168
H      68.56038177      92.46887241      80.45533756
C      66.01114098      95.07102555      78.63742084
H      65.18722030      93.72365070      77.34295832
C      65.40831829      97.72231156      78.45789684
O      63.76803584      98.78622748      76.74391508
H      63.73591050     100.55312158      77.15020624
C      66.20389306      99.40605772      80.35518206
H      65.71445395     101.37515253      80.14164299
C      68.05771458      98.59347539      82.08050219
H      68.90242223     100.08069000      83.19355099
C      74.52435802      95.71920167      87.37173587
O      76.65030013      95.07480501      86.83883305
N      73.50768526      95.10315089      89.62806908
H      71.65953293      95.47164754      89.92664584
C      75.07048893      94.30379666      91.75212147
H      76.99612003      94.79323578      91.20977000
C      74.69254366      96.03478597      94.11049990
H      75.82637945      95.37905095      95.70164945
H      72.68754405      95.76833457      94.50167324
C      75.54858968      98.75410213      93.54358201
C      73.75901887     100.42273047      92.79525039
H      72.02991929      99.54211800      92.15841262
C      74.32404704     103.04945005      92.58171131
H      72.92942902     104.38170709      91.91463792
C      76.83738303     103.71463370      93.37539637
O      77.71988522     106.23741834      93.15618811
H      76.44998914     107.52999114      93.06737098
C      78.75923468     101.89860672      93.94042454
H      80.68108635     102.54489311      94.17853005
C      78.00523388      99.35881455      93.98388823
H      79.40930055      97.94529927      94.42419446
C      75.01757659      91.61282639      92.18297906
O      73.10517355      90.38450429      92.10739000
N      77.21721801      90.67174269      92.73855860
H      78.71577099      91.80557848      93.06926071
C      77.53469204      87.95809570      93.25634360
H      75.79425410      86.91307706      93.60027379
C      78.89529498      86.90551815      90.79969940
H      80.42597330      88.15462725      90.21388425
C      79.52268412      84.10683348      91.20977000
H      80.21054449      83.13740388      89.52791360
H      77.84649687      83.16763950      91.95432218
H      81.06659052      83.83282316      92.54391678
O      77.27013035      86.87150307      88.62084497
H      76.51423983      88.50989579      88.82304568
C      79.28079916      87.37417027      95.65251657
O      81.02123708      88.67619170      96.23455227
N      78.75545523      85.39562682      97.05091404
H      77.37595502      84.21265815      96.46887833
C      80.63951237      84.24478351      98.86505130
H      82.25522836      85.52034876      98.92174309
C      79.35071902      84.13895883     101.57302911
H      78.66285865      86.06458994     101.83003188
C      76.91675154      82.49678667     101.82058326
H      76.01346236      82.93520317     103.61960271
H      77.44020572      80.52391239     101.56169076
H      75.83582809      83.22055185     100.22187480
C      81.03257544      83.54936422     103.81802396
H      81.99255640      81.72766805     103.87282604
H      80.00456432      83.23755938     105.57546944
C      82.86372024      85.67152687     104.56446587
H      84.39061910      86.10994338     103.25299580
H      83.74433271      85.16508022     106.35592641
H      81.98877695      87.53101756     104.71375425
C      81.37461590      81.67286599      97.93152650
O      80.07448421      80.64296515      96.33092831
N      83.07725931      80.34060894      99.24299656
H      84.23755127      81.19854469     100.49021593
C      83.34937991      77.60050578      99.09181847
H      81.44831523      76.90697624      99.48299180
H      84.50589240      76.80304128     100.59982005
C      84.26400743      76.72556250      96.47076807
O      85.93074605      77.86506748      95.35016036
N      83.35126962      74.51836217      95.60716315
H      82.31758934      73.55460175      96.88650786
C      83.66496420      73.47145380      93.00878945
H      85.30902608      74.49190601      92.30203181
C      84.33770677      70.67654857      93.02768672
H      82.65585035      69.51814634      93.28846895
C      84.96320618      69.92632724      90.29514247
H      83.22843742      70.30238277      89.25012383
H      85.42240967      67.93455570      90.03813969
H      86.52223039      70.98079451      89.45799372
C      86.59781943      70.22301427      94.79458082
H      86.36160365      71.06772193      96.65596125
H      88.28534504      71.14142125      94.05002866
C      87.15528869      67.41488096      95.30291720
H      85.42051994      66.70434386      96.15707349
H      88.74832797      67.35818918      96.60871808
H      87.66929426      66.55127604      93.50578748
C      81.23477615      74.24246213      91.78046735
O      79.40552109      72.84217494      91.93542491
N      81.25367342      76.53847960      90.81292749
H      82.81269762      77.63452086      90.93009052
C      79.25056352      77.48712220      89.30114643
H      78.96332513      76.03581241      87.87062361
H      79.96488007      79.16330944      88.33927574
C      76.67486657      78.05404010      90.45198975
O      74.93820808      78.88551968      89.02713612
N      76.50290147      78.08238599      92.97855383
H      78.17719898      77.86317775      93.86861493
C      74.08972096      78.53592031      94.26923691
H      72.62329335      77.44932769      93.31492513
C      74.20310455      77.65530786      97.12839282
H      75.31615335      78.94599093      98.28679505
H      75.00056905      75.75802264      97.06792157
C      71.73134254      77.38885645      98.53056974
N      69.93232309      75.59361644      98.30947176
H      70.08728063      73.95522374      97.34193190
C      67.87630085      76.21344668      99.82503227
H      66.06216359      75.33094449     100.13683711
N      68.58872768      78.46222099     100.82280776
H      67.36229529      79.69621226     101.60704418
C      70.82616362      79.31637729      99.96298230
H      71.90330762      80.99067480     100.41273716
C      73.38485306      81.32515636      93.94798343
O      74.45254843      83.02591003      95.04591442
N      71.33638973      81.71443998      92.42108457
H      70.49924097      80.38407265      91.33827139
C      70.21389231      84.21454789      92.10550029
H      71.79559323      85.48444396      91.75023173
C      68.21834132      84.11439239      89.97199928
H      66.79348767      82.75756889      90.58049114
H      69.14052775      83.62495327      88.19376682
C      66.81427466      86.62016948      89.55814922
H      66.42310131      87.66518813      91.29102824
C      68.27692283      88.43808619      87.81771127
H      69.85484431      89.44531032      88.68131621
H      67.17899184      89.81191723      86.74434673
H      69.11785104      87.49322303      86.19254664
C      64.24802633      86.07781802      88.30526066
H      64.52959556      85.49578232      86.34939393
H      63.29560426      87.90329364      88.26179697
H      63.20300767      84.64918493      89.35972795
C      69.22934489      85.19531584      94.66041026
O      68.12385499      83.83282316      96.12872760
N      69.41264835      87.73321827      95.09504730
H      70.14397242      88.79713419      93.68909093
C      68.45455710      89.18074864      97.28901955
H      67.67787958      87.78046143      98.58537180
C      70.79025882      90.52056459      98.51167249
H      70.12696489      91.91707234      99.87416516
H      71.67654046      91.59959831      96.99422225
C      72.83494269      89.03712943      99.83637063
H      73.65319419      87.56503263      98.65529168
C      75.05537111      90.77756736     100.28234604
H      74.23711962      92.52934366     100.99477285
H      76.02291099      91.00622425      98.47954714
H      76.46321721      89.89695491     101.49932979
C      72.08283162      88.02423613     102.50466418
H      70.65608825      86.54458042     102.41206759
H      71.77291650      89.56814252     103.83503151
H      73.72689352      86.95087159     103.12449442
C      66.45522666      91.21409415      96.51423177
O      64.50124965      91.52778871      97.74255387
N      66.93332742      92.75989028      94.46576844
H      68.68888316      92.97720879      93.74956217
C      65.10407235      94.73276454      93.53602310
H      63.24458165      93.88805688      93.80247452
C      65.02848330      96.91917788      95.38417544