 %block lattice_cart
   142.669   0.000   0.000
   0.000 146.65   0.000
   0.000   0.000   162.396
 %endblock lattice_cart

 %block positions_abs
N      91.45914037      42.56403508      76.82517332
H      93.24304201      41.95932266      76.51147875
H      90.71080875      43.04969474      75.13764771
H      90.72403683      40.84060468      77.18422132
C      91.27016774      44.50289427      78.77537086
H      92.11109595      43.52023659      80.37785879
C      92.70069056      46.78568366      77.86830223
H      91.54984723      47.53401528      76.33384448
H      94.55262234      46.21120686      77.17099323
C      93.07863582      48.98343536      79.74669019
H      94.37498807      48.57525448      81.29437605
H      91.23048348      49.54279435      80.46289647
S      94.26538394      51.82936319      77.94011183
C      97.67067076      50.82969797      77.85129470
H      98.07696192      49.65239848      76.21290199
H      98.14121261      49.86593755      79.60874018
H      98.69679215      52.61548934      77.86452278
C      88.54896185      45.18319575      79.54448948
O      87.23371233      46.35104661      78.02137007
N      88.03495629      44.78635322      81.93499327
H      89.32374963      43.89440240      83.02536534
C      85.69169566      45.36271975      83.25969141
H      84.19503242      44.16841272      82.50002144
C      85.85610185      44.65596211      85.97900757
H      87.36032400      45.78412871      86.81804605
H      86.24538547      42.64718303      86.22467199
C      83.29174324      45.08681970      87.49456807
O      83.01773293      47.13717275      88.60194770
N      81.31697925      43.52023659      87.08071802
H      79.69559407      43.88684350      88.01991200
H      81.54752586      41.96121238      86.00168429
C      84.90179006      48.15573524      82.79670846
O      86.48160126      49.84704029      82.34317415
N      82.41491023      48.66029216      83.03859343
H      81.19792649      47.19386454      83.14441810
C      81.41146556      51.17362816      82.59828720
H      81.75161630      51.69330290      80.63297184
C      78.44648498      50.97331717      82.63041254
H      77.89090544      49.87727591      80.97501229
C      77.36367180      49.58625806      84.97556291
H      75.32843656      49.89239372      85.01335742
H      78.28396851      50.05868963      86.75757481
H      77.52240881      47.53968446      84.81115671
C      77.34288481      53.57924976      82.21656248
H      77.74539651      55.05701573      83.59228325
H      75.30198039      53.29390108      82.26380564
C      78.06664999      54.82268967      79.60874018
H      80.02629617      55.45196853      79.67110114
H      76.87045323      56.41761868      79.08528598
H      77.98350203      53.38271822      78.13853310
C      82.41679996      53.23720929      84.36896075
O      83.04985828      55.35559249      83.54504008
N      82.65112602      52.53423110      86.80292825
H      82.35821844      50.72954248      87.34527969
C      83.62622480      54.23876424      88.72477990
H      82.62466986      56.01888643      88.44321068
C      83.31441996      53.07847228      91.42330908
H      84.25550366      54.26522041      92.81792710
H      84.20826051      51.22276104      91.46677278
C      80.61400106      52.77989553      92.20943522
C      79.69559407      50.36293557      92.68942571
H      80.81053259      48.72454286      92.21321468
C      77.26351631      50.05868963      93.68153202
H      76.31109424      48.30502362      94.10672045
C      75.97661269      52.24699270      94.47899653
H      74.09822473      51.88983443      95.19331307
C      76.99706490      54.64694512      94.17286086
H      76.14668805      56.26266112      95.09126785
C      79.16458098      54.89071982      92.70265380
H      79.73149887      56.78989476      92.20754550
C      86.55719031      54.57135607      88.25612778
O      87.46803840      56.63682693      88.80036896
N      87.90456517      52.70241675      87.23756529
H      87.14300547      50.96575826      86.99945978
C      90.50293885      53.11059763      86.65741933
H      91.50827325      54.01577653      88.21266407
C      91.60842875      50.54812875      86.45710833
H      91.07552593      49.50122037      84.76580329
H      90.70513957      49.28012239      87.80448319
C      94.44490794      50.57647464      87.01457759
H      94.80584567      51.06213431      88.98367242
H      95.23103409      51.96920294      85.71633561
C      95.59008209      47.97621124      86.91631183
O      97.04139190      47.35260155      85.11162319
O      95.09497379      46.34915688      88.50935111
C      90.88655330      54.87938146      84.35384294
O      92.11109595      56.79367421      84.55604367
N      89.24438113      54.36915535      82.43199128
H      88.10676589      52.83658731      82.44710910
C      89.13855646      56.03022478      80.08873066
H      91.04718003      56.09258575      79.31394287
C      87.05796779      54.88505064      78.31238792
H      85.19847709      55.23465001      79.12308051
H      87.24694042      52.83469759      78.26892421
C      87.27717604      55.90928230      75.58362313
H      89.25194003      55.84314188      74.99780798
H      86.79529583      57.91050246      75.69133752
S      85.18146956      54.49198756      73.28949539
C      86.90301023      51.47787410      72.96824190
H      86.09609709      50.39317119      71.41488688
H      86.56474922      50.59726163      74.79938670
H      88.91745848      51.72353852      72.61486308
C      88.48849060      58.80245328      80.71989924
O      89.61287776      60.56934739      79.75802855
N      86.57608758      59.19362663      82.24679810
H      85.91090391      57.62326407      83.10662357
C      85.57453263      61.73152907      83.09150576
H      84.98115857      62.81056279      81.44177469
C      83.21426446      61.48586465      84.78281082
H      82.73049453      63.26598684      85.70121780
H      83.27284598      60.02699594      86.23412063
C      80.82565041      60.93217484      83.27291949
H      81.07509428      59.17661909      82.22601112
C      78.61278089      60.42950764      85.07571839
H      79.24961866      58.83079918      86.20955419
H      77.01407243      59.99298086      83.85495520
H      78.17247466      62.10569488      86.19065692
C      80.07353933      63.09213202      81.62696787
H      80.14345921      64.97807888      82.45466801
H      78.18381302      62.76520936      80.87296707
H      81.23383129      63.21118477      79.92999364
C      87.51906101      63.37559096      84.52391832
O      87.80818913      65.77365365      84.11006825
N      89.11210029      62.28710861      86.11128841
H      88.94580437      60.38415421      86.09050142
C      91.04151085      63.44362111      87.63440782
H      90.35554020      65.15760288      88.55092508
C      91.86921098      61.53121808      89.71121704
H      93.05595910      60.08746718      88.84383267
H      90.18168538      60.66005425      90.51057127
C      93.62476672      62.69906894      91.72755502
H      92.82163304      64.34880001      92.66485927
H      95.42756563      63.31322999      90.94142887
C      94.35231135      60.70918713      93.71554710
H      95.86598213      61.66916810      94.72655067
H      95.44457316      59.17850882      92.87272916
N      92.18668500      59.90605345      95.25945350
H      91.23615266      58.39238267      94.59238010
C      91.58008285      60.50509669      97.68208264
N      92.64777822      62.38348465      98.83292596
H      92.07330142      62.78032717     100.60926869
H      93.77972428      63.57212250      97.85971690
N      90.00594083      59.25598760      98.97843488
H      89.98137439      59.41850406     100.87949955
H      89.10832084      57.72341956      98.27923614
C      93.12398925      64.66060485      86.10183978
O      94.15766954      66.45962430      86.96922416
N      93.88176950      63.60424785      83.99857439
H      92.88588373      62.12648187      83.31449348
C      95.64866360      65.01776313      82.30726935
H      96.58218840      66.47096266      83.42598732
C      97.78027489      63.21874368      81.18666164
H      98.99536890      64.29966713      79.92243475
C      99.34496827      62.11892296      83.41842843
H     100.68478423      60.65816452      82.86284889
H      98.19034550      61.22886187      84.87162796
H     100.25203690      63.78566157      84.21967237
C      96.56329114      60.97374882      79.67299087
H      95.72236293      61.95073732      78.06672350
H      94.94568542      60.15738705      80.65375882
C      98.23380920      58.96874920      78.52025782
H      99.67000120      59.74542671      77.26736927
H      97.07162752      57.78389080      77.29949461
H      98.93678739      57.80656752      80.07172313
C      94.26538394      66.56544898      80.17565806
O      95.43701426      68.21518005      79.03615310
N      91.83708563      66.22529824      79.73157238
H      90.79017725      64.96107134      80.70667116
C      90.46136488      67.66715942      77.66988097
H      91.55551641      67.52165049      75.93133277
C      87.89511654      66.23852633      77.05760965
H      86.76694993      66.30844620      78.78104004
H      88.21448029      64.28076987      76.50203011
C      86.57608758      67.29299361      74.71812847
O      87.86488092      67.37236211      72.73391584
O      84.30274682      68.11313483      74.89198329
C      90.02483810      70.42427011      78.32750573
O      89.99649220      72.02297857      76.71934864
N      89.99649220      71.02142362      80.77092185
H      89.90767507      69.54365765      81.97467751
C      89.65634147      73.65759183      81.71578501
H      90.56152037      74.85756804      80.30793890
C      86.86332598      74.16781794      82.17498850
H      86.26617246      72.70328004      83.49401747
H      85.81074842      73.80499048      80.44210947
C      86.08853819      76.73217654      83.14630783
H      86.96159174      76.93626698      85.00201907
H      84.04196459      76.60178543      83.32583184
C      86.51372661      79.07732690      81.36051646
O      84.86399554      80.72327852      81.52114320
O      88.45258580      79.37590365      80.07361284
C      91.12276908      74.19616383      84.23290047
O      91.65000273      76.25218606      85.04737250
N      92.07519115      72.21195120      85.54814998
H      91.86732125      70.42049066      84.92076083
C      93.05217965      72.36312931      88.11628803
H      94.91733952      73.23618286      88.08038323
H      93.57374411      70.50552834      88.83816348
C      91.21914513      73.46106029      90.07215476
O      88.95714273      73.85979255      89.65641498
N      92.07141169      74.05821381      92.36628251
H      93.94790992      73.77664459      92.56281404
C      90.64277860      74.77442008      94.61127737
H      88.61699199      74.91803928      94.27112664
C      90.98481906      72.53320467      96.43486326
H      92.96525224      72.24974573      96.92430237
H      90.82041287      70.72095714      95.46732339
C      89.40122841      72.18360531      98.75355745
H      87.52284046      72.82989171      98.21120600
C      89.18768934      69.50208367      99.88361378
H      88.17290631      69.36035420     101.66940515
H      91.09253346      68.78965685     100.21431589
H      88.36754812      68.32667390      98.40395808
C      90.71458820      73.76530623     100.98721395
H      91.19646841      75.64180446     100.28423577
H      92.47959258      72.88280404     101.58247775
H      89.45980993      73.98262476     102.60292996
C      91.62354656      77.12146016      95.91896798
O      93.86476196      77.30665334      96.51045232
N      89.88688808      78.93181797      96.45565025
H      88.02361793      78.51607818      96.42919409
C      90.27239224      81.47916904      97.56869905
H      92.29250967      81.37334437      97.95798267
C      89.63177502      83.45960222      95.53346382
H      88.92879684      85.05642095      96.62950507
H      88.32030496      82.77930074      94.09727181
C      92.02038908      84.36289139      94.15774305
H      93.26193927      82.80008773      93.65696558
H      93.13343788      85.66491282      95.30102747
C      91.36276433      85.54019089      91.60850226
H      92.95769333      86.60788625      90.86206036
H      89.93413123      86.95370617      92.06581603
N      90.58986626      83.84699611      89.60539237
H      90.11743469      82.03852803      89.99089653
C      90.22514909      84.49328251      87.25646256
N      90.84308959      86.70237257      86.25112816
H      90.80340534      86.89890411      84.35195322
H      91.47803763      88.02329126      87.47567082
N      89.10076193      82.90591241      85.70499725
H      88.66423515      83.42369742      83.92109562
H      88.11432479      81.54153001      86.60450699
C      88.97981945      81.95915952     100.17652136
O      87.08820341      80.64768946     100.67918857
N      90.02861755      83.68825910     101.67129488
H      91.45725064      84.82776407     101.11193589
C      89.51083254      83.81676049     104.41706722
H      87.88566791      82.59599729     104.75721795
C      91.66512054      82.75095485     106.07813663
H      91.41189721      83.41235906     108.01132666
H      93.43201464      83.76573788     105.76822153
C      92.27172268      79.99195443     105.94774552
H      93.22792420      79.47794888     104.19785895
C      94.00271199      79.27196871     108.22864519
H      95.94157118      79.82754824     107.80912595
H      93.97436609      77.22350538     108.43273562
H      93.31485161      80.13746336     109.96719339
C      89.97570521      78.30253911     106.17829213
H      90.71080875      76.40714362     105.84947976
H      88.63022008      78.75040424     104.68351863
H      89.18390989      78.70505081     108.03589310
C      88.59620500      86.31497868     105.53200573
O      87.46992812      86.38300882     107.55590262
N      88.95147355      88.26706596     103.97109180
H      90.08908879      87.94959194     102.47442856
C      87.80063023      90.82953484     104.14872607
H      86.68002252      90.91646225     105.87404620
C      89.68657709      92.91579269     104.26966855
H      88.55463103      94.42568401     105.09547896
H      90.19680319      93.23893589     102.29868401
C      91.93535140      92.29407273     105.92506880
H      93.15611460      90.97126431     104.92540358
H      91.34764652      91.48715959     107.72597798
C      93.31107216      94.83953407     106.29734490
H      92.15833910      96.22659319     107.29323066
H      93.95168938      95.79762531     104.58903230
C      95.86031295      94.15167370     107.59180742
H      97.05461998      93.62255033     105.99876814
H      95.83763624      92.48871454     108.80501170
N      96.93367750      96.31541032     108.97697680
H      97.12642958      97.88955234     107.91306088
H      98.67600516      96.07352536     109.71208033
H      95.86220268      96.48170624     110.54733938
C      86.02239777      91.51550549     101.97176136
O      86.55152113      90.44214094      99.89117269
N      84.14967899      93.23326671     102.26277921
H      83.76417482      93.98726751     103.97298152
C      82.36766708      93.82475104     100.16896245
H      81.39256830      92.08242338      99.66440553
C      80.33054211      95.71825681     101.15539960
H      81.35099432      97.25460430     102.07569631
C      78.76395900      96.56107474      98.84237458
H      77.38445879      97.96136194      99.45653563
H      77.76051433      94.98693273      97.96932104
H      80.02251672      97.67034409      97.64995728
C      78.64679597      94.33497715     102.94874986
H      79.71260161      93.43735715     104.46431036
H      77.62445403      92.82508582     101.99443808
C      76.91580666      95.80140477     104.38494187
H      76.70415732      95.11543412     106.31624215
H      75.09033105      95.80707395     103.43063007
H      77.69437390      97.69302081     104.64194464
C      83.84354333      94.87354915      97.88617307
O      85.48004631      96.54028776      97.98065938
N      83.08009390      93.81152296      95.69031109
H      81.77240329      92.42257412      95.70731864
C      83.72449057      94.88488751      93.18642374
H      84.19314269      96.87854877      93.40941143
C      85.82775596      93.19547218      92.10739000
H      87.33764728      93.14633930      93.50767720
H      86.73482459      94.20836549      90.55781443
C      85.33831684      90.59142932      91.43653717
C      84.62589002      90.08309294      88.93076007
H      84.59754413      91.53440275      87.49645781
C      84.24983448      87.59621312      88.14841338
H      83.66968851      87.23716512      86.22467199
C      84.24227558      85.72538407      90.05892668
O      83.61488644      83.38023371      89.21043957
H      83.20292611      83.48416866      87.44543519
C      84.75439141      86.24127935      92.57793186
H      84.65990509      84.75784419      93.97821905
C      85.21926408      88.73949754      93.30358677
H      85.44414151      89.13445033      95.29346857
C      81.44737036      95.17401563      91.31181523
O      79.36300224      94.55985458      92.04313931
N      81.88956632      96.23982127      89.15374779
H      83.62811453      97.02972687      89.12729161
C      80.22282771      96.53272885      86.99568034
H      78.30664523      95.99982603      87.52858316
C      80.16613592      99.25204501      85.98845621
H      78.89812957      99.25393474      84.36518130
H      81.93680948      99.68101289      85.03036496
C      79.41780430     101.15121996      87.95566129
H      80.82754013     101.16822750      89.45799371
H      77.64146157     100.72414181      88.90808336
C      79.15135289     103.78360871      86.71222138
H      77.83232393     103.64943814      85.13241018
H      80.90501891     104.36564442      85.80137330
C      78.47483087     105.85852820      88.64919086
H      80.08298796     105.77349052      89.93420474
H      76.87801214     105.34641237      89.84349789
N      78.61467062     108.39076146      87.53425233
H      77.59799786     108.49658614      85.92231578
H      80.44581542     108.64398479      87.06371047
H      78.44459525     109.90632197      88.68320592
C      81.04674838      94.65056144      84.90753276
O      83.21993364      94.77906283      84.04770729
N      79.24205975      93.14444957      84.20833401
H      77.55264443      93.44113660      85.04359304
C      79.31764881      91.69313976      81.88397065
H      80.95226207      90.47048684      82.15798097
C      77.02730052      89.96215046      81.79326380
H      75.38890780      91.00905884      81.12052123
H      76.59266346      89.40846065      83.72834353
C      77.59988759      87.63022819      80.13408408
O      76.05409146      87.15968634      78.40120505
O      79.38378923      86.16758002      80.45911702
C      79.59732830      93.20681054      79.39709082
O      79.41591458      95.53495336      79.51047440
N      80.12456194      91.97281926      77.36374531
H      80.26062224      90.06986486      77.38831175
C      80.41557980      93.39578317      74.89009358
H      82.16924581      94.47859635      74.91466001
C      80.53274283      91.80652334      72.44478772
H      79.46504746      92.73059951      70.94245530
C      83.21804392      91.08842734      71.84385475
H      84.17046598      92.83264473      71.30150330
H      83.50150286      89.72782440      70.32262507
H      84.08164884      90.39489779      73.58051323
O      79.33276662      89.51995450      72.81517407
H      79.47638582      88.63556259      71.23725261
C      78.22727672      95.31952456      74.37986746
O      78.79797407      97.48137146      73.61452830
N      75.76496334      94.65245117      74.96379289
H      75.70449210      92.85343172      75.58929230
C      73.37256983      96.13588632      74.74080520
H      73.25162734      97.17523580      72.96446245
C      71.25418663      94.05907711      74.51970721
H      69.59689665      95.22503824      74.14554140
H      71.26363526      93.27673041      76.42455133
C      71.48095379      92.19580696      72.33329387
H      70.11657139      90.65379029      72.42211101
H      73.23650953      91.19236229      71.93456162
C      70.55876735      93.54696128      69.80672978
O      68.37802318      93.12366258      68.82785155
O      72.07810730      94.96992519      68.78249812
C      72.83966701      98.11065032      76.88186511
O      70.76285779      99.23314775      77.22201584
N      74.61223029      98.58875108      78.45978657
H      76.35077850      98.00104620      77.93633238
C      74.56309740     100.18368009      80.71423006
H      73.90169319     102.01482488      80.03959778
H      76.50951551     100.48036712      81.32083221
C      73.25540680      99.12543335      83.06127015
O      72.89635880     100.51249247      84.93965811
N      72.61856903      96.59131037      83.04615233
H      72.81888002      95.75227188      81.34350893
C      70.79309341      95.56896843      84.85084097
H      69.72917750      97.23570704      85.42720750
C      69.18115686      93.37121673      83.75102025
H      67.93582722      92.58131113      85.18910197
H      70.49451665      91.83108978      83.36362636
C      67.69772171      93.68869075      81.41531853
C      66.91726474      91.54952056      80.16809917
H      67.37835796      89.72215522      80.94855612
C      65.60768441      91.66857332      77.84562553
H      65.07100213      89.93758402      76.90643155
C      65.10501721      94.01372367      76.76848152
O      64.09023418      94.10254081      74.36663938
H      63.84645948      95.77494860      73.70901463
C      65.79098786      96.13588632      78.07050295
H      65.45461658      97.93868523      77.17288296
C      67.11568600      96.06029727      80.30604919
H      67.76008268      97.79317630      81.17154383
C      72.29353610      94.92079231      87.09772555
O      74.15491652      93.48837976      86.90875292
N      71.68693396      95.94880342      89.35783822
H      70.00318781      96.81618780      89.58271565
C      72.96060949      95.24015605      91.83337969
H      74.94104267      95.74660270      91.59338446
C      72.31243337      96.93713028      94.14262525
H      73.20438418      96.07163563      95.78668713
H      70.29609539      96.80484944      94.53757805
C      73.01541155      99.62054165      94.32403898
C      71.28820170     101.70113032      94.36561295
H      69.35690141     101.15688914      94.73977876
C      71.87212713     104.15966425      94.08971292
H      70.51152419     105.67711448      94.12939717
C      74.43081656     104.70201570      94.04624920
O      75.33788519     106.98669481      93.71365737
H      73.88468566     108.02415456      93.39618336
C      76.30920452     102.79339212      93.84971766
H      78.25751235     103.39054564      93.96499098
C      75.60811605     100.20446708      94.00278549
H      77.00084435      98.74370864      94.30325199
C      72.85289509      92.32241862      92.35305442
O      70.83466739      91.19992119      92.15274343
N      75.04308789      91.33031231      93.28846895
H      76.55864839      92.48682481      93.35838882
C      75.74984553      88.69225438      93.14673948
H      74.17759324      87.36566651      93.25445387
C      77.00084435      88.10454949      90.58238087
H      78.51262540      89.50294697      90.48789455
C      77.88901571      85.42869703      90.15908218
H      79.48016527      85.06964904      91.41952964
H      78.53341239      85.07531821      88.23534079
H      76.37723466      84.05864546      90.44821031
O      75.37190027      88.42958242      88.52446891
H      75.44370987      90.18702789      88.08605241
C      77.42036359      87.98927619      95.31047610
O      78.83576860      89.43491682      96.60304891
N      77.62823348      85.42491758      95.79424604
H      76.47927989      84.24194891      94.82859590
C      79.57843104      84.14746259      97.33626272
H      81.21682375      85.36822579      97.08303939
C      78.54853020      84.20604411     100.14817547
H      78.00806847      86.13734440     100.61871733
C      76.45471344      82.26151573     100.60926869
H      76.96116010      80.33966407     100.06880696
H      75.02985980      82.76418293      99.20898149
H      75.85755993      82.18025750     102.57836350
C      80.65179558      83.57676525     102.11349083
H      81.19981622      81.62278824     101.76578119
H      79.84488245      83.75250980     104.00132742
C      82.91757743      85.31531346     102.01522506
H      84.02873651      84.90713257     103.70086094
H      82.31097529      87.26929046     101.77145038
H      84.08164884      84.84855106     100.38061181
C      80.29274758      81.38468272      96.68619686
O      78.94348300      80.12801473      95.21787951
N      82.33743146      80.27541338      97.60082439
H      83.47315697      81.11634159      98.88205884
C      82.59065478      77.52775132      97.83515046
H      80.94281344      76.56777035      98.61371770
H      84.26117284      77.04587111      98.94064035
C      83.18402884      76.59233680      95.20843088
O      84.59187495      77.66570134      93.66263477
N      82.20326089      74.43237962      94.27868555
H      80.70659765      73.69727608      95.20843088
C      82.37900543      73.62357676      91.68598105
H      84.11188446      74.40403372      90.88851654
C      82.76073015      70.75497221      91.51023649
H      81.04107920      69.82522687      92.16219208
C      83.40134737      69.80821933      88.73044909
H      83.17458021      67.76353546      88.81737649
H      85.27028669      70.40348312      88.10494968
H      82.09554649      70.72095714      87.42464820
C      85.04540926      70.00853032      93.25256415
H      84.86021608      70.64725781      95.20087198
H      86.67813280      71.12157912      92.67052845
C      85.90523473      67.21929428      93.11461413
H      84.55597015      66.07412014      94.17475060
H      87.75905625      67.03221138      93.99333687
H      86.20003204      66.55977980      91.18709329
C      80.20770990      74.51930703      90.02302188
O      78.54286102      73.11901983      89.16319641
N      80.20582017      76.98351014      89.56381839
H      81.45681899      77.99262399      90.59560895
C      78.47672060      78.30820829      87.91219760
H      78.50884595      77.22161566      86.16231103
H      79.32331799      80.07132294      87.26969064
C      75.75173525      78.96961250      88.79847924
O      74.25129256      79.96360854      87.23000640
N      75.18292763      78.60111587      91.24945426
H      76.39424220      77.59578147      92.33037771
C      72.52975189      78.83166248      92.18297906
H      71.36190103      77.74506985      90.88095763
C      72.25763130      77.46728008      94.73788903
H      73.51240957      78.47639393      96.02290292
H      72.97383757      75.54164897      94.58293147
C      69.51563842      77.32555060      95.59771450
N      67.89614297      75.29976400      95.08370895
H      68.26274988      73.57633360      94.35049514
C      65.54532344      75.95927848      96.09660225
H      63.77276016      74.97662080      95.85282756
N      65.58311796      78.44237886      97.00178116
H      64.09968281      79.49873586      97.57436824
C      68.12857931      79.24362281      96.65029207
H      68.90903628      81.04642171      97.20398187
C      71.41859282      81.36389574      92.36250306
O      72.65069438      82.89457405      93.67586284
N      69.36257059      82.04041776      91.10016588
H      68.51786293      80.65146892      90.10050066
C      68.28920604      84.47816470      90.88662680
H      69.91248095      85.71971489      90.63529321
C      66.70561539      84.47627497      88.36195245
H      64.97462609      83.37834399      88.56415318
H      67.61646348      83.33677001      86.91064264
C      66.01964474      86.91780137      87.07693857
H      67.83000255      87.89667960      87.01268787
C      64.87258087      86.55686364      84.43132173
H      63.18316555      85.38145388      84.35195322
H      66.35223657      85.61200049      83.35228799
H      64.45306163      88.45603859      83.75668943
C      64.10157254      88.39556735      88.65674977
H      62.42916475      87.29385691      89.13862997
H      63.71984782      90.07364431      87.52669342
H      64.75352811      89.07964827      90.48789455
C      66.97017708      85.14145864      93.31114566
O      65.49430083      83.57298580      94.18419922
N      67.49930045      87.29952608      94.43175337
H      68.88258011      88.36344200      93.65696558
C      66.36168521      88.29919130      96.75422701
H      65.51508782      86.61166571      97.58381686
C      68.48573758      89.46137299      98.23955190
H      67.52764634      90.65756974      99.61527265
H      69.52130760      90.75772524      97.01500924
C      70.40569952      87.81164192      99.57558839
H      71.51685859      86.98205206      98.05057926
C      72.02519497      89.55963876     101.16295849
H      70.92348453      90.35710326     102.70686489
H      72.66014301      91.26795134     100.20297754
H      73.53697602      88.39556735     101.94152575
C      69.44760827      85.67814091     101.41429210
H      68.87124175      84.13612424     100.17274191
H      68.10023341      86.50773076     102.73521080
H      71.04442701      84.74461611     102.31380182
C      64.29243489      90.14167446      95.97188031
O      62.11735991      89.58231547      96.84871333
N      64.80644045      92.05029804      94.44687118
H      66.64892361      92.40367686      94.08971292
C      62.85813262      93.83608940      93.37350663
H      61.23485772      92.74382759      92.72722024
C      62.01909414      95.64644721      95.43708778