 %block lattice_cart
   142.669   0.000   0.000
   0.000 146.65   0.000
   0.000   0.000   162.396
 %endblock lattice_cart

 %block positions_abs
N      91.21347595      40.19242856      80.50352558
H      90.24782581      39.66708464      78.94450138
H      90.59364572      38.90930439      81.77342167
H      93.06351801      39.82015247      80.21817691
C      90.84308959      42.81914813      81.37846887
H      92.29439940      42.88150910      82.84111703
C      91.31363145      44.49533537      79.24118841
H      90.03617646      43.93597638      77.72562790
H      93.29406462      44.12494902      78.82166917
C      90.91489919      47.35638101      79.73062752
H      91.54795751      47.60771461      81.67326617
H      88.91178930      47.84015095      79.71739944
S      92.60242479      49.66562657      77.58956761
C      95.12142997      50.54056985      79.76086314
H      94.13688256      51.06591376      81.49185245
H      96.29306028      52.01455637      78.92560411
H      96.34219316      48.89461823      79.98385085
C      88.25794400      43.24244683      82.44616423
O      86.38900467      42.55458645      81.25374693
N      88.10487617      44.42919495      84.74785088
H      89.80374012      45.17563685      85.19382629
C      85.81074842      44.81847857      86.09522574
H      84.21770914      43.72999622      85.37146057
C      86.27940055      43.72054759      88.79942410
H      87.94046998      44.68808746      89.54019681
H      86.61766156      41.69476098      88.65958435
C      84.03062624      43.97377091      90.57387711
O      81.86877933      44.45376139      90.07309963
N      84.62966948      43.60149483      92.97760898
H      83.22938228      43.87739487      94.24183588
H      86.31341562      42.84560430      93.46326864
C      85.02840173      47.57180981      85.92704010
O      86.61577183      49.36516008      85.98940107
N      82.54719108      47.91951945      85.90625311
H      81.34721487      46.43986375      85.96105518
C      81.61177656      50.57458492      85.66247842
H      82.76261988      51.27945284      84.10723366
C      78.73561311      50.56135684      85.23162082
H      78.39735210      49.40484433      83.56110276
C      77.31453892      49.28390185      87.59944789
H      78.45971306      47.62472215      88.02841576
H      75.37001054      48.70942505      87.23851016
H      77.43926086      50.63505616      89.14713374
C      77.54697526      53.18996614      84.89524954
H      78.13845959      54.41072934      86.44671484
H      75.49095303      53.08792092      84.88769063
C      78.04397328      54.57513553      82.39325190
H      80.07731879      54.64694513      82.07388815
H      77.66791774      56.57635569      82.71639510
H      76.79108473      53.99309982      80.86824276
C      82.44325613      51.98810020      87.98495206
O      82.78529660      54.30301494      87.70338284
N      82.59443424      50.80702126      90.22238801
H      82.22593761      48.94375111      90.40758119
C      83.08765281      51.88227553      92.71304729
H      82.05019306      53.61326483      93.11933845
C      82.46971230      50.15317595      94.87867365
H      83.45236998      50.74466029      96.58887596
H      83.38056038      48.33525924      94.54986127
C      79.58976940      49.74121562      95.57409293
C      78.17058494      47.69842147      94.65946540
H      78.66758296      46.46820964      93.10800009
C      75.64402086      47.26756387      95.39834838
H      74.59900221      45.67074514      94.67458321
C      74.42136793      48.95886892      96.99516712
H      72.55053888      48.66596135      97.75105764
C      75.85189075      51.03945760      98.03073714
H      74.90513787      52.30935368      99.31764076
C      78.42758772      51.35126244      97.26728771
H      79.48016527      52.79312361      98.25750430
C      85.85232240      52.88383048      92.86800485
O      86.61388211      54.04979161      94.78985651
N      87.49449457      52.29612559      90.98016826
H      86.69891979      51.13583364      89.69137492
C      89.94924905      53.29012163      90.41514010
H      90.47648269      54.62615814      91.88912662
C      91.87676989      51.30590901      90.06176128
H      93.65689207      52.11093241      89.41169542
H      91.29473418      49.92640880      88.64257681
C      92.49282067      50.10215334      92.66013496
H      90.74293410      49.41429297      93.49539399
H      93.47736807      51.49866109      93.81286801
C      94.30317847      47.85148931      92.11778350
O      96.58407813      48.07825646      92.55997946
O      93.49815506      45.83326160      91.07465458
C      89.97192576      55.14961233      88.17014524
O      91.24938075      57.06957426      88.28541854
N      88.61699200      54.47875948      86.12735109
H      87.57008362      52.89894829      86.35411825
C      88.56974884      55.96219464      83.65558907
H      90.40089364      55.86770832      82.71639510
C      86.65356636      54.64316567      81.70917097
H      84.72982497      54.99087532      82.35734710
H      87.03529107      52.62115852      81.63547165
C      87.12221848      55.63149254      78.91615548
H      88.98170918      54.90772736      78.40026020
H      86.93702531      57.68373531      78.91615548
S      84.93391541      54.56568690      76.44439346
C      82.38278489      56.74832079      77.13792302
H      82.21459925      56.75021051      79.19205552
H      80.73683327      56.03400424      76.12691944
H      82.71159727      58.67017245      76.47651881
C      88.00850012      58.65883409      84.09589531
O      89.26516812      60.34446996      83.16237051
N      86.02050804      59.11236840      85.56988183
H      84.92824623      57.66105860      86.14813808
C      85.07942434      61.59357905      86.27474974
H      84.91879760      62.69906895      84.54565017
C      82.42057942      61.24775914      87.35756292
H      81.97649373      62.90882857      88.49139871
H      82.52262464      59.59991779      88.58966448
C      80.47038186      60.80934263      85.13713450
H      81.08454291      59.25409788      83.93337884
C      77.97027395      60.08935691      86.36167715
H      78.04586300      58.15805662      87.07599370
H      76.63423745      60.38037476      84.81966048
H      77.53185745      61.43673177      87.85456094
C      80.28896814      63.19039779      83.58000002
H      79.98283247      64.98185833      84.54942962
H      78.76017955      62.63103880      82.31577312
H      81.97271428      63.24708958      82.39703135
C      86.84631844      63.12425737      88.13424044
O      86.63466909      65.44106183      88.40258157
N      88.77761873      61.82412566      89.16414128
H      89.03462151      59.99109114      88.69170970
C      90.91300947      62.95229227      90.52096477
H      89.97948467      64.53777265      91.45071012
C      92.02794799      61.05500705      92.56375891
H      93.32241052      62.12648187      93.75428649
H      93.01060568      59.48653421      91.65858001
C      89.99649221      60.04589320      94.36088864
H      88.65667625      58.82701973      93.38201041
H      88.92690711      61.56901261      95.24339083
C      91.28717528      58.34891897      96.34699099
H      92.91045018      59.27677459      97.21626510
H      92.09408841      56.76910778      95.30008262
N      89.44469212      57.33035649      98.33309335
H      88.47148307      55.71841995      98.02128851
C      88.76250092      58.12971072     100.57619848
N      89.80940930      60.03077539     101.53051027
H      89.22548387      60.59013438     103.25960985
H      91.13221772      61.03610979     100.59320602
N      87.18457945      56.94863178     102.01994938
H      86.97293011      57.54956474     103.81896883
H      86.41168139      55.32535687     101.37744244
C      92.95013443      63.94250886      88.75785012
O      94.22758942      65.60357829      89.70082355
N      93.05028993      63.34157589      86.28797783
H      92.26794323      61.66160920      85.82499488
C      94.56396070      64.80233433      84.49840701
H      95.72047321      66.27065168      85.36579139
C      96.40266441      63.21118478      82.77308689
H      96.63888020      64.52265484      81.20461405
C      99.03127371      62.81245253      84.04298297
H      99.72291354      64.33557193      85.23917972
H     100.42400200      62.44017644      82.57088617
H      98.80261682      61.12114748      85.19760575
C      95.35764576      60.75832002      81.67137645
H      93.59264138      60.91894676      80.62257834
H      95.00237721      59.24842870      83.02631021
C      96.94501586      59.75487535      79.60968504
H      95.87543077      58.28277855      78.64403489
H      98.76860175      59.09725059      80.30888377
H      97.64988377      61.17405981      78.29632525
C      92.80651523      66.20640098      82.63513687
O      93.66823043      68.27376157      81.92271005
N      90.47081351      65.26153783      81.96995320
H      89.83019629      63.56456360      82.56521699
C      88.89478177      66.38781471      80.16526457
H      90.06452235      67.31756006      78.74608011
C      87.21670480      64.41305071      78.82922807
H      85.81074842      63.65149101      80.12935977
H      88.51116732      62.82946006      78.59868146
C      85.89767583      65.15949261      76.34801742
O      87.26394796      64.87981311      74.40537877
O      83.64323234      65.86813997      76.24030302
C      87.47559730      68.71595753      81.19894487
O      87.36221373      70.69828043      79.98952003
N      86.61955128      68.74052397      83.63102263
H      86.62899992      67.19661757      84.75163034
C      85.77295390      71.17827091      84.83099884
H      85.71248265      72.71650813      83.46283699
C      83.19725693      70.66993453      85.90436339
H      83.46748779      69.21106582      87.33488621
H      82.03129580      70.11624472      84.30187547
C      81.92925058      73.04909996      87.19126701
H      83.31819942      73.84278501      88.48950898
H      80.29085786      72.53509441      88.32888225
C      81.20359567      75.15992425      85.49051332
O      79.12678645      74.96528244      84.32077274
O      82.65301575      77.00051768      85.00107421
C      87.75149735      72.21762039      86.74529160
O      88.53573377      74.41159263      86.66214364
N      88.39589402      70.54332287      88.52352406
H      87.62299596      68.79721576      88.52919324
C      90.23837717      71.11590994      90.64757643
H      92.19424391      71.47873740      90.12034279
H      90.81852315      69.34523639      91.52440944
C      89.35209553      72.64469853      92.87556376
O      87.54929663      74.05632409      92.62045070
N      90.34987103      72.21384093      95.18480931
H      91.83897536      71.01953390      95.17725040
C      89.49760446      73.22862396      97.56586446
H      87.44158223      73.24563150      97.43547335
C      89.92090315      71.08567432      99.55952572
H      91.91456441      71.18771954     100.06597238
H      89.32563936      69.33200831      98.65623655
C      88.25605427      71.20094763     101.91979389
H      86.49104990      71.94927925     101.16579309
C      87.69291583      68.66871437     103.23882286
H      86.00161078      68.68005273     104.41612235
H      89.31997019      67.99597180     104.31029768
H      87.26016850      67.02654220     102.07475145
C      88.98359890      73.14925546     103.93613187
H      87.80251996      72.98484927     105.61420883
H      89.10832084      75.11646055     103.33519890
H      90.84686905      72.59934510     104.62399224
C      90.79017726      75.76652640      98.08175975
O      93.10320226      75.86479217      98.71103861
N      89.16312290      77.56554585      98.71670779
H      87.29418358      77.23295402      98.52206598
C      89.67523873      80.04675650      99.81841823
H      91.68590753      80.32076682     100.17179705
C      89.06296741      82.17647805      98.00050152
H      89.76027642      83.94904134      98.78662766
H      87.03151162      82.43537056      97.78696244
C      90.21570046      81.60011153      95.37567167
H      89.10454139      80.29997983      94.22860780
H      92.13377267      80.87445662      95.56842375
C      90.01538947      84.03029957      93.87144952
H      91.80307056      84.71438049      93.11177954
H      89.04595987      85.54397034      94.87489419
N      88.42235019      83.71471527      91.47149711
H      87.77795351      81.94026227      91.18236898
C      88.07275082      85.32665182      89.67058793
N      88.83997970      87.68691998      89.89168591
H      89.11587974      88.61099615      88.24573429
H      89.59209077      88.35021392      91.51685054
N      87.11276985      84.75406475      87.51818966
H      86.53640333      86.23749990      86.46561210
H      86.25483411      83.04953161      87.51629993
C      88.20503166      80.40958395     102.37899738
O      85.91657310      79.92959347     102.50560905
N      89.52217090      81.01429637     104.45202715
H      91.43079448      81.03886281     104.45391688
C      88.54140294      81.60389098     106.90678163
H      87.19591781      80.08077157     107.23748373
C      90.58041764      81.26562997     108.91367097
H      89.49382501      81.37145465     110.66166781
H      91.71614315      82.97205283     109.11776142
C      92.33975283      78.92425907     108.83808192
H      93.08241527      78.97339195     106.91623026
C      94.65466757      79.33999886     110.63710137
H      95.86598213      77.67892943     110.50671026
H      94.17656681      79.83132770     112.57785029
H      95.93590201      80.83855182     110.03805813
C      91.08686429      76.40714362     109.40877927
H      89.62232640      76.51863747     110.85253017
H      92.63266041      75.07110712     109.66200259
H      89.96625658      75.80621065     107.78928382
C      87.00694518      84.12478588     107.31118306
O      86.28695945      84.86177915     109.35775666
N      86.56663895      85.42491759     105.26649919
H      86.82931091      84.62934281     103.55251742
C      85.92602173      88.09699059     105.31374235
H      84.89045171      88.46926668     107.05418028
C      88.38455566      89.76372920     105.27216837
H      89.59964968      88.76973316     106.60631515
H      88.11621452      91.72904457     105.82963763
C      89.69035654      90.00939362     102.64166934
H      88.54707212      91.14322941     101.36043490
H      89.90956480      88.23116116     101.62688631
C      92.25660488      91.34731985     102.91190020
H      93.35642559      90.42324368     104.38777645
H      91.77850412      93.25216398     103.53362016
C      93.69279687      91.30763560     100.40045393
H      92.91611936      92.53406798      98.94347495
H      93.69657633      89.32720242      99.83164631
N      96.47636373      92.15612271     100.94280539
H      96.47447401      93.53940237     102.25616517
H      97.27004878      92.81185774      99.33464829
H      97.69901666      90.81819648     101.53995890
C      84.03629541      88.62611396     103.20102833
O      84.30841600      87.48660899     101.17335200
N      82.37522599      90.46481766     103.54117907
H      82.49238902      91.45125480     105.17012315
C      80.60266270      91.25850271     101.53995890
H      79.40079677      89.62388945     101.19035953
C      78.90568847      93.31641467     102.49805014
H      79.97716329      94.59953884     103.70369553
C      77.34099509      94.84709298     100.71792795
H      76.07298873      96.20958565     101.59854042
H      76.14101888      93.64333732      99.55385655
H      78.49561786      95.86754519      99.35165583
C      76.90446831      91.99549598     104.17423738
H      77.91169243      91.23204655     105.80129174
H      75.99928941      90.64623139     102.90812075
C      74.85411526      93.70380856     105.28350673
H      75.54008591      95.56329926     105.84286572
H      74.19460078      92.91201324     107.06740837
H      73.24784789      93.72081610     103.99282366
C      82.13145129      92.12399737      99.15512429
O      84.01550843      93.55263046      99.28362568
N      81.33776624      91.28873834      96.94036505
H      79.78441121      90.19458680      97.10666097
C      82.21270952      91.85376650      94.28152013
H      83.08576308      93.71514692      94.15679820
C      83.89834539      89.77317783      93.35933369
H      85.21737436      89.70136823      94.93914489
H      84.93958459      90.22482242      91.64157247
C      82.64356712      87.30519527      92.88501239
C      81.52673887      86.89701438      90.53041340
H      81.23761075      88.54107628      89.35311391
C      80.62533942      84.61233527      89.74239753
H      79.45370911      84.50273115      88.07565892
C      80.87667302      82.53930551      91.30520119
O      80.19448182      80.22061132      90.60033327
H      79.55953378      80.25840585      88.90335905
C      81.83665399      82.86433843      93.81664746
H      81.73271904      81.27507860      95.09410245
C      82.84954729      85.20381961      94.53852291
H      83.64701179      85.47594020      96.39801360
C      79.88645643      92.34320562      92.52407466
O      77.73783761      91.92368638      93.32720834
N      80.24928388      93.25594343      90.23939555
H      82.03129580      93.49971812      89.60444751
C      78.29152742      94.08364355      88.45171446
H      76.58510456      93.49404894      89.44382077
C      78.37467538      97.07319058      88.22683703
H      77.63579239      97.55318106      86.36545661
H      80.29652704      97.80262494      88.36478705
C      76.80620254      98.36387365      90.17325513
H      77.40335606      97.83097083      92.07243007
H      74.82198991      97.80640439      90.16947568
C      77.28808275     101.19468367      90.02207702
H      77.06131559     101.88065432      88.09455618
H      79.20237551     101.58585702      90.67592233
C      75.53630646     102.73859007      91.83432456
H      75.74606608     102.14332628      93.79397074
H      73.55020410     102.44190304      91.36945188
N      75.93503871     105.51837747      91.59243959
H      77.72271980     105.96057343      92.09510679
H      74.93159404     106.51993242      92.86989458
H      75.51551947     106.47457899      89.99373113
C      78.40113155      92.94224886      85.77964145
O      80.42313870      92.51706044      84.75352006
N      76.16180587      92.27517547      84.94060297
H      74.61978920      92.70792280      85.97806271
C      75.59299825      92.02195215      82.13813885
H      76.79108473      90.51395055      81.40303531
C      72.95494032      91.10543488      81.85279017
H      71.49040242      92.53217825      82.10223405
H      72.79053413      89.56908739      83.21528284
C      72.31621282      89.97537855      79.26764458
O      71.80409699      87.70014807      78.98040618
O      72.24818267      91.47582124      77.34012374
C      76.00495858      94.45969909      80.71517493
O      75.61945442      96.52894940      81.88113607
N      76.84588679      94.36143332      78.33600950
H      77.21060397      92.62477484      77.63870049
C      76.94037311      96.51572132      76.58234348
H      78.21215892      97.87821399      77.45728677
C      78.05909109      95.89967054      73.93672665
H      76.76651829      94.78851147      72.78210387
C      78.51262540      98.36576338      72.44762231
H      78.83009942      97.95191332      70.45396105
H      80.08298797      99.45424573      73.21863065
H      76.79297446      99.48826081      72.61013878
O      80.38156473      94.76772448      74.13325818
H      81.15446279      94.70347378      72.49108602
C      74.35522751      97.87065508      76.62202774
O      74.29475627     100.15911365      76.87714079
N      72.24629295      96.61965626      76.80344146
H      72.33322036      94.71481214      76.78265447
C      69.73484668      97.88955235      76.88469970
H      69.77075148      99.48448136      75.58078854
C      67.68449363      95.97903904      76.11180163
H      65.79476732      96.76894464      76.33856879
H      67.84134091      94.30663126      77.30232921
C      68.01897519      95.13055193      73.39815465
H      69.90492205      94.37655113      73.06178336
H      67.64669910      96.72359121      72.15093528
C      66.13869750      93.16145711      72.62714631
O      66.44672289      91.11488352      73.59468618
O      64.35290614      93.71892637      71.15693924
C      69.08289110      99.28606009      79.30543910
O      67.33111481     100.87720965      79.25441649
N      70.75151943      99.02716759      81.18004760
H      72.16692444      97.77049959      80.93060373
C      70.88002082     100.52761028      83.56677194
H      69.70650078     102.20190779      83.31543834
H      72.84533619     100.97736514      83.98251173
C      69.95783438      99.07063129      86.02530587
O      69.94082685     100.37454245      87.92448082
N      69.47595417      96.62532544      85.98184217
H      69.52508706      95.80140477      84.26030149
C      68.25330125      95.14000056      87.89613492
H      67.23662849      96.52894940      89.02997071
C      66.45428180      93.11799341      86.66025391
H      65.54721317      92.11454873      88.21171922
H      67.87913544      91.84431787      85.89302503
C      64.74785894      94.18190932      84.62879813
C      63.85212867      92.50194263      82.82221977
H      64.26975818      90.50639164      82.69938756
C      62.32145035      93.33909139      80.84745577
H      61.68461258      91.89156103      79.55299325
C      61.62036189      95.95825206      80.67360095
O      60.38259115      96.91067412      78.72718285
H      60.00464589      98.67945795      78.87269178
C      62.51987161      97.64010847      82.54254028
H      61.87169549      99.57518822      82.54254028
C      64.17905132      96.76516519      84.35856726
H      65.05399460      97.90278043      85.80798735
C      70.09578440      93.68680103      89.68381601
O      72.29353611      92.99138174      89.03375016
N      69.22462057      93.39200372      92.04597390
H      67.38969632      93.82097160      92.35021984
C      70.76474752      92.85721118      94.27963041
H      72.54864916      93.83797913      93.97160502
C      69.73484668      94.24238056      96.67013419
H      70.60412078      93.50916675      98.38600568
H      67.77520049      93.63388869      96.85721710
C      69.88224533      97.02972687      96.55864034
C      67.92070942      98.49804422      95.48527579
H      66.13302833      97.65333656      94.98071887
C      68.17393274     101.16822750      95.31520043
H      66.73585102     102.37954207      94.51773592
C      70.45861186     102.24915095      96.21659988
O      70.91025644     104.67178008      95.97471491
H      69.38713704     105.39365554      95.30953125
C      72.36534571     100.67689866      97.25594935
H      74.19082132     101.39121521      97.82097752
C      72.07054840      98.09553252      97.56964392
H      73.61823425      96.93902001      98.22537895
C      70.92537426      90.03396006      94.57631744
O      69.03753767      88.55430436      95.00906476
N      73.25540680      89.09854554      94.72371609
H      74.69915770      90.33253682      94.91457845
C      73.82610415      86.40001636      95.10355108
H      72.10456347      85.36444634      95.55141621
C      74.79931320      85.37767443      92.49950822
H      76.84966625      85.33799018      92.69226030
C      73.86200895      82.69426306      92.04030473
H      71.85700933      82.84733090      91.59054986
H      74.03208431      81.57932454      93.76184540
H      74.99773446      81.92136500      90.50584696
O      74.59711248      87.00661851      90.33577159
H      75.45693795      88.53162765      90.81198262
C      75.85944966      85.81231148      97.06886644
O      77.42036359      87.46582200      97.65090215
N      75.56087290      83.55786799      98.23293785
H      74.12279118      82.35033288      97.88900766
C      77.63579239      82.71127060      99.81652850
H      79.38378923      83.69770774      99.35354556
C      77.08966149      83.56164744     102.54718303
H      76.38857303      85.49861691     102.55096248
C      74.90324814      81.91380610     103.62054757
H      75.45882768      79.94093183     103.80574075
H      73.43493080      82.09144037     102.18435557
H      74.19649050      82.50340071     105.46303073
C      79.53874679      83.66180294     104.13644285
H      81.08454291      84.54241540     103.09898311
H      79.89401534      81.70215675     104.66367650
C      79.03041041      85.11689220     106.42490142
H      78.32176304      87.04063358     106.21892125
H      80.81809150      85.39846142     107.40566938
H      77.85500064      84.23250028     107.86487287
C      78.25373290      79.85778387      99.74660863
O      76.64557580      78.41214324      98.80930438
N      80.45526405      79.06031936     100.72548686
H      81.69681424      80.27352366     101.51728218
C      81.30942034      76.32966484     100.88233414
H      79.79008039      75.28464619     101.80263086
H      82.96482060      76.29753949     102.10876652
C      81.96515538      75.19393933      98.27073238
O      83.22371310      76.57910872      96.82698148
N      81.17524978      72.87146569      97.57153364
H      79.92992014      72.05132447      98.76206122
C      81.13556552      72.00408131      95.02985175
H      82.46404312      73.09634312      93.89601596
C      81.68736561      69.13736649      94.76906952
H      79.97338384      68.23218759      95.46448880
C      81.98972182      68.37580679      91.94959786
H      80.37967500      69.03721100      90.84599770
H      81.67602725      66.34057155      91.93636978
H      83.83598443      68.74052397      91.11244911
C      83.94180910      68.34368144      96.35643962
H      83.49016451      68.17360608      98.35954952
H      85.39311891      69.80255016      96.31675537
C      85.23438190      65.74152831      95.97471491
H      87.04284998      65.57334267      96.94792396
H      85.67846758      65.44862073      93.98294338
H      84.10243584      64.11447395      96.53218417
C      78.44648498      72.78264855      94.05664270
O      76.69281896      71.31433121      94.18136464
N      78.14223904      75.07110712      92.86611512
H      79.62756393      76.22384017      92.53352329
C      75.98984077      75.78920312      91.26173748
H      75.65913867      74.20939192      89.98239277
H      76.80242309      77.13846770      89.93703934
C      73.57477055      76.68304366      92.46927260
O      71.79464836      77.08366564      91.07843403
N      73.28753215      76.63769023      94.95237297
H      74.95993993      76.58477789      95.87077996
C      70.71372491      76.71894846      96.08620876
H      69.43249047      75.66826063      94.86544556
C      70.80254204      75.41692703      98.58631667
H      71.85511960      76.57910872      99.92424290
H      71.60945518      73.53098017      98.39167486
C      68.22873481      75.17504206      99.51039284
N      66.64136470      73.17382190      99.43669351
H      67.20261342      71.39747917      99.01906400
C      64.50786370      73.54231853     100.81241427
H      62.87136071      72.35746013     101.11288075
N      64.64392399      76.04809562     101.69302673
H      63.32867448      76.84933958     102.82119334
C      66.94939009      77.02508413     100.93713621
H      67.84889982      78.82410358     101.27161776
C      69.66870626      79.47983861      96.19581289
O      70.45483240      80.99350938      97.76239600
N      67.90559161      80.21683187      94.61033251
H      67.17237780      78.95638442      93.38012068
C      66.67726950      82.75851376      94.37222700
H      68.21361700      84.10210917      94.08876805
C      64.81588909      82.74528567      92.12912186
H      63.70473001      81.02185528      92.32187395
H      65.88358445      82.33710479      90.41514010
C      63.02820799      84.99217026      91.81353757
H      61.96807153      85.26429085      93.55775495
C      64.43983355      87.43180693      90.63434835
H      63.21907035      88.86232975      89.79530987
H      65.65114812      86.71749038      89.12634675
H      65.46595494      88.32564748      92.18014447
C      60.94006042      84.15313178      89.80286877
H      59.81945271      82.65268909      90.66269424
H      61.73563519      83.61644951      87.97928288
H      59.67772324      85.72916352      89.39279816
C      65.09745831      83.39346180      96.80619449
O      63.45717587      81.95349035      97.64145352
N      65.83445157      85.62522858      97.67735832
H      67.00419216      86.57387118      96.50194855
C      64.49841506      86.76473354      99.79385179
H      63.73496563      85.20192988     100.89934168
C      66.32011123      88.32186802     101.41334724
H      65.27320285      89.18169350     102.96481254
H      67.07411203      89.89601004     100.31730598
C      68.64069514      86.83654314     102.52450631
H      69.70839051      86.20348483     100.88233414
C      70.38491253      88.62422423     103.94935995
H      69.50052062      89.25350310     105.70113624
H      71.14269278      90.00750390     102.62466180
H      71.94582646      87.42046857     104.55218264
C      67.90181215      84.59721746     104.25927507
H      69.53264596      83.45393304     104.79028816
H      66.73963047      83.15724601     103.35787561
H      66.70183595      85.23027578     105.80885064
C      62.40648804      88.35588310      98.71670779
O      60.18416989      87.89478988      99.33842775
N      62.97529566      90.47615602      97.41279663
H      64.77431511      90.79363004      96.86099655
C      60.93439124      92.10510010      96.43958758
H      59.51142732      90.79363004      95.73660939
C      60.03110206      93.79073597      98.76206122