 %block lattice_cart
   142.669   0.000   0.000
   0.000 146.65   0.000
   0.000   0.000   162.396
 %endblock lattice_cart

 %block positions_abs
N      91.76716576      43.30291807      80.47328996
H      92.31707612      43.01567968      82.27797860
H      93.33374887      42.81914813      79.49630146
H      90.45002652      42.11994939      79.76086315
C      90.88655331      45.93152738      80.12369059
H      92.34731174      47.08048096      81.01375168
C      90.86765604      46.57214460      77.30421893
H      89.25194004      45.64050952      76.42549621
H      92.66289603      46.18286098      76.37447360
C      90.67679369      49.49366148      77.17382782
H      88.76439065      50.19852939      77.46862512
H      91.14922526      49.98121086      75.22929945
S      93.03139266      51.02622952      79.15048154
C      95.81306979      51.37771861      77.27965249
H      97.35886593      51.96731322      78.50419515
H      95.63732526      52.74777019      75.75275364
H      96.31195754      49.48988201      76.62013802
C      88.39967347      46.48143772      81.54665450
O      86.37766631      46.83859600      80.45817215
N      88.54707212      46.35104662      83.99573982
H      90.21003128      45.85971778      84.78942487
C      86.54774169      46.96709740      85.76452363
H      85.08887297      45.51200813      85.73050857
C      87.81385832      47.16740838      88.29486718
H      89.30674211      48.57903394      88.14557880
H      88.62266117      45.30413824      88.62934874
C      86.04507448      47.47921323      90.50584696
O      83.80007962      47.74755436      90.24695446
N      86.91812805      47.65117832      92.81131307
H      85.54996619      47.42819062      94.12278313
H      88.72092695      47.21465154      93.25539875
C      85.37233192      49.57302998      85.10689888
O      86.74238349      51.30968845      84.57588578
N      82.95726169      49.95664441      85.26941534
H      81.83665398      48.48265790      85.73617774
C      81.55886423      52.29990505      84.94438242
H      81.73460876      53.11437709      83.06221501
C      78.74884120      51.77078168      85.21461329
H      78.40113156      50.22876500      83.89369458
C      78.05531164      50.84103634      87.85834039
H      79.40457622      49.52578682      88.68981998
H      76.23550520      49.92451907      87.55220474
H      77.73594789      52.52478248      89.00162482
C      76.73628267      53.92695941      84.45872275
H      77.57721087      55.77511174      84.80454267
H      75.00718309      53.62649292      85.53586676
C      76.02574558      53.97420256      81.71672987
H      77.65279993      54.71119583      80.68871877
H      74.36278642      55.12315616      81.32177707
H      75.61000578      52.05046118      81.11201746
C      82.23538625      54.24254370      86.98339712
O      81.98972181      56.45163376      86.36923606
N      82.92135690      53.71719979      89.43437213
H      82.86088566      51.85959882      89.87089891
C      83.73771866      55.65794871      91.29575256
H      82.41302051      57.23587018      91.25606831
C      83.68102687      54.65450404      94.09443723
H      84.53896262      56.15683646      95.20748603
H      85.00005584      53.07091339      94.17002627
C      81.13745525      53.97798202      95.08843326
C      80.12456195      51.57802960      94.49505920
H      81.02785113      50.35915613      93.13067681
C      77.85122119      50.87883086      95.49094497
H      77.09911013      49.10815730      94.80119487
C      76.29975590      52.65328386      96.89501162
H      74.33633026      52.18274202      97.18980892
C      77.18414781      55.10614863      97.27484662
H      75.89535446      56.34769881      98.25372484
C      79.70126325      55.73542749      96.52840471
H      80.38156473      57.64594079      96.74950269
C      86.21514985      56.94485232      90.64757643
O      86.23593684      59.26165678      90.49639833
N      88.11621453      55.45196853      89.91247290
H      87.78173297      53.63783128      89.42681323
C      90.60876354      56.58013514      89.35311391
H      91.09820264      58.10892374      90.64379698
C      92.68368302      54.50899511      89.71405164
H      94.50348947      55.45952744      89.51940982
H      92.54006383      53.10681819      88.21171921
C      92.63455014      53.09547983      92.31242532
H      94.41656205      52.10148378      92.60533290
H      91.14166636      51.67629537      92.35399929
C      92.26416378      54.94174244      94.42135988
O      94.19357435      56.14549810      95.10922025
O      90.28373060      55.07969245      95.76495529
C      90.66545533      58.08624702      86.97016902
O      91.98637401      60.02699594      86.68859980
N      89.17635098      57.14138386      85.08800161
H      88.49038033      55.37448975      85.30909959
C      88.83620025      58.37348542      82.61246015
H      90.75994163      58.57190668      81.90192305
C      87.28473494      56.48753856      80.96839826
H      85.25516888      56.60092214      81.29721063
H      88.05952274      54.59970197      81.25941611
C      87.64189322      56.96185987      78.10924235
H      87.15623356      55.15339178      77.24752714
H      89.53728871      57.34925375      77.40248471
S      85.87499912      59.50543148      76.69761679
C      82.63789794      58.49253817      77.25886550
H      81.41335530      59.80778769      76.25353111
H      82.05208279      58.94607249      79.17882743
H      82.36388762      56.56123789      76.59368184
C      87.70803365      61.06256596      82.85434512
O      88.81730298      62.85213678      81.98318129
N      85.41957508      61.32523792      84.07132886
H      84.73360443      59.83802331      85.05020709
C      84.19881187      63.78188213      84.17526381
H      84.10621529      64.61903089      82.29498613
C      81.45870873      63.62692457      85.51696950
H      80.75006135      65.55255568      85.70972158
H      81.79319029      62.47797097      87.19315674
C      79.49150363      62.18506338      83.82188498
H      80.43258733      60.49753779      83.10945817
C      77.46571703      61.36114271      85.72672912
H      76.51707441      62.92772584      86.66781281
H      77.92303079      59.88715620      87.09111151
H      75.82165513      60.61470082      84.73462280
C      78.67703159      63.71196226      81.42760176
H      78.21404864      65.63192419      82.01152719
H      77.00084435      62.86725459      80.57911463
H      80.17180511      63.65149101      80.01219675
C      86.02806695      65.51287143      85.54531539
O      86.23971629      67.80321972      85.08233244
N      87.69291584      64.57556718      87.34055539
H      87.68535693      62.70284840      87.71472120
C      89.29918320      66.04388453      89.02808099
H      87.99716176      67.42149500      89.83310439
C      90.42357036      64.26376233      91.22772241
H      91.68590753      62.82190115      90.47750107
H      88.85698724      63.33023754      92.18203419
C      91.95235894      65.44862074      93.35555423
H      90.66167587      66.05333316      94.84087913
H      93.18068105      66.96796069      92.71115757
C      93.29406463      63.36803207      94.80875378
H      94.43923876      64.06156162      96.37533688
H      94.74537444      62.49497850      93.63712345
N      91.48937599      61.27988449      95.73094022
H      91.89566716      59.46952668      95.28118535
C      89.68090792      61.34602491      97.39578909
N      89.54673734      63.33401699      98.89623178
H      89.02139343      62.99008680     100.69903070
H      90.55396147      64.88170283      98.41624130
N      88.25605427      59.46574723      98.06097275
H      86.70647869      59.66794795      99.15890375
H      88.76817010      57.84058260      97.19925756
C      91.43268420      67.54432722      87.48039514
O      92.19046446      69.48507614      88.52352405
N      92.09030896      66.71473737      85.14280368
H      91.46858900      64.95918162      84.71761527
C      93.67578933      68.08667866      83.34945341
H      93.98381473      69.87058031      84.33778028
C      96.18345615      66.63158940      82.95450062
H      97.11887068      67.50275324      81.33878462
C      98.07885164      66.87725382      85.27508453
H      98.09396946      68.86146645      85.83822296
H      99.90621699      66.34813046      84.49084810
H      97.56295636      65.64326254      86.84166763
C      95.88676913      63.76676432      82.24396351
H      94.42790042      62.86725459      83.38724794
H      97.59319199      62.68773059      82.65214441
C      94.96458269      63.21118477      79.38480760
H      95.21024711      61.18539817      79.09945894
H      96.17400753      64.17683493      78.02609438
H      93.03328239      63.83479447      79.02198015
C      92.54951245      69.02209318      80.95894963
O      93.30918243      70.86457634      79.72306861
N      90.33097377      67.83345533      80.28998652
H      89.78484287      66.41049143      81.43894011
C      88.78139819      68.69894999      78.07711700
H      89.90956479      69.05421853      76.39148113
C      87.09009313      66.43505787      77.20595317
H      85.55752509      65.98341328      78.50230541
H      88.10676589      64.66249459      76.93950176
C      85.72949020      66.89048191      74.75686787
O      87.16568219      66.80166478      72.82178813
O      83.51851041      67.57834229      74.79844185
C      87.47748703      71.17071201      78.48529788
O      87.47370758      72.92815748      76.92438394
N      86.16790669      71.24063188      80.76997700
H      86.42113002      69.63814397      81.77720111
C      85.26650724      73.63680485      81.90192305
H      84.34243108      74.73473584      80.42415708
C      83.15001377      73.02831298      83.74251649
H      83.77929263      72.15525941      85.49996196
H      81.95759648      71.71306345      82.69938756
C      81.91035332      75.39991950      84.82910911
H      83.22749255      76.82855259      85.51319004
H      80.68581066      74.71583857      86.33522099
C      80.40046200      76.60178544      82.81844032
O      78.54853020      75.40369895      82.16648474
O      80.94470316      78.82032413      82.17404365
C      87.37166236      75.21850578      83.33433561
O      87.68724665      77.45405200      82.82033004
N      88.64344816      73.99396312      85.19004685
H      88.33731250      72.12124435      85.39413728
C      90.59364572      75.32810990      86.67726144
H      91.44402257      76.84933958      85.57933046
H      92.13377267      73.98829395      86.95694095
C      89.56941406      76.46383542      89.13957483
O      87.37166236      76.45627651      89.63468313
N      91.27961637      77.17437251      90.88568195
H      93.11454062      77.12712935      90.36600721
C      90.85253822      77.79609247      93.44437138
H      88.83053108      78.12112538      93.65980018
C      91.55551641      75.51519280      94.99394696
H      93.58886193      75.54353869      95.32086961
H      91.02639304      73.69916582      94.17380574
C      90.41034228      75.37535306      97.62255626
H      88.37510703      75.51330308      97.33531785
C      91.00749579      72.91681912      99.07953524
H      92.95013443      72.27998135      98.83953999
H      89.80185040      71.45039150      98.27829128
H      90.64088889      72.86579651     101.10721158
C      91.10576155      77.52775132      99.38945036
H      91.22103485      76.89658274     101.34531710
H      89.60909832      78.90536181      99.05496880
H      92.96903170      78.29120076      98.95292357
C      92.34164257      80.24895721      94.13790094
O      94.59419632      80.38690723      93.76562484
N      91.00182660      82.01774105      95.28496481
H      89.18013045      81.48672795      95.47582716
C      91.94857949      84.19092631      96.71548763
H      93.98948390      84.06998383      96.96682122
C      91.41756639      86.68158558      95.31142098
H      92.70258029      88.04029880      96.17691562
H      89.57319351      87.46582201      95.78385256
C      92.02038909      86.43025199      92.55053083
H      90.39711418      85.49294774      91.69826427
H      93.88365924      85.56286761      92.39746300
C      92.40022408      89.15901679      91.44882039
H      93.51138316      90.16057173      92.86422540
H      90.49160051      89.90356894      91.22961213
N      93.22414475      89.07775854      88.79564465
H      93.94602020      87.38267405      88.29486718
C      93.87799005      90.89945471      87.25362798
N      93.41311738      93.15956739      87.72039037
H      93.85531334      94.32552853      86.27663947
H      92.90100155      93.82475104      89.43437213
N      94.92300871      90.31552928      85.01997148
H      95.55606703      91.61188154      83.76897265
H      94.92678815      88.48060503      84.49273784
C      90.52939502      84.23627974      99.14378594
O      88.16723713      84.16069068      99.10032223
N      91.89755687      84.45359827     101.32264037
H      93.79862155      84.49517224     101.14878555
C      90.71269849      84.33076605     103.77739486
H      89.18957908      82.94559667     103.74337979
C      92.75549262      83.55030909     105.71814378
H      92.15078020      84.20793385     107.57385501
H      94.50915864      84.57832020     105.39311086
C      93.31485162      80.72516824     105.67090063
H      94.09152912      80.54186480     103.77172567
C      95.55795674      80.15636062     107.49448652
H      97.11698096      81.48483823     107.29984470
H      96.44801785      78.32521583     107.17701250
H      95.00048749      80.37934834     109.46547105
C      91.12654854      78.96205360     106.07341232
H      91.74259932      76.99862795     105.99215409
H      89.59398050      79.29842487     104.73926554
H      90.47648269      79.16047485     108.01983043
C      89.33319828      86.82142534     104.61832306
O      87.87243983      86.89323494     106.40789388
N      90.09286825      88.98705169     103.32763999
H      91.28339582      88.70359274     101.86499183
C      88.70958859      91.41346028     103.64700373
H      87.56630416      91.35109930     105.35720606
C      90.63899915      93.49593867     104.08353052
H      91.08119511      94.32930798     102.25238573
H      92.27172268      92.67201800     105.03217313
C      89.59964969      95.54818145     105.99026437
H      89.10832085      94.74882722     107.82329889
H      88.09542753      96.64800216     105.11154164
C      91.51016298      97.67790300     106.61954323
H      90.46325461      99.23692721     107.46614062
H      92.23581788      98.40922708     104.83564159
C      93.74192977      96.84075424     108.31273800
H      94.88332446      95.26850196     107.63054680
H      93.07674610      96.21147538     110.15711089
N      95.30284370      99.17645597     108.72280861
H      94.17089763     100.49359520     109.51838340
H      96.03983695      99.69991015     107.04095219
H      96.74092541      98.74559837     109.89821839
C      86.90678969      92.04084940     101.41523696
O      87.55874526      91.57030755      99.20236746
N      84.94525377      93.47326195     102.09553844
H      84.65801537      94.09498192     103.87755035
C      82.95726169      94.16112234     100.39100530
H      82.20326089      92.35832343      99.74093945
C      80.77462780      95.55196090     101.89333773
H      80.06220099      94.48804499     103.50716400
C      81.46248818      98.00104620     103.00638652
H      82.09932595      99.37676695     101.60987877
H      83.10843980      97.71758726     104.21203191
H      79.89968451      98.77394427     104.10431751
C      78.56742747      95.71258764     100.16045869
H      78.06476026      93.90978874      99.30441268
H      79.04741795      96.84831314      98.50883789
C      76.06920928      96.78784190     101.27350749
H      76.25818191      98.83630522     101.14689583
H      76.00873803      96.13399660     103.22559477
H      74.56687687      96.12265824     100.03195730
C      83.92858101      95.62566022      98.08364948
O      85.00194556      97.72514616      98.43135911
N      83.54118712      94.60331829      95.90857449
H      82.53396299      93.01405845      95.58732102
C      84.05897214      96.05273837      93.59177002
H      84.90934898      97.91222906      93.83365499
C      86.03373612      94.65056144      92.17447530
H      87.78740214      94.47103745      93.23650148
H      86.38144578      95.79006642      90.49450860
C      85.21359491      92.08809257      91.17103063
C      84.56730852      91.83864869      88.61045147
H      84.56352906      93.46570304      87.38023964
C      84.23093722      89.35743805      87.58810954
H      83.70559331      89.11555308      85.63224279
C      84.65801537      87.27495964      89.18492826
O      84.20259133      85.00917779      88.10211509
H      84.54085234      83.59944197      89.19248717
C      85.41390589      87.53385216      91.70204372
H      85.56886345      86.05419645      93.09855147
C      85.72949020      89.96970936      92.65446578
H      86.60821293      90.23049160      94.47616195
C      81.45681899      96.30407197      92.04975336
O      79.56709269      95.13622111      92.81509252
N      81.52673888      97.60987285      89.90680371
H      83.18780831      98.47347777      89.54775571
C      79.32142827      97.84230919      88.10400481
H      78.24050482      96.09242263      88.21171921
C      77.59232868     100.00415610      88.85233644
H      76.81943062      99.69046152      90.73639357
H      75.99173050      99.92478758      87.55976363
C      78.88301176     102.57229416      88.50462680
H      79.92614069     102.74047979      86.73584296
H      80.21526882     102.63276540      90.07309964
C      77.09911013     104.83618627      88.94871248
H      75.95204624     104.79461230      90.65891480
H      75.86700856     105.05917397      87.31220949
C      78.44270553     107.30227912      88.94304329
H      77.04241834     108.68555878      88.33644115
H      79.94125849     107.22102089      87.52952802
N      79.77118312     108.19611965      91.31276010
H      81.53618750     107.46857503      91.23717104
H      78.83009942     107.70101136      92.89635075
H      80.06409071     110.08206652      91.31842927
C      79.99228110      97.71002835      85.23162082
O      82.08042868      98.29773324      84.58344469
N      78.02318629      96.95602755      83.74251649
H      76.34510933      96.44769117      84.49651729
C      78.12712124      96.95224810      80.87580167
H      80.12078249      97.01838851      80.35990638
C      77.26540604      94.32363879      79.85157001
H      75.26985505      94.00049559      80.25786117
H      78.25562263      92.83831392      80.87769139
C      77.77563215      94.06285657      77.03965726
O      80.01684754      93.94380381      76.34612770
O      75.96905378      94.25749838      75.47874332
C      77.01218271      99.39566422      79.63236176
O      75.72905854     100.92256307      80.91926538
N      77.84555202      99.85108827      77.27587304
H      78.86978368      98.49426476      76.40659894
C      76.78919501     101.84285980      75.64692895
H      76.90446832     103.69857104      76.53510033
C      78.18381303     102.13765710      73.10335735
H      77.45059922     103.72502721      72.01487499
C      80.95415181     102.43434412      73.45862589
H      81.23383129     104.21068687      74.46018083
H      82.02562661     102.74992843      71.72763658
H      81.83665398     100.92256307      74.54332880
O      77.78319104     100.03817116      71.44228792
H      76.13534971     100.14210611      70.69017684
C      73.82988360     101.83530089      75.12914395
O      72.92281497     103.93289710      74.93639186
N      72.57699505      99.75093277      75.45228715
H      73.60689590      98.14655512      75.49386112
C      69.72917750      99.39188477      75.60913444
H      69.18871577     100.77138497      74.17861161
C      68.87691093      96.78406245      74.92505350
H      66.91726474      96.43446309      75.45606660
H      69.86901725      95.43290814      76.12314000
C      69.40225485      96.03384110      72.01109554
H      69.02619931      94.02884149      71.72574686
H      71.40347501      96.47414733      71.81456400
C      67.96795257      97.81963247      70.26309869
O      65.76264198      98.70024494      70.81111932
O      69.20005413      98.67756822      68.35447511
C      68.53487047     100.43501370      78.02987384
O      66.25208109     100.42556505      78.10357317
N      70.03531316     101.41389193      79.88558507
H      71.86456824     101.45357617      79.35079254
C      69.57044049     102.31340164      82.45561287
H      67.92259914     103.54739292      82.39514163
H      71.13135443     103.35842030      83.29843081
C      68.92415410     100.15911364      84.40014125
O      68.13424850     100.59375070      86.51285526
N      69.56855076      97.72325643      83.72550895
H      70.55120844      97.54751189      82.09845459
C      69.07722193      95.51605610      85.21650300
H      67.31032783      95.88833218      86.20671960
C      68.97517670      93.32775302      83.30221026
H      69.59311720      91.60243291      84.24329396
H      70.27530841      93.80774351      81.78098058
C      66.48829688      92.94035913      81.94916621
C      66.00452694      90.36844163      81.37846887
H      67.32355591      88.84721193      81.71672987
C      63.80866496      89.79774428      80.03298373
H      63.48174231      87.87778235      79.42449186
C      62.14570580      91.77628773      79.25063704
O      60.08212467      91.04874309      77.85412930
H      58.89915600      92.39422823      77.56500117
C      62.58979150      94.29718263      79.90259262
H      61.17816593      95.65400612      79.32811581
C      64.87069116      94.83008545      81.13658390
H      65.31666656      96.79918026      81.43138121
C      71.28253254      95.27984030      87.16103139
O      73.46894588      95.23637661      86.36356689
N      70.69860709      94.94535876      89.53452763
H      68.82777805      94.63544364      89.74617699
C      72.51463409      94.66567926      91.52062998
H      74.33633026      95.33842183      90.83843878
C      71.32410651      96.19635758      93.74672759
H      71.46205653      95.18913345      95.54007785
H      69.35312196      96.73681930      93.50673234
C      72.56187725      98.80606961      94.34199137
C      71.30709898     100.95279870      93.76562484
H      69.41170349     100.96791652      93.00595488
C      72.56943614     103.25070590      94.26073314
H      71.67937506     105.02326917      93.78452212
C      74.94860157     103.26015452      95.46826825
O      76.08999628     105.41255280      96.23549714
H      75.14135366     106.77882493      95.50984224
C      76.12779080     100.99248296      96.21093070
H      77.83988283     101.10208708      97.31642060
C      74.97127829      98.67945794      95.52873949
H      75.97472297      96.91256384      95.71204296
C      72.94360195      91.92557611      92.22927735
O      70.98773522      90.46859711      92.22927735
N      75.24150915      91.17535476      92.66202469
H      76.54164085      92.56997277      92.56564865
C      76.34132987      88.67524685      92.94926309
H      74.68781935      87.59621312      93.53507824
C      77.35800263      87.71526588      90.33010241
H      78.76773845      86.23372044      90.58521547
C      75.19993518      86.28474306      89.12823647
H      74.45916246      84.76918256      90.30742570
H      76.03330449      85.52318336      87.40480608
H      73.66169795      87.40724048      88.34588978
O      78.37278566      89.66735316      88.86745425
H      79.84677218      90.39489779      89.63090368
C      78.32554250      88.60910642      94.99961613
O      79.85811054      90.39300807      95.36622303
N      78.23483563      86.52095884      96.44903622
H      76.70037787      85.44948403      96.07864986
C      80.03385508      85.65924365      98.45025638
H      81.85177179      86.33387594      97.75861654
C      79.27796456      86.95559590     100.98437936
H      78.61656035      88.85288112     100.53651422
C      77.09155122      85.51562445     102.14656104
H      76.56998676      86.28096361     103.98715448
H      77.79263968      83.68258993     102.78150909
H      75.53819619      85.47216074     100.79729646
C      81.48516489      87.14078908     102.92323856
H      82.89868018      88.31808857     101.99349322
H      82.22593760      85.29263675     103.44480302
C      80.96171071      88.64123177     105.29862453
H      79.30442072      87.92880496     106.29073085
H      80.57242708      90.65756974     105.13610808
H      82.57364725      88.21226390     106.50615966
C      80.26440170      82.81520554      98.43324885
O      78.54097129      81.45271288      97.57153364
N      82.20326089      81.71538484      99.79574152
H      83.53740767      82.76985211     100.66312590
C      82.64167739      78.91103098      99.77495452
H      81.04674839      77.82254862     100.49494025
H      84.19881187      78.70127136     101.10721158
C      83.36544258      77.93782193      97.25783907
O      84.81864211      79.26818926      96.10132658
N      82.31664448      75.76652641      96.46415402
H      80.81998124      75.22417495      97.51484186
C      82.32231365      74.69316185      93.84877281
H      84.02306734      75.61723803      93.14768435
C      82.84009866      71.73951963      93.69759471
H      81.22438267      70.73418523      94.48750030
C      83.34276586      70.87024553      91.04441895
H      81.55508477      70.76253113      90.02585648
H      84.04007487      68.93516578      91.16158198
H      84.66746400      72.18738476      90.17703459
C      85.35721410      71.18960928      95.11110999
H      85.60854771      72.45950536      96.71359789
H      86.87466434      71.61668742      93.78452212
C      85.73515937      68.53832325      96.18069507
H      84.13834063      68.06211222      97.39200965
H      87.56819390      68.22084924      97.06886644
H      85.83342515      67.19661758      94.61978114
C      80.01306809      75.49818526      92.25006434
O      78.14223904      74.09222888      91.75306632
N      80.02629619      77.84711508      91.49039437
H      81.47193681      79.02819401      91.88534717
C      78.38034457      79.04898101      89.68003656
H      78.32743222      77.83766643      88.01707741
H      78.69592886      81.04831144      89.28697349
C      75.64402086      79.28897625      90.60411272
O      73.94137746      79.30787352      89.08855223
N      75.17158929      79.40047011      93.06075694
H      76.49439771      79.68392905      94.40624207
C      72.54675943      79.59133246      94.12656258
H      71.28442226      78.16647882      93.33665698
C      72.70171699      79.09055499      96.94225478
H      73.77319181      80.47005520      98.03262686
H      73.55209383      77.23673347      97.22004455
C      70.18838099      78.90914126      97.98160426
N      68.91281573      76.60745461      98.35577007
H      69.71594942      74.90103175      98.05719330
C      66.78309418      77.08177592      99.63322505
H      65.26942340      75.88368944     100.29462926
N      66.72640239      79.66692152     100.02628813
H      65.42816042      80.79886758     100.84642934
C      68.96005890      80.79130867      99.05118935
H      69.72728778      82.67347607      99.23260308
C      71.40914420      82.30497945      93.72405087
O      72.42392722      84.10021944      94.85221748
N      69.55343296      82.52040824      92.06298144
H      68.77864517      80.92358950      91.36000326
C      68.07188752      84.93358875      91.75684577
H      69.21517195      86.58143010      91.28630392
C      66.23507355      84.48005443      89.50996119
H      64.98596446      82.89457405      89.93137015
H      67.41237304      83.70904609      88.00762878
C      64.44550273      86.65512942      88.79753437
H      63.18505527      87.29007746      90.29608734
C      66.10846188      88.89634482      87.98306233
H      67.16670862      89.83931825      89.47594611
H      64.89525760      90.41379506      87.30087113
H      67.40670386      88.35210364      86.48072992
C      62.95261894      85.78018614      86.46939156
H      61.55611119      84.46493661      87.21583345
H      63.97118142      85.18114289      84.78375568
H      62.05310921      87.50361653      85.78720036
C      66.84356543      85.47405048      94.33254275
O      65.36201999      83.74684063      95.07898464
N      67.36324015      87.64534600      95.56842375
H      68.84667531      88.57698107      94.80875378
C      66.14625641      88.86232975      97.66413024
H      65.49241111      87.29007746      98.82064274
C      67.83567174      90.61032658      99.31197158
H      66.67915924      91.65156579     100.66501562
H      68.90714655      91.77439800      97.99483234
C      69.83311245      88.99650031     100.78595810
H      70.69671737      87.56408777      99.58220245
C      72.06298950      90.60843687     101.65523221
H      73.17414856      90.60843687      99.92046346
H      73.25351707      89.51617505     102.93268719
H      71.46205653      92.35076452     102.57174947
C      68.64447459      87.50739599     102.98748926
H      68.05299027      89.04185374     104.22714971
H      69.83122273      85.97482795     103.68479827
H      66.73585102      86.88378631     102.52828576
C      63.75008345      90.09065186      96.60399377
O      61.59201599      89.38767366      97.16902193
N      64.11480063      92.07486449      95.06764628
H      65.88358446      92.61154676      94.58765579
C      61.99830715      93.22381809      93.70137415
H      60.55455626      91.77061854      93.49350426
C      60.95706795      95.44802595      95.28496481