 %block lattice_cart
   142.669   0.000   0.000
   0.000 146.65   0.000
   0.000   0.000   162.396
 %endblock lattice_cart

 %block positions_abs
N      92.78383852      42.81442381      76.43022052
H      92.13944184      41.12500850      77.04249184
H      94.36931889      42.81820327      75.36630460
H      91.61787738      43.29441430      74.99780797
C      92.77250016      44.90824056      78.42577150
H      94.41467232      44.52651585      79.60874017
C      93.29406462      47.41401767      77.09162472
H      91.52150134      48.02439925      76.24124788
H      94.81529430      47.17969160      75.72157315
C      94.26538395      49.52106250      78.83017293
H      95.80551089      48.67257539      79.90164775
H      92.94446525      50.03506806      80.32494645
S      95.38032247      52.38021842      77.31650216
C      96.85241927      53.74082136      80.07172312
H      96.93934668      55.76660796      79.70889567
H      98.66466680      52.82619382      80.42132249
H      95.75070883      53.57263571      81.80271242
C      90.32152513      45.10477211      79.99424434
O      88.14078096      45.28051665      78.90198253
N      90.52372585      45.09154402      82.47734472
H      92.23770761      44.54730284      83.11607221
C      88.56785911      45.60365986      84.31982787
H      86.98615819      44.32053569      84.00991276
C      89.77917368      45.30130364      86.96355498
H      91.26827801      46.59576617      87.55314959
H      90.56529982      43.39834924      86.95032690
C      87.76661515      45.48271736      89.04036420
O      87.49449457      47.33464916      90.40096715
N      86.34554097      43.65913148      89.54114168
H      85.32130931      43.51929173      91.14551931
H      86.55530059      42.09443809      88.46966686
C      87.63811377      48.37966781      84.06849427
O      89.21036606      49.99538381      83.69810792
N      85.22871272      48.78973842      84.51824914
H      84.17802489      47.20614776      84.70155259
C      84.08731802      51.42023744      84.33683541
H      84.62966948      52.03817795      82.44899882
C      81.16202169      51.06307917      84.34817377
H      80.67825175      49.52673168      83.06504960
C      80.26629142      50.15790027      87.02780568
H      78.33499113      49.45114263      86.95977553
H      80.47794077      51.80007243      88.25423806
H      81.22060321      48.41557261      87.57015713
C      79.71638106      53.44980350      83.39008253
H      80.11889277      55.02016607      84.66186833
H      77.75295542      52.82808354      83.41275924
C      80.36455719      54.38143857      80.71045061
H      82.30341638      55.02772497      80.44966838
H      79.27796456      56.00849293      80.06416422
H      79.81653656      52.93201850      79.35173740
C      85.05863735      53.32508156      86.33427612
O      85.29107368      55.47936956      85.61806985
N      85.84098404      52.58052939      88.64352168
H      85.74460800      50.68891336      88.87028883
C      86.83686981      54.21136320      90.60316786
H      85.73515937      55.94613196      90.76001515
C      86.79529583      53.01894591      93.36405801
H      87.78740214      54.17923786      94.74355821
H      87.83653503      51.24260317      93.38106554
C      84.12133310      52.62399311      94.37506158
C      82.96104114      50.25427630      94.22388348
H      83.69236522      48.53084592      93.41319089
C      80.54597091      49.91412557      95.07803977
H      79.77496258      48.04329653      95.35016036
C      79.17025016      51.89644847      96.11360979
H      77.20682452      51.59031281      96.57470301
C      80.18314346      54.30584952      96.22699337
H      79.14001454      55.92156552      96.90540512
C      82.68703083      54.69135370      95.35771927
H      83.40134737      56.60375673      95.29913775
C      89.53161953      54.95591538      89.82649035
O      90.23270799      57.25760202      89.72255540
N      91.19646841      53.17957265      88.93831898
H      90.43679843      51.43724498      88.75312580
C      93.67956879      53.64633505      87.74023250
H      94.64143948      54.63655163      89.26713136
C      94.92111898      51.07252781      87.01268787
H      93.81373936      50.37143934      85.42531777
H      94.58852714      49.74593994      88.55092509
C      97.71602419      50.89678326      86.31159941
H      98.12042562      52.31596771      84.87729713
H      97.90310710      49.00327748      85.52736299
C      99.85330465      51.58464363      88.22967161
O      99.88920945      53.64066587      89.24256492
O     101.35374735      49.85932350      88.74367717
C      93.56051603      55.53228190      85.50846572
O      95.13654778      57.22925612      85.44988421
N      91.67078972      55.22992569      83.98534631
H      90.50293886      53.82774877      84.53903612
C      91.08875401      56.72658894      81.74413091
H      92.70069056      56.66800741      80.46100674
C      88.96281191      55.58708396      80.12652518
H      87.32441920      55.83085866      81.35673701
H      89.49382500      53.61798915      79.82794843
C      88.41857073      56.89666430      77.64342481
H      89.93980041      56.33919504      76.37163900
H      88.34676113      58.94323790      77.85318443
S      85.44225179      55.94991142      76.19211500
C      85.21170518      52.52383761      76.55494245
H      86.79907528      51.55440801      75.67244026
H      83.35788367      51.99849370      75.82361837
H      85.20036682      51.89644847      78.51647836
C      90.70513957      59.43645646      82.44143992
O      91.97314593      61.07673890      81.48145895
N      88.90234067      59.96935929      84.09495044
H      87.82519667      58.47647550      84.59950737
C      88.17290631      62.43356240      84.54281558
H      88.05952273      63.32173376      82.68710434
C      85.34587575      62.42411377      85.64263629
H      84.75817086      64.25903802      86.36829120
H      85.21170518      61.08240808      87.20166050
C      83.33142750      61.52838349      83.89274973
H      83.97582417      60.01660245      82.65119954
C      81.03918948      60.45312921      85.21933760
H      80.49305858      62.09341165      86.33616585
H      81.49650325      58.79583925      86.35506311
H      79.66157900      59.84652707      83.81149149
C      82.37522598      63.52771394      82.12774535
H      81.42280392      65.02815663      83.16709482
H      80.93903399      62.49592337      81.06760889
H      83.88889676      64.19289760      80.90131297
C      90.11176551      63.89810028      86.21333364
O      90.46136488      66.21112530      85.85050619
N      91.54795751      62.57907133      87.77802702
H      91.29284445      60.69312447      87.63629755
C      93.75326811      63.64109750      89.01012858
H      93.37721258      64.99792100      90.51435073
C      95.00237721      61.45279444      90.58238087
H      96.89399325      61.91577738      91.25890289
H      94.74915388      59.65566472      89.61106155
C      93.51138315      61.02760602      93.00689973
H      91.58764176      60.51926965      92.47021746
H      93.32807969      62.72646998      94.15585333
C      94.90222171      58.99048106      94.74544794
H      96.54439388      59.82951954      95.66385493
H      95.68834786      57.48814864      93.57570735
N      93.06729746      57.87554253      96.50667286
H      92.59675561      56.10108952      95.98510840
C      91.99393292      58.78450088      98.53434920
N      92.66667548      61.04083411      99.19386368
H      91.79173220      61.78727600     100.71698309
H      94.11609557      61.95735137      98.35293547
N      90.16278812      57.53917124      99.75889185
H      89.36154416      58.25726725     101.33492359
H      89.88877780      55.72125453      99.24488629
C      95.58441291      64.85808126      87.19221187
O      96.96013367      66.61552672      88.08794214
N      95.45024234      64.16266197      84.79036972
H      94.44301822      62.63765283      84.23856964
C      96.93556723      65.60452315      82.78537011
H      97.95412971      67.02748707      83.87007301
C      99.27882785      64.24769965      81.53626101
H     100.11597661      65.53838272      80.16242998
C     101.20445897      63.38409473      83.50535583
H     102.89198456      62.36742197      82.89875368
H     100.28227253      62.38631924      85.05304168
H     102.05483581      65.08484842      84.29904088
C      98.26971400      61.92522601      79.97156763
H      97.28327687      62.77182340      78.37474889
H      96.78627885      60.95768615      81.02036573
C     100.18967594      59.99203600      78.94166679
H     101.38776242      58.88843584      80.20211424
H     101.41043913      61.05784165      77.66988098
H      98.99158945      58.80339815      77.76058784
C      95.24237245      67.13898091      80.94477668
O      96.11920546      69.07972983      80.20022451
N      93.02572348      66.24514036      80.26447520
H      92.56274054      64.51982025      80.93721777
C      91.42890475      67.12575284      78.20845298
H      92.77438988      67.52259535      76.69856165
C      89.53728871      65.24358542      77.20122885
H      88.10865562      64.64454219      78.55805234
H      90.66167587      63.53716257      76.92532881
C      88.35620976      65.90687936      74.52726612
O      89.91145452      66.17522049      72.81706380
O      86.04129503      65.67633274      74.09829825
C      90.32530458      69.74302378      78.91710034
O      90.09286825      71.40598293      77.24091310
N      89.94924905      70.22490398      81.21311781
H      90.56341010      68.83406541      82.36774059
C      89.28973456      72.56060571      82.45277827
H      89.31619073      73.87396549      80.86540817
C      86.61955128      72.61540777      83.46000240
H      86.33231288      71.05071438      84.76769301
H      85.26461752      72.59084133      81.90853710
C      86.03373613      74.82827729      85.12674101
H      86.85765680      74.86229235      87.01268787
H      84.02873651      74.64875328      85.56137806
C      86.25105465      77.32649546      83.76424834
O      85.69169566      79.28803139      85.06060059
O      86.64033827      77.36995917      81.41153908
C      91.18701978      73.46200516      84.32549705
O      91.86921098      75.67865413      84.24612855
N      92.28306104      71.87463505      86.05837608
H      91.92023359      70.00947519      85.90152880
C      94.11231611      72.86485164      87.93865376
H      95.00426693      74.64119437      87.40197149
H      95.48047796      71.37763703      88.33927574
C      92.69502138      73.43176954      90.35561372
O      90.39522446      73.52247640      90.51435073
N      94.14633119      73.88908331      92.35494416
H      95.97747598      73.52247640      91.95432218
C      93.32430024      74.28592584      95.06103224
H      91.27394719      74.17443198      95.22543842
C      94.30128875      71.99935699      96.68052769
H      96.32896508      71.70266997      96.48777560
H      93.50571397      70.32128002      95.78857687
C      93.61153864      72.16565291      99.64739800
H      94.94568542      73.50735859     100.46564949
C      91.07741566      73.11240580     100.45431113
H      90.86387658      75.10417732      99.97054120
H      91.23615267      73.12941333     102.50655391
H      89.56563460      71.79715627      99.97621038
C      94.20491270      69.51436689     100.84359475
H      93.70035578      69.50680798     102.83914574
H      96.25148630      69.29893810     100.77745433
H      93.52461123      67.93077625      99.71353842
C      94.38443670      76.86729198      96.10416116
O      96.59541649      77.07327215      96.35360503
N      92.62321178      78.60206073      97.03012705
H      90.77316972      78.20521820      96.78635236
C      93.18823995      81.03791795      97.94097514
H      95.23292382      81.10972754      98.18286010
C      92.34920146      83.13929361      95.95865223
H      91.98259456      85.01390210      96.72966057
H      90.59364572      82.72355382      94.96654592
C      94.52049700      83.30747924      94.03869030
H      95.10820188      81.39507622      93.54736146
H      96.15511026      84.09927458      95.01189935
C      94.03294761      84.87973154      91.64251734
H      95.91700474      85.42397271      91.01134875
H      92.87265565      86.50867562      92.13762563
N      92.81218441      83.50967997      89.47878071
H      91.86165207      81.86183862      89.62428963
C      92.69502138      84.32793145      87.12985090
N      93.39233039      86.56725714      86.63852206
H      92.84242003      87.37417028      84.99823962
H      94.21058188      87.52912783      88.07093460
N      91.58764176      82.92008535      85.41964859
H      91.61598765      83.20165457      83.53370173
H      90.76561081      81.32704607      86.07538362
C      91.89188770      81.28925155     100.62060705
O      89.62043667      80.77713572     100.85871256
N      93.51516260      81.75412422     102.52545117
H      95.38788138      81.98845028     102.24199222
C      92.70258028      81.80325711     105.16539883
H      91.13410744      80.50879457     105.49610094
C      94.71135935      80.75445901     106.80001209
H      94.30884765      81.15886044     108.78233499
H      96.54628360      81.49523171     106.23309420
C      94.93623679      77.75546335     106.50143533
H      94.77372032      77.24712697     104.51344325
C      97.61586870      77.11673584     107.38204780
H      99.10497303      77.84428048     106.15750515
H      97.91822491      75.16842801     107.97542186
H      97.60830979      77.90097227     109.28689192
C      93.16934268      76.15675488     108.15116641
H      93.74004003      75.85817812     110.10892287
H      92.99548786      74.20277788     107.51810809
H      91.25316020      76.91264541     108.13604859
C      91.73315069      84.43186640     105.98176060
O      90.38199637      84.60194178     107.80156704
N      92.22825898      86.37450506     104.51155353
H      93.21469612      86.02679542     102.91662452
C      91.31552117      88.99744517     104.75910767
H      90.44057789      89.17318973     106.61292919
C      93.58319275      90.83236942     104.64383437
H      92.83108167      92.75044163     104.71942342
H      94.71324908      90.62260980     102.93363206
C      95.03450255      90.57158720     106.96819773
H      96.06818285      88.78957529     106.90961622
H      93.90633595      90.51300568     108.69162813
C      97.19445973      92.57847655     107.06079432
H      96.37053906      94.45875423     106.89827786
H      98.32640579      92.41218062     105.34870228
C      98.92544903      92.23454635     109.32657617
H      97.69523720      92.08147852     110.97063806
H     100.01204166      93.98065346     109.44373920
N     100.61486436      90.13883988     109.04311723
H     101.61830903      89.81947612     110.63615651
H     101.72035425      90.26167208     107.49165192
H      99.44512377      88.64595608     108.83713706
C      89.22548387      89.47932539     102.79379231
O      89.08186467      87.94108816     101.13650233
N      87.69102610      91.40117704     102.96575740
H      87.67212884      92.44052652     104.56635559
C      86.03751558      92.28178951     100.88894818
H      84.82053183      90.71520639     100.33147892
C      84.41613040      94.43607751     101.95097437
H      85.85232240      95.69841468     102.72009298
C      82.89490072      95.95919692      99.87227543
H      81.71949095      97.35192520     100.83603585
H      81.70059369      94.71386728      98.74788827
H      84.06464131      97.07035598      98.59482044
C      82.87600346      93.45719927     104.21675622
H      84.16668653      92.79012589     105.67751466
H      82.11066430      91.70164353     103.44952734
C      80.99761550      95.41495574     105.30145913
H      79.57654131      95.97620445     103.92006919
H      82.06153142      97.10059161     105.82113386
H      80.08109824      94.83292004     107.05323542
C      87.42835414      93.06413621      98.38884027
O      89.16312290      94.48710012      98.36427383
N      86.50238825      92.11927304      96.22510364
H      85.12666750      90.82481053      96.50478314
C      87.51717128      92.60871217      93.67964230
H      88.73982421      94.23387679      94.00467523
C      89.22548387      90.35237894      92.95587712
H      90.36498884      89.86482956      94.59993901
H      90.46892378      91.03079070      91.45921388
C      87.95180833      87.98266215      91.98644752
C      87.41890551      87.62361415      89.42964782
H      88.22959810      89.01256298      88.16920037
C      86.41924029      85.16319049      88.67753675
H      86.22837794      84.50934519      86.75568509
C      85.75783608      83.36795050      90.54269662
O      85.01139419      81.07382275      89.75846020
H      85.02273255      80.86406313      87.95377157
C      86.09042792      83.98778072      93.08815796
H      85.96192653      82.42686678      94.39584857
C      87.30741166      86.18742216      93.74956217
H      87.71181309      86.52001398      95.72243644
C      85.42524425      93.33625679      91.74645228
O      83.11599870      93.47042737      92.28502428
N      85.99594160      93.54034724      89.22177793
H      87.75716652      93.19074786      88.57549153
C      84.27062148      94.08836787      87.08260774
H      82.35443899      94.09781649      87.83282909
C      84.73549415      96.76799977      86.01491237
H      84.20070160      96.69807991      84.02692029
H      86.73860404      97.23476218      85.89396989
C      83.39189874      98.81457338      87.60417220
H      83.92858101      98.45174593      89.56003894
H      81.38311967      98.44796647      87.33205162
C      83.83409470     101.50932310      86.77269263
H      83.52795903     101.55656626      84.73745739
H      85.79563061     102.06112318      87.07126938
C      82.18058417     103.27999665      88.39785726
H      82.82120139     103.20062814      90.35561372
H      80.19259209     102.74709383      88.34305519
N      82.45648422     105.86892170      87.49645780
H      84.05141322     106.79299786      87.98778665
H      81.08076346     107.02732393      88.13518530
H      82.17302527     106.08812995      85.62373903
C      84.73549415      92.22320799      84.89808412
O      86.78017802      91.38605924      84.45021899
N      82.70403836      91.75455587      83.54692981
H      81.16013196      92.62949915      84.24801827
C      82.28640885      90.34482003      81.15453630
H      83.83598442      89.01067327      80.91454106
C      79.69559407      89.09004176      81.31138358
H      78.20271028      90.47899061      81.02603491
H      79.49339336      88.07525874      83.09150577
C      79.50851117      86.92630514      79.29315588
O      77.29753138      86.35182833      78.56183180
O      81.43792173      85.81892551      78.57694961
C      82.57742670      92.11549360      78.80371676
O      82.47349175      94.37560626      79.04938119
N      82.89112127      90.98921671      76.55494245
H      82.90434935      89.08248287      76.54360409
C      82.63978767      92.29123814      74.09451879
H      84.05897213      93.78223221      73.99436330
C      83.03474047      90.42418854      71.99692259
H      82.83253975      91.28590375      70.13554217
C      85.89389638      89.73254872      71.88353901
H      86.20381149      87.96376488      70.87631488
H      86.50616770      89.16185136      73.76570641
H      87.02584244      91.26511676      71.10119231
O      81.60232792      88.29068753      72.16132877
H      81.75728548      87.61794496      70.48136208
C      79.99039138      93.58381094      73.50681391
O      79.72016051      94.88961183      71.61897732
N      78.23105618      93.19830677      75.37008405
H      78.93214464      92.12116277      76.78170961
C      75.90291336      94.73654400      75.65165327
H      75.38134890      95.51511124      73.81672902
C      73.76185345      92.87516357      76.26014515
H      72.09322511      93.98821237      76.73068700
H      74.35711724      91.93596959      77.99491390
C      73.07021362      91.03079070      74.13798250
H      73.00407320      89.20153562      75.08284565
H      74.25507202      91.33692636      72.48258225
C      70.51530364      91.63739284      73.22146524
O      70.39058171      93.27200609      71.47913758
O      68.54053965      90.75111119      74.30238869
C      76.10133462      97.01366419      77.45634190
O      74.79553374      98.93740558      77.16343432
N      77.96838422      96.83225047      79.14008805
H      79.20993441      95.38094066      79.13063942
C      78.71482612      98.84858844      80.88808489
H      78.64301652     100.66272571      79.91298611
H      80.67069285      98.33647261      81.29059659
C      77.34855399      98.73331515      83.47700994
O      77.83421365     100.20352221      85.21555814
N      75.76496334      96.75099224      83.80960177
H      75.46638658      95.57369274      82.33750497
C      74.23995421      96.37304697      86.00735347
H      73.48784313      98.16639725      86.68387549
C      72.01574634      94.67040356      85.26280130
H      70.71939409      94.41151107      86.84072277
H      72.64502520      92.77689781      84.75635465
C      70.52097282      95.82313662      83.13685920
C      69.84067135      94.33214255      80.91454106
H      70.40758924      92.39328337      80.60840539
C      68.06432862      95.27133653      79.20244902
H      67.38402714      93.97687401      77.77948510
C      67.09867847      97.71853211      79.43677508
O      65.41682205      98.46875346      77.72846249
H      64.95005965     100.13738180      78.26703449
C      68.04732108      99.28133578      81.39642127
H      67.31977645     101.17673127      81.59673226
C      69.46839527      98.25521438      83.32961128
H      69.88791451      99.19440836      85.09272593
C      75.78008115      94.98598786      87.99156610
O      77.61311567      93.65751027      87.32638244
N      75.15080229      95.39794819      90.41230551
H      73.76374318      96.67540318      90.69954390
C      76.70037787      94.58347615      92.50612226
H      78.69592885      95.03701047      92.26801674
C      75.92181062      96.15383873      94.80780891
H      76.97816763      95.46975779      96.43675299
H      73.99051033      95.56613384      95.21976925
C      76.39613193      99.00165627      94.41663556
C      74.38735286     100.62115173      94.52812942
H      72.49006764      99.87659956      94.63395409
C      74.85978444     103.32157064      94.80025000
H      73.28375269     104.61225371      94.67930752
C      77.30886974     104.28155159      94.23333211
O      77.56209306     106.80055677      93.96121152
H      75.91047227     107.52432196      93.75334163
C      79.29497209     102.56190065      94.11616908
H      81.23950047     103.15149526      93.91963754
C      78.83765833      99.94462971      94.17475059
H      80.47794077      98.75977131      94.44120200
C      76.48683879      91.70164353      93.10138605
O      74.47050082      90.70953722      93.16185729
N      78.62789871      90.50166732      93.29413813
H      80.21148936      91.56369352      93.36027855
C      79.04741795      87.78991006      93.37728609
H      77.19737589      86.89229006      93.48311076
C      80.05653180      86.97354830      90.78458159
H      82.10688485      87.18519764      90.74489734
C      79.58410022      84.14840746      90.12695683
H      80.24739416      83.84038207      88.20132572
H      77.70949172      83.43031146      90.57482197
H      80.77462780      82.97299770      91.33071249
O      79.14946317      88.31903343      88.64730113
H      79.17213988      90.07080973      89.11784298
C      80.81998123      87.01890173      95.52023573
O      82.39034379      88.36249714      96.51612150
N      80.64801613      84.68320001      96.52745985
H      79.29119264      83.52857722      95.84526866
C      81.90846358      83.60416628      98.85749240
H      83.82086661      84.36950544      98.89339720
C      80.50439693      84.15974582     101.32736469
H      80.10377496      86.17797351     101.39917429
C      77.96649450      82.75567917     101.38783593
H      77.08399231      82.88418056     103.24732662
H      78.12145205      80.76957681     100.87005092
H      76.72305458      83.81581562     100.13305766
C      81.94058893      83.42653201     103.68007395
H      82.76261988      81.54247488     103.57235955
H      80.64801613      83.48322379     105.28256186
C      84.03251596      85.14051377     104.25833020
H      84.82620101      84.67375137     106.10270308
H      83.34087613      87.08126269     104.26399938
H      85.49138467      84.56603698     102.92418342
C      82.30341638      80.69398775      98.49277522
O      80.78974561      79.36362044      97.34571135
N      84.37077697      79.59038760      99.39417467
H      85.72760046      80.65430351     100.21431589
C      84.82242156      76.89374814      99.33181370
H      83.20859529      75.79770688      99.99132819
H      86.48727044      76.38919122     100.43541387
C      85.50839221      75.91486991      96.69753522
O      87.01072463      77.23767833      95.41063160
N      84.53707289      73.77192028      96.04368992
H      83.62244535      72.74201944      97.36460861
C      84.51250644      72.94799961      93.36027855
H      86.02806695      73.79837645      92.25478866
C      84.95659213      70.01136492      92.96532575
H      83.56197411      68.75847637      93.82326150
C      85.07753461      69.39342440      90.20443561
H      85.05863735      67.35818916      89.89829995
H      86.71214787      70.34017729      89.38051494
H      83.39378847      70.05293889      89.21799848
C      87.53417882      69.30082781      94.28057527
H      87.45858977      69.60507376      96.31770023
H      89.15745372      70.29104441      93.49255940
C      88.21448029      66.46245889      94.24656019
H      88.22392892      65.78215743      92.30392154
H      86.79907528      65.67633274      95.52023573
H      90.10609633      65.96924033      94.89095687
C      82.08987731      73.73223602      91.95243245
O      80.14723866      72.39053033      91.92975573
N      82.39979243      75.74101509      90.36128289
H      84.08920775      76.62540700      90.41797468
C      80.52707365      76.95421938      88.62084496
H      80.28518868      75.91298019      86.86150976
H      81.45114982      78.70410595      88.04636816
C      77.97216367      77.70066127      89.72255540
O      76.25062300      78.25813055      88.21644353
N      77.80964721      77.64019003      92.30770100
H      79.36678169      77.40208452      93.38673472
C      75.36812082      78.06726818      93.51712584
H      73.95460553      77.07327215      92.39840786
C      75.19237627      76.75957758      96.10227143
H      76.74384157      77.41342288      97.28901956
H      75.89724418      74.85662318      95.75267207
C      72.80376221      76.61784811      97.51389699
N      71.75307438      74.41820667      98.65907114
H      72.23117514      72.63430504      98.18286010
C      69.64791927      75.10228760      99.92329804
H      68.27030878      73.86073741     100.77745433
N      69.11123699      77.57782907      99.40740276
H      67.72039843      78.47166961     100.36171454
C      71.23528937      78.59261209      98.18474983
H      71.31843733      80.48233841      97.41563122
C      74.47617000      80.73556174      93.49255940
O      75.76685307      82.41930788      94.41474584
N      72.26707994      81.23444948      92.28880373
H      71.22962019      79.77180132      91.63306870
C      71.26741472      83.92919921      92.06203658
H      72.79242385      85.19909528      91.51023649
C      69.06210411      84.13517938      90.19120753
H      67.73740596      82.67820038      90.79025077
H      69.92759876      83.70243204      88.37329081
C      67.82244365      86.87150307      90.11183902
H      67.28009220      87.33826548      92.04124959
C      69.51563842      88.90106914      88.82304568
H      68.99596369      88.97665818      86.83127414
H      71.55087366      88.61383073      88.95532652
H      68.87880066      90.77189818      89.40319165
C      65.47729329      86.53891125      88.51313056
H      64.64014454      88.36060742      88.04258871
H      64.03354239      85.57893028      89.62995881
H      65.60390496      85.40885490      86.79536934
C      70.47183994      84.98177677      94.70576369
O      69.33611442      83.62495326      96.26100844
N      71.05954482      87.30425041      95.40874188
H      71.88913467      88.45131427      94.12939716
C      69.81988436      88.72532459      97.61027303
H      69.28320209      87.45353879      99.13906162
C      71.60945518      90.69819885      98.72143210
H      70.57388516      91.94730796      99.98943846
H      72.52030326      91.66006956      97.14351063
C      73.74106646      89.47554594     100.32014056
H      74.42892684      87.89573473      99.19197396
C      75.95393597      91.30102156     100.91540435
H      77.31264919      90.22765700     102.03034288
H      75.44370987      93.05468758     101.86971614
H      76.87423269      91.66573873      99.10882600
C      72.69037863      88.62327937     102.92418342
H      72.02897442      90.24844400     104.00510687
H      74.06420966      87.65007031     104.11282127
H      71.08033181      87.35905246     102.69174709
C      67.34434289      90.09348643      96.79769072
O      65.22784942      89.45664867      97.54224288
N      67.66748609      92.00966892      95.28024049
H      69.41170348      92.46131350      94.64718217
C      65.46406521      93.59514929      94.38262049
H      63.81811359      92.42540870      93.98955742
C      64.53998904      95.39038930      96.38573038