 %block lattice_cart
   142.669   0.000   0.000
   0.000 146.65   0.000
   0.000   0.000   162.396
 %endblock lattice_cart

 %block positions_abs
N      89.90389562      44.69092205      77.75869811
H      88.38455566      45.21437624      76.72879727
H      89.88877781      42.83521081      78.20845297
H      91.25882938      45.01595496      76.45289723
C      90.33475321      46.37844765      79.95456009
H      91.85220344      45.58665232      81.09973423
C      91.10576155      48.99760832      78.99835857
H      89.45792021      50.08798040      78.41632287
H      92.20936172      48.72359799      77.27870763
C      92.66478576      50.60954486      80.79548830
H      94.45246685      49.63066662      81.11107259
H      91.58764176      50.78906885      82.54348514
S      93.27138791      53.61420969      79.53315112
C      95.09497380      54.79717837      82.32049743
H      96.81840419      53.67846039      82.43577074
H      94.05751405      54.77450165      84.10061962
H      95.65433279      56.76060400      82.03703848
C      87.99716177      46.62411206      81.64397541
O      86.02428750      47.08709501      80.68021499
N      88.41857073      46.66190658      84.12329633
H      90.20436210      46.61844289      84.79414918
C      86.43435810      46.97182170      86.03003018
H      84.98115857      45.58476259      85.57460614
C      87.53228909      46.20648255      88.52446892
H      88.82297216      47.69936634      89.11028407
H      88.42990909      44.42636035      88.01046336
C      85.40634699      45.55263724      90.36128289
O      83.49583369      46.80741552      90.44443085
N      85.67468813      43.65913148      91.99967561
H      84.29896737      43.25850949      93.26012306
H      87.44347196      42.94481493      91.99778588
C      84.96793049      49.41901728      85.79948357
O      86.20381149      51.41645800      85.40075132
N      82.43758695      49.44358372      86.01113292
H      81.50784161      47.77873484      86.06971444
C      81.02785112      51.77739571      86.04514799
H      81.52484914      52.66934654      84.25557718
C      78.07609862      51.24638263      86.36640147
H      77.29375193      50.15601055      84.80170808
C      77.38067934      49.96514818      88.79281005
H      78.55041993      48.37399862      89.38240466
H      75.41725370      49.34342822      88.79658951
H      77.80397803      51.07819698      90.47277675
C      76.54542031      53.74082136      86.43632134
H      77.19548616      55.02583525      87.91030787
H      74.65947345      53.23626444      87.09016665
C      76.20904903      55.30740446      83.92865452
H      78.04775273      55.94046279      83.25402223
H      75.10355913      56.94957663      84.50313132
H      75.42292288      53.91467617      82.63230227
C      81.97649373      53.51027474      88.15219283
O      82.40357188      55.82518948      87.80070374
N      82.60388287      52.51627870      90.43120277
H      82.46026367      50.62844211      90.67686719
C      83.51662068      53.88066111      92.63651337
H      82.13523074      55.36031680      93.01256891
C      83.25583845      52.17234852      95.04402470
H      84.50494754      53.10398359      96.39328928
H      84.07786939      50.38466742      94.43742255
C      80.58376544      51.43346553      95.93030634
C      79.78441121      48.86343774      95.72054672
H      80.97493879      47.58031357      94.66985889
C      77.65279993      48.11321640      97.02067842
H      76.98950599      46.18569556      96.93942019
C      76.07487846      49.97837627      98.19419846
H      74.30231518      49.38122276      99.01433968
C      76.87045323      52.52761707      98.47954713
H      75.82921404      53.87499193      99.60582402
C      79.17780906      53.10965276      97.46098465
H      79.62945365      55.08441677      97.70286962
C      86.24538547      55.03150443      92.33415716
O      87.42268497      56.03494911      94.05191838
N      87.48315621      54.54206532      90.14207464
H      86.33420261      53.79562342      88.81359704
C      90.03050728      55.26205103      89.42586837
H      90.76372109      56.56596219      90.84316310
C      92.00338155      53.06996851      89.25012382
H      93.58508247      53.72948299      88.11061885
H      91.07174648      51.51850322      88.26557641
C      93.05784883      52.01361151      91.82393106
H      91.58008286      51.84353614      93.24500525
H      94.45435658      53.18902128      92.78013257
C      94.06885241      49.39067138      91.19465220
O      96.27227329      49.21492683      90.39340824
O      92.74226454      47.48393754      91.64251733
C      90.07019153      56.80973688      87.03158513
O      91.32308008      58.63899196      86.96733444
N      88.57163856      56.02739020      85.04548277
H      87.84220421      54.26427554      85.07760812
C      88.57730774      57.36153697      82.52836733
H      90.50104913      57.18768215      81.81216105
C      86.74994240      55.90077854      80.84462118
H      84.96226131      55.80251277      81.86129394
H      87.43780278      53.99026523      80.50258072
C      86.14145053      57.13476981      78.30482902
H      87.93858025      57.12343146      77.29760489
H      85.49516413      59.07929819      78.50514001
S      83.95503718      55.33952981      76.41132325
C      81.06375592      56.06518473      78.23868860
H      79.48772418      55.14866746      77.27681790
H      80.82376068      58.10986860      78.28971121
H      81.03352030      55.40944969      80.19077588
C      87.92913162      60.09030176      82.87607697
O      89.40311814      61.48303007      81.82349941
N      86.07719983      60.77627242      84.38218884
H      85.01328392      59.35330851      85.08138757
C      85.26839697      63.46157351      84.60328682
H      84.89423116      64.12486745      82.68899406
C      82.89112127      63.46346323      86.16798020
H      82.43380750      65.33996147      86.88418648
H      83.29552270      62.25781784      87.78936538
C      80.48927912      62.67544736      84.64864025
H      80.94281344      61.01248820      83.52425309
C      78.63923706      61.46035335      86.36073229
H      79.26473647      59.57629621      86.90497347
H      76.88179159      61.04272383      85.37429515
H      78.10444452      62.74158779      87.88196197
C      79.32898717      64.50281270      82.83639271
H      77.81720612      63.45590433      81.90475764
H      80.70470792      64.94122921      81.36618564
H      78.64490624      66.10908008      83.92676480
C      87.22237398      65.02437717      85.98656648
O      87.02584244      67.34307136      85.69932808
N      88.98548863      63.90565919      87.42464820
H      89.10643111      62.00270479      87.44732492
C      90.93568618      65.35318954      88.86650938
H      89.95113877      66.93111103      89.75090129
C      92.18479528      63.72991465      90.92631106
H      93.45658108      64.92611141      92.02046260
H      93.22603447      62.29939183      89.86806433
C      90.55963065      62.45812883      92.78202230
H      89.55996543      61.01059849      91.71432693
H      89.25760922      63.79605506      93.65318613
C      92.03550690      61.10697452      94.97221510
H      93.15989405      62.61497612      95.80936385
H      93.08997418      59.59708320      94.04813893
N      90.31963540      60.13187575      96.90351539
H      89.53539898      58.40277617      96.71265303
C      89.82074766      61.15232795      99.20898149
N      90.64466833      63.40677144      99.80046583
H      90.43679844      63.85652631     101.64294898
H      91.73126096      64.38375996      98.57403345
N      88.52250568      59.96935929     100.92107353
H      88.44691663      60.78761077     102.64450393
H      88.60943309      58.06262544     100.97587559
C      92.77438989      66.55694521      86.85584058
O      93.91389485      68.46556879      87.63062837
N      93.31674134      65.51759574      84.68265532
H      92.55707136      63.83007015      84.21022374
C      94.66600592      66.81205826      82.65497899
H      95.80173144      68.32383932      83.47134076
C      96.56140142      64.74658740      81.57972472
H      97.51571320      65.83695948      80.11707655
C      98.62687228      63.88298247      83.49590720
H      99.32229156      65.31917447      84.79981835
H     100.22936019      63.08740770      82.47356526
H      98.00326259      62.48458500      84.87351768
C      95.31985123      62.46568774      80.34573343
H      93.95924828      63.19134264      78.98135104
H      94.38254698      61.06917999      81.53815074
C      97.02249464      60.72902927      78.85473937
H      98.31506743      59.81818117      80.17187861
H      98.09963864      61.89121094      77.53760013
H      95.88109994      59.35708795      77.82672826
C      93.01627485      68.04982899      80.76714240
O      93.71169414      70.02270327      79.61062990
N      90.57663818      67.44700631      80.63675129
H      90.02483810      65.81428277      81.45311305
C      88.87399478      68.56572429      78.69600236
H      89.87365999      69.21390041      77.01603567
C      87.04662943      66.42844383      78.08184131
H      85.48004632      66.34340614      79.41787781
H      87.93480080      64.56895313      78.05916460
C      86.09609709      66.49269451      75.35874569
O      87.61921650      65.92199716      73.69578654
O      83.99094198      67.31283573      74.87686548
C      87.75905625      71.05449384      79.66543196
O      87.57953225      72.97823523      78.37096944
N      87.01639381      71.20000276      82.05971520
H      87.07308560      69.59940457      83.09717495
C      86.26050328      73.37696748      83.57149625
H      85.82397651      74.87552045      82.22790084
C      83.59787891      72.98390441      84.65997861
H      83.53173849      71.74613367      86.30215077
H      82.53774245      71.93510629      83.23890442
C      82.58498561      75.49724040      85.32516227
H      84.08542830      76.45911109      86.35884256
H      81.01084359      75.46511505      86.65363987
C      81.66846834      77.15830983      83.18410236
O      79.35355361      76.81815909      82.58505912
O      83.18024939      78.64741417      82.04081794
C      88.25038509      74.54103889      85.33272117
O      88.82297216      76.80871045      85.11540265
N      89.60342913      73.05760372      86.94087827
H      89.22170442      71.18866440      87.00890841
C      91.27205747      74.04782031      88.90997308
H      92.67045494      75.29881914      88.05959624
H      92.36998845      72.60784886      89.89452049
C      90.18357511      75.47078423      91.20032138
O      88.04251520      76.40619876      91.30236660
N      91.57441368      75.40086435      93.43397788
H      93.32996942      74.67142999      93.27146142
C      90.55018201      76.34761724      95.85093783
H      88.51683650      76.01880485      95.87550427
C      91.79740138      74.70733479      97.99766692
H      93.85720306      74.76024714      98.03168200
H      91.31174172      72.72312218      97.74444360
C      91.08875401      75.41787190     100.82469749
H      91.48937599      77.40208453     101.21398111
C      88.27495153      74.82827728     101.37649757
H      86.98615819      75.91675964     100.19541863
H      88.03684602      75.01724991     103.41362254
H      87.82708640      72.88563864     100.86249201
C      92.93879607      73.86829631     102.55757652
H      92.54195355      74.24435186     104.54367887
H      94.94757515      74.28970528     102.37049361
H      92.75738235      71.82172271     102.42718540
C      91.02639305      79.24645741      96.22699337
O      93.18068104      80.03825273      95.99266731
N      89.13855646      80.55225828      97.11138528
H      87.53039937      79.59794650      97.49311000
C      89.23304277      83.21866212      98.09404297
H      91.21347595      83.65707862      98.46064987
C      88.18802412      84.99311513      96.05502827
H      87.62677541      86.84315718      96.76934482
H      86.50238825      84.17486363      95.19709253
C      90.21759018      85.56192275      93.95743207
H      91.44591229      84.04825197      93.29602786
H      91.56118559      86.83937773      94.85694179
C      89.12343865      86.89417979      91.63684815
H      90.71647793      87.79746896      90.69765418
H      87.88188846      88.36816631      92.36250306
N      88.02172821      85.04413774      89.98144790
H      86.98237874      83.71566013      90.87150900
C      87.82519667      85.40318573      87.53803178
N      88.82486189      87.18708736      86.17175966
H      88.20314193      87.58015045      84.40864501
H      90.15900867      88.38706357      86.81615633
N      86.35876905      83.72321903      86.45899806
H      86.61955128      83.80069782      84.57116147
H      85.27217642      82.50812502      87.45299410
C      87.84976311      83.36606077     100.70186528
O      85.69358539      82.63473668     100.83414612
N      89.10265166      84.57359587     102.48387719
H      90.56907928      85.65073987     101.91129012
C      88.34298168      84.76067878     105.12382485
H      87.04473970      83.18086759     105.35437146
C      90.57474846      84.33171092     106.95496965
H      90.12310387      84.56603698     108.95052063
H      92.09975759      85.62428370     106.45608190
C      91.83708563      81.58971804     106.73954085
H      92.88966319      81.58215913     104.96886729
C      93.60397974      81.02091042     108.83524733
H      94.75860251      82.71599491     109.04122750
H      94.69057237      79.38818688     108.20407874
H      92.79895633      80.36895483     110.61536952
C      90.00405111      79.36739988     106.81512990
H      90.98859852      77.56082154     106.90583676
H      88.80407490      79.23511905     105.14839129
H      88.88344341      79.48456291     108.54045002
C      87.00883490      87.20220518     105.89294346
O      85.50839221      87.08693188     107.69385264
N      87.36977263      89.29602193     104.52478161
H      88.59242555      89.09382122     103.07347180
C      85.80885870      91.42196404     104.60037066
H      84.51250644      91.32747772     106.19907912
C      87.14678492      93.98065347     105.17862691
H      87.93669052      93.77089385     107.06835323
H      85.82964568      95.55101604     105.39972489
C      89.12910783      94.61182206     103.17173757
H      88.44502690      94.60993233     101.22909892
H      90.37443747      92.97909852     103.33803348
C      90.54451284      97.12704777     103.62527188
H      92.24148706      97.41806562     102.49332582
H      90.80907452      97.27444642     105.66050712
C      88.60754336      99.02811245     102.85993273
H      86.65167663      98.63693910     103.38338692
H      88.61132282      99.55723581     100.87005092
N      89.27083730     101.53199982     104.09770346
H      87.81952749     102.77166028     104.09203428
H      90.73915465     102.33891295     103.19063483
H      89.77539423     101.31846074     105.92695853
C      84.23093722      91.78101204     102.32702991
O      84.74494278      90.83236942     100.24455151
N      82.14467937      93.20586567     102.64828338
H      81.94814784      94.28678912     104.20730759
C      80.01495782      93.62349520     100.85871256
H      79.37623033      91.71487161     100.42407551
C      77.72460953      95.06346665     101.99443808
H      78.51829458      96.65272647     103.03756700
C      76.04653256      96.02344761      99.92518776
H      74.35522751      96.84358882     100.77178515
H      75.64969004      94.64205768      98.44931151
H      77.00462380      97.64672251      99.09181846
C      76.32243260      93.42318420     104.07880620
H      77.67358692      92.82225123     105.51310847
H      75.37378999      91.78668122     103.26433416
C      74.23617475      94.91606798     105.43940914
H      75.07143378      96.42784905     106.55623740
H      72.96816840      93.73876850     106.55812712
H      72.94927114      95.70408387     104.03534249
C      81.09588127      94.87638374      98.46442932
O      81.95759647      97.12515805      98.51734166
N      81.09966072      93.49121435      96.34037695
H      80.12267222      91.86604972      96.53879821
C      82.38845407      94.18663364      93.95743207
H      83.36733230      95.97809417      94.22199375
C      84.31408518      92.13250113      93.38295527
H      85.28918396      91.69219490      95.14606992
H      85.61610661      92.88083276      91.97132971
C      83.13867542      89.64940076      92.46832773
C      82.86277537      89.53979662      89.77546774
H      83.47504670      91.04212904      88.54147645
C      81.64390190      87.44975933      88.63029359
H      81.26217719      87.55180454      86.62718370
C      81.19225731      85.15563158      89.92853557
O      80.08298797      83.18653676      88.71722100
H      79.88078725      83.42464229      86.93142964
C      81.61366628      85.34460422      92.58171131
H      80.76706889      83.81770536      93.63806832
C      82.66813356      87.41385453      93.86483548
H      82.89868017      87.10582913      95.86794537
C      80.28518868      94.47576175      91.94487354
O      78.27829934      93.24177047      92.02802150
N      80.73494354      96.28422984      90.25734795
H      82.36955681      97.26877724      90.24600959
C      78.76395900      97.05901762      88.48667439
H      77.02163134      96.83980938      89.56759784
C      78.97371862      99.91250437      87.81960100
H      77.82854448     100.17895578      86.13018568
H      80.92202645     100.31312634      87.28102900
C      77.99861984     101.81356904      89.81893144
H      78.79419462     101.36381416      91.66330432
H      75.98039214     101.57924297      90.16286163
C      78.43703635     104.59335644      89.11406353
H      77.61122595     105.20184832      87.32449271
H      80.49683803     104.66138659      89.06304092
C      77.43359168     106.27332313      91.02457683
H      78.18759248     105.81411963      92.88784697
H      75.40780507     105.99175392      91.27024125
N      77.87389791     108.85657901      90.20821506
H      76.79675391     109.16082493      88.66052921
H      79.70693243     109.33090031      89.95877119
H      77.12178683     110.11891617      91.42708853
C      78.73750283      95.22220366      86.28514324
O      80.58187571      94.81024331      85.04737250
N      76.59644292      94.30379666      85.55759861
H      75.06765433      94.69497001      86.63285288
C      76.20715930      93.31169035      83.12741057
H      77.34099509      91.63172366      82.75702421
C      73.35178284      92.55391010      82.99135027
H      72.34644844      94.30379666      82.57561048
H      72.74329097      91.72432025      84.77336219
C      72.78675467      90.77000845      80.79548830
O      71.59811682      91.68652572      79.04938118
O      73.55020410      88.52123414      80.85406981
C      76.59644292      95.09937145      80.89942324
O      76.68903951      97.43696289      81.12430068
N      76.80809227      93.99577127      78.72245853
H      77.22383206      92.13250113      78.68088455
C      77.09155121      95.46786807      76.38297736
H      78.62978843      96.79067649      76.74391508
C      78.14790822      93.73498905      74.22679963
H      76.65691416      92.45942378      73.60130022
C      79.11355837      95.27133654      72.08951917
H      80.75384081      96.33714217      72.73958502
H      77.71705062      96.57146825      71.30906221
H      79.62378447      94.28867886      70.35475042
O      80.22471744      92.60493270      75.31717172
H      80.57431681      90.93630438      74.70112094
C      74.65569400      97.04201009      75.66110190
O      74.95049130      98.90528024      74.23246881
N      72.50707518      96.28611956      76.73446645
H      72.39369160      94.65339604      77.71712413
C      70.28286731      97.80923897      76.62864178
H      70.24318306      98.95819257      74.91843946
C      68.09267451      95.97431472      76.33573420
H      66.39570028      97.12137859      76.12975403
H      67.86023817      94.68930083      77.92877348
C      68.03976217      94.59481451      73.78271395
H      69.65169872      93.34192597      73.50303446
H      68.23629371      96.09903666      72.38998566
C      65.38280698      93.26255747      73.27626730
O      64.92738294      91.25755784      74.26459416
O      64.09968281      94.00899936      71.43756359
C      69.97106247      99.77266461      78.86985718
O      68.20605809     101.24854086      79.03237365
N      71.61323463      99.60447898      80.71800952
H      72.88691017      98.19285342      80.54604442
C      71.98929017     101.27121759      83.01024754
H      71.30709897     103.13826717      82.46978581
H      73.95838499     101.21641551      83.60740105
C      70.50396529     100.47186335      85.31382391
O      70.68726874     101.63593475      87.30748517
N      69.18304659      98.39316440      85.13241019
H      69.02808904      97.63538415      83.38819280
C      68.04543135      97.04201009      87.16953515
H      66.93049283      98.42151030      88.21266408
C      66.53931948      94.82347141      86.04136854
H      65.44705767      93.78601165      87.44543519
H      67.85834845      93.32302870      85.54059107
C      64.85179388      95.16929131      83.77558669
C      64.61557810      93.23043211      81.91042682
H      65.46595494      91.42196404      82.31104880
C      63.00175182      93.64050273      79.73157238
H      62.83356618      91.99077166      78.54293453
C      61.62603107      96.00832979      79.61062990
O      59.93283629      96.17273599      77.85318443
H      59.05789301      97.76010609      77.77570565
C      61.92649755      97.82813624      81.41720825
H      60.77943368      99.50621320      81.22445617
C      63.65370740      97.52389030      83.48834829
H      63.75008344      98.83913981      85.04359305
C      70.05043097      95.82313663      88.85328130
O      72.20660869      95.28645434      88.15408256
N      69.25107674      94.98220842      91.22866727
H      67.43504975      95.36582286      91.67653241
C      70.93860234      94.61371177      93.34894019
H      72.71683480      95.51889069      92.83304491
C      70.03342343      96.21997914      95.61094259
H      71.00852221      95.64361263      97.33059354
H      67.99629847      95.96486610      95.77534878
C      70.62679750      98.96197202      95.37661653
C      68.64636432     100.60792364      94.62072600
H      66.82844761      99.84069476      94.10294099
C      68.92982327     103.24976104      94.93442057
H      67.35001207     104.51587767      94.67552807
C      71.21639211     104.37792764      95.51078710
O      71.32599623     106.89693281      95.72432617
H      69.80476655     107.78321446      95.29346857
C      73.33666503     102.86425687      95.88306318
H      75.12434612     103.79589194      96.21943446
C      73.04375745     100.11281535      95.70164945
H      74.71616524      98.96575148      95.93975497
C      71.32599623      91.78668122      94.02546221
O      69.36823977      90.65473515      94.50356297
N      73.64469042      90.85315642      93.96499097
H      75.06198515      92.05880181      93.53980255
C      74.29286654      88.17919369      93.92719645
H      72.54675943      87.19842572      94.41096638
C      75.34355437      87.26834560      91.36661729
H      77.37123071      87.55747372      91.14929877
C      74.90702760      84.41863833      91.10016588
H      72.88124099      84.05581086      91.00756929
H      75.82165513      83.50590051      92.70265380
H      75.75929416      83.92353003      89.29169780
O      74.12468090      88.35871769      89.22555738
H      74.47994945      90.13506041      89.15941696
C      76.15802641      87.64251142      96.02101320
O      77.51296018      89.34893428      96.92997156
N      76.14857778      85.30869942      96.98099417
H      74.85600499      83.96132456      96.58226192
C      78.17247466      84.49989656      98.71198347
H      79.86377971      85.64129125      98.43608343
C      77.42414304      85.25767681     101.39539483
H      76.80431281      87.22299216     101.36326949
C      75.60433661      83.59660738     102.83158683
H      74.30609463      82.69520793     101.50877841
H      74.61223029      84.51879381     104.38116241
H      76.76084911      82.10750305     103.65928696
C      79.88645643      85.58270973     103.02244919
H      81.16202169      86.93953323     102.14183673
H      80.68392093      83.79880809     103.66873559
C      79.29308237      86.97165858     105.54712354
H      80.96737988      87.75400527     106.45041272
H      78.23861509      85.81136661     106.88316005
H      78.14223904      88.60249237     105.03500771
C      78.92269601      81.73333723      98.39450945
O      77.71516090      80.26690962      96.98099417
N      81.00517441      80.90374737      99.74944322
H      82.10310540      82.18309210     100.64139404
C      81.75161630      78.28458670      99.82125282
H      80.23983525      77.16397901     100.65840157
H      83.15379323      77.97467160     101.29523934
C      82.58309588      77.18476600      97.22665859
O      83.56575356      78.56426620      95.51645628
N      81.96704510      74.83394646      96.70509413
H      81.43414228      73.73979492      98.17152174
C      81.85555125      73.83428124      94.08404373
H      83.34843504      74.71111425      92.96721548
C      82.56797807      71.09228837      93.83648958
H      81.32453815      70.01514436      95.07615004
C      82.26940131      70.12474848      91.13796041
H      80.84454767      70.96756643      89.91530748
H      82.11444375      68.07061598      91.17008576
H      84.01739815      70.62174651      90.16853081
C      85.24005108      70.52537046      94.81914727
H      85.29674286      71.20756167      96.76178592
H      86.68002253      71.61196309      93.82326150
C      86.12255326      67.79093649      94.81158836
H      87.70803364      67.55850015      96.10605088
H      86.45703482      67.09740694      92.90107506
H      84.65801537      66.94244937      95.98321867
C      79.38567896      74.43332448      92.80847847
O      77.55831361      72.95366879      92.91808259
N      79.10977892      76.69532689      92.01101396
H      80.63856750      77.81404486      92.24534003
C      77.02163134      77.66475648      90.46143839
H      76.94982174      76.50068506      88.76257443
H      77.41280469      79.62629239      89.97577873
C      74.42703711      77.84239075      91.69920912
O      72.59967177      77.61184415      90.20821506
N      74.14924734      78.00868666      94.20120676
H      75.57977016      77.81026540      95.44842613
C      71.72283876      78.08994490      95.40496242
H      70.39436116      76.70477551      94.66041026
C      71.98929017      77.24901669      98.12805804
H      72.81888002      78.80426144      99.19764313
H      73.17036911      75.57660891      98.35293547
C      69.36068087      76.88240978      99.22598903
N      67.79598748      74.84717455      99.15795888
H      68.22306563      73.13508250      98.42852452
C      65.53776454      75.51613767     100.15006519
H      63.80488551      74.45978066     100.37116317
N      65.74563443      77.96333323     100.91918380
H      64.60423974      78.58694291     102.31569155
C      68.14369712      78.81182035     100.48076730
H      68.87880066      80.64485487     100.99477286
C      70.65703312      80.87729121      95.11961375
O      72.13668882      82.64985449      95.52590491
N      68.37424373      81.13807345      94.35427459
H      67.55221279      79.44298894      94.04058002
C      66.98340517      83.60983545      94.11616908
H      68.33266975      85.10082952      93.67775257
C      65.24107750      83.42464229      91.89952011
H      63.50441902      82.64040587      92.67619763
H      66.12924887      82.06781879      90.62962403
C      64.73841031      85.95120637      90.43876167
H      64.55132740      87.51967921      91.76345982
C      67.05521477      86.48221946      88.81926622
H      68.54998828      86.69575853      90.22144315
H      66.92293392      88.22454711      87.73078387
H      67.69961144      84.92130552      87.63818728
C      62.44995174      85.85483032      88.82115595
H      62.02098387      87.70298265      88.01802227
H      60.80966930      85.45420834      89.99656571
H      62.53687915      84.40352051      87.35850778
C      65.73240635      84.47344039      96.63328453
O      64.85746306      82.96165933      98.07325598
N      65.52453645      87.03401953      96.76745509
H      66.43727426      88.19809095      95.56180971
C      64.20172803      88.27556972      98.90851501
H      63.30032858      86.84504691     100.08203505
C      66.27664752      89.74199735     100.36738372
H      65.19572407      90.55457965     101.91884902
H      67.16481889      91.18007907      99.18819450
C      68.32322112      87.85794021     101.36515921
H      68.61990815      86.11372282     100.31258166
C      70.89513863      89.06358560     101.69397159
H      70.74396053      90.43552691     103.22464991
H      71.30520924      90.16529603     100.00077682
H      72.17070389      87.53857647     102.23254359
C      67.60323540      86.89606951     103.92573837
H      69.11123699      85.58270973     104.42273639
H      65.86090774      85.81325634     103.75188355
H      67.24985658      88.29446698     105.39594544
C      62.21373595      90.05947136      98.03357172
O      60.06511713      89.51900964      98.70442457
N      62.69750589      91.76211478      96.25533926
H      64.37936231      92.16084702      95.45031585
C      60.73030080      93.45908900      95.19898225
H      59.15048960      92.21564908      94.74922739
C      60.04433014      95.50188314      97.27012229