 %block lattice_cart
   142.669   0.000   0.000
   0.000 146.65   0.000
   0.000   0.000   162.396
 %endblock lattice_cart

 %block positions_abs
N      91.85031372      43.18008586      76.63053150
H      92.16211856      41.74578358      77.84940497
H      93.49815506      43.66952498      75.80094165
H      90.56152037      42.85316321      75.26236965
C      91.07552593      45.37405811      78.30860847
H      92.30006858      45.51578758      79.96022927
C      91.34197734      47.90062219      76.85540893
H      89.77917368      49.16862855      77.29382544
H      91.50260408      47.71353928      74.80883534
C      93.73437085      49.26878403      77.68688851
H      95.44268344      48.11794072      77.61696864
H      93.48870643      49.70153136      79.68432922
S      94.49026138      52.25833106      76.07495197
C      91.61787738      53.98743065      75.98991428
H      92.25471515      55.93384874      75.76314713
H      90.34042239      53.63594154      77.56783575
H      90.57285873      53.37137986      74.32506540
C      88.26361318      45.01689984      79.14197777
O      86.90112050      43.33126396      78.32939546
N      87.38489044      46.62883637      80.93343832
H      88.73037558      47.54535364      81.93121381
C      84.75061196      46.95953848      81.76302817
H      83.55252548      45.88995338      80.47423482
C      84.46148383      45.63295061      84.27447444
H      85.88255802      44.19108943      84.65997861
H      82.53396300      44.90918543      84.33872513
C      84.76572977      47.50377966      86.59883780
O      82.93269525      48.39573049      87.64763591
N      87.02962189      47.86660711      87.50212698
H      87.18268973      49.14784155      88.90997308
H      88.47715225      47.21087208      86.44388025
C      83.81330771      49.77145124      81.63263705
O      85.31186068      51.54590425      81.37752400
N      81.36044295      50.04924100      82.09939945
H      80.33054211      48.44297364      82.01436177
C      80.22471744      52.55312836      82.05215629
H      80.83320931      53.37704904      80.26447520
C      77.33910536      52.37171464      82.18443714
H      76.80053336      51.10937746      80.64808964
C      76.43581618      51.06213431      84.65808888
H      77.47894511      49.31035801      84.94343755
H      74.50073644      50.39695065      84.41998336
H      76.93092448      52.09770432      86.36829119
C      75.98795105      54.84347666      81.96522888
H      76.49250797      56.09447549      83.52236337
H      74.02452541      54.23309507      82.08617137
C      76.56242785      56.21919741      79.48968741
H      75.53063728      57.99931960      79.38764219
H      76.02952503      55.05890546      77.87397142
H      78.54286102      56.73698242      79.25725108
C      81.29052308      54.40128071      84.08739153
O      81.58909984      56.66517282      83.41275924
N      82.28073967      53.69641278      86.21333364
H      81.81397727      51.91629061      86.71600084
C      83.59032000      55.27811372      88.08416269
H      82.71915617      57.11870715      88.38084972
C      83.69425495      54.20474916      90.76568432
H      85.03596063      55.22520137      91.94676327
H      84.43313794      52.28478723      90.64852129
C      81.23761074      54.18396218      92.23589140
C      80.49116885      56.27777894      93.73255464
H      81.61366628      57.94073808      94.10483072
C      78.01562738      56.47808992      94.64718217
H      77.50540128      58.13915936      95.71676726
C      76.30164562      54.44096495      94.34293623
H      74.39680149      54.76032870      95.00245072
C      77.25784713      52.20163927      93.15051893
H      76.10889353      50.53301095      92.91430314
C      79.58221049      52.13360912      92.02991123
H      80.00172974      50.54434930      90.82048639
C      86.35121015      55.88849532      87.19599132
O      87.06552669      58.07112920      87.58338521
N      87.70614391      54.24632314      85.96200004
H      87.02017326      52.51155440      85.55948833
C      90.08341962      54.96819860      84.61462518
H      91.24749102      55.90361312      86.03191991
C      91.32685953      52.51911329      83.59417297
H      92.59108643      53.05957503      82.06160493
H      90.05129427      51.27189393      82.56805158
C      92.99926732      51.17929734      85.47067119
H      91.70480479      51.28134257      87.06937966
H      94.66978538      52.27344887      85.97522812
C      93.21658584      48.42407637      84.73178821
O      91.30796227      47.11260631      84.42943200
O      95.34441767      47.39606527      84.51257995
C      89.66579010      57.00532356      82.58883857
O      90.94135536      58.93473412      82.31104880
N      87.65134185      56.74454133      81.12052122
H      86.40223276      55.40850482      81.66665213
C      86.91056914      58.45852310      79.11363188
H      88.55085158      58.48875872      77.86830224
C      84.84131882      57.26988524      77.58862274
H      83.07253499      57.27555442      78.64120030
H      85.41390590      55.34803358      77.11808089
C      84.49927836      58.74765122      75.15276553
H      86.15089916      58.81946082      73.92255370
H      83.86810977      60.67328233      75.52504161
S      81.83098481      57.37382019      73.28193648
C      82.73049453      58.65694437      70.33207370
H      81.26784637      58.18829223      68.96013240
H      84.56352906      57.90294357      69.76893526
H      82.97993841      60.69784877      70.41144221
C      86.22837794      61.06256595      79.92054501
O      87.32252947      62.77654773      78.93032843
N      84.54652152      61.46885711      81.84239667
H      83.73771866      59.93439935      82.64175090
C      83.77740291      63.97085476      82.66631735
H      83.12355761      65.12547754      81.09217533
C      81.41146557      63.48330536      84.21778265
H      80.95982098      65.07445492      85.44610475
H      82.02940607      61.89593526      85.37618488
C      78.86789395      62.55167029      82.67198653
H      79.66346873      61.24020024      81.29626577
C      76.67014225      61.34602490      84.21211347
H      76.22605656      62.63292852      85.75790959
H      77.17469917      59.65849930      85.28169856
H      75.03174953      60.69406933      83.14630783
C      77.58665951      64.49241921      81.03359381
H      77.04997724      66.14404002      82.14286316
H      76.00306886      63.67794717      80.00180325
H      78.89623984      65.53554813      79.83550733
C      85.84476350      65.43539264      84.09306071
O      85.95814707      67.69172586      84.06093537
N      87.45670004      64.17872465      85.56515751
H      87.35276509      62.27577025      85.44421503
C      89.66201065      65.06122683      86.89930429
H      89.39366951      66.55600035      88.29203258
C      91.04340058      62.76520937      88.23534079
H      92.97470087      63.24331012      88.76446416
H      91.33630816      61.14004474      87.00134951
C      89.35398526      62.22852710      90.69009527
H      87.41323634      61.58979960      90.44443085
H      89.21981469      63.89526570      91.89385093
C      90.61254298      60.06101101      92.05825712
H      92.56085081      60.62225972      92.42108457
H      90.80718479      58.39616213      90.86017064
N      89.61665722      59.20118553      94.53379859
H      88.43179882      57.71019148      94.42230474
C      90.04751482      60.09502609      96.79958044
N      91.43268420      62.02254693      97.35704970
H      91.41567667      62.29466752      99.24677602
H      92.24715624      63.37937041      96.28935434
N      89.01383452      59.16528073      98.75544718
H      89.56752433      59.78511097     100.47320839
H      87.75905625      57.74987574      98.49466494
C      91.51961161      66.12136329      84.84517179
O      93.28083654      67.46495871      85.65964383
N      91.22859376      65.49586388      82.38474813
H      89.68657709      64.57367745      81.74035145
C      92.71580837      66.62214076      80.30604918
H      94.26349422      67.69172586      81.14130821
C      93.80618045      64.51131648      78.45033794
H      92.29817885      63.17716970      78.01381116
C      94.37687780      65.77176393      75.84629508
H      92.64588850      66.53710308      75.03371277
H      95.30851287      64.49241921      74.52915584
H      95.65811224      67.35346485      76.16187938
C      96.13999245      63.09402174      79.43488535
H      96.13432327      63.12425736      81.49657676
H      97.78972352      64.22974725      78.94922569
C      96.67667472      60.32935215      78.56372152
H      95.12898887      59.03111017      78.97379213
H      98.39254621      59.63015341      79.46134152
H      96.91855969      60.20840967      76.52092738
C      91.10576155      68.61202257      78.93032843
O      91.32496980      70.94205512      79.23079491
N      89.01194480      67.79755053      77.89664813
H      88.61888172      65.94183929      78.09884885
C      87.41512606      69.07122607      76.05416498
H      88.78706737      69.64381314      74.62931134
C      85.71437238      67.07756482      74.82017369
H      84.12511255      66.85268738      76.11274649
H      86.60254375      65.21996384      74.74836409
C      84.96604076      67.82778615      72.14243151
O      86.73860404      68.34179171      70.63254019
O      82.69081028      67.98274371      71.70212528
C      85.99972105      71.42204560      77.14075761
O      85.60665798      73.25508012      75.80850056
N      85.50083331      71.49196548      79.62385798
H      86.14711971      69.97451524      80.58383895
C      84.57864687      73.71806307      81.04115272
H      84.08353857      75.30921263      79.82983815
C      82.07286977      72.97918008      82.21278303
H      82.30530611      71.49385520      83.62251886
H      80.72171546      72.58044784      80.71045061
C      80.80675315      75.32622016      83.45622295
H      81.90468413      75.83644628      85.12107183
H      78.99828506      74.57032965      84.09872989
C      80.18314346      77.45972117      81.71200556
O      78.18759248      77.51641297      80.48935263
O      81.56831285      79.39291119      81.65531377
C      86.68947116      74.62891115      82.95544547
O      87.32819865      76.88146492      83.27291949
N      87.94802888      72.80532526      84.20833402
H      87.21292535      71.06299760      83.94566206
C      89.60342913      73.18327052      86.32860694
H      90.96592180      74.53442484      85.58216505
H      90.49537995      71.38425107      86.79347961
C      88.37510703      74.40214400      88.81926622
O      86.08664846      74.79709679      88.95721624
N      90.06074290      74.82544269      90.64285211
H      91.89377742      74.62324197      90.15908218
C      89.30863183      75.40558867      93.23177716
H      87.26205823      75.64558391      93.25823333
C      90.07019153      73.01886433      94.97788428
H      92.01471991      72.51808687      94.52623969
H      88.68880160      71.65637166      94.28813417
C      89.90011616      73.34956644      97.80113539
H      90.98292934      75.01063587      98.36238410
C      87.14111575      73.17949108      98.78379307
H      86.53073415      71.29732366      98.21120600
H      85.96192653      74.68371322      98.02034364
H      87.09954177      73.33444864     100.83792557
C      91.27772665      71.32189011      99.32236507
H      90.68813204      69.42460489      98.77623416
H      91.33252871      71.62613604     101.35760031
H      93.21280639      71.43338396      98.62316633
C      90.42734980      77.78097465      94.29569308
O      92.74982344      78.09088977      94.26545746
N      88.83053107      79.28519679      95.55047135
H      86.98237874      78.80898576      95.54669190
C      89.38800033      81.62089851      96.87139004
H      91.39677940      81.80987114      97.28524010
C      88.43746800      83.86967282      95.35771926
H      88.43368854      85.61766966      96.44809135
H      86.49104989      83.52196318      94.78135274
C      90.24404635      84.27596398      93.14296003
H      90.48971077      82.60922537      91.95810163
H      92.06574252      84.78052091      93.96499097
C      89.49949419      86.40946499      91.42141935
H      91.31363145      87.14645825      90.77891241
H      88.52250568      87.68314052      92.71399215
N      87.94991861      85.44570457      89.35027932
H      87.07875478      83.76384815      89.57515675
C      87.53795827      86.63245269      87.24890366
N      88.51116732      88.85855030      86.80292825
H      88.06708164      89.75239084      85.17776362
H      89.45414075      89.77128810      88.19187709
N      86.28695945      85.58932377      85.42153831
H      86.03184640      86.57009172      83.80204286
H      85.58965044      83.82242967      85.62562875
C      88.15400905      81.64924441      99.44708701
O      86.25861356      80.38690723     100.00266654
N      89.31997019      83.01551653     101.20264275
H      90.92812728      83.79786323     100.53367964
C      88.66612488      82.97961173     103.94463563
H      86.88789242      81.94782116     104.09014456
C      90.97726016      81.87790130     105.36004064
H      90.65033751      81.69270811     107.38393752
H      92.74037481      82.90024323     105.05390498
C      91.47614791      79.04898100     104.64761382
H      92.16589801      79.17181322     102.71064435
C      93.83263662      77.91514521     106.11971062
H      95.59008209      78.75040424     105.44696805
H      93.92334348      75.91014559     105.65294822
H      93.62098727      78.14569183     108.15494586
C      89.26138867      77.33121978     105.09925841
H      89.63744421      75.54164896     104.15250553
H      87.45858977      78.14947127     104.53234051
H      89.13666673      76.74729435     107.07024295
C      87.91968299      85.76695804     104.88193988
O      86.52884442      86.04852726     106.73765112
N      88.64911734      87.54519050     103.28323142
H      89.75082778      87.01606714     101.81869353
C      87.41134661      90.09443131     103.26055471
H      86.78017802      90.63300330     105.14650157
C      89.45603048      92.08242338     102.53112035
H      88.45825499      93.86065584     102.25144085
H      90.58608682      91.69125003     100.85493311
C      91.37788214      92.83264473     104.58336312
H      92.49471039      91.13944995     104.93674195
H      90.52372585      93.08775778     106.44096409
C      92.91611936      95.34220127     103.83314178
H      94.01405035      95.94880342     105.46397559
H      91.50260408      96.75571655     103.33047458
C      94.53939426      94.85087243     101.52956540
H      93.80429073      93.13311121     100.66029130
H      96.39888495      94.61465664     102.38183197
N      94.64899839      97.01271933      99.67574389
H      92.87454538      97.07130085      98.97465543
H      96.04739586      96.65934051      98.42474507
H      95.32929986      98.54906682     100.58092279
C      84.86021609      90.38544915     101.65995652
O      84.39534341      88.91902153      99.95920284
N      83.60921727      92.51139125     102.24955113
H      84.01361870      93.68302157     103.70086094
C      81.72516013      93.53751264     100.57903307
H      80.41935925      92.07486447      99.94975421
C      80.12834140      95.41968006     102.06435795
H      81.30753062      96.96169672     102.74654915
C      77.96082532      96.47603706     100.32392002
H      76.67203197      97.66278518     101.40484347
H      76.77407719      94.97937382      99.55102195
H      78.75073092      97.54751188      98.75166772
C      78.65435487      94.34253605     104.46053091
H      79.98283247      93.20492081     105.54523382
H      77.17847862      92.96114612     104.05990894
C      77.64146157      96.37210211     106.16506405
H      75.96905378      97.30373718     105.40728380
H      79.25339812      97.61554202     106.47686889
H      76.88368132      95.54818144     107.89605335
C      82.96482059      94.67701761      98.26789779
O      84.65990510      96.35509457      98.44553206
N      81.92358140      93.96648052      96.06636663
H      80.57809626      92.61343648      96.11360979
C      82.56986780      94.93968957      93.66074504
H      83.71504194      96.62532545      93.95176289
C      84.33487217      93.07263998      92.21888386
H      86.04507448      92.76083513      93.32626348
H      84.87911335      93.91923737      90.42364386
C      83.33709668      90.43269231      91.54425156
C      82.20137116      89.99994498      89.18020395
H      82.04452388      91.49471850      87.80070374
C      81.39256830      87.58298503      88.38462917
H      80.57809626      87.35432814      86.52702820
C      81.66657862      85.65924364      90.10239039
O      81.00139496      83.29708575      89.38618412
H      80.31542430      83.12701038      87.71566605
C      82.38089516      86.13923413      92.68186681
H      82.40357188      84.64824006      94.07648482
C      83.47126725      88.52595846      93.36027855
H      84.06275158      88.98138250      95.25945350
C      80.14156948      95.49904855      92.03935986
O      78.09121643      94.45591964      92.37195169
N      80.52707365      97.41334131      90.34805481
H      82.32420337      98.05584826      90.41041578
C      78.80931243      98.13332703      88.30148121
H      76.92147585      98.43946270      89.06871009
C      79.29686182     100.97358568      87.52669342
H      78.82631997     101.41767137      85.57082669
H      81.32264843     101.34586177      87.51724479
C      78.17247466     103.02960791      89.30114643
H      79.17402961     102.96157777      91.10016588
H      76.25818191     102.33040918      89.59216428
C      78.16113631     105.82451313      88.22967161
H      77.35044372     105.74703435      86.33994530
H      80.15479757     106.30639334      88.03125035
C      76.88557105     107.74825451      89.94932256
H      77.75673488     109.53782533      89.42397864
H      77.55642389     107.46290584      91.87684340
N      74.19460078     107.96935249      89.72633485
H      73.79586852     108.67988959      88.00101473
H      73.60689589     109.14665199      91.10772479
H      73.47839450     106.22135565      90.00223489
C      78.57309664      96.16234249      86.13207540
O      80.41746952      94.93213066      85.35728762
N      76.47927989      96.21336510      84.79981835
H      75.12812557      97.15444881      85.76546850
C      75.87645719      94.95858683      82.40364539
H      76.94037311      93.19925163      82.30915907
C      73.07021362      94.31607988      82.43388101
H      71.98929017      96.01305411      81.99546451
H      72.40691968      93.76050035      84.30471006
C      72.41825804      92.40367686      80.41376358
O      71.39969556      93.28806877      78.44655849
O      72.94927114      90.08120321      80.85973899
C      76.83643816      96.56107474      80.13219436
O      77.82854448      98.75882644      80.52147798
N      76.48683879      95.52928418      77.78515428
H      75.65913867      93.81341268      77.66043234
C      76.80053336      96.99571179      75.43433475
H      78.60144254      97.98970783      75.51937243
C      76.87801214      95.39511361      72.98713917
H      74.95993993      94.94346902      72.38620620
C      78.64490624      96.71036313      71.05016970
H      79.01529260      95.34598072      69.55161673
H      80.38345445      96.99382207      72.11597534
H      78.03830410      98.60197916      70.50214907
O      78.00239930      93.09531669      73.19311934
H      77.25784713      92.08998229      71.87786983
C      74.78041593      98.95724771      75.13953744
O      75.23772970     100.77894387      73.86397218
N      72.61478958      98.67567849      76.35463146
H      72.60156149      96.95413781      77.18044186
C      70.44160432     100.26304860      76.49447121
H      70.56821598     101.60664400      74.93544700
C      68.06243889      98.77583398      76.17699719
H      66.38436192      99.94179512      76.42644106
H      67.85645872      97.35098034      77.64909399
C      67.97929093      97.42467967      73.59374132
H      69.25863565      95.81274312      73.49547555
H      68.50085540      98.77394425      72.12731370
C      65.38469670      96.17935003      72.99469808
O      64.13747734      95.20047180      74.69734148
O      64.75163839      95.87888354      70.74214431
C      70.46239131     101.86931595      78.96434350
O      68.79565270     103.58518745      79.31961205
N      72.32188200     101.39877411      80.65564855
H      73.46516642      99.88510333      80.44021975
C      72.91147661     103.19968328      82.88741533
H      72.05921004     105.06106370      82.67954543
H      74.92214541     103.47747305      83.23701469
C      71.49607160     102.31718109      85.32705200
O      72.00440798     103.19023465      87.46055300
N      69.95783438     100.36887326      85.13807936
H      69.66303708      99.98714855      83.29370648
C      68.79754243      99.01960868      87.26213174
H      67.73740596     100.35186573      88.41864424
C      67.13647300      96.94279946      86.11884732
H      66.04232146      95.89211163      87.51535507
H      68.49707594      95.57463762      85.39697187
C      65.15981927      97.84419891      84.25935663
C      64.61557810      96.30596169      82.18254741
H      65.58689742      94.53339841      81.89719874
C      62.72018260      97.07697003      80.44777865
H      62.24964075      95.86187601      78.87741609
C      61.44083789      99.35597996      80.79737802
O      59.58890610     100.10998076      79.09473461
H      59.06734164     101.84474951      79.15142640
C      62.39325995     101.07563090      82.52836733
H      61.44839679     102.88409899      82.50191116
C      64.19983831     100.31974038      84.33116623
H      64.84045553     101.71624812      85.67476164
C      70.65514339      97.60987285      89.13674024
O      72.89446907      97.19035360      88.46399767
N      69.88602478      96.84453369      91.47622142
H      68.04354163      97.14877963      91.88251257
C      71.66992642      96.03384110      93.27146141
H      73.61445480      96.36832266      92.68564626
C      71.21828183      97.35287007      95.83582002
H      72.33888954      96.38910965      97.27201202
H      69.24162811      97.02216796      96.31014133
C      72.17826280     100.12509857      96.09093307
C      70.53798036     102.12820847      96.38195093
H      68.51030403     101.89388240      96.38384065
C      71.25229691     104.65477255      96.36116394
H      69.83122272     106.11742071      96.43486326
C      73.83744250     105.16688837      95.63550903
O      74.61034056     107.54038462      95.43519804
H      73.34989311     108.81972933      95.69031110
C      75.56465235     103.14110176      95.35960899
H      77.54697526     103.44345798      94.98544318
C      74.73317278     100.65044248      95.75645152
H      76.09188599      99.17645596      95.38228571
C      71.48851270      93.26728178      93.76090053
O      69.44193910      92.20525559      93.90451973
N      73.80342743      92.24682957      93.91963754
H      75.40213589      93.28995849      93.97254988
C      74.26263092      89.60877164      93.64940668
H      72.50329573      88.60910642      94.03491085
C      75.19426600      89.08531745      90.91875216
H      77.20115534      89.51806477      90.73544870
C      74.45538301      86.48316431      90.38018016
H      72.53920053      85.97293821      90.94142887
H      75.74795581      85.34743880      91.51401594
H      74.76151867      86.16569029      88.36951136
O      74.07365829      90.54040671      89.09516626
H      74.56876659      92.27328574      89.29547725
C      76.23172574      88.70737218      95.49944874
O      77.77374241      90.35143408      96.26667762
N      76.29030726      86.38300882      96.38195093
H      74.90513787      85.22271686      95.76590015
C      78.17058494      85.03563396      97.89184225
H      80.01306809      85.95404095      97.85593745
C      77.37312043      85.54397034     100.63950431
H      76.58321484      87.44314528     100.76800570
C      75.18859682      83.83565775     101.42563046
H      73.66736713      84.19281602     100.08203505
H      74.37034532      84.22305164     103.27567252
H      75.74039690      81.85144512     101.37649757
C      79.49339336      85.09232575     102.60104022
H      81.40390666      85.11689219     101.82625243
H      79.44615020      83.17425354     103.35126157
C      79.36300224      86.72693901     104.97075702
H      80.99761550      86.32442731     106.15561542
H      77.54130608      86.36789101     105.86270784
H      79.58787967      88.70926191     104.46997955
C      78.49939732      82.05742529      97.30791682
O      76.98761627      80.93492786      95.93408579
N      80.37778527      80.75351413      98.52868002
H      81.63823272      81.74939990      99.55858086
C      80.88990110      78.14002264      98.20553682
H      79.16647071      77.22728483      98.86694103
H      82.31097529      77.27263826      99.42063084
C      81.44359091      77.28397662      95.46354394
O      82.93269525      78.53119599      94.15018415
N      80.34754965      75.16937289      94.63962327
H      79.14001454      74.22262000      95.77723851
C      80.31542430      74.58355772      92.06203657
H      81.84988207      75.45850100      91.00001039
C      80.72360519      71.64314358      91.44787552
H      79.03418986      70.75875166      92.22077358
C      80.71604628      71.28409558      88.51313056
H      78.86033504      71.76975524      87.76479894
H      81.23005184      69.34712611      88.04069898
H      82.13523074      72.46895398      87.60228248
C      83.35221449      71.03465171      92.79714011
H      82.93080552      70.05577348      94.56025476
H      84.44825575      72.67115469      93.39996280
C      85.02084282      69.08067470      91.38173510
H      86.57608758      68.62903011      92.65541064
H      86.06208202      69.76664535      89.74145266
H      84.17424544      67.27031689      90.88095763
C      77.74350679      75.58133322      91.00190011
O      75.83110376      74.31899604      91.02457683
N      77.59799787      78.03041852      90.29892192
H      79.18725770      78.99606866      90.72411035
C      75.74417635      79.38157284      88.87784774
H      75.38701808      78.60678504      87.00323923
H      76.63045799      81.21082790      88.53958673
C      73.24217871      79.92392428      90.31215001
O      71.47906406      80.71571961      88.99312104
N      72.92092524      79.38724201      92.80847847
H      74.58388440      79.34566803      93.74389299
C      70.56065708      79.76707700      94.39584857
H      68.90525683      78.77686041      93.67019367
C      71.14647223      78.76552205      97.11516474
H      72.48628819      79.93148319      98.15829366
H      72.15936554      76.99484850      96.84115442
C      68.79565270      78.47828365      98.59104099
N      67.43504975      76.26541414      98.79135198
H      67.92070942      74.56655018      98.06569707
C      65.36579944      76.73406627     100.31258166
H      63.95039443      75.40180922     100.93808107
N      65.36768917      79.26252007     100.98532422
H      64.10157254      79.98061608     102.21742578
C      67.41804222      80.39257641      99.85715762
H      68.02653409      82.33710478      99.94975421
C      69.76697202      82.59977674      94.27490609
O      71.24473800      84.21549274      95.14229046
N      67.43127030      83.10244394      93.35271965
H      66.33900849      81.60767043      92.88973670
C      66.40703864      85.65546419      93.29224840
H      67.95850394      86.84221231      92.63840310
C      64.33778833      85.44570457      91.19843165
H      62.88458879      84.10588861      91.78235708
H      65.17682681      84.58020992      89.53169304
C      62.95828812      87.97226865      90.78269186
H      62.10413183      88.60532696      92.54769624
C      64.86313224      90.04151896      89.94743283
H      63.84645949      91.76494936      89.45988344
H      65.86468719      89.37066612      88.27502504
H      66.09145435      90.46292793      91.54614129
C      60.91360425      87.79652410      88.58116071
H      59.26387318      86.83087396      89.35027932
H      61.65248724      86.74583627      86.97111389
H      60.54321789      89.76183947      88.09739077
C      65.46217548      86.66835749      95.77534878
O      64.25841982      85.35877716      97.28146065
N      65.95161460      89.03996402      96.38195093
H      67.15348053      89.96781964      95.22732815
C      65.09556858      90.34198545      98.64962250
H      64.27164791      89.10232498     100.07636587
C      67.51063881      91.65912469      99.73432541
H      66.59034209      92.71359197     101.24421673
H      68.11157177      93.18035437      98.48143686
C      69.74429531      90.17568953     100.75855707
H      70.67970983      89.11933252      99.25811437
C      71.79086891      91.76683909     101.97176136
H      73.35178284      90.49127382     102.40261896
H      71.11623661      92.69280498     103.68385340
H      72.66014301      93.10476532     100.66973993
C      68.87502120      88.30486048     102.78812313
H      67.60323540      86.96126508     101.88483395
H      67.96039367      89.27429008     104.35848569
H      70.42270706      87.27118019     103.66684586
C      63.11513540      92.46792755      98.11671968
O      60.94383987      92.15234325      98.72332183
N      63.68205330      94.46914771      96.60115918
H      65.45272685      94.49938333      95.88495291
C      61.76776054      96.38533019      95.88873236
H      59.96496164      95.48393074      95.47488230
C      61.17249675      98.31096132      98.03357172