 %block lattice_cart
   142.669   0.000   0.000
   0.000 146.65   0.000
   0.000   0.000   162.396
 %endblock lattice_cart

 %block positions_abs
N      87.64567267      42.58387721      79.49157714
H      86.32664371      41.47082841      80.30226973
H      89.11965920      41.69381611      78.67143592
H      86.71214787      43.49472529      78.09884885
C      88.44691663      44.66446588      81.03170409
H      90.08341962      44.01440003      82.09939946
C      89.16879208      47.03607240      79.69377786
H      87.43213360      47.67102044      78.78104005
H      90.56529983      46.69970112      78.21790161
C      90.25916416      49.02028503      81.54004047
H      91.94857949      48.29085067      82.46600636
H      88.99304753      49.40578920      83.11985166
S      91.12654854      51.85865395      79.86007377
C      93.55484685      52.89989315      81.90853710
H      94.80017649      51.30874359      82.30915908
H      92.57029944      53.51972338      83.60740105
H      94.71135936      54.38332831      81.07327807
C      86.34554097      44.96871181      82.84584135
O      84.12889200      44.95359400      82.07294329
N      86.92379722      45.08020567      85.34216981
H      88.73982421      44.94225565      85.90719798
C      84.96793049      45.44492285      87.30748517
H      83.38245011      44.15612950      87.03914404
C      85.99783133      44.82320289      89.99467599
H      87.90078572      45.58287287      90.19498698
H      86.35121015      42.80686491      90.21766370
C      84.31408518      45.80586057      92.17353043
O      82.06909032      46.12711404      91.93164546
N      85.44414152      46.21971063      94.25600883
H      84.34243108      46.26695379      95.81314331
H      87.28095549      45.72460234      94.42986365
C      83.86433032      48.12266503      87.14307898
O      85.35532438      49.95192010      87.30559545
N      81.34343542      48.38344726      86.98245225
H      80.05086262      46.97938061      87.01835705
C      80.04330372      50.92701888      86.83505360
H      80.60077298      51.64133543      84.98690126
C      77.11611766      50.53773526      86.82182551
H      76.82132035      49.01272612      85.46689174
C      75.79897842      49.31508233      89.01768749
H      73.91870073      48.66879594      88.48100521
H      75.74984553      50.49616128      90.70710281
H      76.70037787      47.61999783      89.76223965
C      75.72149964      53.00193837      85.95822059
H      76.56242785      54.53261668      87.05237212
H      73.73539728      52.91123151      86.48545423
C      75.94826680      53.60287134      83.15197701
H      77.93814860      53.82396932      82.67387625
H      74.74829059      55.17512363      82.57561049
H      75.07521324      52.00416288      82.18821659
C      80.95982098      52.94902603      88.72477991
O      81.56075394      54.99559963      87.91030787
N      81.16202169      52.30084991      91.05670218
H      80.86533466      50.54151471      91.73511393
C      82.29018830      53.86554330      93.10138605
H      81.03729976      55.47559011      93.38862445
C      82.27129104      52.34809307      95.47488230
H      83.41079601      53.42523706      96.81091880
H      83.09710144      50.46214621      95.42763914
C      79.70693243      52.12699509      96.65029207
C      78.15546713      50.04829614      96.07203581
H      78.66569323      48.57808907      94.75111712
C      75.86511884      49.65901252      97.26445312
H      74.67648099      48.10943695      96.67485851
C      74.92025568      51.50527513      99.01056023
H      73.09666979      51.39756073      99.92518777
C      76.43392646      53.72948300      99.51511716
H      75.70827155      55.17323390     100.76233652
C      78.77907681      53.91656591      98.32269985
H      79.62567420      55.76471824      98.50789303
C      84.96226131      54.94079757      92.44754075
O      85.65579087      56.98359171      93.02768672
N      86.50049853      53.45736241      91.18898302
H      85.78996143      51.79818271      90.56537334
C      89.05351878      53.98081660      90.64285212
H      89.84531410      55.56440725      91.69353995
C      90.75805191      51.64322515      91.38551456
H      92.64210904      52.20636359      90.77324323
H      89.99649221      50.20703315      90.12128765
C      90.88655330      50.80607640      94.17286087
H      92.25660488      49.29240562      94.42608419
H      88.97792972      50.09931875      94.48844516
C      91.29284446      53.09453496      95.90573990
O      93.38855094      54.11687690      95.68653165
O      89.80940930      53.57830490      97.66696482
C      89.32752909      55.08630649      87.90463869
O      91.23048349      56.44124026      87.50023726
N      87.52284046      54.57041121      86.25112816
H      86.08097929      53.46303159      86.82749469
C      86.94647394      56.07274363      83.92865453
H      88.59809473      56.11998679      82.69844270
C      84.90934897      54.74615576      82.39797621
H      83.16324186      54.73292767      83.49023802
H      85.41579562      52.75249450      82.48679335
C      84.38967424      55.99337512      79.80716144
H      86.23782657      56.33730531      78.96245378
H      83.59976864      57.87554253      80.07928203
S      82.49616847      54.44190982      77.43366519
C      84.52573453      51.85865395      76.72690755
H      83.97771390      50.59442705      75.19433951
H      84.74683251      50.78717913      78.47301466
H      86.28884918      52.73548696      76.12030540
C      86.18302451      58.80717760      84.65052998
O      87.51339183      60.66099912      83.95889015
N      84.31786464      59.18890232      86.23601035
H      83.20670556      57.72436443      86.74623646
C      83.27095626      61.74759175      86.55537410
H      83.35788367      62.74158779      84.75446492
C      80.52707365      61.70790749      87.61740029
H      79.85055163      63.64487697      87.79314484
H      80.47227159      60.88398682      89.50523688
C      78.71104666      60.40021689      85.89585962
H      79.47638582      58.58607963      85.28736775
C      76.16747505      60.08085314      87.40953039
H      74.54986932      59.40055167      86.33238640
H      75.72149964      61.99325617      88.02936063
H      76.68903951      58.75048581      88.89485528
C      78.25562262      61.76270956      83.48834830
H      77.59421841      60.43612169      82.05782548
H      80.02440645      62.66977819      82.95544547
H      77.01407244      63.35196939      83.90975726
C      84.93202569      63.63920779      88.10683940
O      85.24949971      65.86152593      87.33016189
N      86.33609234      62.72080080      89.92286639
H      86.34554097      60.82918476      90.16664109
C      88.32597415      63.87164412      91.34583030
H      87.56819389      65.53082383      92.30392155
C      89.24816059      61.77971709      93.31492512
H      90.03617646      60.19990590      92.25478866
H      87.64567267      61.08051836      94.40151775
C      91.35898488      62.57907133      94.97410483
H      90.70891903      64.20990513      96.05313855
H      92.86698648      63.27638033      93.75712108
C      92.41156243      60.49659293      96.63895371
H      93.78350374      61.05028274      98.07514571
H      93.67956879      59.40622085      95.43708777
N      90.62199162      58.72780910      97.73310524
H      90.11554496      57.20657942      96.69942495
C      89.08564412      59.13598998      99.64739800
N      88.99682699      61.24492455     100.87760983
H      88.17290631      61.06729027     102.58970187
H      90.10420661      62.76237478     100.54312827
N      87.63244459      57.39933150     100.54123854
H      86.45514510      57.72814388     102.00766616
H      87.85921175      55.84975592      99.44897673
C      90.36687856      64.82028673      89.58838483
O      91.56118559      66.70056441      90.17042054
N      90.53317448      63.96235099      87.13740981
H      89.25949894      62.69434463      86.49490286
C      92.39833435      64.96579566      85.26658076
H      93.00871595      66.81016854      85.95444113
C      94.74726416      63.31606459      85.05304168
H      96.04172668      64.35163461      83.83038876
C      96.05495477      63.03827482      87.62684892
H      97.90688655      62.22002333      87.24890366
H      95.01938475      61.80617326      88.91186281
H      96.58407813      64.75225658      88.63974222
C      94.37120862      60.81595667      83.86629356
H      92.61943233      60.22447234      84.77525191
H      95.78850336      59.42700783      84.41998337
C      93.96302774      60.69312446      81.06571916
H      92.14511102      61.32618278      80.33817453
H      94.21058188      58.73536800      80.47612455
H      95.38221220      61.84018834      80.10762792
C      91.33630816      65.85963620      82.65686872
O      92.58352753      67.02559734      81.10162396
N      88.82297217      65.35129983      82.18065769
H      87.97826450      63.92266673      83.12363112
C      87.43969250      66.53993768      80.20778342
H      88.67746324      66.66465961      78.56561125
C      85.35721411      64.65966000      79.39520110
H      83.73960838      64.95634703      80.63297184
H      85.88066830      62.67733709      79.60118127
C      84.77328868      65.13965048      76.67777466
O      86.27940055      64.32895789      75.13953744
O      82.75884043      66.19600749      75.96723757
C      86.13956080      69.02303805      80.93910750
O      86.05263339      70.75969653      79.31205314
N      85.24383053      69.38775523      83.28992703
H      85.38744973      67.93644542      84.52013886
C      84.86777499      72.00124672      84.44832926
H      84.28762901      73.26925308      82.93087903
C      82.49238902      71.82172272      86.11884732
H      83.10466034      70.48946567      87.56637768
H      80.90123946      71.09228837      85.03036497
C      81.70437314      74.30860255      87.22433722
H      83.24638982      75.03614718      88.38084972
H      80.06220098      74.03837169      88.43565178
C      81.12044771      76.30604326      85.13052046
O      78.92080629      76.43076520      84.38974775
O      82.82309112      77.88207501      84.49557242
C      87.28662467      72.88752836      85.63318766
O      88.11243507      74.95299922      85.14941772
N      88.41101183      71.39653430      87.31315435
H      87.58898088      69.72979569      87.74779140
C      90.22892854      72.39242007      89.17075532
H      91.08875401      74.09695320      88.39785726
H      91.60842875      71.00914041      89.81893144
C      89.04029069      73.43743872      91.51401595
O      86.71403760      73.68877232      91.84660778
N      90.75427246      74.16120390      93.20910045
H      92.55518163      74.49001628      92.66863872
C      90.05507372      75.17976638      95.73566453
H      88.02928711      75.01913964      96.07392554
C      91.52339107      73.67365451      97.73499497
H      93.53405986      73.76625110      97.29657846
H      90.94891427      71.70078024      97.84837855
C      91.27205747      74.34450735     100.61871732
H      91.52339107      76.35706587     100.97776532
C      88.70580913      73.63774971     101.64483871
H      88.27873099      71.67432407     101.19886330
H      87.43591305      75.00402183     100.77178515
H      88.66612488      73.92498811     103.68385340
C      93.21469612      72.69477628     102.29301484
H      95.13276832      73.04248592     101.62594145
H      92.80273578      70.69544584     102.02845315
H      93.01060568      73.26358390     104.26021993
C      90.58419709      78.09183463      95.77912823
O      92.45691587      78.99134435      94.81914727
N      89.21036606      79.39574578      97.47988192
H      87.63055486      78.52080250      98.10349160
C      89.92657233      81.63885092      98.75922663
H      91.98259456      81.67286599      98.85371295
C      89.42012568      84.22210679      97.52145590
H      90.79773616      85.49200287      98.37939164
H      87.53039937      84.74934043      98.14506558
C      89.74893806      84.68697946      94.69064588
H      88.10865562      83.82715399      93.79113615
H      91.58386231      83.84416153      94.28435472
C      89.83586547      87.38739836      93.86861493
H      91.70669452      88.14706834      94.27490609
H      88.58108720      88.48910880      95.07426032
N      89.18579962      87.78802034      91.34960976
H      89.34831608      86.20065024      90.30081165
C      89.04595987      90.00277958      90.15908218
N      89.35398526      92.10982442      91.47244197
H      89.94924905      93.75955549      90.72033089
H      89.29729347      92.16273676      93.37917582
N      88.73793448      90.21820838      87.79125511
H      89.27650648      91.81124766      86.88607621
H      89.26516812      88.75367049      86.68765494
C      88.81541326      81.68420435     101.42185101
O      86.69891979      80.89429875     101.80735517
N      89.96247713      83.19598540     103.18496566
H      91.39488968      84.34304927     102.65584229
C      89.14044619      83.34905323     105.81546468
H      87.55307608      82.06025989     106.06301883
C      91.41378694      82.55158873     107.43307041
H      91.20024787      83.32448679     109.33224535
H      93.19012967      83.27346418     106.67906961
C      91.59331094      79.62251294     107.65416839
H      92.12243431      78.85528406     105.81735441
C      93.77216538      79.29181084     109.60058649
H      92.95013443      79.03480806     111.47141554
H      95.26504917      80.70343639     109.44751866
H      94.66600593      77.47011467     109.24720767
C      89.14044619      78.39986002     108.28533697
H      88.42612964      79.51101909     109.86514817
H      89.57508324      76.41942684     108.64249525
H      87.88188846      78.40552920     106.65639289
C      88.15967823      86.00978788     106.60159083
O      87.06930615      86.02301596     108.71997403
N      88.39400429      87.97699297     105.18240637
H      89.12532838      87.49133331     103.48921159
C      87.38678017      90.56024884     105.38460708
H      86.44002728      90.56402829     107.21386215
C      89.58453187      92.53123339     105.64727904
H      90.65222724      92.67863204     103.89172330
H      90.96592180      91.82258602     107.00032308
C      88.74360366      95.17873995     106.23498392
H      87.93669052      95.23354201     108.12848969
H      87.36599318      95.55479549     104.74776932
C      91.00560606      96.94941351     106.41072847
H      92.08463978      97.03067174     104.65706245
H      92.10920622      96.30501683     108.02455474
C      90.12499360      99.74053927     107.09102994
H      88.35243031      99.64416323     108.13793832
H      89.68657709     100.61926201     105.28067214
N      92.15833911     101.13704702     108.29856506
H      93.84397498     100.84980862     107.45007794
H      92.28873022     100.53800377     110.10703314
H      91.95802812     103.02299388     108.51021441
C      85.45359015      91.10637975     103.29079033
O      85.72949019      90.21820838     101.15350987
N      83.47882615      92.36115802     104.07502675
H      83.39756792      93.11704854     105.82491331
C      81.25650801      93.08492320     102.55001761
H      80.57998599      91.23110168     101.96042300
C      79.37812005      94.34159119     104.25266102
H      78.59199391      92.99232661     105.59625643
C      80.42691816      96.53934290     105.97042224
H      81.90090468      95.93274075     107.27433340
H      79.01529260      97.37649165     107.21575188
H      80.89179083      98.20608150     104.85359399
C      76.98761627      95.23921119     102.63883475
H      76.52274359      93.77089385     101.27445235
H      77.48839374      97.09492243     101.89617231
C      74.52719261      95.67951742     103.97676098
H      72.92281497      95.80045991     102.69363681
H      74.29475627      97.45019098     104.99910292
H      74.32688162      94.33592201     105.52633656
C      82.03885470      94.61371178     100.11416040
O      83.61110699      96.34092163     100.41462688
N      81.07887373      93.96553566      97.93719568
H      79.67102763      92.68430122      98.08648406
C      81.50406216      95.02756185      95.55991998
H      82.11255403      96.98531831      95.75267207
C      83.46559807      93.57814176      94.16530196
H      84.93202569      93.31169035      95.58637615
H      84.21203996      94.72709536      92.62706474
C      82.76828906      90.92307629      93.04469426
C      82.46782257      90.48654952      90.43876167
H      82.77017879      92.07391962      89.19154231
C      82.47916093      87.97510325      89.37106631
H      82.56608834      87.89762447      87.33394134
C      82.67191302      85.87561731      90.93764942
O      82.77584796      83.48889298      89.88885132
H      82.12011293      82.27190923      91.06615081
C      82.61144177      86.37261533      93.61728133
H      83.04418910      84.69264864      94.69064588
C      82.65301575      88.81792118      94.63773354
H      82.96671032      89.20720480      96.61627699
C      79.21182414      95.12204816      93.92341700
O      77.27107521      94.06947060      94.60938765
N      79.23261113      96.58469633      91.93731464
H      80.62722915      97.84136433      91.60283308
C      77.01974161      96.41084151      90.03436024
H      75.35678246      95.55101603      90.89229599
C      76.20149012      99.15661384      89.24634437
H      75.05820570      98.79945557      87.57015713
H      77.88901572     100.31879552      89.01579776
C      74.56687686     100.29422908      91.34016113
H      75.40780507     100.28100100      93.22232853
H      72.82643893      99.19629809      91.42519881
C      73.91870073     103.08535484      90.75245624
H      72.45038339     103.49731518      92.13951536
H      73.06265472     103.24031240      88.88729637
C      76.26007164     104.82957223      91.16441658
H      77.94381778     103.91683442      90.40852605
H      76.54542031     105.16783324      93.17886483
N      75.91614145     107.17283286      89.88885132
H      77.39012797     108.38414743      89.87940269
H      74.32310217     107.89470831      90.65230075
H      75.62701332     107.02921366      88.00668391
C      77.78319105      94.89339128      87.78369620
O      79.70882216      95.60014892      86.64608096
N      76.24117437      93.00366496      87.05804130
H      74.58010494      92.78256699      87.97077911
C      76.64368608      91.58825996      84.65052998
H      78.63923706      91.09315166      84.55415394
C      75.06576461      89.00311436      84.53525667
H      73.03241909      89.31869865      84.42565255
H      75.28686259      87.92030118      86.27380488
C      75.73283800      87.32125794      82.43766047
O      74.02830486      86.18553243      81.31327331
O      78.03263492      87.07370379      81.90475764
C      76.15991614      93.30602117      82.31860771
O      75.08844132      95.35448450      82.59072830
N      77.12556629      92.56335873      80.06605394
H      77.62256431      90.72654476      79.94322173
C      77.00462380      94.22064871      77.74924948
H      78.59766309      95.51133178      77.93822211
C      77.49784237      92.85059713      75.22079568
H      77.86444928      93.97498429      73.53704953
C      80.05842153      91.49377364      75.49102654
H      79.72771942      89.85538093      76.69478220
H      81.68169643      92.61627107      76.07873142
H      80.38156473      90.50733650      73.71279408
O      75.69693320      90.83614888      74.79560726
H      74.62356865      91.41251541      73.45201185
C      74.41947821      95.31480025      77.28626654
O      74.45349328      97.41050673      76.25636570
N      72.17070390      94.18096446      77.87964060
H      72.37101488      92.61060189      78.94544624
C      69.62524255      95.25243928      77.44311382
H      69.21139249      96.07824968      75.60252039
C      67.76386213      92.95264235      77.35240696
H      65.82500294      93.64428218      77.42610628
H      68.37802319      91.84904219      78.98324076
C      68.12291013      91.11015920      74.99402852
H      67.25174630      89.27523495      75.34173816
H      70.07121796      90.45442417      74.84851959
C      67.43693948      92.20431073      72.41266237
O      68.60479034      93.96553566      71.29961358
O      65.34690218      91.40117705      71.61519787
C      68.75029927      97.21586492      79.53504085
O      66.65081334      98.39316441      79.33472986
N      70.31121320      97.69018622      81.40586990
H      72.07621758      96.98342858      81.25658152
C      70.09200495      99.68006803      83.26536059
H      68.77486571     101.20507716      82.83072354
H      71.97606209     100.50965788      83.29559621
C      69.01486095      98.78811721      85.81460139
O      68.65770268     100.29611881      87.55314959
N      68.27408824      96.33525245      86.23223090
H      68.65392323      94.89717073      85.03603415
C      67.20261342      95.34125641      88.51313056
H      66.03854201      96.78500732      89.41264029
C      65.27698231      93.26633692      88.07849351
H      64.24141229      92.76366972      89.78491637
H      66.45617152      91.63550311      87.63440783
C      63.40048408      93.51200134      85.92042606
C      62.72963124      91.35582362      84.45588817
H      63.71039919      89.57948089      84.66753751
C      61.05533372      91.64684147      82.43010156
H      60.97596522      90.20498029      80.98824038
C      59.55111158      93.89183633      82.12774535
O      57.72185651      94.13561103      80.23046013
H      56.47274741      95.43763246      80.41376358
C      60.07267604      96.00455035      83.76802779
H      59.19206358      97.83380542      83.55448872
C      62.18916951      95.82502635      85.43854585
H      62.75797713      97.40105809      86.60450699
C      69.25485619      94.48521039      90.36317262
O      71.29765034      93.64617191      89.69798896
N      68.63880542      94.91984745      92.86705999
H      66.87758049      95.41684547      93.40941144
C      70.41136870      94.47954121      94.90796440
H      72.26330048      94.94441389      94.13506634
C      70.05798988      95.94407911      97.31169627
H      71.56221202      95.46975780      98.63639442
H      68.40258963      95.39416875      98.40395808
C      70.24318306      98.71252816      97.00178116
C      68.07188752     100.09391809      96.37250230
H      66.31444205      99.16228302      95.91707826
C      68.30243413     102.67339451      96.06447691
H      66.56577565     103.62014739      95.55803026
C      70.58522352     104.09446870      96.76178592
O      70.78553451     106.68906292      96.57848247
H      69.22840003     107.46196099      96.05691800
C      72.67715055     102.64315889      97.50066891
H      74.29853572     103.72975152      98.10160187
C      72.51085463     100.06368247      97.57625796
H      74.21160831      98.99976656      97.95420322
C      70.73829135      91.71298189      95.47866175
O      68.94872053      90.22954674      95.38228571
N      73.06076499      90.84559751      95.97565977
H      74.57254604      92.00966892      96.01345430
C      73.94704663      88.10171491      95.96621114
H      72.36912516      86.84693664      96.38006120
C      74.98261665      87.52156893      93.25256415
H      76.68714978      88.57981567      92.79714011
C      75.35489273      84.80603222      92.56470378
H      76.43770591      84.67186165      90.81859666
H      73.70138221      83.64385054      92.16786125
H      76.55486894      83.84605125      93.93475535
O      73.16092048      88.24344438      91.47433169
H      72.62612794      89.88939600      92.01290369
C      76.26007164      87.61794497      97.72176688
O      77.85689037      89.32058838      98.05435872
N      76.27896890      85.33326586      98.65718141
H      74.62167892      84.49233765      98.22065463
C      77.87767736      84.39596161     100.66407075
H      79.49339336      85.66585769     100.77178515
C      76.84021761      84.46021230     103.37393829
H      75.89346473      86.28190847     103.54212393
C      74.92025568      82.51190447     103.82747260
H      74.06231993      82.44009487     105.69830165
H      75.81031677      80.68075968     103.50054995
H      73.44815888      82.79347370     102.41584705
C      78.88490149      84.15218691     105.62838178
H      79.23261113      82.12640031     105.51688793
H      77.74728625      84.60950068     107.28567175
C      81.34154569      85.77546182     105.89483319
H      80.96360043      87.74833609     105.44318860
H      82.63978767      85.14807268     104.42462612
H      82.14278965      85.79813853     107.79211841
C      78.95293163      81.69932216     100.05557888
O      77.71705062      80.21210755      98.76300608
N      81.12989635      80.92642410     101.11004616
H      82.14656910      81.82404410     102.45175185
C      81.75161630      78.18443122     101.24421673
H      80.12645167      76.99390364     101.67885378
H      83.37867066      78.01246612     102.49710528
C      82.51506573      77.10917695      98.75733690
O      84.40857150      77.96522297      97.66507510
N      81.21871348      75.02480882      97.93719568
H      79.56142351      74.86607181      98.87261021
C      81.39823748      73.84372988      95.54858162
H      83.14434460      74.54103889      94.70387396
C      81.92547112      70.94299999      95.79046659
H      80.41369007      70.01703409      96.83737497
C      82.10121567      69.73168542      93.27524087
H      83.80952826      70.24947043      92.24911948
H      80.41557980      70.21923481      92.19809687
H      82.16357664      67.69267073      93.56625872
C      84.35943861      70.40064853      97.40996204
H      84.17235571      71.22267948      99.28835000
H      86.03562585      71.10173700      96.44242217
C      84.82053183      67.57550770      97.81436347
H      85.32508876      66.48324589      96.14573514
H      83.20859529      66.82528635      98.85560267
H      86.35876905      67.23346723      99.14095135
C      78.90757820      74.31616146      94.11427935
O      77.09911012      72.93288179      94.42419447
N      78.76395900      76.37974259      92.66107982
H      80.29841677      77.50035029      92.47021746
C      76.74762103      76.83138718      90.86772955
H      76.27518945      75.00780129      90.03624997
H      77.22005260      78.04270174      89.26902109
C      74.10200419      77.76869143      91.87495367
O      72.31243337      78.09183463      90.38584934
N      73.89791375      77.96144351      94.43742255
H      75.50040166      77.78380924      95.45787476
C      71.55087366      78.51513332      95.76401042
H      70.15625565      77.25090642      94.92119249
C      71.89102440      77.56649071      98.48332659
H      73.10989787      78.80048200      99.59448566
H      72.82454920      75.73912537      98.30380259
C      69.46839527      77.30192903      99.94030558
N      68.06243889      75.17220747     100.28234604
H      68.35534647      73.42610036      99.56802949
C      66.25963999      75.93187745     101.85081888
H      64.80644045      74.69599644     102.57836351
N      66.50530441      78.28647644     102.49899500
H      65.24485696      79.41086359     103.39094582
C      68.68793830      79.29370056     101.45019690
H      69.44760828      81.18720633     101.51822705
C      70.40192007      81.10405837      95.85471729
O      71.46394625      82.72733327      97.20587160
N      68.18338138      81.56515159      94.72088150
H      67.49741072      80.10439315      93.70231902
C      66.74718938      83.91597113      94.84560344
H      67.97929093      85.36917066      94.06136702
C      64.67793906      83.59849710      93.02012782
H      63.85779784      81.73522696      93.32815321
H      65.62469195      83.41519365      91.20032138
C      62.50664353      85.49011314      92.77635312
H      61.21785019      85.35594258      94.37884104
C      63.18694500      88.19809095      92.31714963
H      63.60835397      89.10893903      94.11805881
H      61.57122901      89.01067326      91.33260222
H      64.88013978      88.23777520      91.14362959
C      60.95328850      84.73422262      90.60505759
H      59.33757250      86.00978788      90.69954391
H      60.14826509      82.83882713      90.68631582
H      61.90382084      84.95910005      88.79092033
C      65.80421595      84.45454312      97.50444836
O      64.75730757      82.85583466      98.72332183
N      65.96673241      86.82425992      98.12994777
H      66.98151544      87.82014569      96.85627223
C      65.01242062      88.03368476     100.38628099
H      64.61179864      86.43308657     101.62027227
C      67.00419216      89.43586169     101.83192162
H      66.09901325      90.45253444     103.37771774
H      67.79409775      90.90795848     100.62438650
C      69.18493632      87.76156417     103.03756700
H      70.15625565      86.77890649     101.50877842
C      70.99718386      89.51711992     104.33013980
H      72.71683480      88.69130952     105.10870704
H      70.07310769      90.57914610     105.83436195
H      71.64913943      90.89473040     102.94119096
C      68.28542660      85.64129125     104.89327824
H      69.86145834      84.38462325     105.31846666
H      66.89080858      84.53391163     103.85770822
H      67.59945594      86.38962287     106.68662851
C      62.63514492      89.60593705      99.87038570
O      60.64337339      89.08815204     100.88894819
N      62.85624290      91.28590375      98.07136625
H      64.57022466      91.50133255      97.25878394
C      60.74541861      92.98665743      97.21154078
H      59.02387794      91.88305726      96.97532499
C      60.09913221      94.97275978      99.26378356