 %block lattice_cart
   142.669   0.000   0.000
   0.000 146.65   0.000
   0.000   0.000   162.396
 %endblock lattice_cart

 %block positions_abs
N      92.71108406      43.13189784      81.50697025
H      94.52711104      42.54230323      81.47106546
H      91.70385993      42.21349085      80.17282348
H      91.90228119      42.80119573      83.20394449
C      92.42195593      45.80775029      81.02697978
H      93.49532048      46.79985661      82.47828958
C      93.07202178      46.68836276      78.40214993
H      91.88716338      45.93058250      76.89792777
H      94.99198372      46.14034213      77.90137246
C      92.73376077      49.58342347      78.34356840
H      90.90261598      50.00105298      79.18827608
H      93.04556561      50.06908313      76.36691468
S      95.08647003      51.36165593      79.94605633
C      93.63704995      54.38332830      79.63047203
H      93.33280401      55.11087293      77.72940736
H      94.58947201      55.85731483      80.71139548
H      91.71519829      54.27372418      80.36368583
C      89.68374250      46.63356069      81.69783261
O      87.96409156      45.64901328      80.44116462
N      89.28312052      48.24549724      83.54409523
H      90.75899678      48.20959244      84.75352007
C      86.74710781      48.79729732      84.39069260
H      85.44130693      47.37244368      83.67826579
C      86.88694756      48.52706646      87.23473071
H      87.82992099      50.14467218      88.09455619
H      88.00188608      46.88678402      87.79786916
C      84.27723552      48.22093080      88.46872199
O      82.30814070      48.81997404      87.45960815
N      84.30558142      47.66724099      90.89702030
H      82.62939418      47.50472452      91.80030948
H      85.91184878      47.75416840      91.92314169
C      85.94586386      51.43346553      83.24362874
O      87.62961000      53.06429934      82.79198415
N      83.44575594      51.98904506      82.78442525
H      82.16074205      50.70781062      83.37401986
C      82.35538386      54.62710300      82.63513687
H      83.19631207      55.50960519      80.97595716
C      79.44898479      54.68001533      82.43860532
H      79.10316488      53.24193361      81.00619278
C      78.24144968      53.70113710      84.98406668
H      78.97844294      51.93235327      85.74184693
H      76.18542745      53.60665079      84.92926461
H      78.68364564      54.99182018      86.52797306
C      78.18853734      57.18957188      81.88302579
H      78.51545999      58.35553301      83.54976441
H      76.19298635      56.68501495      81.89625387
C      79.13529022      58.72025019      79.61535421
H      78.43987094      57.94357268      77.83901149
H      81.16485628      59.06795983      79.69850218
H      78.09027157      60.49281347      79.65125902
C      83.28323948      56.57541083      84.78375569
O      83.72543544      58.74103718      83.93715830
N      83.89173135      55.78550523      87.04197862
H      83.54780116      54.01294195      87.65991913
C      84.76289518      57.42011849      89.06587551
H      83.49110938      59.01882695      89.32854746
C      84.79502053      56.08408198      91.60188822
H      86.05168853      57.16122598      92.83021032
H      85.90806933      54.36821049      91.37134162
C      82.23255165      55.36598599      92.72438566
C      81.51256593      56.74548619      94.79552569
H      82.82592571      58.11931722      95.54574704
C      79.15418749      56.55651356      95.83298543
H      78.77246277      57.64121647      97.51862130
C      77.57815574      54.59308792      95.01473395
H      75.73756231      54.24348856      95.83109570
C      78.24144968      53.07185824      92.88123293
H      76.93564880      51.82652860      91.92692114
C      80.59415894      53.40633980      91.82298619
H      81.20265081      52.15345125      90.33010241
C      87.37638667      58.37632000      88.31565416
O      87.99999636      60.56840253      88.51218569
N      89.03556638      56.61509508      87.53897665
H      88.39872861      54.84253180      87.23095126
C      91.58669690      56.98926089      86.60167240
H      92.84903408      57.98892611      87.88668628
C      92.87926970      54.38521803      86.01774697
H      94.72742203      54.72914822      85.17492902
H      91.67740376      53.24382334      84.79509404
C      93.26666359      53.12855003      88.52163434
H      91.52433593      52.81674519      89.57421188
H      94.44396309      54.33608515      89.70649273
C      94.47986789      50.46214620      88.11912263
O      93.28556086      48.98626995      86.89080053
O      96.47163942      49.90278721      89.33799610
C      91.61504280      58.58418990      84.19983025
O      93.54256363      59.73881267      83.90314323
N      89.68563223      58.63332278      82.58411426
H      88.26077859      57.46169247      83.06788420
C      89.44563699      59.94857229      80.16715430
H      91.33158385      59.52527360      79.45472749
C      87.61260246      58.62576388      78.44183417
H      85.69075080      58.93756872      79.11268702
H      88.14172583      56.63588207      78.48151843
C      87.93574566      59.43078728      75.69417212
H      89.90861993      59.12276190      75.18205629
H      87.44441682      61.42633827      75.55244264
S      85.91940769      57.89255007      73.47563342
C      83.26245249      60.04683806      73.20351283
H      81.81870159      59.79361474      74.65293292
H      82.32325851      59.93156476      71.37425776
H      83.98810740      61.96680000      73.37358821
C      88.77478415      62.78694122      80.64336533
O      89.95397337      64.44801065      79.57755970
N      86.83214550      63.25937279      82.16837446
H      85.91751796      61.76648901      82.92993417
C      85.88161316      66.03538075      82.77497661
H      85.59437476      66.88386786      80.91926537
C      83.36827717      65.67822248      84.23384533
H      82.86749969      67.35629944      85.32043796
H      83.66307447      64.13431608      85.56799211
C      81.03068572      65.12642239      82.57655535
H      81.52012483      63.92833591      80.97784689
C      79.08426761      64.01715305      84.25463231
H      79.72299511      62.25403840      85.10311943
H      77.57248656      63.33874130      83.02819994
H      78.58915932      65.37775599      85.71917020
C      79.83637869      67.66054538      81.45594764
H      79.70220812      69.07972984      82.94127253
H      78.16397090      67.33362273      80.29943515
H      81.19131245      68.15754340      79.98385085
C      87.80535455      67.59818441      84.29053712
O      87.92251758      69.84317927      83.91448157
N      89.43051918      66.22057393      85.73428802
H      88.82580676      64.45556955      86.13679973
C      91.92495791      66.94244938      86.73773270
H      91.80779488      68.76414554      87.69204448
C      92.89627724      65.03382580      88.72950422
H      94.82001862      65.60452315      89.19059744
H      92.87926970      63.19890155      87.79597942
C      91.51299757      64.92989086      91.24284022
H      89.57224865      64.24392020      91.20504569
H      91.33725303      66.87063978      91.91180334
C      92.95485875      63.12709195      92.91146855
H      94.98442481      63.23102690      92.57320755
H      92.33313879      61.25437318      92.32187395
N      92.75832721      63.36141802      95.59487992
H      91.66417568      62.15199318      96.58320679
C      93.99798768      64.96012648      97.01406438
N      95.34158308      66.74969730      96.12778275
H      96.41872708      67.83251047      97.27295688
H      95.09402894      67.02937679      94.25695370
N      94.09436372      64.74091822      99.48771613
H      95.09780839      66.11096980     100.35699023
H      93.23831770      63.34252075     100.46659435
C      94.03389248      67.44322685      84.62879813
O      96.01432565      68.23502218      85.47917496
N      93.55390199      67.36763780      82.13435940
H      91.99487778      66.47568698      81.48618327
C      95.26032485      68.26714752      80.16148512
H      96.57746409      69.54082306      81.10256883
C      96.78344426      66.11474925      78.90103767
H      95.55701188      65.14342993      77.56122172
C      99.06245419      67.08228913      77.16815865
H     100.08290640      65.59885397      76.17038315
H     100.30589411      68.18588929      78.38514238
H      98.48230822      68.34651603      75.64881868
C      97.81145538      64.24014075      80.91548592
H      96.18818047      63.13654058      81.53909560
H      98.50498493      65.23413679      82.58033481
C      99.73330704      62.31639936      79.91015153
H     101.60602581      63.00048029      79.38480761
H      99.01332131      61.08618754      78.42482664
H     100.09235504      61.10319507      81.53531616
C      93.66350612      69.94900394      78.37947320
O      94.61781791      71.96912137      77.61224433
N      91.13127286      69.50869771      77.94483616
H      90.22609395      67.89865089      78.42860610
C      89.46075480      71.06583219      76.58045376
H      90.19207888      71.25291510      74.66427128
C      86.87371948      69.83184091      76.65415309
H      85.70586861      70.22112453      78.30766361
H      87.12694280      67.80038513      76.43305511
C      85.32036445      70.43844306      74.12569928
O      86.44853106      70.12663822      72.06022841
O      83.23221687      71.41165211      74.40726849
C      89.06958145      73.73979493      77.67271557
O      89.42107055      75.41787189      76.13636808
N      89.11682461      74.02703333      80.23896391
H      88.96375678      72.54548790      81.43138121
C      89.10548625      76.57627412      81.30854899
H      89.94641446      77.97467159      80.05377073
C      86.25199952      77.24901669      81.75074496
H      85.33548226      75.82983223      82.92804444
H      85.15973771      77.14886120      80.00652756
C      85.90995906      79.91919997      82.81844032
H      87.31024625      81.17397824      81.97562239
H      86.23688171      79.96644313      84.85178584
C      83.25300386      80.96232890      82.01530664
O      81.46532277      80.60139117      83.59133838
O      83.09237712      82.25679142      79.98574058
C      90.84214473      76.72178305      83.68771442
O      92.18007096      78.53025113      83.91637130
N      90.67962827      74.85284373      85.42815235
H      89.52122604      73.38263665      85.06154546
C      92.41439703      74.45600120      87.70716228
H      94.34191786      74.97000676      87.19693618
H      92.32746962      72.40564815      87.87723766
C      91.49787976      75.66164659      90.24695446
O      90.26955766      77.62507223      90.18837294
N      92.09881273      74.68465808      92.45793425
H      93.59169652      73.49413051      92.53352329
C      91.05757353      75.44432806      94.94481407
H      89.10359653      76.06982747      94.76340035
C      91.23142835      73.05004482      96.60399378
H      93.19107454      72.41509678      96.55108144
H      90.27144739      71.60440419      95.49283469
C      90.31113164      73.04059619      99.43102434
H      91.44496743      74.38797105     100.50060943
C      87.61449219      74.00057716      99.66724013
H      86.33136802      72.82516739      98.56363995
H      87.62583055      75.96400280      99.04929961
H      87.08536882      73.98923880     101.65901166
C      90.49254537      70.34962592     100.60076493
H      92.50321416      69.92443750     100.72170741
H      89.52311577      69.00414079      99.38000172
H      89.42673972      70.26836769     102.36198984
C      92.49943471      77.68176402      96.10321629
O      94.73309121      77.49657084      96.82320203
N      91.25032562      79.81148557      96.69848008
H      89.35870958      79.75479378      96.43769785
C      92.09881273      81.80514683      98.39923377
H      94.14727605      81.63885092      98.53529407
C      91.72275719      84.33549036      97.12744796
H      91.56402018      85.72443920      98.64300847
H      89.91050966      84.18242253      96.15990808
C      93.88271437      85.16696994      95.33031824
H      94.20207812      83.80258754      93.82042691
H      95.53622489      85.06303499      96.55675061
C      93.45374650      87.84849158      94.31364548
H      95.26410431      88.73666295      93.89223652
H      92.46164018      89.06925478      95.64590254
N      91.97787025      87.63495251      92.05920199
H      90.97820503      86.01545706      91.93448005
C      92.02511340      88.96909928      89.89546535
N      93.18918481      91.11204892      89.76696397
H      93.08524987      92.12872168      88.15502743
H      94.41372746      91.49944282      91.17858953
N      90.71742280      88.36060741      87.94715754
H      90.32058027      89.72310008      86.66970255
H      89.90106103      86.63528729      87.91125274
C      90.85537282      81.69743243     100.95036429
O      88.67651838      80.78658435     101.12610883
N      92.11959972      82.58182435     102.97804063
H      93.91672944      82.99189496     102.48104260
C      91.21442082      82.59127298     105.60287048
H      89.71019867      81.18153715     105.65956227
C      93.30634785      81.76357285     107.41700773
H      92.62415665      82.09805441     109.33319022
H      95.00710153      82.90496754     107.19402003
C      94.15672469      79.01213134     107.12410016
H      95.75165369      78.97055736     108.42801132
C      91.95708326      77.37562835     108.18801606
H      91.49787976      77.92742844     110.11742664
H      92.33313879      75.37062874     107.91211603
H      90.26010903      77.85372911     107.12410016
C      94.99198372      77.83672157     104.57296964
H      95.69874136      75.92620827     104.87343612
H      96.40927845      78.95732928     103.58275305
H      93.44240814      77.34350301     103.31063246
C      90.04468023      85.23122064     106.46647540
O      88.76344579      85.41830354     108.36376062
N      90.30357273      87.20409491     104.92067927
H      91.12560368      86.71087634     103.27094820
C      89.43618836      89.85538092     105.36854442
H      88.28912448      90.00088985     107.07307755
C      91.61693252      91.63928256     105.97514655
H      92.97375601      91.74321751     104.43124015
H      92.40116894      90.59237419     107.56629612
C      90.89883652      94.26033296     107.01638576
H      89.44752671      94.27923022     108.47714420
H      90.17696107      95.36960231     105.43846428
C      93.08524987      95.70408386     107.98392562
H      94.58569256      95.92140239     106.58741789
H      93.89594245      95.02378239     109.75270946
C      91.97220107      98.31001645     108.71524971
H      90.59270086      97.94151982     110.19868487
H      91.23331808      99.29456386     107.05984946
N      93.72586709     100.00510095     110.01160196
H      95.16016936     100.61359282     108.90800180
H      94.50821378      99.25298988     111.58007480
H      92.80179092     101.53766899     110.67678563
C      87.65039699      90.75678038     103.23315367
O      87.85448743      89.64940076     101.16768282
N      85.81925219      92.36493747     103.90211679
H      85.59248504      92.74477246     105.75782804
C      83.81803203      93.36082323     102.16545831
H      82.64262226      91.78857094     101.54373836
C      82.09838108      95.34125641     103.33519890
H      83.28323948      96.79256622     104.18746547
C      80.53557742      96.86437582     101.43602395
H      79.51890467      95.48298588     100.29273953
H      81.70909746      98.16828698     100.35510050
H      79.14095940      98.07946984     102.33931313
C      80.44676029      94.31324530     105.39878004
H      81.44642550      93.12649717     106.75560352
H      78.88773608      93.27767528     104.53895456
C      79.02568610      96.26722230     106.99748849
H      80.49778290      97.62593552     107.47747897
H      78.26979557      95.11448925     108.52816680
H      77.53091258      97.12137860     105.86743216
C      85.17674525      94.40395216      99.86377167
O      87.12127362      95.72865030     100.24927582
N      84.33392731      93.56113422      97.65846106
H      82.84671270      92.36493747      97.68113777
C      85.66807409      94.15828774      95.35299495
H      86.87938865      95.78534209      95.70826349
C      87.35937914      91.81313738      94.45348522
H      88.49321493      91.13094619      96.03140670
H      88.65951084      92.58792517      93.05697749
C      85.90806933      89.66640829      93.39901794
C      84.89139657      89.71365145      90.97260936
H      85.23154731      91.46353802      89.97861332
C      83.82370121      87.50834084      89.79908932
H      83.13584083      87.46109769      87.87723766
C      83.54591144      85.32570695      91.28252448
O      82.48955443      83.26779500      90.21104965
H      81.99444614      83.84605125      88.56320831
C      84.31503005      85.34649394      93.81664745
H      84.10338070      83.64951971      94.93158598
C      85.57925695      87.48944358      94.74828254
H      86.22554335      87.32692712      96.67580338
C      83.75000188      94.97087005      93.37067205
O      81.45020496      94.68741111      93.69003580
N      84.66840887      96.19352298      91.40724642
H      86.57325299      96.19541270      91.29008337
C      83.23410660      97.17996011      89.12823648
H      81.22154807      97.21019573      89.55720435
C      84.24322045      99.83691531      88.32132334
H      83.33426209     100.30556744      86.53364224
H      86.25955842      99.67250912      87.93015000
C      83.51567582     101.75120806      90.37923530
H      84.72699038     101.44318268      92.01384855
H      81.50122757     101.60380941      90.78741618
C      84.25833826     104.42139134      89.28130431
H      86.05546798     104.03399745      88.34777951
H      84.59848899     105.61191892      90.92725592
C      82.51979005     105.61947783      87.30276086
H      81.85082694     104.17194747      85.99695997
H      83.51945527     107.03677256      86.19160179
N      80.40896576     107.02543420      88.48950899
H      79.48111014     108.11013711      87.22528207
H      80.97021447     108.28588165      89.81042767
H      78.94064841     105.94073130      89.04886798
C      83.54780116      95.09937144      86.98717656
O      85.63783847      94.27734050      86.44671483
N      81.40485153      94.33592201      85.99695997
H      79.82126088      95.18062967      86.64135665
C      81.02879599      92.81469233      83.71417059
H      82.22688247      91.15740235      83.96172474
C      78.23200105      92.07958879      83.46472671
H      77.22666665      93.85026235      83.15292188
H      77.59516328      91.37094143      85.29398178
C      77.94287292      90.08403781      81.50508054
O      79.19954092      88.07903819      81.98129157
O      77.16997486      90.46387280      79.33378500
C      82.20420576      94.09592677      81.47295519
O      82.75411611      96.41840041      81.57500040
N      82.92041203      92.78823616      79.52464735
H      82.89395586      90.88150231      79.60401586
C      83.72354571      93.90884387      77.14548192
H      85.52634461      94.84236866      77.49886075
C      84.01645329      91.92841069      75.16315902
H      82.18908795      91.00622425      74.93261242
C      85.09926647      92.61627107      72.59124152
H      87.08725855      93.08492319      72.84824430
H      83.86905464      94.12805212      71.92038867
H      85.18997333      90.93252492      71.40827284
O      85.65673573      90.11805288      75.95873381
H      84.71565203      88.94264311      76.96973738
C      81.79413515      95.95163801      76.30644344
O      82.48955443      97.99254243      75.56756046
N      79.36772656      95.47920643      76.70139624
H      79.06348062      93.67073835      77.22485044
C      77.18698240      97.10059161      76.12880917
H      77.71232631      98.20986095      74.47529864
C      74.78136080      95.53022904      75.64503923
H      73.20154960      96.84736828      75.72629747
H      74.76435326      94.05624252      77.08501069
C      74.76624299      94.06758088      73.12603406
H      76.50857065      92.97531907      73.02398883
H      74.65285941      95.32991805      71.50275916
C      72.40786455      92.43107789      72.89737718
O      70.77892047      92.99421633      71.26276392
O      72.26991453      90.26545153      73.91027048
C      76.94131797      99.13960630      78.21506702
O      75.13096017     100.54367295      78.19428002
N      78.66852782      99.15094466      80.08589607
H      80.06881502      97.88482803      79.81188576
C      78.94064841     100.97075110      82.08522651
H      78.73844770     102.83780069      81.23862911
H      80.75289595     100.81768327      83.05087665
C      77.03391456     100.60225447      84.28675766
O      77.39296256     101.69073682      86.29364700
N      75.15363688      98.99598710      83.91448157
H      74.98545124      98.16639725      82.20427926
C      73.40752977      98.30812672      85.98184217
H      72.00535285      99.75565708      86.40703059
C      71.72567335      96.15761818      85.00485366
H      70.24412792      95.90817430      86.41269976
H      72.78014063      94.41340079      84.71572554
C      70.39719575      96.86437582      82.53309164
C      70.23845874      95.05590774      80.56210710
H      71.02647461      93.20019650      80.86824277
C      69.06115925      95.73998866      78.23018482
H      69.08194624      94.38316517      76.70517570
C      68.30148927      98.16828698      77.90893136
O      67.63441588      98.89205215      75.56378100
H      67.08261580     100.61737228      75.66015705
C      68.39597559      99.90305573      79.87613645
H      67.50591449     101.68884710      79.44905831
C      69.51469356      99.37204264      82.26097105
H      69.60351070     100.80823463      83.70850142
C      74.86639848      97.17807039      88.37612540
O      76.80525768      95.96297637      88.04542330
N      74.02358055      97.72042184      90.66647370
H      72.42865154      98.72197678      90.98583745
C      75.35016842      96.93240597      92.85855622
H      77.35516804      97.22342382      92.48816987
C      74.76057381      98.71441788      95.20937575
H      74.81348615      97.61459717      96.94981368
H      72.90864202      99.59692007      95.02985175
C      76.63140286     100.78366819      95.69503542
C      76.01535208     103.25165076      95.86133132
H      74.08783124     103.81478920      95.50228334
C      77.90318867     105.12436953      96.28463002
H      77.42886736     107.09913353      96.47360266
C      80.43353220     104.44784751      96.59643487
O      82.34215578     106.09946831      97.06130753
H      81.81870159     107.83801652      97.04618973
C      81.06281106     101.81167931      96.37533688
H      82.94308874     101.01988398      96.45470540
C      79.16363612     100.09958727      96.10699575
H      79.77023827      98.15127944      96.08998822
C      74.80403751      94.06002197      93.55586523
O      72.58549882      93.20397595      93.49539399
N      76.68242547      92.73910328      94.44970577
H      78.34916408      93.65562054      94.61978115
C      76.67864602      90.00466930      94.48939003
H      74.89663410      89.20531507      95.14512506
C      77.58382492      88.92941503      91.89857525
H      79.58504509      89.27901440      91.56031425
C      76.98100223      86.19120160      91.39590806
H      74.94009781      85.92097074      91.29764228
H      77.80492290      85.01768156      92.87556376
H      77.50634614      85.59215836      89.49484338
O      76.17786854      89.95742615      89.94081879
H      76.96777414      91.53156816      89.50240229
C      78.41719423      89.03901916      96.49627938
O      79.87039376      90.51300568      97.60365900
N      78.33215654      86.51245508      97.05374864
H      76.63140286      85.75089537      96.62856022
C      80.30125136      85.25956653      98.60521393
H      82.04546875      86.11372282      97.91924329
C      79.88929102      85.91152211     101.52106163
H      79.45654370      87.92030118     101.67601919
C      77.70476741      84.31848283     102.63600016
H      76.20432471      84.23722460     101.22626433
H      76.92431044      85.32192750     104.25738533
H      78.32459764      82.40419007     103.07441667
C      82.34782496      85.45798779     103.01583516
H      83.94086424      86.35749752     102.06908227
H      82.96765519      83.49456215     103.08575502
C      82.07948382      86.55402906     105.67279034
H      80.80013911      85.45987752     106.85953848
H      81.46154332      88.49477798     105.37043413
H      83.96165123      86.49733727     106.50993911
C      80.40707603      82.36639555      97.91168438
O      78.86694909      81.32326662      96.51139719
N      82.37239140      81.14185289      98.65056737
H      83.69142036      82.10939277      99.63322505
C      83.03001616      78.56615593      98.35388033
H      81.60894197      77.36429000      99.23449280
H      84.65896024      78.40930865      99.60109970
C      83.71787653      77.85372911      95.64401281
O      85.55280078      78.90252721      94.71237774
N      82.10593999      76.26824873      94.46860304
H      80.67163772      75.56527055      95.51362169
C      82.04924820      76.30793299      91.66613892
H      83.01300862      78.03136338      91.08032375
C      83.30591620      74.03270251      90.40380174
H      81.62972896      72.85918247      90.15624759
C      84.15440331      74.68465808      87.67881639
H      85.91751796      75.69755139      88.00573904
H      82.93364011      75.97723088      86.64135665
H      84.56258419      73.00658112      86.55442924
C      85.35626925      72.66643038      92.08187871
H      84.74399792      72.39053034      94.03018653
H      87.02867703      73.86829632      92.00251019
C      86.16129266      70.06049780      91.01418333
H      84.60415817      69.36318879      89.86145029
H      86.47498722      68.73013047      92.55242055
H      87.94897375      70.47245813      90.07687909
C      79.26946079      76.77658511      90.84977715
O      77.48555915      75.50668903      91.80219921
N      78.82915456      78.54347921      89.14524402
H      80.33904589      79.57526978      88.59911311
C      76.45565831      79.05937450      87.89613492
H      75.48433899      77.30192903      87.43693142
H      76.78447069      79.80014721      86.00262916
C      74.38262855      80.47288978      89.68759547
O      72.55904265      81.40830431      88.59911311
N      74.50357103      80.37840346      92.20282119
H      76.05503633      79.47889374      92.85099732
C      72.37195975      81.03035904      93.89034679
H      70.62207318      80.15730549      93.24595011
C      72.98801053      79.73967597      96.51328691
H      74.40530526      80.89807820      97.45437062
H      73.81949011      77.86317774      96.36021908
C      70.55404304      79.66030747      97.92113301
N      69.14997639      77.42665096      98.18002551
H      69.64886413      75.73912537      97.44492199
C      67.17332266      78.00490722      99.64078396
H      65.72579231      76.69910633     100.24738611
N      67.35284666      80.47666923     100.41746147
H      66.03570742      81.38940704     101.45492121
C      69.45611205      81.57460022      99.31197158
H      70.12885462      83.46621626      99.68613738
C      71.78047541      83.76668274      94.17947492
O      73.10895301      85.07626308      95.49472443
N      69.67721003      84.56036780      93.14012544
H      68.63408110      83.36039159      92.08565816
C      68.99879828      87.21543326      92.87367402
H      70.63341154      88.33226152      92.30486640
C      66.93143769      87.42708261      90.77040865
H      65.48390734      86.04191322      91.25228886
H      67.95377963      86.90929760      89.05831661
C      65.61429845      90.01789739      90.29608733
H      64.60140515      90.44686526      92.03652528
C      67.61173917      91.97943330      89.41358514
H      66.69144245      93.71042260      88.77863711
H      68.81171538      91.33692635      87.86967875
H      68.82305373      92.50666694      90.99528607
C      63.78693311      89.50956101      88.14557880
H      62.84206995      91.20086606      87.45015951
H      62.32239522      88.24533411      88.85233643
H      64.91887917      88.75367048      86.59978267
C      68.17298788      88.31525398      95.43614290
O      66.59695614      87.22299217      96.67202391
N      69.04604144      90.58103583      96.08809849
H      70.44065946      91.32747772      95.02229284
C      68.20322350      91.90762370      98.38222624
H      66.94466578      90.79079545      99.57086408
C      70.45388754      92.48965940     100.01117032
H      69.84539567      93.51578079     101.68924727
H      71.54048017      93.98254319      99.09843251
C      72.17731794      90.29946661     100.86532661
H      72.52880703      89.15807191      99.18535992
C      74.70199229      91.02323179     102.09742816
H      75.49378762      89.45475895     103.17079270
H      74.45443815      92.07202989     103.85109419
H      76.00968290      91.95486686     100.80863482
C      70.68821360      88.57225676     102.63977961
H      69.69799702      89.51900964     104.17612711
H      72.07905217      87.46676686     103.68857772
H      69.32950039      87.41763398     101.61365822
C      66.75569315      94.31891448      97.63767406
O      65.01525521      94.86504538      99.01906399
N      67.31505214      95.65684071      95.55708540
H      68.49046190      94.82347140      94.30419685
C      65.56705530      97.72042184      94.65568595
H      63.72268242      96.84736828      94.37033727
C      65.51225323      99.95407834      96.52462526