 %block lattice_cart
   142.669   0.000   0.000
   0.000 146.65   0.000
   0.000   0.000   162.396
 %endblock lattice_cart

 %block positions_abs
N      88.48093170      43.92463803      76.56439108
H      87.78740214      42.46010013      77.57161521
H      90.13255249      43.27079271      75.86141290
H      87.36599317      44.13250792      75.02804359
C      88.62266117      46.05246985      78.26514477
H      89.81885794      45.41185264      79.81283061
C      89.84153464      48.43541474      77.25036173
H      88.45825498      49.69397246      76.38675681
H      91.10765127      47.89306328      75.71779369
C      91.28150609      49.64106012      79.46890042
H      93.03517211      48.63761545      79.87708130
H      89.95869767      49.60893478      81.04682189
S      92.42479052      52.88949966      78.96812295
C      94.55262235      53.43185110      81.70633638
H      93.76460647      52.89327911      83.52992227
H      95.12331969      55.41039456      81.75735900
H      96.36486988      52.46431124      81.53815073
C      86.13767107      46.73844050      79.46323125
O      84.57297769      47.96298316      78.26514477
N      85.67846758      45.98632943      81.92554463
H      87.10143149      45.30413824      82.99512972
C      83.37300147      46.29246510      83.43921540
H      81.92925057      45.26634371      82.38852757
C      84.20259132      45.12650396      86.04514800
H      85.31941958      46.57781377      86.98245224
H      85.63122442      43.64873799      85.90341853
C      82.18814307      44.34793672      87.92731541
O      80.01495782      44.86761146      87.60795165
N      82.86466509      43.01945912      89.90396913
H      81.48516489      42.74544881      91.19465220
H      84.69014072      42.73788990      90.38395961
C      82.46215340      49.15917991      83.66598257
O      84.11566391      50.82780824      83.34472909
N      80.13212086      49.86215809      84.18565731
H      78.87167339      48.45053255      84.43699090
C      79.26095703      52.54179001      84.49746214
H      79.75984476      53.42807166      82.70789132
C      76.40747028      52.64572495      84.66942724
H      75.74417636      51.78023031      82.92143039
C      75.12245640      51.15662063      86.83505360
H      75.71960990      49.20831280      86.52513848
H      73.06832389      51.30023982      86.86906866
H      75.66669758      51.83881183      88.70210320
C      75.51174001      55.45574799      84.85084097
H      76.32054288      56.42139814      86.48167477
H      73.52374793      55.54267540      85.37996433
C      76.03708393      56.81446121      82.26002618
H      75.48150440      58.79678411      82.21467276
H      74.84655635      55.80156790      80.91832050
H      77.93247942      57.02422083      81.48145894
C      80.75006136      53.71908950      86.76324399
O      81.92736085      55.73542748      86.55915355
N      81.02974084      52.27155915      88.71722100
H      80.00928864      50.66151233      88.66619840
C      82.33554173      52.88194075      91.01701793
H      81.38311967      54.59970197      91.64629679
C      82.04263416      50.76166783      92.89918533
H      83.32197887      51.20197406      94.45254037
H      82.73616370      48.99288399      92.10361055
C      79.44048102      50.39317120      93.99900604
C      78.19515137      48.13494825      93.42263952
H      79.09277138      46.66663090      92.32659825
C      76.00495858      47.63417078      94.61316709
H      75.13946394      45.80491570      94.34860542
C      74.88246115      49.37649844      96.25533927
H      73.15147186      49.00989154      97.27201202
C      75.94070788      51.80290703      96.68052768
H      74.92214541      53.11626681      97.86727580
C      78.35199866      52.19597009      95.56936862
H      79.24961867      53.97987174      95.99833649
C      85.19469764      53.65483881      90.74300761
O      86.06019230      55.32346715      92.07904411
N      86.47215263      52.56446673      88.83438403
H      85.56130455      51.26622475      87.77235784
C      89.15367427      52.99343460      88.32982710
H      90.09286825      53.77578130      89.98900681
C      90.51427721      50.45931162      88.06904488
H      92.29439941      50.79568289      87.09016664
H      89.41445651      49.22721006      86.83883305
C      91.16434306      49.13272374      90.46899730
H      89.56941406      48.40328939      91.54992075
H      92.01471990      50.50466505      91.75212146
C      92.90100155      46.79324256      89.94176365
O      92.00716101      44.78257377      89.08193818
O      95.13843751      47.07670152      90.73355897
C      89.69413600      54.81702050      86.24167954
O      91.63299520      56.04156315      86.44765969
N      87.90078572      54.99465476      84.45021898
H      86.33798207      53.94963612      84.77336218
C      88.06708163      56.75398997      82.38852757
H      90.05507372      56.71052626      81.85562476
C      86.43624783      55.73920693      79.99424434
H      84.45959411      55.59369801      80.55171361
H      87.08820341      53.82302446      79.60496072
C      86.44758619      57.26421606      77.59618165
H      88.31085634      57.53633665      76.75903289
H      86.02617722      59.22197252      78.08184131
S      84.48038110      56.31935291      74.99402851
C      81.53051833      55.73164802      76.62297259
H      81.60232792      53.89105459      77.54704876
H      80.14723867      55.19307603      75.19811895
H      80.88423192      57.30956949      77.78137483
C      87.56441444      59.56968217      82.95544548
O      88.97037081      61.21941324      82.35073306
N      85.49705385      60.21974802      84.43699090
H      84.48227083      58.69095944      84.96233481
C      84.94714350      62.86725459      85.00957797
H      84.54463179      63.50409236      83.09339550
C      82.28829857      62.83323952      86.42876243
H      82.16357663      64.67761240      87.33583107
H      82.47349175      61.21563379      87.69109961
C      80.01306809      62.57245728      84.66942724
H      80.29274759      60.96241047      83.41464896
C      77.57532115      62.18317366      86.15475212
H      77.72271980      60.46730216      87.28102900
H      75.88401609      61.77499278      85.05115195
H      77.31264920      63.70251362      87.52102425
C      79.56331324      64.80800351      82.75324475
H      79.20615495      66.61269214      83.67732093
H      77.72649925      64.41871989      81.90475764
H      81.13745525      64.84768777      81.42476715
C      86.93891504      64.39037400      86.41553436
O      87.41323633      66.64481749      85.82782947
N      88.50549814      63.12803682      87.87251334
H      88.23148782      61.29689202      88.33549629
C      90.72781628      63.95384722      89.42397865
H      90.21759019      65.47696663      90.71466172
C      91.79929111      61.63704276      90.80536857
H      93.37910231      62.30411615      91.94676326
H      92.62132206      60.33502132      89.43909645
C      89.90956479      60.13093089      92.33226744
H      88.76061119      59.05000744      91.00756929
H      88.71147831      61.54633589      93.22988743
C      91.19457869      58.46986146      94.34104651
H      92.83864057      59.40527598      95.15551855
H      92.12054459      56.86737354      93.43397787
N      89.51461199      57.50043186      96.22888309
H      88.64722761      55.82613434      95.93408579
C      89.12154893      58.36403679      98.54001837
N      89.93413123      60.57312685      99.31102671
H      89.84342438      60.86036524     101.19697357
H      91.25693965      61.65216057      98.45687041
N      87.65512130      57.21319346     100.13872683
H      87.43402332      58.10892373     101.80924490
H      86.59687457      55.67495624      99.74944321
C      92.71202891      65.22752275      87.88574142
O      94.16900791      66.78087777      88.85517103
N      92.80462550      64.54155210      85.37807460
H      91.64244382      63.07134502      85.00768824
C      94.39388533      65.40704675      83.22378660
H      95.73181156      66.88859217      83.73590243
C      96.13810273      63.38126014      82.09184054
H      97.06217889      64.22407807      80.45533757
C      98.17144824      62.78221690      84.15542168
H      99.80984094      61.82412566      83.35606745
H      97.27382823      61.85436129      85.75979932
H      98.72135859      64.56422882      85.03225470
C      94.79072787      61.09658102      80.90698215
H      93.33563860      61.74664689      79.60307099
H      93.99137364      59.96652470      82.43199129
C      96.57462950      59.40716571      79.48023878
H      97.81240024      60.58446519      78.33317492
H      95.43701426      58.03711413      78.43899959
H      97.63854542      58.33758062      80.88052598
C      92.85564812      66.79410587      81.12808012
O      93.94413048      68.43060884      79.89786829
N      90.52183612      66.20640098      80.53092661
H      89.84531409      64.60202333      81.31516303
C      88.98737836      67.28921415      78.54860371
H      89.95869767      67.41582582      76.73446645
C      86.69325061      65.53176869      77.96656800
H      85.46492850      64.97240970      79.52370249
H      87.64756239      63.72896979      77.66610152
C      85.23816135      66.23096743      75.61385874
O      86.44380674      66.19317290      73.53138035
O      82.89679044      66.32923318      75.72157315
C      88.18046521      70.07089128      79.03615310
O      87.92157271      71.62235660      77.35429669
N      87.82330695      70.58867629      81.48901785
H      88.12566316      69.21295554      82.77781119
C      86.56285949      72.82233281      82.57750021
H      86.84442871      74.48907141      81.40020071
C      83.87188922      72.21384092      83.12930030
H      83.80196936      70.58489685      84.38596829
H      82.89868018      71.69038674      81.38886235
C      82.19192254      74.06010353      84.44832926
H      83.12544733      74.68560294      86.17742884
H      80.51951475      72.97351091      84.96233481
C      81.23761075      76.38824636      82.99135028
O      78.88301176      76.94004643      83.09339550
O      82.82498084      77.57499448      81.66287267
C      87.96314670      73.46483975      85.01335743
O      88.48093170      75.69282707      85.51224518
N      88.81163381      71.67148948      86.55537409
H      88.18802412      69.90459538      86.19632609
C      90.74671356      72.23651764      88.62084495
H      92.25660487      73.52153154      88.05581679
H      91.54795750      70.43749819      89.22366765
C      89.38044142      73.38169179      90.94331859
O      87.06174724      73.96183777      90.82426584
N      90.53884365      73.49507536      93.18264428
H      92.35487065      72.91681912      93.29224841
C      89.36532361      74.26797343      95.59960423
H      87.33575755      74.15647957      95.27268158
C      89.70736407      72.21384092      97.77278949
H      91.75015823      72.01164021      97.95987239
H      89.24816058      70.30143789      97.16429762
C      88.42423991      72.80910471     100.31636112
H      86.85765679      74.11490560     100.01589462
C      87.38300072      70.42804957     101.46909417
H      86.24538548      70.74363386     103.15850948
H      89.09509275      69.37736173     101.92829765
H      86.29640808      69.64003368      99.90818022
C      90.28184088      74.01286038     101.97743053
H      90.73537519      75.88746889     101.25177564
H      92.08463979      73.02831296     102.10971138
H      89.44280240      74.35868029     103.82936233
C      90.43868817      76.78697861      96.51801123
O      92.72714673      77.14602661      96.58415164
N      88.60943309      78.35167200      97.48177165
H      86.80096500      77.75640821      97.33059353
C      89.13099755      80.77052167      98.65718140
H      91.14922526      80.86689771      99.06347256
C      88.42046046      82.87756652      96.86383113
H      88.39211456      84.68981404      97.84081964
H      86.56474923      82.56765140      96.02290292
C      90.27239224      83.00039872      94.71332259
H      90.26672307      81.30531422      93.54358200
H      92.18101583      83.09677476      95.48055147
C      90.05129426      85.40602032      92.95398739
H      91.97692538      86.04474781      92.60060857
H      88.75683174      86.61355543      94.00467522
N      88.77005983      84.90335311      90.56537334
H      88.26928236      83.08543640      90.28191438
C      88.71903721      86.39056773      88.66997785
N      89.23115305      88.77918178      88.70588265
H      88.88722286      89.93758401      87.22811666
H      90.21570045      89.56152848      90.14207465
N      88.10298643      85.57042651      86.39852681
H      87.95747751      87.03685412      85.18343279
H      87.50583292      83.82809884      85.89585962
C      87.81574804      81.10500323     101.12327425
O      85.51217167      81.10500323     101.19697357
N      89.24060167      82.04230749     103.01489029
H      90.82041287      82.93425831     102.42340594
C      88.23526728      82.40513494     105.55657217
H      86.87277460      80.88012579     105.80601605
C      90.42923953      81.94782116     107.34047381
H      89.77539423      82.20104449     109.27555356
H      92.06763224      83.19504054     107.25732586
C      91.58197258      79.23039472     107.45196766
H      91.82196783      78.78819878     105.45452696
C      94.21625106      79.29842487     108.90327747
H      95.14221696      77.45972117     108.97130763
H      93.76838592      79.91447565     110.81757024
H      95.47858823      80.58343877     107.90550199
C      89.84531409      77.22539511     108.59525208
H      88.30329743      77.04020193     107.24031833
H      89.47303801      77.76585683     110.54733936
H      90.83931015      75.42259620     108.66517196
C      86.93135613      84.91280176     106.11026198
O      85.98460324      85.08287712     108.22108628
N      86.85954653      86.81575614     104.45297200
H      87.68535693      86.67969586     102.73710052
C      85.58587099      89.30074626     104.63249601
H      84.24794476      89.17035513     106.19529966
C      87.46047949      91.36054793     105.22775979
H      88.61888172      90.74638688     106.81890935
H      86.47782180      93.05563244     105.86270784
C      89.44469212      92.01061379     103.15095057
H      88.92690712      93.54696128     101.88105450
H      89.93791068      90.23616078     102.23065386
C      91.91078495      92.85154199     104.59281175
H      92.72903645      91.19992120     105.51499820
H      91.45914038      94.49182444     105.75499343
C      93.84964415      93.98348806     102.55946625
H      92.70447001      95.01527863     101.19130440
H      95.05906899      92.42635358     101.95475382
N      95.77338554      95.41023143     103.88983357
H      95.09497379      97.13555154     104.35092678
H      97.38910154      95.55196090     102.88071971
H      96.21558150      94.48048607     105.49799067
C      84.08920775      89.93380457     102.25899975
O      84.49549891      88.79429960     100.31258166
N      82.10499512      91.61944044     102.56702515
H      82.05208279      92.32619808     104.33769871
C      80.18692291      92.28084465     100.68485774
H      79.46882691      90.52339918      99.88550351
C      77.79641912      93.60365307     101.52578596
H      78.29152742      95.55951979     101.93774629
C      76.04275311      93.73593390      99.26378356
H      75.19237627      91.87833295      99.00111159
H      76.86667378      94.29907235      97.46098466
H      74.62356865      95.17968482      99.64550826
C      76.72116486      92.32619808     103.85392877
H      78.14790823      92.07864394     105.31657694
H      75.78008116      90.55174507     103.39283554
C      74.68592961      94.12710725     104.95563920
H      73.34422394      94.61843609     103.47220405
H      75.53063728      95.83164039     105.74554481
H      73.73917674      93.15767766     106.50521478
C      81.41524502      93.77750789      98.58348208
O      82.49427875      95.79573558      98.92174309
N      81.47382654      92.75516595      96.25722898
H      80.59321407      91.06953007      96.11360980
C      82.50750683      93.71325720      93.88373275
H      83.69236523      95.35353964      94.27301636
C      84.22526805      91.84242815      92.60438802
H      85.86366076      91.41535000      93.77790806
H      84.74494279      92.64745156      90.78269187
C      83.03285074      89.17413458      92.08660302
C      82.04641360      88.70359274      89.75090130
H      81.58721012      90.27017585      88.52635864
C      81.39067858      86.29419169      89.01390803
H      80.62155996      86.05419645      87.14118926
C      81.67035806      84.23439000      90.65985965
O      81.15635252      81.85144512      89.65263552
H      80.81053260      82.02529995      87.88007225
C      82.61333150      84.70682159      93.17508538
H      82.48105065      83.14212819      94.48088626
C      83.26906654      87.18992195      93.93853480
H      84.00983924      87.64345628      95.78668713
C      80.35510855      94.72615050      92.25478865
O      78.03263491      94.46725800      92.71966133
N      81.07320455      96.04706918      90.23845069
H      82.95537197      96.27194661      90.01168352
C      79.31575908      97.33775225      88.48478467
H      77.33343619      96.96358645      88.90430391
C      79.59543858     100.17801091      88.91186282
H      81.49839298     100.77894388      88.40541615
H      79.49528309     100.34430682      90.96221586
C      77.63390266     101.89388240      87.70999688
H      75.88212638     101.24381655      88.57360181
H      77.66224855     101.56884948      85.67665136
C      78.14979794     104.76815612      88.28258394
H      80.09621606     105.32562538      87.90841814
H      77.97027395     104.88531915      90.32915754
C      76.21471820     106.41788719      86.87851729
H      76.21282848     105.77538025      84.92265056
H      76.90068885     108.36052585      86.88985565
N      73.73917674     106.38009267      88.12951612
H      73.79964797     107.32306610      89.78869582
H      73.05509581     104.60941912      87.93298458
H      72.59778205     107.33818390      86.93520908
C      79.41780431      96.58753092      85.68798972
O      81.47382654      95.96770069      84.72422930
N      77.18036835      96.21903428      84.55226421
H      75.62701333      96.11698907      85.65775411
C      77.10666903      95.32330401      81.97278779
H      78.44270553      93.78695652      81.65909322
C      74.41380903      94.38599976      81.29815550
H      73.13068487      95.93746506      80.87107735
H      73.45193833      93.44302633      82.85717970
C      74.49695698      92.56052414      78.98513048
O      75.10166940      90.29474229      79.28937643
O      73.82610414      93.41090099      76.90832127
C      77.65279993      97.39822351      79.95644981
O      77.57910061      99.59030602      80.47801427
N      78.29530687      96.74248847      77.58673301
H      78.25751235      94.86787997      77.22957475
C      78.43514662      98.63032506      75.49480598
H      80.03007562      99.87754442      75.87842044
C      79.14190426      97.42467967      72.95123437
H      77.87200818      95.89211163      72.42589046
C      79.22316249      99.34653134      70.74025459
H      79.29875154      98.12765785      69.08296461
H      80.73305382     100.69957537      71.10308203
H      77.39579714     100.21769517      70.35664015
O      81.38689913      96.22281373      72.93989601
H      81.43981146      95.18724371      74.42711062
C      76.01629694     100.11187048      75.24158267
O      76.04086338     102.32473999      74.73891546
N      73.79775825      98.90622509      75.47968818
H      73.72027948      97.00138097      75.58929230
C      71.32410651     100.10053213      75.72913206
H      71.50363050     101.84852897      74.65387777
C      69.29643017      98.40922707      74.55372228
H      67.38591686      99.17267650      74.62931133
H      69.43060074      96.51761103      75.35307651
C      69.92003985      97.81774275      71.74180953
H      71.95527509      97.65522628      71.46779921
H      69.43626991      99.52038616      70.68923197
C      68.58400335      95.51794582      70.62687100
O      69.57233021      93.30507631      70.88198406
O      66.41648728      95.69369037      69.67255921
C      70.54742899     101.00382131      78.33128518
O      68.46684032     101.87498514      78.86607774
N      72.28786693     100.98492405      80.16431970
H      74.08499664     100.60508906      79.64842443
C      71.97228263     102.50426400      82.52080842
H      70.90080782     104.24848138      82.28648236
H      73.96972335     102.72536197      82.97245301
C      70.77419614     100.93957062      84.63730190
O      70.98206605     101.70302004      86.79536934
N      69.65547817      98.73237027      84.06660454
H      69.61768364      98.27316679      82.21467276
C      68.43660469      97.06374195      85.96955894
H      67.12135518      98.15978320      87.11284337
C      67.05143531      95.04362452      84.52013885
H      65.63980976      94.21403467      85.76924795
H      68.38558209      93.69247021      83.72078462
C      65.42060151      95.99982603      82.28837208
C      65.29210011      94.49749361      80.10006902
H      66.19727901      92.66823855      80.05282586
C      63.88425402      95.35731909      78.06294404
H      63.65559712      94.12143808      76.45289722
C      62.77309494      97.77994821      78.08184131
O      61.44272762      98.59630999      76.01259099
H      60.58668160     100.19501844      76.10518758
C      63.02442853      99.33708269      80.29093137
H      62.17594142     101.19090421      80.40620467
C      64.31700134      98.43946270      82.38663786
H      64.47573834      99.64510809      84.02503057
C      70.42837624      95.80707395      87.87251334
O      72.65258410      95.76549997      87.25835229
N      69.79153847      94.92646149      90.14585410
H      67.95283477      95.00205053      90.65041102
C      71.55087367      94.20647576      92.18486878
H      73.49918149      94.69591487      91.72944474
C      70.70994545      95.69746982      94.52434996
H      71.67370587      95.00582998      96.20809611
H      68.68793830      95.39889307      94.78324247
C      71.35623186      98.47914696      94.41285611
C      69.46083637     100.30273285      94.26923690
H      67.49363127      99.75849167      94.32214924
C      69.99562890     102.88787845      94.11616907
H      68.44605334     104.20879713      93.95932179
C      72.63935602     103.62865116      94.14640470
O      73.47272532     106.00025768      94.40340747
H      72.08566620     107.16810853      94.33159787
C      74.56309741     101.73136594      94.52812941
H      76.57754565     102.06206804      94.54702667
C      73.87901648      99.22180940      94.64340272
H      75.22639134      97.71947697      94.95898701
C      71.63213189      91.37377602      92.68942571
O      69.73862612      90.12466693      92.39273868
N      73.82610414      90.29474229      93.27713059
H      75.37756945      91.37944519      93.52279501
C      74.19460077      87.51117544      93.38295526
H      72.44660394      86.68536503      94.09538208
C      74.89379952      86.56253283      90.66930828
H      76.86100461      87.15590689      90.51813017
C      74.76907758      83.65802347      90.29136302
H      72.83399783      82.95882475      90.21199451
H      75.69126402      82.66780690      91.84282832
H      75.77063252      82.96827337      88.62840386
O      73.31965750      87.49038845      88.74178744
H      73.93381855      89.16846541      88.43376205
C      76.31487369      87.01039796      95.32370420
O      77.68870473      88.81886604      96.04557965
N      76.61345045      84.64257088      96.21187556
H      75.29442148      83.37267481      95.67330355
C      78.18759248      83.77518652      98.33025875
H      80.05842152      84.61989418      98.17152175
C      77.01596216      84.54052566     100.97020642
H      76.32243260      86.47371569     100.78690296
C      74.52719261      82.89835350     101.78089901
H      74.04153295      83.41613852     103.71408902
H      75.23772970      80.96894294     101.91317985
H      72.94927114      83.23283506     100.49966456
C      79.05875631      84.89579421     103.03378754
H      80.17558456      86.40568554     102.18341071
H      80.31542430      83.26685013     103.11693550
C      78.08554725      85.37767443     105.77955988
H      79.51040090      86.18836702     107.03055871
H      77.39201769      83.60889059     106.56946547
H      76.48305934      86.67213695     105.82680303
C      78.60333227      80.85933882      98.08837378
O      77.30698001      79.56109684      96.78068318
N      80.33621129      79.78408454      99.50755824
H      81.62878409      80.82532374     100.45053168
C      80.83887849      76.98539987      99.32425480
H      79.09088166      75.97628601      99.73621514
H      82.17302527      76.78130942     100.87949955
C      81.97082456      76.14636139      96.84493388
O      83.59409945      77.44649309      95.76023097
N      81.02029222      74.05065490      95.97754950
H      79.61811529      73.27775684      97.01122978
C      81.10721962      73.29476437      93.34327101
H      82.67947193      74.26608370      92.43242294
C      81.60421765      70.36568859      93.31492513
H      79.94881739      69.57200355      94.24844992
C      81.95003757      69.38303092      90.60127814
H      83.83409470      69.97262553      90.01546297
H      80.56108872      70.10679609      89.26524163
H      81.86122042      67.32700869      90.71655144
C      83.90968376      69.59656999      95.04024524
H      83.37489121      69.58145218      97.03012706
H      85.42335453      70.97418046      94.80213972
C      85.41390589      67.12102852      94.51679105
H      84.24038585      65.47696663      94.11049990
H      86.48727045      66.45962431      96.14573513
H      86.85198762      67.47440733      93.08626824
C      78.64868570      74.02419873      92.10172083
O      76.61156073      72.97918008      92.53068870
N      78.47294114      76.31643676      91.01134874
H      80.15668730      77.16303415      90.71655144
C      76.64746553      77.05720946      89.17264504
H      76.52085386      75.45472155      87.88574142
H      77.40524579      78.73150699      88.23912025
C      73.96405416      77.67326024      90.25167877
O      72.12724019      78.10978703      88.86461965
N      73.78075072      77.95105001      92.70643324
H      75.35678246      77.95860892      93.78546697
C      71.36568049      77.98884455      93.99900604
H      70.19027071      76.81154505      92.78202230
C      71.59055792      76.79264779      96.53501876
H      72.94738140      77.66003216      97.81814292
H      72.43904503      74.93882627      96.24589063
C      69.05832466      76.44682786      97.94286486
N      67.72417788      74.16025903      97.90884979
H      68.39503072      72.48974097      97.27390174
C      65.45272686      74.56088100      98.63639441
H      63.83701086      73.36279452      98.29435395
N      65.13336311      76.95138479      99.44330755
H      63.63103068      77.92081440     100.10471176
C      67.54654360      78.17403771      98.95197871
H      67.86023818      80.19226542      98.95197871
C      70.36223581      80.71949907      94.10105126
O      71.20883320      82.18214722      95.71298781
N      68.80888078      81.19571010      92.23589139
H      68.40447936      79.81809961      90.97733367
C      67.80543611      83.67125157      91.80314408
H      69.40036511      84.97327300      91.76912899
C      66.79254280      83.75250980      89.15374777
H      64.95194937      82.82654390      89.18587313
H      68.08889505      82.59977675      88.04258870
C      66.72262294      86.43025199      88.06148597
H      68.34778757      87.52251379      88.70210320
C      67.00230243      86.09388069      85.21744786
H      65.45650631      84.94870656      84.48423406
H      68.91281574      85.46649157      84.77336218
H      67.20072369      87.96848919      84.38596829
C      64.24519173      87.88156179      88.56793262
H      64.66849043      89.88656141      88.77013333
H      63.22662925      87.50172681      90.31592946
H      62.88269906      87.89667959      87.02402623
C      65.94216597      84.37045030      93.81003341
O      64.47762807      82.83788226      94.71521232
N      65.78342896      86.79685889      94.44120201
H      67.05521477      88.00439400      93.68720121
C      64.17905132      87.77573711      96.59549000
H      63.12080459      86.40568554      97.71231825
C      65.99507830      89.01728730      98.58726153
H      65.05399460      90.23427105      99.95731312
H      67.30465864      90.35332381      97.72365661
C      67.69205254      87.32787197     100.15951383
H      68.87313148      86.35277321      98.78379308
C      69.28320208      89.04563319     101.88672367
H      68.03976217      89.99049636     103.22842936
H      70.18460153      90.48938410     100.72454200
H      70.81765986      88.10077004     102.88827862
C      66.29932424      85.41168949     101.77334010
H      64.73085140      86.33576566     102.73899024
H      67.60890457      84.48761333     103.06780262
H      65.45083712      83.85833447     100.71887281
C      62.10980101      89.79018537      95.66574465
O      59.88748286      89.12689142      95.74511315
N      62.76175659      91.96526035      94.67930752
H      64.60801919      92.36588233      94.41852528
C      61.06100290      94.03073122      93.98955742
H      59.27710126      93.13878039      93.47177240
C      60.38826033      95.71069790      96.27234680