 %block lattice_cart
   142.669   0.000   0.000
   0.000 146.65   0.000
   0.000   0.000   162.396
 %endblock lattice_cart

 %block positions_abs
N      91.48654140      41.56531473      82.75513448
H      93.36870881      41.70515448      83.04804206
H      90.86104199      40.04219532      81.79137406
H      90.55112689      41.47649759      84.41620391
C      90.55868578      43.88400891      81.43799524
H      90.98387421      45.52051190      82.61529474
C      91.74921337      44.13534251      78.77726059
H      90.90072624      42.84843889      77.41098847
H      93.80712532      44.07865072      78.88308527
C      91.14261121      46.82820251      77.86263306
H      89.16406776      47.24016285      77.45445218
H      91.97409079      46.93024773      75.97857593
S      92.57691349      49.33775905      79.69188813
C      91.62449143      51.91912520      77.66232207
H      89.63460961      51.69802722      77.18233159
H      92.86415189      51.82652861      76.01826018
H      92.06290793      53.75782890      78.48057356
C      87.72787578      43.54007873      81.36240619
O      86.83214549      41.62200652      80.47234510
N      86.46175915      45.33909818      82.55860295
H      87.35748942      46.59954563      83.67732092
C      83.68197173      45.54885780      82.70033242
H      82.85427161      44.54730285      81.09973423
C      82.95442711      44.42258091      85.25713212
H      83.85582655      42.58576694      85.48389928
H      80.96832474      43.92936235      85.00390880
C      83.69142036      45.89656744      87.47945027
O      85.22965759      47.66913072      87.44732492
N      82.71254214      45.45059203      89.58460538
H      83.12639219      46.38978601      91.19276247
H      81.33871110      44.15046032      89.84916706
C      82.92797093      48.24549724      82.46222691
O      84.58715064      49.86688242      82.44332964
N      80.59037948      48.86532748      82.76458312
H      79.33938066      47.45559165      83.06127015
C      79.44898480      51.36354566      82.74379613
H      80.04802803      52.15156153      80.93721777
C      76.59738778      51.35220730      82.99324000
H      75.83960753      50.49427156      81.28114796
C      75.68464997      49.81208036      85.41208968
H      76.68809465      48.03573762      85.68043082
H      73.67587091      49.37744331      85.26847048
H      76.15708155      50.96292368      87.05615157
C      75.01379714      53.84664604      83.31638320
H      75.24245403      54.76694275      85.14374854
H      73.02013587      53.39311172      83.05938042
C      75.61473011      55.47559012      81.05627053
H      74.03491891      56.68879441      80.53092661
H      75.77913630      54.13388444      79.50291550
H      77.38918312      56.48659370      81.33028084
C      80.60360758      52.98115139      84.81304644
O      81.12706175      55.23370515      84.11573743
N      81.10627476      52.03628823      87.16197625
H      80.80013910      50.19191535      87.53425233
C      81.98499750      53.63688642      89.22366765
H      80.74911650      55.28094831      89.34083068
C      81.71476664      52.35376225      91.79558516
H      82.43097292      53.79184397      93.08437851
H      82.95820656      50.71347981      91.89952011
C      79.04269364      51.80763134      92.74044832
C      77.48555916      50.05018587      91.42708853
H      78.22633186      48.91068091      89.90585885
C      75.05726085      49.66657143      92.22077359
H      73.72878324      48.43258015      91.28157961
C      74.04814699      51.18780111      94.21443485
H      72.09605970      50.89867299      94.72844040
C      75.56370749      52.90934179      95.44653640
H      74.88151630      53.91089673      97.09059829
C      78.10727912      53.14744730      94.79269110
H      79.23355599      54.51560915      95.80558440
C      84.56258419      54.82930372      88.80036896
O      84.81769725      57.02327597      89.43342727
N      86.30113241      53.38744254      87.63440782
H      86.00822482      51.50338541      87.71755578
C      88.85037321      54.32096734      86.86717894
H      89.86137677      55.15433664      88.45643877
C      90.58136250      52.02306014      86.16798020
H      92.31424154      52.78650957      85.35728762
H      89.51933632      50.98182095      84.74123684
C      91.14639067      50.18057699      88.22400243
H      89.50610823      49.68546870      89.36728685
H      92.55423677      51.00638739      89.48256016
C      92.09314356      47.75416840      86.90875292
O      90.57569333      45.98538457      86.54781519
O      94.39671992      47.45937110      86.78214126
C      88.56880398      56.10864843      84.72800875
O      89.78767745      58.07396380      84.55793339
N      86.82458659      55.67023193      82.91387149
H      86.09137279      53.90711728      82.95166602
C      86.23499198      57.34641917      80.81438556
H      87.83181071      57.51649454      79.52559221
C      83.97487932      56.33730532      79.30449424
H      82.26656672      57.31807327      79.90353748
H      83.75189160      54.28884199      79.33661958
C      84.22999236      57.26516094      76.58895752
H      85.64350764      56.14455323      75.59307176
H      84.89139657      59.21535849      76.55305272
S      81.20643026      56.82674443      74.99591824
C      82.09271190      57.96246995      71.87598010
H      82.64451199      59.93912367      71.69078692
H      80.45242946      57.78105622      70.64198882
H      83.61205187      56.70202250      71.29205467
C      85.67185355      59.94290312      81.59484253
O      86.91529346      61.70034859      80.76714240
N      83.86338546      60.26982577      83.39575170
H      82.94875792      58.67489677      83.90786753
C      82.99789080      62.75103642      84.48234433
H      82.83915379      64.01148387      82.85906943
C      80.54502605      62.33340691      85.80893221
H      80.25022874      63.71668657      87.30937490
H      80.73021923      60.54194636      86.80481797
C      78.26223666      62.22002333      83.92676480
H      78.61372576      61.08240809      82.24868783
C      75.81693082      61.29594716      85.20044033
H      74.23900934      61.21657866      83.87952164
H      75.36150678      62.47513638      86.82560496
H      76.12684594      59.49503799      86.15097267
C      77.88051196      64.84485317      82.94410711
H      78.15074282      66.24325065      84.42943200
H      76.23645006      65.10752514      81.72901310
H      79.52079439      65.30405667      81.78570488
C      85.08981783      63.98880716      86.13207540
O      85.25233431      66.36608286      86.20766446
N      86.83781468      62.49781310      87.19788105
H      86.70175438      60.66099912      86.69332412
C      89.11304516      63.29716733      88.50935111
H      88.67084920      64.77304358      89.87751296
C      90.19207889      61.29783689      90.35372399
H      92.03078258      61.95357192      91.00756929
H      90.50577345      59.49881744      89.40319165
C      88.55746562      61.06918000      92.80658874
H      86.56002491      60.77816215      92.39840786
H      88.49699437      62.81717684      93.89507110
C      89.94452473      59.13221053      94.42797392
H      91.89661201      59.64054691      94.84560343
H      89.97287063      57.35019862      93.39429363
N      88.55935535      58.55395428      96.77879345
H      87.45008601      57.01004788      96.61438726
C      88.75210743      59.41189003      99.05780339
N      89.97476036      61.54539104      99.38094659
H      90.21664533      62.06317605     101.20075302
H      91.16150849      62.33907609      98.11105050
N      87.86582580      58.15522203     100.91540435
H      88.44786150      58.87709748     102.58403269
H      87.34237161      56.35053340     100.57336389
C      91.23142835      64.60485794      86.87473785
O      92.73942995      66.07506500      87.94621267
N      91.13505231      64.31384008      84.28392307
H      90.08814394      62.88709672      83.56960652
C      92.92840258      65.70845809      82.58883857
H      94.02633357      66.95378774      83.80582231
C      94.79167273      63.95857154      81.26980960
H      95.51543790      65.30594640      79.88841967
C      97.15194089      63.44834543      82.93843794
H      98.53711029      62.38065007      81.85184531
H      96.68328876      62.47324666      84.69210395
H      97.81901429      65.37586627      83.23323524
C      93.62382186      61.59263419      79.81472034
H      92.22353466      62.35419390      78.51080918
H      92.74131967      60.61942514      81.40398017
C      95.36803925      59.82951954      78.30482902
H      96.97430661      59.09063655      79.36307575
H      96.08991471      60.65910939      76.56061163
H      94.18507059      58.30073096      77.59429192
C      91.44496742      67.31661519      80.75958350
O      92.27077783      69.33484290      80.04148750
N      89.30390751      66.53237878      79.84873541
H      88.71242317      64.75225658      80.19644506
C      87.71275796      67.73424471      77.87208169
H      88.95997733      68.35974412      76.35652119
C      85.96665085      65.82751086      76.57950889
H      84.64006298      65.23791625      78.04026733
H      87.11749417      64.31572981      75.78582384
C      84.51723076      67.05016378      74.41010309
O      85.87216453      67.24858504      72.46368498
O      82.22688247      67.45078575      74.43655925
C      86.31247077      69.97357039      79.03804283
O      85.85326726      71.80849464      77.73413167
N      85.84381863      69.97357039      81.51736375
H      86.23121253      68.33706739      82.42065293
C      85.21831922      72.26391868      83.10662358
H      85.29957745      74.02892306      82.05026657
C      82.60104828      72.04471043      84.21400320
H      82.51979005      70.75402736      85.81838084
H      81.26879124      71.46078500      82.75702421
C      81.86405502      74.64875328      85.42909722
H      83.20198125      74.98701429      86.95788580
H      80.08204310      74.22734432      86.37207065
C      81.22343781      76.87296116      83.69621819
O      83.06025178      78.03703257      82.68710434
O      78.93497923      77.42098179      83.30315511
C      87.37071750      72.46800912      85.09650539
O      88.83147593      74.16120389      85.07193894
N      87.26300309      70.95811779      87.16197625
H      85.75689123      69.79026694      87.18654269
C      88.75021771      71.09795755      89.45610399
H      90.72309197      71.54015351      89.06493064
H      88.81257867      69.32917371      90.51435072
C      87.82236209      73.02736810      91.47244197
O      86.34081665      74.63552520      91.01323847
N      89.25855408      72.92154344      93.54736146
H      90.50766318      71.47779253      93.60972243
C      88.86738074      73.95900319      96.05691800
H      86.90395509      73.89853193      96.67485851
C      90.20719669      72.22612416      97.97687993
H      92.19896822      72.72501189      97.82948128
H      89.79334664      70.32505948      97.30035791
C      89.39839384      72.55304681     100.73777008
H      90.04279050      74.34828681     101.50877841
C      86.54112764      72.52470091     101.19130439
H      85.97987893      72.28848512     103.15850948
H      85.65484600      70.91654382     100.25588987
H      85.62461039      74.24057240     100.51478237
C      90.59648032      70.24191153     102.13994700
H      89.75555210      70.34962592     104.01833496
H      92.65628200      70.25891906     102.07947576
H      89.97098091      68.47123797     101.29523934
C      89.80846444      76.72367278      96.51990095
O      92.09125382      77.09783859      96.50289341
N      88.08125459      78.52836140      97.24744558
H      86.22176390      78.10128325      97.16807707
C      88.82013757      80.93587272      98.38506082
H      90.87427009      80.98500562      98.50411358
C      88.20030734      83.11094772      96.64084343
H      88.30424229      84.79091440      97.82948128
H      86.33136802      82.90118810      95.79802550
C      90.31491109      83.45487791      94.73788903
H      90.92907214      81.65207900      93.95365261
H      92.04212094      84.04636224      95.69409055
C      89.67996306      85.22366174      92.63462365
H      91.41473181      85.90396320      91.75590091
H      88.61982658      86.79591403      93.44153678
N      88.19085871      84.15029718      90.75623569
H      87.00222086      82.76512780      91.31370496
C      88.29479366      84.47533011      88.27880450
N      89.66484525      86.22143723      87.15252761
H      89.59681510      86.44631466      85.25713212
H      90.47364810      87.61416551      88.17864900
N      86.84348385      82.90496755      86.94087827
H      86.69041602      83.27157446      85.07382867
H      85.86271590      81.60105640      87.93298458
C      87.59181548      81.10783782     100.93241189
O      85.33170280      80.86028368     101.04768519
N      88.87493965      81.71632970     102.97331631
H      90.67017964      82.28324758     102.66907037
C      87.91873813      82.00923728     105.60570506
H      86.28790431      80.75067954     105.56224136
C      89.98042953      80.92453438     107.25165668
H      89.40973218      81.00579261     109.23020013
H      91.59992499      82.19065101     107.10992721
C      90.77222486      78.11262161     106.62237782
H      91.59047635      78.11829080     104.73076178
C      92.63927445      77.28492149     108.51399386
H      94.43451445      78.27513808     108.31935205
H      92.98131492      75.26480406     108.71808430
H      92.00054697      77.76113252     110.41127907
C      88.48565602      76.33060971     106.93418266
H      87.44630654      76.38541177     105.15595020
H      87.22709829      76.95988856     108.43651508
H      89.03367665      74.34639707     106.83213744
C      87.22331884      84.68697945     106.31246270
O      86.19152827      85.12917541     108.31557259
N      87.72598604      86.53135235     104.69485698
H      88.59148070      85.92663993     103.10370742
C      86.85671193      89.16563082     104.74776931
H      85.86271590      89.64373158     106.48820725
C      89.03934584      90.96465027     104.86682207
H      90.35459535      90.66040434     103.31157732
H      90.26388848      90.73599339     106.50710451
C      88.40061833      93.84648290     104.75910767
H      86.97576470      94.28111996     106.18396131
H      87.59748465      94.25088433     102.90717589
C      90.57758305      95.56046467     105.34681256
H      91.94385518      95.09748172     103.87660548
H      91.52244620      95.07669473     107.10992721
C      89.81980279      98.37048770     105.17106801
H      89.09603763      98.73898433     107.06457377
H      88.36471353      98.61615212     103.73109656
N      91.99487778     100.04478521     104.64194464
H      92.38227167     100.28667018     102.78812313
H      93.66350611      99.39849881     105.30523858
H      91.56779964     101.72664163     105.43940914
C      85.07847947      89.60026788     102.53301008
O      85.07847947      88.32281288     100.59982006
N      83.27757031      91.39928733     102.77678477
H      83.20198125      92.51611558     104.32447062
C      81.31792412      91.96998466     100.77556460
H      80.40518631      90.26734126     100.06691724
C      79.32993204      93.88994661     101.85081888
H      80.35038424      95.06724610     103.19630401
C      78.20743461      95.58314139      99.75889185
H      77.34571941      97.22909300     100.65084267
H      76.75990425      94.50032821      98.77245471
H      79.55103002      96.46753330      98.47387796
C      77.32304269      92.30068678     103.13961222
H      78.16775036      90.99677561     104.49076654
H      76.41408434      91.27267567     101.60326473
C      75.25001292      93.81435756     104.69485698
H      76.20621443      94.13183158     106.49198670
H      73.50012635      92.73532382     104.82713782
H      74.75679436      95.56046467     103.71975820
C      82.79002091      93.12082800      98.39450945
O      84.61549654      94.60048370      98.52112111
N      82.06814546      92.14006004      96.20242693
H      80.88328706      90.66229406      96.43297354
C      82.79002091      92.89028139      93.68531148
H      84.18085948      94.40017271      93.83648958
C      84.33581703      90.75678038      92.40974622
H      85.92696660      90.11238371      93.54925118
H      85.33359254      91.61660585      90.82426584
C      83.01867780      88.34171015      91.35338921
C      82.41774484      87.99777995      88.82115595
H      82.60671747      89.55869390      87.51724479
C      81.28579877      85.70743167      87.94432294
H      81.06659052      85.52790767      85.92231578
C      81.04958299      83.67030671      89.68476087
O      80.25589792      81.41019404      88.69643401
H      79.45465397      81.67853516      87.09016665
C      81.57870635      84.04636224      92.27935510
H      81.37650564      82.39285172      93.45854432
C      82.54813595      86.41796877      93.11272441
H      83.43063814      86.50867562      94.95142811
C      80.51479044      93.61782601      92.13951535
O      78.32648736      93.51389106      93.04847371
N      81.13462066      94.30001721      89.72822458
H      82.98655246      94.70063920      89.51090605
C      79.45843343      94.96709061      87.63062837
H      77.49689752      94.83858922      88.24667915
C      79.80992252      97.76010609      86.86339949
H      78.78758059      98.19096369      85.12674101
H      81.76956871      97.91884311      86.24923844
C      79.05025255      99.57991254      88.93831898
H      80.38061986      99.39093991      90.49923291
H      77.23422555      99.10937069      89.78869582
C      78.92931006     102.34080267      88.05014761
H      78.29814146     103.31401173      89.75468075
H      77.47233106     102.46741434      86.60072753
C      81.55602963     103.16283362      87.12040227
H      82.01145368     102.08568963      85.42531776
H      82.98277300     102.50520887      88.45265932
N      81.79413515     105.76120730      86.23412063
H      83.25300387     105.77821483      85.00390880
H      82.17208041     107.00842667      87.62684892
H      80.21432394     106.46985467      85.43098694
C      79.82315060      93.27389583      85.34594926
O      81.84326803      92.54635119      84.43132172
N      77.64051671      92.67674232      84.30848951
H      76.03046990      93.30602118      85.12107183
C      76.98856113      91.32936745      82.00491314
H      77.72555439      89.45286923      82.42443238
C      74.02169083      91.18385853      81.72334392
H      73.39619142      93.14539444      81.64208569
H      73.15052700      90.16529604      83.28803730
C      73.36973524      89.55869390      79.45000316
O      72.51935840      90.63772762      77.53760013
O      73.57760513      87.23055107      79.61440935
C      78.33215655      92.68052177      79.71078539
O      78.83671347      95.00110567      79.95833954
N      78.81403675      91.36716198      77.61696864
H      78.15641199      89.57381170      77.59996110
C      79.22032791      92.62194024      75.15843471
H      81.08359806      93.44775065      75.45323201
C      79.46599233      90.77756737      72.78682818
H      79.80425333      91.98699221      71.15599437
C      81.42752824      88.70264787      72.92855766
H      81.46343304      87.77101280      71.09174368
H      80.64707128      87.32881685      74.25136608
H      83.23977577      89.45475895      73.55405707
O      77.08304745      89.73254872      72.43722881
H      77.06226046      89.05791643      70.75348267
C      77.11895225      94.69308029      74.53104557
O      77.94287292      96.61115249      73.44256321
N      74.74356628      94.56079945      75.37575323
H      73.92531479      93.00555468      76.12030540
C      72.98234135      96.58847578      75.08095593
H      73.77413667      97.97931435      73.78649340
C      70.52569715      95.42818382      74.09262906
H      68.97234212      96.77555868      74.03026810
H      69.64697441      94.00710964      75.30205391
C      70.90364240      94.37182681      71.44701223
H      72.22456110      92.81091288      71.19756835
H      71.38741235      95.89872568      70.15065998
C      68.34684271      93.16996088      70.92733749
O      66.59317669      94.50788711      70.03349694
O      68.01614059      90.83425916      70.92922722
C      72.63085226      98.28922947      77.49224670
O      70.65419854      99.46841868      77.93633239
N      74.62262379      98.33458290      79.02670447
H      76.09661031      97.22153410      78.54293453
C      74.92120055      99.85959203      81.34917811
H      74.38829773     101.83246630      81.08272670
H      76.96021523      99.79534134      81.63074733
C      73.60595104      98.81079393      83.70566682
O      74.22389154      99.61581734      85.77302741
N      71.60662060      97.28200534      83.35984690
H      71.36095618      96.51477646      81.63074733
C      69.78492442      96.45241549      85.25524240
H      68.80604619      98.08702874      86.03947882
C      67.69110767      94.77622824      84.12329633
H      66.37774788      94.41718024      85.66909246
H      68.53770506      93.00933414      83.48456884
C      66.12830401      95.81935717      81.89530901
C      65.42910527      94.37182681      79.89030939
H      65.97334645      92.40462172      79.94133200
C      64.24991605      95.39416875      77.83239744
H      63.81716873      94.37938572      76.11652595
C      63.49591525      97.93396092      77.84751525
O      62.31483632      98.92984669      75.72913205
H      62.22790890     100.71941750      76.00314237
C      64.16487838      99.53455910      79.88464021
H      63.60173993     101.49609502      79.85818405
C      65.46878953      98.53867333      82.01436177
H      65.90720604      99.58558172      83.70944627
C      71.31938220      95.21275503      87.42842766
O      73.08816602      93.56680341      86.94087827
N      70.78269993      95.80234964      89.80192390
H      69.10651268      96.69807991      89.98333763
C      71.91275626      94.97464951      92.14707426
H      73.90452780      95.43574273      91.89952011
C      71.02458488      96.58280659      94.49978352
H      71.13796847      95.43763245      96.20809611
H      69.00068801      96.86248610      94.22955266
C      72.55337348      99.06590697      94.89284659
C      71.37418425     101.46207994      94.59426983
H      69.40886889     101.70585464      94.09727181
C      72.62140362     103.76754605      94.92686167
H      71.62551785     105.54766822      95.00056099
C      75.18198277     103.67683917      95.25945350
O      76.60872614     105.84813472      95.63361931
H      75.42953693     107.22385547      95.72432617
C      76.48400420     101.40160869      95.38417543
H      78.52112917     101.35625527      95.49944874
C      75.17631360      99.08669396      95.11205484
H      75.96999866      97.21397519      94.94764866
C      71.70488636      92.07580935      92.52879897
O      69.72256345      91.05913659      92.41163594
N      73.65130447      90.70953722      93.37728609
H      75.21410812      91.77534285      93.62672996
C      74.08027233      87.92408063      93.41886007
H      72.33227550      86.89795925      93.78546697
C      75.02702522      87.12661612      90.78269186
H      76.86572892      87.99966969      90.46710757
C      75.00812795      84.34115955      90.37451098
H      76.05881579      83.26212581      91.77857763
H      75.69031915      83.64196080      88.56037372
H      73.12029137      83.73077794      90.92631106
O      73.43965511      87.83337378      88.69454429
H      73.40752978      89.63995213      88.50557165
C      75.94543221      87.15496203      95.56180971
O      77.66319343      88.56658759      96.23455227
N      75.66764245      84.91941579      96.59737973
H      74.39396690      83.67408615      95.91329880
C      77.41941873      83.85738961      98.50033412
H      79.17308475      84.92886443      98.61938688
C      76.19865554      84.13706910     101.11949479
H      75.54858968      86.08348721     101.29901879
C      73.87240245      82.41552843     101.27256262
H      73.05037150      82.86906275     103.10559715
H      74.47144568      80.45399252     101.09303862
H      72.46077689      82.92008535      99.86093707
C      77.92019620      83.54747450     103.36259993
H      78.42853258      81.55381324     103.26244443
H      76.90352344      83.64007109     105.15406047
C      80.46376782      84.90051854     103.82936233
H      80.09338146      86.90173870     103.51188831
H      81.83003995      84.17675336     102.46686965
H      81.28012960      84.23344514     105.59814616
C      78.22255241      81.05681522      97.95231349
O      76.98667141      79.88329518      96.29880297
N      80.06503557      79.95510477      99.25055547
H      81.34060084      81.02657960     100.18219054
C      80.52801851      77.23956807      99.30346781
H      78.93497923      76.33438915     100.24455151
H      81.98310778      76.83705636     100.70564473
C      81.26879124      75.96211307      96.82603661
O      82.83159489      76.88240978      95.45598503
N      80.00645406      73.90987029      96.04746937
H      78.89151553      73.29004006      97.46476410
C      80.06314585      72.70422491      93.57381763
H      81.79602488      73.44121818      92.73477914
C      80.59604867      69.82617174      93.89318137
H      78.90852306      68.94366955      94.68119724
C      80.79069047      68.70745376      91.24567481
H      80.99856037      66.65710071      91.29291797
H      82.44231128      69.50491827      90.30837056
H      79.24678407      69.26681275      90.00223489
C      82.93930929      69.24791548      95.53724326
H      82.44798045      69.58428677      97.50822781
H      84.42085472      70.63497460      95.17252609
C      84.24699990      66.67410825      95.35016036
H      85.75689123      66.53426850      96.74288865
H      85.13139182      66.78938154      93.49255939
H      83.03190588      65.03382581      95.63172958
C      77.79736400      73.63019081      92.17542015
O      75.93409385      72.24691115      92.22833249
N      77.80870236      75.87518567      91.22110837
H      79.36016765      76.94855021      91.50267759
C      75.90763768      76.67642962      89.33327178
H      75.45788282      75.05315472      88.14463393
H      76.72399945      78.14852641      88.14841338
C      73.39808114      77.76491198      90.33482672
O      71.74457061      78.24868191      88.84950184
N      73.08249685      77.86128802      92.83493464
H      74.64152105      77.69499211      93.92341699
C      70.57483003      78.20332848      93.99144714
H      69.23879353      77.13563311      92.84438327
C      70.34239369      77.32271601      96.63895371
H      71.33072055      78.46600044      98.04113063
H      71.15308627      75.43298971      96.76178592
C      67.59284191      77.09783859      97.47421274
N      66.17176772      74.89630744      97.66507509
H      66.61585340      73.09539825      97.21343050
C      63.84551462      75.47456368      98.47576768
H      62.38286646      74.18577034      99.08048010
N      63.78882283      77.95577434      98.79513143
H      62.27893151      78.77591556      99.62094183
C      66.13586291      79.08016148      98.07325598
H      66.65364793      81.04925631      98.21687518
C      69.94555116      80.98122616      93.62484024
O      70.99812872      82.44954351      94.98166373
N      68.19944406      81.42909130      91.82771051
H      67.28481651      79.87195682      91.20977001
C      67.37363365      84.11250266      91.20221110
H      68.89108389      85.49200287      91.01512820
C      66.05649442      83.93108893      88.50179220
H      64.08362014      83.34338406      88.59627852
H      66.71600890      82.36072637      87.34338997
C      65.77870465      86.41229958      86.83694332
H      64.94533534      85.96443444      85.00768825
C      63.94189066      88.44186565      88.02936062
H      64.68266338      89.53790690      89.60917182
H      62.26948289      87.42897233      88.67942647
H      63.33906797      89.90262409      86.70844193
C      68.16920844      87.65384977      86.02058155
H      67.50591449      89.08437259      84.69399368
H      69.43721479      86.24978312      85.20610951
H      69.01958527      88.46076290      87.71377633
C      65.65020326      84.99311513      93.31303539
O      64.15165029      83.57771012      94.42041501
N      66.03759715      87.31747849      94.15396360
H      67.63819534      88.01289777      93.38295527
C      64.80549559      88.49855744      96.29313379
H      63.78504339      87.11905723      97.42885930
C      66.73679588      89.80624805      98.06569707
H      65.75413821      90.84748724      99.54724250
H      67.51725286      91.28590375      96.86383114
C      68.71911879      87.93730872      99.22220958
H      69.89452855      87.02835036      97.79546621
C      70.59750675      89.47176649     100.76989543
H      71.89196927      88.27556972     101.83192161
H      69.76413744      90.72465503     102.17963125
H      71.62173841      90.63394816      99.41307193
C      67.43410489      86.04947214     101.00800094
H      66.43443967      87.08126269     102.48198746
H      68.87596608      84.87406237     101.89806203
H      66.12830401      84.81926031      99.99699736
C      62.77781925      90.39206319      95.42385969
O      60.67455388      89.95931588      96.14384541
N      63.55260705      92.37249637      94.10294099
H      65.38753130      92.58792518      93.62672996
C      61.89153761      94.52111519      93.39807308
H      59.95078869      93.87860825      93.13540112
C      61.79516158      96.38060588      95.70920836