 %block lattice_cart
   137.614   0.000   0.000
   0.000 142.646   0.000
   0.000   0.000   160.855
 %endblock lattice_cart

 %block positions_abs
N      85.06526034      42.83632070      77.66188554
H      84.03158004      41.23194306      77.70345952
H      86.75845512      42.31475623      76.95134845
H      84.24133966      44.18558528      76.59230045
C      85.38651381      43.81519893      80.25647977
H      86.22177283      42.27318225      81.33551350
C      87.12695174      45.99216364      80.40387842
H      86.63562291      47.35087686      78.93556108
H      88.91841229      45.14934570      79.83507080
C      87.69386963      47.34142823      83.00225211
H      88.52912867      46.06775269      84.38742149
H      85.88729129      47.99905298      83.74491455
S      89.71398706      49.92468410      82.38809105
C      92.68085738      48.50738936      83.46901450
H      92.37283199      47.90456667      85.41354288
H      94.14728500      49.89255875      83.04571581
H      93.16651703      46.86899665      82.31628145
C      82.73144833      44.37266819      81.49236078
O      81.23289537      45.36666423      80.02971261
N      82.42342294      44.00417156      83.92821800
H      83.79725398      43.14056663      84.93166267
C      80.06315478      44.75061345      85.20945244
H      78.62885252      43.48827627      84.43655438
C      80.65085966      44.07787088      87.97223231
H      82.33271609      45.02840322      88.68465913
H      81.30092552      42.12389388      88.05726999
C      78.62318334      44.70526002      89.88841479
O      76.58227892      45.65768208      89.23267976
N      78.99545941      44.00606128      92.24490350
H      77.52147290      44.20070309      93.43921053
H      80.69432337      43.41457695      92.88552072
C      79.40175057      47.50016524      84.95244966
O      81.22155702      49.14233740      85.01292090
N      76.97345227      48.34487290      84.89197842
H      75.64119521      47.01450557      85.20567299
C      76.02103021      50.97159247      84.68410852
H      76.75613374      51.65567340      82.88508907
C      73.04093180      51.05474043      84.32506052
H      72.43621939      49.85854367      82.76225686
C      71.58017337      50.33286498      86.66076225
H      71.90898574      51.44402405      88.36340566
H      71.92410356      48.38266742      87.22579041
H      69.54493813      50.35743142      86.33194987
C      72.16787824      53.68146001      83.25925488
H      72.90109206      55.30095546      84.30049408
H      70.12319437      53.92334497      83.21012200
C      72.82739274      54.34475394      80.48324693
H      73.14297703      52.71958931      79.25681455
H      74.69255261      55.21780750      80.40576815
H      71.48757677      55.75448977      79.81239409
C      77.15864545      52.73281740      86.68910814
O      77.87296199      54.95135609      86.20155875
N      77.37785369      51.65567340      88.88497012
H      76.88652486      49.86988203      89.34039416
C      78.39263673      53.01627634      91.06949374
H      77.29659546      54.73970674      91.32460679
C      78.04492708      51.41945761      93.48834342
H      79.29592591      52.03928784      95.00390392
H      78.60050662      49.52784157      92.89496935
C      75.29159585      51.18702127      94.47100110
C      73.48690722      49.46926005      93.43543108
H      74.21445184      48.13889273      92.07104868
C      71.01703493      49.31808195      94.45588329
H      69.64698334      47.99905298      93.71511057
C      70.27059304      51.03962262      96.31348425
H      68.39787426      50.92623904      97.11850766
C      71.99024397      52.87076742      97.12984602
H      71.24758153      54.21625255      98.47155170
C      74.36562996      53.23359487      95.99034105
H      75.74890962      54.49404232      96.79914392
C      81.07793781      53.90444771      90.61973887
O      81.60517146      55.97747748      91.54570477
N      82.63696203      52.42479201      89.23456949
H      82.07382358      50.64466982      88.84339614
C      85.29202749      52.97281264      88.92465437
H      86.05925638      54.35420257      90.24368334
C      86.87183869      50.55018351      89.15898043
H      88.72566020      51.18702127      88.51647349
H      85.90618855      49.14989631      87.99868848
C      87.29702712      49.37477374      91.76113357
H      88.57826155      47.76850637      91.64208081
H      85.57170699      48.72470789      92.67765083
C      88.58015128      51.25505142      93.62629344
O      87.54269154      51.51961310      95.69176430
O      90.63239406      52.24148856      92.95544060
C      85.60005288      54.32018750      86.36218549
O      87.00789898      56.17778847      86.22990465
N      84.12417663      53.74949015      84.41954684
H      83.27191007      52.05440565      84.62363728
C      83.75756972      55.26505066      82.08573484
H      85.46966176      55.24426367      80.94056070
C      81.65430434      53.94602169      80.55694626
H      79.98945545      54.03105937      81.76637110
H      82.09083112      52.02794948      79.94845438
C      80.94376725      55.19135133      78.18156028
H      82.57649079      54.95513554      76.95134845
H      80.76613298      57.20768931      78.56139527
S      77.98256611      54.25593681      76.83040597
C      77.98634556      56.03227954      73.96180142
H      78.72711829      57.90121886      74.40966656
H      76.11173706      56.00393364      73.11142458
H      79.15608615      55.03261432      72.59363957
C      83.24167445      58.16578055      82.65454246
O      84.56637258      59.89488012      81.72290739
N      81.44832417      58.76104434      84.35529615
H      80.26913495      57.36642632      84.90331678
C      80.85306039      61.36319747      85.01859008
H      80.64896995      62.33073734      83.21390145
C      78.28681205      61.42744816      86.36974439
H      78.00713255      63.31906420      87.13130410
H      78.50224085      60.22558223      88.03081382
C      76.06260418      60.58840968      84.81449964
H      76.26480489      58.81017722      83.79593716
C      73.78737369      60.26337675      86.61729854
H      72.06772276      60.07629385      85.49858056
H      73.42643598      61.76948863      87.97412203
H      74.00658196      58.59096897      87.80404667
C      75.55804726      62.48758462      82.72257261
H      77.30604410      62.37798050      81.63975943
H      75.55048835      64.31683970      83.66932549
H      73.85351411      62.08885237      81.63597998
C      82.90530315      62.92789086      86.43777454
O      82.88262644      65.23335696      86.12974915
N      84.51723970      61.75626054      87.91365079
H      84.40763558      59.85141642      87.87774599
C      86.83782362      62.82206618      89.20622359
H      86.45231945      64.46990753      90.37596418
C      88.07370463      60.90777343      90.97689715
H      89.79902474      61.65043587      91.82538426
H      88.96943490      59.42811772      89.85817917
C      86.09138173      59.85708560      92.94221251
H      84.56826231      58.93489916      91.91042194
H      85.41485970      61.47469132      94.02313596
C      87.39151342      57.84452707      94.74123196
H      88.93353009      58.75537516      95.75979444
H      88.22677246      56.32140767      93.63574207
N      85.46777203      56.49526249      96.20765958
H      85.27879941      54.65088960      95.76168417
C      84.22811157      57.22847630      98.30903524
N      84.58526986      59.49803760      99.24633949
H      83.80859234      59.82118080     100.95843153
H      85.40163161      60.93611932      98.29202770
N      83.04136345      55.61276030      99.66585873
H      81.99445508      56.35353301     101.07937402
H      82.82026547      53.74760043      99.32381827
C      88.88250749      63.68189165      87.40153496
O      90.57381254      65.11430420      88.26136043
N      88.75400609      63.02426690      84.93544212
H      87.16096681      62.05483730      84.52915097
C      90.43208307      63.86897456      82.89264798
H      91.84937779      65.11241447      83.72412756
C      92.01567372      61.82240096      81.75692246
H      93.34982050      62.79183056      80.52293118
C      93.63516916      60.19534661      83.52003711
H      94.42885422      61.50681667      84.89386814
H      94.99199266      59.01615739      82.51092326
H      92.41818541      58.93489916      84.60474002
C      90.41696525      60.04794795      80.22813388
H      89.15651781      60.98714193      78.89587683
H      89.35493906      58.72513954      81.39409501
C      92.09126276      58.43790114      78.46879868
H      93.21187047      59.80606299      77.41433140
H      90.99333178      57.36075714      77.09874710
H      93.35737939      57.09430573      79.37775704
C      88.95620682      65.35240972      80.93300179
O      89.96721039      67.06828121      79.63664954
N      86.53924686      64.79683018      80.60796887
H      85.83815839      63.14898883      81.26937308
C      84.89329525      66.03082146      78.60485897
H      86.22366256      66.44467152      77.09118820
C      82.91664151      64.11463898      77.66377527
H      81.40108102      63.66677384      78.98658369
H      84.02591087      62.42711338      77.25937384
C      81.85272561      64.96123637      75.15232900
O      83.33616075      65.47335220      73.30984585
O      79.43387592      65.25603367      74.86131115
C      83.65174506      68.55549582      79.28327072
O      83.55347928      70.26758786      77.72802597
N      82.80703739      68.80682942      81.67566423
H      82.85428054      67.35740933      82.91721442
C      82.31570855      71.28237089      82.70556507
H      82.13807427      72.50691354      81.05961346
C      79.96299928      71.09528798      84.30427353
H      80.12740548      69.68744188      85.79715732
H      78.42098261      70.52837009      83.06083362
C      79.24112383      73.51602739      85.70078128
H      80.94565698      74.48167753      86.33761905
H      78.18665655      73.10784650      87.42232195
C      77.74257087      75.36984890      83.89798238
O      78.71389020      77.15564027      82.72824179
O      75.49379656      74.86340225      83.48602204
C      84.50779108      72.20833678      84.36096532
O      85.42052888      74.34939669      84.08128583
N      85.33738093      70.62663585      86.10896216
H      84.57015205      68.87863902      86.16565395
C      87.09860584      71.10662634      88.18955083
H      88.77668282      72.15353472      87.61129458
H      87.63906757      69.28493017      88.98323589
C      86.03091049      72.59195122      90.40997925
O      83.91630674      73.39508490      90.15297647
N      87.60694222      72.62596629      92.35261790
H      89.39273359      71.99668743      92.12585074
C      87.09671613      73.63319042      94.82815937
H      85.06337061      73.60484452      95.16453066
C      88.26456699      72.06471758      96.94654257
H      90.29791250      71.82661206      96.72166514
H      87.60505249      70.13152756      96.68576034
C      87.70898745      72.87918962      99.64318202
H      88.45731907      74.78781320      99.84349301
C      84.99534046      72.79037248     100.59182463
H      84.01268278      73.86940621      99.13862509
H      84.88573634      73.63319042     102.46832286
H      84.36984105      70.84773383     100.86772467
C      89.22076850      71.24268663     101.57070286
H      88.88628694      69.22256920     101.33826652
H      88.80502870      71.94755455     103.46231890
H      91.23521675      71.49024078     101.22110349
C      88.16441149      76.44699290      95.08138270
O      90.39995771      76.73423130      94.63729701
N      86.48444480      78.09672397      95.77491225
H      84.74400687      77.38051770      96.10750409
C      86.84349280      80.46833049      96.98055764
H      88.82770543      80.61572915      97.51723992
C      86.39184821      82.67931028      94.91886623
H      86.12728653      84.53691124      95.76735335
H      84.70999178      81.94987592      93.98345171
C      88.48188550      82.82292948      92.94788169
H      88.97321435      80.91997508      92.33938982
H      90.14862412      83.46543643      93.97400308
C      87.89796008      84.59738249      90.80115260
H      89.53257333      84.86572362      89.57660995
H      87.53891207      86.44175537      91.64774999
N      85.62461932      83.78480017      89.32149690
H      84.88006716      82.04247251      89.54259487
C      84.96132538      84.94887158      87.22956987
N      85.47722067      87.20520480      86.60407046
H      84.91030278      87.83448366      84.89386814
H      86.28413380      88.18408303      88.02892410
N      83.69142930      83.64118097      85.50424974
H      82.67475654      84.60683112      84.21167695
H      83.23978471      81.79680809      85.69889155
C      85.44131588      80.82548877      99.47688610
O      83.20765936      80.20187908      99.66396901
N      86.69798386      81.75334439     101.51023161
H      88.46487798      82.39207188     101.17197060
C      85.84382758      81.90074304     104.12183338
H      84.58149040      80.29636540     104.40340260
C      88.24189026      81.26768472     105.82636651
H      87.74300252      81.28091281     107.82569695
H      89.69508980      82.70954590     105.60337881
C      89.17919452      78.63340624     105.46164934
H      89.68942062      78.26301989     103.50011342
C      91.76622984      78.20443837     106.78823721
H      92.64684231      76.60950936     105.82447679
H      91.54891131      78.00790683     108.82725190
H      92.99644167      79.72566805     106.14195081
C      87.38395453      76.58305319     106.46887346
H      88.39117864      74.79159265     106.60115430
H      85.63784741      76.53203058     105.37472192
H      86.91719212      76.94777037     108.44174773
C      84.68920479      84.38951259     104.65851565
O      83.16419566      84.81470101     106.40840222
N      85.59060424      86.50600606     103.46420862
H      86.90018459      86.39073276     102.08092896
C      84.34905407      88.97965781     103.43208327
H      83.46466215      89.39728732     105.24433081
C      86.34838450      90.99788551     103.16185241
H      87.31970383      90.70686766     101.36850214
H      87.71087718      90.75977999     104.68875127
C      85.20698981      93.63216399     103.42263464
H      83.69898821      93.41862492     104.80591430
H      84.38495887      94.31246546     101.65951999
C      87.55591962      95.16851148     104.33159300
H      89.05636231      95.16851148     102.91996744
H      88.32125878      94.49576891     106.12305354
C      86.70176333      98.07113110     104.54513207
H      85.16163638      98.18640440     105.90951447
H      85.92319609      98.64560790     102.72532563
N      88.68597596      99.90227590     105.43897262
H      89.23777603      99.60369914     107.24177152
H      87.98488749     101.65405219     105.14795477
H      90.14673439     100.04778482     104.22009915
C      82.35350308      89.14406400     101.30425145
O      82.88829562      88.34659949      99.16697099
N      80.17464863      90.27978951     101.97888374
H      80.34850345      90.99221633     103.74199839
C      77.96555858      90.85615604     100.22143827
H      77.30982355      89.07414412      99.42208404
C      75.58639315      92.08069869     101.55180559
H      75.19899926      90.66529368     102.99555650
C      76.17598775      94.77355868     102.64595713
H      74.75302385      95.34803548     104.01978816
H      76.31582751      95.99432188     100.99433633
H      78.02980928      94.55057098     103.51523123
C      73.41320789      92.24699460      99.69420463
H      73.01447563      90.30813540      99.12161755
H      73.84028604      93.15595296      97.89518518
C      70.91309997      93.34870504     100.64284724
H      70.70711981      92.95186252     102.65351603
H      69.37297304      92.43596723      99.62239503
H      70.92443834      95.39338891     100.40096227
C      78.87451694      92.41329052      98.02557629
O      80.07071369      94.39183397      98.33927086
N      78.16020038      91.63850273      95.63885196
H      76.79392827      90.32325322      95.40830535
C      78.91609091      93.03312075      93.29181188
H      79.60962047      94.88883199      93.85117087
C      80.83416311      91.25866774      92.06915895
H      82.44987912      91.06213620      93.32960641
H      81.64296599      92.15439801      90.39864089
C      80.10283904      88.52234404      91.38885748
C      79.05026149      88.24077482      88.94922081
H      78.67987512      89.96420522      87.91931997
C      78.54570456      85.91830118      87.91554052
H      77.72934279      85.67641621      86.05793955
C      79.11262244      83.73566729      89.31204826
O      78.38885728      81.43209091      88.50324540
H      77.66887155      81.54925394      86.84406570
C      80.02347054      83.91708101      91.72900822
H      80.35228290      82.14073828      92.67576110
C      80.46755622      86.31325398      92.83638784
H      81.17242413      86.40585057      94.74879087
C      76.70700086      93.73798866      91.45121845
O      74.75113411      92.64194740      91.55326367
N      76.94699610      95.75054719      90.00368809
H      78.44743879      96.92028777      90.15108675
C      75.28592667      96.31179590      87.87774599
H      73.37163390      95.86393076      88.49190704
C      75.16309446      99.21252579      87.39775551
H      76.83739196      99.93629097      86.43777454
H      75.22734515     100.13849168      89.23645921
C      72.74991395     100.13093278      86.02014503
H      71.15876440      99.06701687      86.77981500
H      73.10707222      99.63015531      84.05482966
C      72.27370292     102.82001332      86.42265673
H      73.72312301     104.03888679      85.61196414
H      72.56850022     103.20740722      88.42387690
C      69.53548950     103.62692646      85.29071067
H      67.87253034     102.69529139      86.06927791
H      69.50714360     103.44740246      83.23846789
N      69.07439627     106.29710974      86.09573408
H      69.91532448     106.66749610      87.77003159
H      67.19600832     106.63159130      86.16187450
H      69.79438199     107.61991816      84.92410377
C      76.04559665      94.75088197      85.50424974
O      78.27736341      93.91373321      85.27937231
N      74.19177513      94.34648054      83.80349606
H      72.46645501      94.99654639      84.29860436
C      74.33917378      93.16540159      81.36952857
H      76.32149668      93.14839405      80.81205931
C      73.21667636      90.55191010      81.65109779
H      71.40820828      90.70875738      80.67977847
H      72.92565850      89.92452096      83.59373644
C      74.87963550      88.61683035      80.19978798
O      76.07394254      89.24799894      78.26092879
O      75.01380608      86.41718893      80.97646550
C      72.80660574      94.59214496      79.18311523
O      71.48568705      96.48565072      79.54783240
N      73.14486675      93.88727704      76.71324294
H      74.34295323      92.46620285      76.28238534
C      72.36252006      95.29890260      74.45879944
H      72.94077631      97.26421796      74.67989742
C      73.82138878      94.49009974      72.18545869
H      73.02392427      95.40850672      70.52060981
C      76.64463989      95.27622588      72.48214572
H      77.61784893      94.10837502      71.08941743
H      77.18888107      94.80568403      74.41155629
H      77.15108654      97.18107001      71.88499221
O      73.42643598      91.87093907      72.07018538
H      74.71900878      91.24921911      70.95713659
C      69.50714360      95.38771973      73.83141031
O      68.60196470      96.95808230      72.37632105
N      68.10874612      94.09892639      75.40366260
H      68.99313804      92.84603784      76.53938811
C      65.32517927      94.40884150      75.42255986
H      64.80172509      95.51055194      73.76149043
C      64.07229073      91.81424728      75.26193313
H      64.39354420      90.83914850      77.04583477
H      64.82062235      90.87883275      73.58763561
C      61.25848825      91.69708424      74.45690972
H      60.05284286      92.44541586      75.94790378
H      60.77849776      89.69208463      74.43801245
C      60.49125936      92.98776732      72.00215524
O      60.38732442      95.43685262      71.80373397
O      59.93756956      91.59692875      70.15589263
C      64.32362432      96.02077805      77.72424651
O      62.11264454      95.90928420      78.35919455
N      65.96012731      97.46263923      78.92611245
H      67.80261047      97.19429809      78.50848293
C      65.30439227      99.21252579      81.03693674
H      63.81339821     100.46730406      80.37175308
H      66.84829867     100.50320886      81.47913270
C      64.67889286      98.03711602      83.68633303
O      64.93967510      99.34669636      85.67621484
N      64.00992976      95.56913346      83.83940086
H      63.86820029      94.45419494      82.29549446
C      63.68489683      94.36726752      86.31683206
H      62.68145216      95.67684786      87.54704389
C      62.05784248      91.92385140      85.96345324
H      60.89188134      91.67062808      87.64153020
H      63.50537283      90.47443132      85.75369362
C      59.90922365      91.93141031      83.88286457
C      60.07551958      90.35537856      81.80416562
H      61.58730062      89.01178315      81.52826558
C      58.11209393      90.27412033      79.98813864
H      57.99682062      88.87005368      78.51037266
C      56.22803680      92.17707473      80.29427430
O      54.30051596      92.40762134      78.65777131
H      53.30463020      93.85515169      79.10941590
C      56.12221212      93.80034963      82.35218625
H      54.90711811      95.43874234      82.33328899
C      57.94957746      93.69641468      84.13797762
H      58.06107133      95.08158407      85.63275113
C      66.13020267      93.78901127      87.65664801
O      68.11819476      93.88538732      86.51147387
N      65.95067868      93.34492559      90.12841003
H      64.35197021      93.46775780      91.16020060
C      68.29771876      92.96320087      91.68365479
H      69.95689846      93.62082563      90.65564367
C      67.91410432      94.57891687      94.10817365
H      69.37864221      94.16884626      95.49901221
H      65.98847320      94.19719216      94.72800388
C      67.88953788      97.38516045      93.48267424
C      65.66533001      98.74198394      92.87607209
H      63.87197974      97.77822352      93.02347074
C      65.75225742     101.35736516      92.37907407
H      64.02315784     102.35703038      91.95577538
C      68.11441530     102.71229892      92.36773571
O      68.03882626     105.22941437      91.91798085
H      66.47413287     106.06656313      91.54948422
C      70.32539510     101.29500419      92.71733508
H      72.13386318     102.23986734      92.61528986
C      70.23090878      98.66261543      93.30881942
H      71.87686039      97.50043375      93.62440371
C      68.36952835      90.18341347      92.47545011
O      66.45712534      89.02312151      93.09339062
N      70.58428760      89.11004892      92.46222203
H      72.12063509      90.12105250      91.95577538
C      71.18144111      86.43419646      92.48300902
H      69.47501825      85.35894219      92.89685908
C      72.00536179      85.82192514      89.77692094
H      73.75146890      86.91607667      89.75046477
C      72.46645501      83.01568156      89.30637909
H      73.39053118      82.52435272      87.53381580
H      70.65231775      82.04436224      89.21378250
H      73.65509286      82.18042253      90.76713753
O      70.13264301      86.60427183      88.03837273
H      70.69767117      85.54602510      86.67399033
C      73.29226540      85.68397512      94.46722165
O      74.78703891      87.35827263      95.14563339
N      73.36974419      83.43520080      95.65585950
H      72.08284056      82.11239239      95.16642038
C      75.27836776      82.71143563      97.61550568
H      77.07738720      83.63740152      97.23567069
C      74.44499846      83.53346657     100.17041566
H      73.69288739      85.43453124      99.91719233
C      72.29071045      81.76468274     101.06803566
H      72.77259066      79.79936738     101.45731928
H      70.69578146      81.70988068      99.76223478
H      71.48568705      82.56214725     102.78957633
C      76.50480013      83.54102548     102.22832761
H      78.13185449      84.58604413     101.52156997
H      77.11896119      81.62106354     102.64406740
C      75.72056371      85.00367364     104.69631018
H      77.41564822      85.90507310     105.44086235
H      75.10640267      83.43898026     105.88683776
H      74.37507858      86.53057250     104.37127725
C      75.99079457      79.91653041      97.43409196
O      74.73412658      78.35183702      96.20576985
N      77.99390447      79.11906591      98.90618876
H      79.56048759      80.15274620      99.24256004
C      78.45877714      76.52447168      99.50523200
H      76.87896595      75.66086675     100.50489722
H      79.98756574      76.74556966     100.86961439
C      79.27513891      75.23189888      97.06748505
O      81.15730631      76.06904764      95.83916295
N      77.83705719      73.39886436      96.28135891
H      76.48212342      72.68265808      97.41708442
C      78.08272161      72.32172036      93.66786742
H      79.65686362      73.24012735      92.70977617
C      78.73089773      69.44366718      93.86817840
H      77.21911669      68.48935539      94.89429979
C      78.72711829      68.06038752      91.28492253
H      79.11640191      66.06105708      91.60050683
H      80.13307466      68.82383695      89.98479083
H      76.94510637      68.15109438      90.25502169
C      81.20077002      69.07895000      95.49712249
H      80.80392749      69.89531177      97.34716455
H      82.76168395      70.15231455      94.68642990
C      82.07193385      66.34451603      95.77302253
H      80.46377677      65.15587818      96.26624110
H      83.47222106      66.35774411      97.28291385
H      83.05648127      65.69067073      94.08549693
C      75.57316506      72.81115947      92.20899870
O      73.67210040      71.48835105      92.51891382
N      75.54103971      74.90686595      90.88430056
H      77.12463037      75.97078187      90.92020536
C      73.60784969      75.58338797      89.03425850
H      73.26769896      74.03759185      87.71522953
H      74.27114364      77.21044233      87.95900422
C      70.92065888      76.34872713      90.09817441
O      69.06494765      76.39219084      88.68276940
N      70.69011228      76.83627652      92.52836245
H      72.27559265      76.39974974      93.49968177
C      68.12386394      77.18965534      93.76235373
H      66.75003290      76.17109286      92.61717959
C      68.20701189      76.21077711      96.49300825
H      69.57895319      77.37106907      97.49645293
H      68.71912773      74.22845421      96.25490274
C      65.52360053      76.29959425      97.79691941
N      63.81717768      74.37396313      97.53991663
H      64.12331334      72.70344507      96.66875280
C      61.78383215      75.15064065      98.74367229
H      59.94701818      74.26057955      98.71532640
N      62.19768223      77.47878347      99.76223478
H      61.09786150      78.41608772     101.00945414
C      64.65999561      78.12506986      99.34838471
H      65.50092381      79.94487630      99.73766833
C      67.27537682      80.00912700      93.50913041
O      67.98591391      81.61350464      94.97555802
N      65.51037245      80.36817500      91.63263218
H      65.04361005      78.89985765      90.51013475
C      64.23291746      82.83237811      91.33216569
H      65.63320466      84.33660026      91.45877736
C      62.87420425      82.60183150      88.70166667
H      61.41911497      81.15052169      88.59206254
H      64.38409556      82.18609171      87.36185071
C      61.73091983      85.10760859      87.80215694
H      63.33529747      86.19609095      87.10295820
C      60.13788054      84.48777836      85.34551273
H      61.21124509      83.27835352      84.07183720
H      59.35364412      86.11294299      84.35151669
H      58.51838508      83.37283984      85.95967378
C      60.13410108      86.50033688      89.62007365
H      58.83774883      87.69653364      88.55804747
H      61.41911497      87.67952610      90.71800464
H      59.10608998      85.06603461      90.68021011
C      62.47358226      83.18764666      93.47700506
O      60.55173061      81.71932931      94.02124624
N      63.06695632      85.11705722      95.03791899
H      64.37464694      86.36427659      94.42375794
C      61.70257393      85.27012505      97.38495907
H      61.50415266      83.36717066      98.14651878
C      63.09152277      86.98977600      99.29925183
H      61.80083970      87.57181170     100.79780479
H      63.91544344      88.46376252      98.12195234
C      65.49147518      85.75389499     100.30836568
H      66.05272389      84.26479066      99.00067507
C      67.74024950      87.52456855     100.63906778
H      69.35596550      86.34348960     101.12850690
H      67.45868028      88.94942219     102.10171595
H      68.11630503      88.43163718      98.82870998
C      64.75637165      84.43675575     102.87272429
H      63.76993452      85.64618059     104.21631969
H      66.27760133      83.52023849     103.91774294
H      63.51860092      82.93442333     102.20187145
C      59.07207490      86.29435672      96.89740968
O      57.29006298      85.30791958      98.00856876
N      58.83963857      88.34659949      95.54247592
H      60.36275798      88.90973793      94.53714152
C      56.27527996      89.60137776      95.10405941
H      54.88633111      88.11605288      94.76579840
C      55.54962505      91.03568004      97.57771116