 %block lattice_cart
   137.614   0.000   0.000
   0.000 142.646   0.000
   0.000   0.000   160.855
 %endblock lattice_cart

 %block positions_abs
N      89.91524292      41.06564714      80.12797838
H      91.69158565      40.68203270      79.54783241
H      88.92880578      39.57654281      79.45523582
H      89.88311757      41.09021359      82.03660196
C      88.94392360      43.50528381      79.30216799
H      89.80374907      44.90746074      80.54182845
C      89.77729290      43.89456743      76.54127784
H      88.73227425      42.58120765      75.35263999
H      91.77095416      43.39945914      76.39009974
C      89.45037025      46.67813430      75.82129212
H      87.46426789      47.12033025      76.14254559
H      90.03051623      47.16568369      73.90699936
S      91.24749997      48.85320927      77.83951982
C      91.52717946      51.48748776      75.62098113
H      92.34732068      50.79395820      73.86353566
H      92.76495020      53.05218115      76.13120723
H      89.59209972      52.08464127      75.24492559
C      86.02996562      43.69047699      79.62909064
O      84.68070103      41.89901645      79.06973165
N      84.97738806      45.83342663      80.58340243
H      86.02051699      47.43024537      80.50970310
C      82.33177123      46.01295063      81.27882171
H      81.14691283      45.16824297      79.82184272
C      81.83099375      44.47660314      83.77892962
H      82.59822264      42.56797957      83.66743577
H      79.82788386      44.13834212      84.11719063
C      82.83254870      45.91468486      86.04471147
O      82.93270419      48.23526877      86.29982452
N      83.36923097      44.56164082      87.97601176
H      84.33866057      45.39689986      89.39330650
H      83.16891998      42.66435560      87.97601176
C      81.30376011      48.78517914      81.30338815
O      82.77396718      50.54829378      81.00481139
N      78.81688028      49.16312439      81.59440600
H      77.71328012      47.63244608      81.87408550
C      77.55265338      51.75204944      81.90243139
H      77.66792669      52.64211054      80.04860988
C      74.65570294      51.44213432      82.60729931
H      74.11146176      50.01350124      81.22590937
C      74.42326661      50.22515058      85.18110655
H      75.09033999      51.54040009      86.62107800
H      75.52119759      48.48282292      85.10551749
H      72.51275330      49.60343063      85.63086141
C      73.25352602      53.99515458      82.56761505
H      74.14925629      55.39544177      83.78648853
H      71.35813053      53.50571546      83.20445282
C      73.01731023      54.89466431      79.83129135
H      74.75585844      55.65244456      79.02626794
H      71.82678265      56.57274127      79.85585780
H      72.07622653      53.39989078      78.77115489
C      78.91325633      53.42256751      83.83184196
O      79.38568790      55.53528153      83.34996175
N      79.52552765      52.49471189      86.13352861
H      78.83955700      50.73348696      86.39998002
C      80.60834083      54.13121487      88.09506452
H      79.39324681      55.72992333      88.54859884
C      80.83699771      52.53439613      90.55548818
H      81.63446222      53.63232713      92.10317403
H      82.27885889      51.12843976      90.11140250
C      78.33311035      51.36465555      91.74412603
C      76.58322378      52.85375989      93.18598721
H      76.77786559      54.88521567      93.19921529
C      74.57633444      51.88055083      94.54659015
H      73.25730547      53.06162978      95.56137318
C      74.18516109      49.28784633      94.42564767
H      72.63558551      48.55085306      95.53302729
C      75.91804012      47.68535841      93.12929542
H      75.99929835      45.64823345      93.26346599
C      78.04965140      48.73037706      91.76869247
H      79.46505641      47.60787964      90.82382932
C      83.18025834      55.18379243      87.15020136
O      83.63946183      57.51193525      87.25035686
N      84.90557846      53.59831205      86.23557383
H      84.37645510      51.77283644      86.05982928
C      87.38300966      54.15767104      85.14520175
H      88.64534684      55.05529103      86.50202524
C      88.63589821      51.65189394      84.26458928
H      90.26295256      51.91645564      83.02870827
H      87.41513501      50.54829378      83.02492882
C      89.19903665      50.09475946      86.72501294
H      87.49450351      50.05696493      87.88152545
H      90.60121357      51.22103635      87.73223707
C      90.17035597      47.40945837      86.12596970
O      92.17913504      46.70081101      87.20689315
O      88.95715168      45.90523622      84.76914621
C      87.21860347      55.84897609      82.69800617
O      88.56408861      57.69901814      82.42966503
N      85.38367922      55.28961709      80.94434015
H      84.11945232      53.97247785      81.50369914
C      85.02085177      56.65777895      78.45746032
H      86.71404655      56.62376387      77.28583001
C      82.88546104      55.26127120      77.11197519
H      81.19037653      55.54095070      78.24770070
H      83.44482002      53.29028666      76.89465666
C      82.24106436      56.34975357      74.55895494
H      83.51473990      55.62598838      73.11142458
H      82.34877876      58.38498881      74.86509060
S      79.09655978      55.64677538      73.51393629
C      79.33466529      56.73714745      70.31085019
H      80.36456613      58.51349018      70.48848446
H      77.44115953      56.83352349      69.50771651
H      80.44582437      55.43512603      69.16567604
C      84.62589897      59.51126568      79.15476933
O      85.80130874      61.20635019      78.03983081
N      83.18970697      60.00448425      81.16543813
H      82.66058360      58.41522443      82.07628621
C      82.51318495      62.67088807      82.03471223
H      82.29397670      63.84440812      80.35474554
C      80.04331266      62.69734424      83.51247821
H      80.01685649      64.36786231      84.71434415
H      79.96961333      60.98525220      84.65387290
C      77.59233763      62.60285794      81.99691771
H      78.00051852      61.40099199      80.37364281
C      75.23962837      61.46335296      83.31783640
H      73.70517061      61.24036526      81.96101291
H      74.54231936      62.80694838      84.71623387
H      75.70639077      59.58496501      84.01892486
C      76.85912382      65.11052475      80.78938259
H      78.42192748      65.47902138      79.49869952
H      76.78542450      66.46545851      82.33706844
H      75.02986875      65.07084049      79.84073998
C      84.75251063      63.94456362      83.35185147
O      85.08132301      66.15176394      82.86997126
N      86.25295333      62.69923397      84.86174280
H      86.19248208      60.79250013      84.92599349
C      88.57164751      63.95401225      85.85006966
H      88.19181252      65.70578853      86.86485269
C      90.02862650      62.25892774      87.70767063
H      91.79930005      63.16032719      88.24624263
H      90.29885736      60.44856993      86.76658692
C      88.33732145      61.77704753      90.11707167
H      86.63845749      60.69612408      89.67487572
H      87.66457888      63.63275877      90.70288683
C      89.95303745      60.32384799      92.05404115
H      90.38011559      61.81295234      93.41086464
H      91.71048292      59.68323077      91.19232595
N      88.35432899      58.47002649      93.37684956
H      87.59843846      59.01426767      95.04358817
C      88.12945155      56.00960283      93.09150089
N      89.34643530      54.89466431      91.26224582
H      89.31619968      53.00304827      91.50791024
H      90.96593075      55.73559250      90.69910738
N      86.76128970      54.58474919      94.52580316
H      87.05230756      52.70069206      94.64296619
H      85.55753404      55.42378767      95.74467664
C      90.46515328      64.57762193      83.68066385
O      91.55741509      66.61096744      83.70334057
N      90.68058208      62.98458265      81.73424575
H      89.94547854      61.23847554      81.95723346
C      92.18669395      63.46457313      79.46846390
H      94.08775862      64.06550610      79.99380782
C      92.65912553      60.96446522      78.03227190
H      90.82042182      60.04038906      77.97180066
C      93.64745239      61.28382896      75.33185300
H      95.17057180      62.65199082      75.09563721
H      92.10921517      61.84696741      74.08463364
H      94.28806961      59.45457389      74.63265427
C      94.51105731      59.24292454      79.62342146
H      94.57719773      57.30784481      78.92233300
H      93.95547778      59.17678412      81.60574436
C      97.20202758      60.36542198      79.57050912
H      97.38911049      62.13420580      80.60796887
H      97.85587289      60.90021452      77.69401089
H      98.48893120      58.87253818      80.17333182
C      90.99049719      65.59996387      77.58818622
O      92.18102477      67.03426613      76.22002437
N      88.52062490      66.08751326      77.76959995
H      87.38489939      64.90832404      78.75414735
C      87.09955071      68.00558546      76.38632028
H      87.96693509      68.14164575      74.52305014
C      84.35188865      67.53126416      75.96302159
H      83.46938647      69.31894524      75.44145713
H      83.54308579      66.63931333      77.63353965
C      83.80575775      65.83051047      73.64621713
O      85.06998465      66.34262630      71.66200450
O      81.82532457      64.44723081      73.50448766
C      87.46426789      70.55104680      77.71101843
O      88.64912629      72.21211623      76.54694702
N      86.80475341      70.77403451      80.19411881
H      85.88634642      69.23957674      80.86497165
C      86.79152532      73.31004722      81.31850596
H      87.70993231      74.73679058      80.15443455
C      84.12323177      74.21333639      81.71345876
H      84.07787834      75.63441058      83.20445282
H      83.04797750      72.60895876      82.43533421
C      82.98561653      75.28481121      79.27760154
H      81.03919843      75.62307223      79.86341670
H      82.79097472      73.85995757      77.80361502
C      84.36511674      77.69421226      78.32517948
O      85.45737855      77.43531977      76.23892163
O      84.21015918      79.57637967      79.66688516
C      88.35999816      73.75224318      83.79026798
O      88.82298111      75.97834077      84.43466465
N      88.89290098      71.68677231      85.21134217
H      88.48472010      69.94633439      84.54237905
C      89.86799976      71.73968465      87.77759050
H      91.42702397      73.08894924      87.78892886
H      90.65979509      69.84239943      87.89475353
C      88.02362688      72.46722929      89.86384835
O      85.92036149      73.00013210      89.30448936
N      88.77195850      72.43510394      92.12585075
H      90.62955947      71.99290799      92.20143980
C      87.52473913      73.02469854      94.42942712
H      85.52351897      73.32138557      94.04959213
C      88.07653922      70.83450575      96.20388013
H      90.03618540      71.04426537      96.79725419
H      87.96315564      69.05249383      95.17586901
C      86.38145471      70.80615985      98.69264968
H      86.58743488      72.57494368      99.72632998
C      83.60355703      70.31861046      98.08037836
H      82.97238845      72.00802579      97.08260286
H      82.61900963      70.13152756      99.88128753
H      83.24261931      68.58951090      97.02402135
C      87.22616238      68.64242323     100.43497734
H      87.07687400      66.74135856      99.65829983
H      86.06398069      68.71612255     102.13384130
H      89.24061063      68.90698491     100.76190000
C      88.54708107      75.65141812      95.29492177
O      90.79774511      75.99534832      95.69743348
N      86.86900410      77.48067319      95.55570400
H      85.00573396      77.07060259      95.57271154
C      87.44726036      80.02613453      96.40797057
H      89.44659079      80.14518729      96.88796105
C      86.73861299      81.99522935      94.41052986
H      86.06776015      83.68464468      95.38184918
H      85.27596482      81.30547925      93.13307487
C      88.93258524      82.75300961      92.79859331
H      89.96248608      81.02202030      92.37151517
H      90.06264157      84.02101597      93.96077500
C      88.31086528      83.96621389      90.16620456
H      90.11555391      84.32526189      89.24023867
H      87.17325004      85.64051141      90.55359845
N      87.00884385      82.23900405      88.43521526
H      86.26618141      80.69509765      89.27803319
C      86.65357530      82.57726505      85.98612995
N      87.36789185      84.64273592      84.98079556
H      87.14490415      84.81470101      83.09295897
H      88.42235913      85.98633132      85.83306212
N      85.80886764      80.69509765      84.63875509
H      85.86933888      80.70832574      82.73013152
H      85.03974903      79.31370771      85.70834019
C      86.18870263      80.54580927      99.01957234
O      84.03063518      79.78047011      99.31247991
N      87.59276928      81.47177516     100.79969452
H      89.27651543      82.17475335     100.23655608
C      87.00317467      81.69854232     103.57381275
H      85.41013539      80.43809487     103.91585321
C      89.23116199      80.75934834     105.13283696
H      88.49605846      80.76123807     107.05657834
H      90.97159993      81.84783070     104.96276159
C      89.86044086      77.94554586     104.57158824
H      90.37822587      77.90397188     102.57603726
C      92.14134052      77.23122933     106.26478302
H      91.60087879      77.51279854     108.23387784
H      93.56241470      78.63529597     105.76589527
H      92.52684468      75.26402423     105.79802062
C      87.69292478      76.05770927     104.71331772
H      86.91246781      75.85172911     106.60871321
H      88.44125640      74.20010831     104.24277586
H      86.24350469      76.34494768     103.27901544
C      86.22649716      84.26101121     104.57725742
O      85.72005051      84.72966333     106.79768584
N      85.86177998      86.02223612     102.78768660
H      85.94114848      85.50256140     100.95087263
C      84.91313737      88.54502075     103.04468938
H      84.14401876      88.85493587     104.93063624
C      87.22238292      90.28734841     102.84248867
H      88.21259951      89.76956340     101.11338909
H      88.50928654      89.76200450     104.36182862
C      86.71782600      93.18051940     103.11271953
H      85.52918815      93.84003388     104.65851565
H      85.67658680      93.99121200     101.53101861
C      89.30486132      94.58458606     103.33381751
H      90.20248132      94.14050036     101.53290833
H      90.54830123      93.96853527     104.85693692
C      88.96282086      97.55334609     103.08248391
H      87.19403703      98.08624891     102.17352555
H      90.69381016      98.18073522     102.15840774
N      88.91935715      98.48498116     105.69975485
H      87.45292953      97.90294545     106.77311940
H      89.18580856     100.36903829     105.85849186
H      90.42924848      97.68751665     106.55202142
C      82.96105009      89.30280100     101.02079250
O      82.80609253      88.04802274      99.18586825
N      81.52296836      91.36638215     101.34204597
H      81.31320874      92.16006719     103.06358665
C      79.53875574      92.21108981      99.49011419
H      78.36145624      90.57647654      99.05358741
C      77.71705957      94.13483118     100.64662669
H      78.94727140      95.73920882     101.04535894
C      75.77631065      94.83591965      98.72477503
H      74.68026938      96.47809181      99.31059019
H      74.40058989      93.31091052      98.59816337
H      76.60967995      95.01922310      96.84827680
C      76.35267717      93.16918105     103.14862433
H      77.57721982      93.01800293     104.79835540
H      75.88591477      91.18685815     102.83304004
C      73.86957680      94.39561342     104.05569296
H      72.57889372      94.62049085     102.46454340
H      74.37602345      96.23242740     104.83803965
H      72.95683899      93.14083514     105.41062673
C      80.79542373      93.08792281      97.04669806
O      82.60767127      94.56190933      97.23378097
N      79.89591401      92.32447338      94.79603403
H      78.39358159      91.14906362      94.85461554
C      80.86723333      93.10115090      92.26002131
H      81.55698344      95.04001009      92.31293365
C      82.94782200      91.20953486      91.54759449
H      84.03441463      90.62560942      93.19732557
H      84.10433451      91.97487401      90.02447509
C      82.12579106      88.73966257      90.44210460
C      82.18248285      88.03479465      87.84940010
H      82.68703977      89.25933731      86.29604507
C      81.37745944      85.55736346      87.18799589
H      81.26218613      84.88462088      85.26614423
C      80.54597986      83.81314606      89.03425850
O      79.82977359      81.35839158      88.55993719
H      80.03575376      80.88218055      86.82138899
C      80.66314289      84.44809410      91.64208081
H      80.17181405      83.10827815      93.10094952
C      81.26974504      86.95009174      92.27702885
H      81.27730394      87.30725003      94.28580792
C      78.74318096      93.40161738      90.34194911
O      76.77786559      92.14305966      90.82949849
N      78.81688028      94.77166895      88.28781660
H      80.38724285      95.82613623      88.02892410
C      76.58511351      95.26299779      86.66076225
H      74.84845503      94.77544840      87.65475829
C      76.26008058      98.15616878      86.22234574
H      77.33533485      98.72119695      84.55938659
H      76.80621149      99.33535801      87.82105420
C      73.40659385      98.48876061      85.77070115
H      72.43527452      97.91050436      87.49035210
H      72.92471364      97.42484470      84.07561665
C      72.86991158     101.29122474      85.26425450
H      73.54643360     102.41939134      86.84784515
H      70.81577907     101.45374121      85.19244490
C      74.08311587     102.20396254      82.83784592
H      73.86201789     100.65438697      81.49802996
H      76.03142370     102.78788797      83.16665830
N      72.83400678     104.56423071      81.89109303
H      73.64658909     105.20484794      80.28671539
H      73.02297941     105.91727475      83.22335009
H      70.94239074     104.47163412      81.65865670
C      77.01219165      93.83058526      84.26458928
O      78.98128647      93.87404895      83.14587131
N      75.01853039      92.55879944      83.43877888
H      73.54454387      92.44163641      84.64442427
C      74.85979338      90.97709853      81.29582925
H      76.51519363      89.75822505      81.44322790
C      72.25952998      89.64106202      81.11630525
H      70.67215987      90.93552454      80.88953809
H      71.95339431      88.44108581      82.76225686
C      72.08945461      87.61149595      79.05083439
O      72.97006707      85.43264152      79.43444883
O      71.44316821      88.09337616      76.78127308
C      75.03742766      92.71753646      78.98091451
O      74.12091040      94.89450116      79.00926041
N      75.77442092      91.69141507      76.74914774
H      76.27897785      89.85082164      76.68678677
C      75.83300244      93.09359199      74.39076930
H      76.98951494      94.75277169      74.77438374
C      77.16903894      91.50055270      72.41411557
H      77.30131978      92.68352138      70.73414888
C      79.84489140      90.50277721      72.97347456
H      79.82599413      88.71698585      74.00148568
H      80.75384975      91.91251304      74.16589187
H      80.89935868      90.33270185      71.21413937
O      75.65347844      89.48988391      71.83019014
H      76.48684774      88.63761734      70.46202829
C      73.23840821      93.86649005      73.49314930
O      72.95872871      95.91117392      72.44813065
N      71.23340859      92.43974669      73.98447814
H      71.41104286      90.93930400      75.15043928
C      68.61235819      93.25988790      73.58574589
H      68.41582666      94.18963325      71.75838054
C      66.76609559      91.02623140      74.03550075
H      66.53554898      90.93552454      76.07829490
H      67.62592106      89.23288113      73.49881848
C      64.15449382      91.22465266      73.00748964
H      64.13748628      92.13928020      71.16122703
H      63.07357037      92.33581173      74.36431313
C      63.01309913      88.55257966      72.73536905
O      62.27232641      87.74377680      70.60942695
O      62.95451761      87.04646778      74.64777208
C      67.81867314      95.33102795      75.34130163
O      65.91382902      96.49320962      74.81595772
N      69.39659461      96.08880819      77.09496765
H      71.02742842      95.09670189      77.15354917
C      69.15470965      98.34514142      78.69934529
H      67.97363070      99.76810532      77.79038694
H      71.06144350      99.11803948      78.78627270
C      68.16071360      97.92940162      81.34496213
O      67.58812653      99.75676697      82.64131438
N      68.08323483      95.57480264      82.30872255
H      68.70117533      94.09892638      81.26937308
C      66.89081752      94.88505253      84.78615375
H      65.76076119      96.50643771      85.35874082
C      64.81967748      92.95942143      84.30049408
H      63.83890953      92.51155628      86.05416010
H      65.80611462      91.28701363      83.61074398
C      62.78444224      93.48287561      82.36730407
C      62.42728397      91.92196167      80.28482567
H      63.59702456      90.26278197      80.08829413
C      60.20307610      92.29612748      78.81839805
H      59.69473972      90.75033136      77.59007595
C      58.55901421      94.31246547      79.22468921
O      56.20630495      94.19152297      78.19478837
H      55.24254453      95.63149442      78.72769119
C      58.92940057      96.03211640      81.19000457
H      57.65761476      97.54578718      81.70401013
C      61.10636528      95.63149442      82.81516920
H      61.43895711      96.73131514      84.50269480
C      68.78243356      94.12916201      86.81949926
O      70.64192425      92.91217826      86.20344848
N      68.41582666      94.87560390      89.21567222
H      67.15915866      96.27778082      89.52558734
C      70.09201390      93.96853527      91.25657664
H      71.99496829      94.26333257      90.53092174
C      70.08634472      95.78267254      93.46188725
H      71.32600518      94.95686213      94.88674089
H      68.19850813      95.65228141      94.27824902
C      70.33767832      98.55679077      93.03669883
C      68.35346569     100.18951429      93.05748582
H      66.56011542      99.51299228      93.75668455
C      68.70684451     102.81245441      92.52647272
H      67.17238674     104.12581420      92.81749058
C      71.09545857     103.77810456      91.97656237
O      71.61513330     106.27065357      91.71389041
H      70.08256526     107.18717084      92.02947470
C      73.10801709     101.97341593      91.79892809
H      74.93727216     102.46285505      91.03547866
C      72.82266842      99.31646075      92.29403639
H      74.43460496      98.09569754      92.02569525
C      69.81989331      91.28512390      92.07482814
O      67.69206148      90.29301759      92.56426725
N      72.04221145      90.13617032      92.39797133
H      73.58611785      90.98276769      91.66097807
C      72.43149507      87.45464868      92.89496936
H      70.64570371      86.84804653      93.72455921
C      73.25730547      86.12995052      90.49690666
H      74.10012341      84.27045983      90.75957862
C      71.39781478      85.97499297      88.19522001
H      72.69416703      85.33248602      86.72690267
H      70.41137764      87.74377680      87.82105420
H      69.99563785      84.54635987      88.68087968
O      75.54765376      87.23166097      89.44810856
H      75.89347368      88.83981807      90.21344772
C      74.50830429      86.88773077      94.84327718
O      75.93882711      88.45053445      95.76168417
N      74.73885090      84.57848522      95.85617049
H      73.25163629      83.45220835      95.45743824
C      76.87613136      83.49567204      97.16008164
H      78.53531106      84.63517701      96.71410623
C      76.58133406      83.82637415     100.03813482
H      76.21661688      85.84271212     100.24600471
C      74.31555221      82.40907941     101.12283772
H      72.69038758      82.65096438      99.88317726
H      73.83178227      82.97977676     103.04279966
H      74.84467557      80.42108733     101.25511856
C      78.87168235      83.48811314     101.75967549
H      80.29086681      84.67486126     100.85638631
H      79.44048997      81.50767996     101.77668303
C      78.53153161      84.50100645     104.56213961
H      77.45816706      83.19709529     105.73943910
H      77.62068353      86.34726905     104.61505195
H      80.35511750      84.73911196     105.49188496
C      77.35045266      80.63084695      96.23978493
O      75.90481204      79.51590844      94.76768813
N      79.15703102      79.37417895      97.36795154
H      80.26441064      80.24912224      98.65296543
C      79.42726188      76.61139909      97.05236724
H      77.74918492      75.64952839      97.76101461
H      81.03730870      76.06904763      98.21832838
C      80.02441540      75.70244073      94.34438944
O      81.38879780      77.04414642      93.02536047
N      78.66570218      73.68610275      93.32771668
H      77.49218214      72.75635741      94.51068535
C      78.66948163      73.16642803      90.62918751
H      80.18504213      74.12640898      89.61440448
C      79.30631940      70.27703648      89.93754768
H      77.56777119      69.19800276      90.18699155
C      79.87512702      70.18066045      87.10862738
H      78.41814803      71.09339825      85.97668132
H      79.73906672      68.18133000      86.63619581
H      81.69682318      71.08205990      86.77225610
C      81.56076289      69.12241371      91.51735887
H      80.94471211      68.87485956      93.46755643
H      82.81932061      70.73057080      91.77625138
C      83.08955148      66.90954419      90.36273610
H      81.89713417      65.26737203      90.00935728
H      84.62967842      66.39175918      91.62885273
H      83.81331666      67.83173063      88.66954132
C      76.31488265      74.55348713      89.58983803
O      74.47806867      73.20800200      89.05504549
N      76.30921347      77.05737449      89.18543660
H      77.75107464      78.21010755      89.66542709
C      74.31177275      78.13829795      87.64530966
H      74.01508572      77.08005121      85.90298200
H      75.29065098      79.89574342      87.20689315
C      71.78331895      78.66742131      88.95111054
O      69.83123167      79.28158236      87.77192132
N      71.55277234      78.27246851      91.45310818
H      73.25352602      78.01546573      92.28269803
C      69.26998295      78.47088978      93.01024266
H      67.81111424      77.34650262      92.08805622
C      69.97863032      77.31059783      95.61806497
H      71.49986000      78.48600760      96.35694796
H      70.89703731      75.48890165      95.33649575
C      67.94339508      77.26335466      97.72322008
N      66.58279213      75.19599408      98.49233869
H      66.47696746      73.45555615      97.71377145
C      65.09557752      76.08983462     100.35749857
H      63.61970127      75.02213926     101.27968501
N      65.36013921      78.58616308     100.66363423
H      64.11858902      79.62362283     101.67463781
C      67.25742443      79.33638443      99.13673537
H      67.76954026      81.27335390      98.75123120
C      68.17961087      81.15052169      93.37495984
O      69.14337129      82.79080414      94.71666552
N      66.15004481      81.61350463      91.98223155
H      65.27888098      80.27746813      90.92965399
C      64.85558228      84.05881048      91.98601100
H      66.07445576      85.54224564      91.23767938
C      62.64460250      83.79802825      90.11329222
H      61.55423041      82.13506910      90.64808477
H      63.61781155      83.38417819      88.34450839
C      60.74164810      85.89184502      89.83172300
H      59.79489522      86.47199099      91.56649176
C      62.02666199      88.32203305      88.78103517
H      60.55267547      89.61271612      88.14797686
H      63.14349024      87.90629327      87.10106848
H      63.11325462      89.28768319      90.24179361
C      58.88593686      85.05847570      87.78703913
H      57.62359968      86.61561020      87.32027673
H      57.59147434      83.65629878      88.56560637
H      59.67962191      84.23266530      86.07494709
C      63.93339584      84.80903183      94.66186346
O      62.70318401      83.29347133      95.74089718
N      64.54377744      87.11638766      95.51224030
H      65.67383378      88.04046383      94.28013874
C      63.87292460      88.26723098      97.89518518
H      63.44584645      86.76300885      99.23878059
C      66.26720784      89.63728256      99.01012370
H      65.61903171      90.92229645     100.48599995
H      67.16860729      90.53112311      97.38873853
C      68.21740539      87.73810762     100.03057591
H      68.96195756      86.74033212      98.38651402
C      70.47373861      89.17807907     101.20220623
H      69.80099604      90.45175460     102.67241330
H      71.43560931      90.41018062      99.86050054
H      71.80032648      87.92896998     102.16218719
C      67.14404085      86.04680258     102.23966597
H      65.52832485      84.87328252     101.72943987
H      66.71318325      87.32236783     103.79869018
H      68.54621777      84.64840510     102.80091469
C      61.61092220      90.07191961      97.74211735
O      59.98575757      89.98877165      99.39751760
N      61.52021534      91.63661301      95.74467664
H      62.97530460      91.93518976      94.54847988
C      59.26388212      93.25232900      95.20610464
H      57.55745926      92.27723022      95.82593487
C      59.52466435      95.69763485      96.74245213