 %block lattice_cart
   137.614   0.000   0.000
   0.000 142.646   0.000
   0.000   0.000   160.855
 %endblock lattice_cart

 %block positions_abs
N      90.16941110      40.63289982      81.79188240
H      89.73477406      39.30253250      80.49553015
H      89.39651305      39.96204697      83.40381895
H      92.07047578      40.81620327      81.78810294
C      88.79558008      42.99883716      81.13425764
H      89.73855350      44.35377092      82.36257975
C      89.26423221      43.81330920      78.40171340
H      88.66329924      42.35444048      77.07701525
H      91.31647498      43.83976537      78.21652022
C      88.39684783      46.60443496      77.87825921
H      86.35594341      46.86710693      77.80644961
H      89.03935477      47.13922752      75.99231234
S      89.32848290      49.11399152      79.99664240
C      92.68841628      48.62077294      79.30500258
H      93.24777528      46.78773841      80.06089310
H      93.89784113      50.17790743      79.89459719
H      92.86794029      48.54518390      77.25464952
C      86.01390295      42.69648095      81.74274952
O      84.90085415      40.79541629      80.99063845
N      84.90463360      44.51439766      82.99941752
H      85.86650429      46.04507597      83.61168883
C      82.42909213      44.57675863      84.19939372
H      81.14218851      43.40890777      83.09390383
C      82.59349832      43.35788516      86.83745165
H      83.56292791      41.54185818      86.95650442
H      80.63385214      42.79474672      87.12280033
C      83.63284778      45.11911008      88.81221565
O      85.05770143      46.80852540      88.37379914
N      82.86561890      44.77329016      91.14602765
H      83.30214568      46.28696094      92.22506137
H      81.96044001      43.22182487      91.79420377
C      81.37273512      47.19402958      83.87247107
O      82.72955862      48.98171067      83.29232509
N      78.92176009      47.58898238      84.32789511
H      77.93910240      45.95625885      84.40726362
C      77.52903180      50.00216287      84.08412042
H      77.59895167      50.61065475      82.11880505
C      74.63397109      49.61854844      84.41860198
H      74.15209087      48.44124894      82.79910653
C      74.00091277      48.45069757      86.97540168
H      74.31082789      49.85287450      88.45127792
H      74.99112937      46.69892128      87.41192846
H      71.96378781      48.13889273      87.00941675
C      73.32250103      52.29629062      84.02742862
H      73.99713332      53.53028190      85.52976105
H      71.32128087      51.91267619      84.32600539
C      73.79871206      53.38288325      81.41582687
H      72.74802422      55.11954173      81.06433777
H      72.86707699      52.07897209      80.12136434
H      75.81882949      53.66445247      81.12858847
C      78.67609567      52.10542827      85.70550560
O      78.64963951      54.25215736      85.06677810
N      79.73056296      51.38922199      87.85412442
H      79.71544514      49.50138541      88.12813472
C      81.12707070      53.03706333      89.67204112
H      80.12173631      54.81907525      89.89880829
C      81.17620358      51.67835012      92.16081067
H      82.04169824      52.94824619      93.53464171
H      82.31570855      49.96436835      92.07199354
C      78.77058199      50.97348220      93.41747868
C      77.73501197      48.40723387      93.17559371
H      78.83861214      46.91246036      92.33277577
C      75.54103972      47.85921323      94.58721926
H      74.88341497      45.92602323      94.57777064
C      74.14264224      49.78862381      95.66625300
H      72.43055021      49.24627236      96.63757231
C      74.88719442      52.31140843      95.59822285
H      73.61729834      53.61342987      96.52607847
C      77.30793382      52.85753933      94.54753501
H      77.70288662      54.82096497      94.15825140
C      83.84638686      53.65311412      88.97473211
O      84.66463835      55.78283567      89.34511847
N      85.35816791      52.00149331      87.65003398
H      84.86872880      50.15523071      87.66137233
C      87.78457650      52.79517836      86.46706529
H      88.95620682      54.01972102      87.63680589
C      89.44375620      50.57852940      86.32533582
H      88.55747457      49.13855795      85.14992606
H      89.53257333      49.73004228      88.19994432
C      92.29724294      51.36087610      85.93038302
H      92.84337383      52.39455640      87.62546753
H      92.55424572      52.28684199      84.10679713
C      94.15295417      49.21225727      85.99652345
O      96.36582369      49.70736557      86.49730092
O      93.47454243      46.93891652      85.59023229
C      87.49922782      54.11420733      83.90081696
O      88.87872803      55.85653499      83.43972375
N      85.33549120      53.59264287      82.55722156
H      84.16386088      52.25093719      83.24130249
C      84.53235752      54.89844375      80.23474792
H      85.95721116      54.91356157      78.74753331
C      82.21744279      53.62287850      79.21996488
H      80.81526586      53.32241200      80.69584113
H      82.78814013      51.75393917      78.56611958
C      80.89652409      54.86442869      77.09591252
H      82.23256059      55.15544653      75.55767529
H      80.33338564      56.77116254      77.63637424
S      78.35862166      53.20713870      75.73719930
C      78.53247648      54.66033823      72.54734128
H      80.33905483      54.23703955      71.65161101
H      78.32082712      56.70691183      72.49442895
H      77.00935706      53.74193125      71.50988154
C      83.93331428      57.61398046      80.95284391
O      85.26746106      59.25426290      80.09490818
N      82.27413458      58.09019149      82.65926677
H      81.36895567      56.52549811      83.27909701
C      81.60139201      60.66399873      83.53421006
H      81.10628371      61.47091187      81.70495499
C      79.28269782      60.53738707      85.16504387
H      79.33938961      62.28727363      86.24974678
H      79.41686839      58.85175120      86.34045363
C      76.85439951      60.13676510      83.78554367
H      76.86384814      58.51915938      82.50808868
C      74.74546494      59.74937120      85.75652820
H      75.19710953      57.91444695      86.57288998
H      72.92565851      59.84385751      84.79465752
H      74.87018688      61.10430496      87.30421405
C      76.07394254      62.47435654      82.26242426
H      75.74135071      63.98235814      83.62680665
H      74.34295324      62.40821612      81.14937546
H      77.49879617      62.99025183      80.86591651
C      83.69898822      62.23058184      84.81922396
O      83.85394576      64.49447398      84.31088758
N      85.28824804      61.13643031      86.27998239
H      84.78747057      59.50559650      87.13602841
C      87.44442577      62.42900312      87.38736202
H      86.99467090      64.28471436      88.16026007
C      88.37984029      60.84163300      89.62101852
H      89.05447259      58.96135532      89.11835132
H      86.73955785      60.57329187      90.83800227
C      90.44720087      62.02082222      91.41436878
H      89.49477881      63.63653822      92.26663536
H      92.15173401      62.60285793      90.41659330
C      91.35426950      60.09897057      93.39102250
H      93.04179511      60.77927204      94.35856238
H      91.86260588      58.32640729      92.47072579
N      89.30391646      59.41677936      95.15413716
H      88.10582998      58.06184561      94.55131446
C      88.63117389      60.35408363      97.40669092
N      89.77067885      62.30995035      98.47816575
H      89.25100412      62.61419629     100.28852356
H      91.19175305      63.24725461      97.61456082
N      87.07214967      59.05773137      98.85989045
H      86.66585853      59.78905545     100.57576195
H      86.35972286      57.40800030      98.21360406
C      89.73099461      62.99214155      85.57889393
O      91.31647498      64.68722605      85.85290424
N      89.94831312      61.53516257      83.51531279
H      88.79558008      60.02905070      83.31500181
C      91.38639485      62.38931885      81.13614736
H      93.25533418      63.17355527      81.49708509
C      91.79079628      60.08952194      79.24264160
H      90.05980698      59.01426766      78.94028539
C      92.42763405      61.01359810      76.57623778
H      92.45597994      59.41299992      75.28177526
H      94.15673363      62.12853662      76.54600215
H      90.93663998      62.25514829      75.88459794
C      93.84114934      58.27727441      80.47474317
H      93.57847738      58.12042711      82.51186813
H      95.64394824      59.20701974      80.12136434
C      93.92240757      55.46536165      79.39948889
H      92.02890179      54.80584716      78.92705731
H      94.62538575      54.10286897      80.77520964
H      95.21687009      55.37843424      77.79889070
C      89.97665903      64.69100550      80.00231159
O      91.03112631      66.62041608      79.32389983
N      87.46143330      64.46990754      79.80766977
H      86.38806876      62.98647237      80.34813149
C      86.05925637      66.43711262      78.28832981
H      87.11939284      66.81883733      76.56489942
C      83.48355942      65.42988850      77.47385777
H      82.20421469      66.97946407      77.01276455
H      82.83538329      64.43022328      79.15193475
C      83.44009571      63.44378614      75.35736431
O      85.25234324      63.45701423      73.83424490
O      81.60706118      62.29294281      74.77154914
C      85.83626868      69.02981712      79.61302797
O      85.63784741      70.99702222      78.36958805
N      85.69075975      69.03359658      82.17360712
H      85.70398783      67.31961481      83.01264560
C      85.01990690      71.32583460      83.56444569
H      84.84227262      72.96233759      82.32667495
C      82.43476130      71.03481675      84.83056232
H      82.61050586      69.45878500      86.14581183
H      81.05904055      70.56238516      83.37358332
C      81.29336661      73.18154583      86.30643857
H      82.70688190      73.92987745      87.60279081
H      79.73434241      72.45400120      87.43649490
C      80.49212266      75.23567834      84.32411566
O      82.10216948      76.75123883      83.50775390
O      78.17720793      75.61551332      83.88569915
C      87.13262092      72.06471758      85.42393638
O      88.29669233      74.07916583      84.89292328
N      87.78268678      70.71545299      87.40436955
H      87.21954834      68.89375682      87.48562778
C      89.75934050      71.61307299      89.14858693
H      90.91207354      73.04170609      88.21506214
H      91.00467013      70.03893097      89.61345961
C      88.61983553      72.80738003      91.53720100
O      86.59026947      74.03381240      91.55798799
N      89.93886449      72.28581556      93.63290747
H      91.54324214      71.26914281      93.45905265
C      89.22454795      73.18910474      96.13868457
H      87.20820997      73.61807262      96.12923593
C      89.90484943      71.20111266      98.26084722
H      91.89473123      70.69655574      98.09077186
H      88.96754517      69.44744664      97.72416495
C      89.27557057      71.85684769     101.09354697
H      90.09949123      73.54437328     101.94203408
C      86.44854000      72.29148473     101.50550730
H      86.14996324      72.94721977     103.43302814
H      85.40919053      70.56616462     101.07275997
H      86.13673515      73.73334592     100.06742557
C      89.82170146      69.60051447     102.75461639
H      88.70865266      68.04715945     101.98927724
H      89.37950550      69.74224394     104.75961600
H      91.85882643      69.48146171     102.45792936
C      90.44153170      75.74590443      97.02118676
O      92.70542381      76.22022574      96.74528671
N      88.81825679      77.46366565      97.97549854
H      86.97577363      76.96666763      98.02652116
C      89.31147537      79.90708179      99.14901858
H      91.16151742      79.64440982     100.01451324
C      88.88250748      82.27868831      97.44259572
H      88.55369511      84.00022897      98.52162945
H      87.53324290      81.67964507      96.00640373
C      91.44119692      82.48088902      96.11600785
H      91.89851068      80.71966409      95.15224743
H      92.88116837      82.94009252      97.51251559
C      91.45253528      84.70320716      94.17903839
H      93.31958488      84.93942295      93.34377936
H      90.75900572      86.38128412      95.15413716
N      89.66863363      84.04747213      92.14191342
H      89.36438770      82.19176090      91.81310103
C      88.66896841      85.54413537      90.44304947
N      88.86361023      87.99511041      90.71139060
H      88.30425124      89.07603386      89.24307326
H      90.18641865      88.79635436      91.83199831
N      87.25356340      84.63706674      88.61379440
H      86.31625916      85.87672720      87.50263531
H      86.38050985      82.94387196      88.67615535
C      87.62961895      80.11684141     101.46771277
O      85.43753642      79.39874540     101.45259497
N      88.63495335      81.20154430     103.49349937
H      90.43775225      81.80247728     103.29885756
C      87.69197991      80.97666687     106.02762237
H      86.17263995      79.58771803     105.96337167
C      89.92374668      79.97889138     107.82475209
H      89.41918975      80.20187909     109.81085444
H      91.63016955      81.10705798     107.58286713
C      90.84782286      77.37673824     106.94791907
H      91.26923182      77.52791636     104.93725029
C      93.22131910      76.92131421     108.44458231
H      94.22476378      75.20544272     107.90601032
H      92.69408547      76.95154983     110.43635385
H      94.64617275      78.36695484     108.10254185
C      88.87305886      75.42276125     107.43357875
H      88.27590535      75.48134276     109.40267356
H      89.54580143      73.51224794     107.06130265
H      87.10994421      75.77425034     106.42635462
C      86.25011874      83.35772203     107.04051566
O      85.46210286      83.35772203     109.26094409
N      86.05169747      85.40807507     105.54196271
H      86.87372841      85.19831545     103.83365012
C      84.82148564      87.84393230     106.02951210
H      83.43820597      87.74377680     107.55263150
C      86.77357292      89.74877641     106.78162317
H      87.83937857      88.76233928     108.24238160
H      86.07437419      91.45330956     107.70758905
C      88.60660745      90.36104774     104.46292898
H      87.63528812      91.55157533     103.09287740
H      89.06959040      88.60360228     103.49538910
C      90.77979271      91.89739524     105.57219832
H      91.61694146      90.91851700     107.18035542
H      90.11649876      93.69830441     106.31864021
C      92.61093751      92.41140080     103.36688771
H      91.43552773      93.12382761     101.83054022
H      93.82225207      90.78434644     103.01161917
N      94.38916997      94.52600453     103.96782068
H      93.47265271      96.16628698     104.30041252
H      95.76678044      94.79245595     102.67524789
H      95.32836395      93.89294623     105.50605791
C      83.49489776      88.41462965     103.48405074
O      83.87662249      87.27512468     101.40346207
N      81.59572282      90.18719293     103.76750970
H      81.52958241      91.14906362     105.41346132
C      79.84583625      90.96764989     101.63778813
H      79.07482792      89.21587360     100.88000788
C      77.50635508      92.67407275     102.54107731
H      78.52491757      94.14994900     103.55586035
C      76.00402267      93.63405371     100.23183177
H      74.61129437      94.97953886     100.93103049
H      74.87396632      92.06369116      99.52696385
H      77.10573311      94.46553330      98.70304318
C      75.71111508      91.17740951     104.39678856
H      76.73912620      90.67096286     106.10888059
H      75.17632253      89.37272088     103.55963980
C      73.32250103      92.67785220     105.18291471
H      72.05827412      93.05957691     103.60310351
H      73.88563946      94.51277645     105.92935660
H      72.36252006      91.64228218     106.68146767
C      81.38029403      92.17140555      99.48916933
O      83.22844635      93.36760231     100.09955092
N      80.82849394      91.74054795      97.08732718
H      79.42442730      90.51033612      96.68670520
C      81.91697630      92.96509061      94.80642751
H      82.57838051      94.84725801      95.32421253
C      84.09394101      91.54968559      93.48550883
H      85.83626868      91.55535477      94.58532953
H      84.56448287      92.68541111      91.83577776
C      83.42497790      88.88328176      92.79953818
C      82.39318733      88.40707074      90.32399671
H      82.26279622      89.90373397      88.94260676
C      81.76201873      85.93530872      89.57377536
H      81.56926666      85.47421549      87.59523190
C      81.71288585      84.00022897      91.38413317
O      80.99856930      81.53224642      90.88146596
H      80.60928569      81.61350464      89.11079241
C      82.66719765      84.49911672      93.84266709
H      82.84483192      82.96087950      95.17303442
C      83.51190530      86.90284859      94.60800625
H      84.20732459      87.17496918      96.50718119
C      79.74379104      93.23154202      93.09622520
O      77.79548321      91.82936508      93.41558896
N      79.70032733      95.07591489      91.36334618
H      81.27257962      96.14738972      91.20271944
C      77.83327773      95.01922310      89.28653696
H      76.03236856      94.27467094      89.95738980
C      77.15864544      97.81412832      88.43804984
H      76.13630351      97.81223859      86.65036875
H      78.65908813      99.08969358      87.83522715
C      75.31238283      99.06701686      90.41848301
H      76.13063432      99.12559839      92.30631960
H      73.71934355      97.76310571      90.53942550
C      74.79081838     101.78066386      89.77597607
H      74.17287787     102.16049884      87.84656551
H      76.58038919     102.69340166      90.23517957
C      72.77637012     102.86158731      91.66570239
H      73.15620512     102.40427354      93.63857666
H      70.90743080     102.07357144      91.31610302
N      72.45889611     105.59791101      91.24807287
H      70.67121500     106.26309466      91.26697014
H      73.02581399     106.07790148      89.49062739
H      73.49635585     106.53521525      92.54442513
C      78.56838128      93.47153726      86.96595304
O      80.67920556      93.83058526      85.99652345
N      76.78070017      92.06180142      86.06077415
H      75.16687390      91.62338492      86.97918112
C      77.08494612      90.56513818      83.77420531
H      78.77058199      89.45019966      84.17293756
C      74.80026700      88.91351739      83.53987924
H      73.19777909      90.16640594      83.20539769
H      74.41098339      87.76645351      85.20661785
C      74.98168072      87.15796165      81.27409740
O      76.91298102      85.88428611      81.02276380
O      73.25258116      87.19197671      79.58846152
C      77.45911193      92.31124529      81.49141592
O      76.92242966      94.57135797      81.48385702
N      77.80682157      91.19630677      79.24264160
H      78.04303735      89.31035991      79.38815053
C      77.45533248      92.21108981      76.72363642
H      78.88396557      93.67940715      76.52521516
C      77.93910240      90.00766893      74.91516835
H      76.21378229      88.88895095      74.82824093
C      78.67609567      90.78812589      72.32246384
H      78.47389495      89.14028455      71.10170064
H      80.63763159      91.40795612      72.26199260
H      77.50824481      92.36226792      71.68373636
O      79.69654787      88.08959671      75.63326435
H      78.64586005      86.63072800      75.38571020
C      74.69255261      93.08792281      76.09624730
O      74.41287310      94.79623541      74.54478199
N      72.84251055      92.37549599      77.52488038
H      72.95967358      90.62560942      78.27699146
C      70.29893893      93.60003864      77.47007833
H      70.29326975      94.69796963      75.72586094
C      68.37141809      91.41929448      77.53054957
H      68.43377906      90.55757929      79.40137861
H      68.73991471      89.83381411      76.26821238
C      65.75603686      92.07313978      76.82568165
H      65.17400116      93.71531196      77.92550236
H      64.69967985      90.36671693      77.28677487
C      65.36108407      92.39628298      74.02132780
O      64.79794563      90.46498270      72.87993310
O      65.71824234      94.49954838      72.87426393
C      70.11374574      95.75243692      79.28232586
O      68.04260570      96.90894941      79.44484231
N      72.06394331      96.35148016      80.82623226
H      73.71556409      95.39905810      80.75631239
C      71.81827889      98.45285581      82.67816404
H      70.83184174      99.96463687      81.68416801
H      73.81760931      98.77410930      83.04099150
C      70.30649783      97.79145160      85.05732947
O      69.87564023      99.45630048      86.63147148
N      69.62241690      95.47653687      85.38425212
H      69.81327927      94.23309697      83.94806013
C      68.31094685      94.65261621      87.62924699
H      67.21301586      96.15116916      88.52119781
C      66.45712534      92.63627822      86.81855440
H      65.41777586      92.15061857      88.52875671
H      67.57017412      91.05835676      86.09856866
C      64.35197021      93.57736193      85.08945482
C      63.42600433      91.91818222      83.29232509
H      64.08362908      89.99255111      83.14492645
C      61.59485953      92.65706522      81.55566662
H      60.64621692      91.31724925      80.34057259
C      60.57251760      95.08536353      81.70495499
O      58.39933234      95.74865746      80.41238219
H      57.92879049      97.47397759      80.71284868
C      61.37754101      96.71241788      83.58523268
H      60.55928951      98.57946748      83.70995461
C      63.35986391      96.13227190      85.10646235
H      64.08740854      97.55334609      86.37824817
C      70.07595123      93.71720167      89.77408635
O      71.58584254      92.06180142      89.15992529
N      69.36541413      94.29167847      92.19860521
H      68.13142285      95.73920883      92.35734221
C      70.53704444      93.43941191      94.47572541
H      72.35496116      94.39561342      94.61934461
C      69.05360928      94.43151823      96.76796344
H      70.00414162      93.66050988      98.42336368
H      67.10908090      93.80979826      96.49206338
C      68.97990996      97.27366659      96.92481072
C      66.73113564      98.57379830      96.72638946
H      65.00581553      97.59492008      96.25017843
C      66.79727607     101.19862815      96.81898605
H      65.11541965     102.28144133      96.40891544
C      69.04227092     102.56112083      97.45960326
O      69.07250655     105.02910338      97.82998961
H      67.40198849     105.73775075      97.76384920
C      71.21167673     101.14382609      97.83187935
H      73.03904207     102.00743101      98.10022048
C      71.17577194      98.49442980      97.66369371
H      72.84817972      97.34547620      97.89613003
C      70.79404722      90.51600530      94.47194597
O      68.90432090      89.07225440      94.53619665
N      73.16565375      89.66562846      94.32643703
H      74.67743480      90.82592041      94.23195072
C      73.82894767      86.92930476      94.27352469
H      72.13197344      85.84271213      94.70627203
C      74.55838203      86.32648206      91.60712087
H      76.43299053      87.09749041      91.23862424
C      74.80971564      83.44842889      90.98351118
H      76.18543640      82.40718969      92.10789834
H      75.34450818      83.28402270      88.99929855
H      73.02770373      82.46199175      91.28586739
O      72.77070095      87.02001162      89.74196099
H      72.45511665      88.77556737      90.07455283
C      75.69599727      86.33971016      96.39001817
O      76.94699610      87.96676451      97.39535256
N      75.93788224      83.93597829      97.03441485
H      74.87018688      82.61316987      96.16514073
C      77.63296675      83.09316035      99.00161994
H      79.43954511      84.07770776      98.87878772
C      76.27047408      83.62606317     101.70770802
H      75.81127058      85.61972443     101.46204360
C      73.80249151      82.16719446     102.17258069
H      72.48913172      82.55647808     100.63623319
H      73.07872633      82.63017740     104.04529946
H      73.94989016      80.11495168     102.29541289
C      78.28681206      83.46921588     103.82420149
H      79.75134995      84.81659074     103.28940894
H      79.06159984      81.57193066     104.02262275
C      77.24746258      84.38951259     106.28840460
H      78.78381007      84.69186880     107.62633082
H      75.87174183      83.00245349     106.94036017
H      76.01347129      86.03546422     106.17313129
C      78.24523808      80.28691677      98.79563977
O      76.72967757      78.88096040      97.61267109
N      80.41275415      79.32126662      99.80664334
H      81.85461532      80.33604965     100.53418798
C      80.78314051      76.56037648      99.77451799
H      79.06726901      75.49268111     100.17891943
H      82.23067087      76.00668667     101.12945176
C      81.69209886      75.55126262      97.28574844
O      83.30781487      76.53958950      96.09711058
N      80.65463912      73.47067395      96.55442436
H      79.35072797      72.70344508      97.71660604
C      80.66786720      72.55793614      93.89746916
H      82.26090648      73.28359106      92.81087654
C      81.01179740      69.58917612      93.98439658
H      79.36773551      68.82383696      94.95949534
C      80.90030355      68.63486432      91.30287494
H      81.05526109      66.58262154      91.37846398
H      82.51035036      69.37563703      90.25218710
H      79.19199095      69.18666441      90.29187136
C      83.36261692      68.78793215      95.57176667
H      82.97900248      69.34162197      97.52007450
H      84.98211238      69.82917135      94.84611177
C      84.01079305      65.97412968      95.54153106
H      85.73611318      65.84373856      96.65457986
H      84.41141504      65.18422408      93.68204037
H      82.58404968      64.95367746      96.62245451
C      78.19421547      73.55571165      92.70316214
O      76.23456928      72.20455732      92.83733270
N      78.16020038      75.84983938      91.63735650
H      79.84961571      76.72856212      91.48239893
C      76.23267954      76.93643201      89.87046238
H      76.18921585      75.55504208      88.34356353
H      77.11707147      78.60883981      89.05788008
C      73.68154903      77.25012659      90.99862899
O      71.95244945      77.80381639      89.57377536
N      73.36218528      77.07060259      93.56865679
H      74.97601155      77.01013135      94.58721926
C      70.87152600      77.44287866      94.73083847
H      69.43722372      76.38841138      93.69526845
C      70.83940065      76.42998536      97.51440533
H      71.76536655      77.84161092      98.69359454
H      71.91465493      74.68576798      97.30275597
C      68.09929750      76.08416544      98.49517328
N      66.74814319      73.83161168      98.49706301
H      67.44167273      72.21778541      97.75062112
C      64.48425106      74.31349189      99.58554537
H      62.95924193      72.96044785      99.65735496
N      64.55039149      76.54714839     100.71560170
H      63.02916180      77.52791636     101.32220384
C      66.76515072      77.76602186      99.99750570
H      67.46245973      79.53102624     100.74961677
C      70.00603134      80.26046061      94.53619665
O      70.69389173      81.95176566      96.01585235
N      68.30527767      80.67053121      92.72583884
H      67.67410908      79.06615358      91.90569762
C      66.71223839      82.93820279      92.69560323
H      67.84418444      84.64651537      92.49529223
C      64.85841687      82.68120000      90.40714467
H      63.62253587      81.04469703      90.59044811
H      65.93934033      82.19365061      88.72150880
C      63.17278100      84.86950307      89.82321924
H      62.37153705      85.60649634      91.57310580
C      64.69212096      87.00300409      88.45694711
H      63.42033515      88.55446939      87.99396416
H      65.32139982      86.41340947      86.58611806
H      66.23413763      87.77968160      89.58133427
C      61.08463342      84.05125159      88.16970871
H      59.86575996      83.14040350      89.55487809
H      61.63832324      82.88906990      86.56155162
H      59.88276749      85.58192990      87.49318669
C      65.14754500      83.23488982      95.09366592
O      63.83985439      81.50390051      95.91947631
N      65.17589090      85.40618536      96.29931131
H      66.54216301      86.62694855      95.76829821
C      63.64332286      86.06381011      98.42147396
H      63.37498172      84.27801874      99.41169054
C      65.37809161      87.77023297     100.03530023
H      64.19890238      88.64139680     101.48283058
H      66.04894445      89.41996405      98.99973020
C      67.71379333      86.16396561     101.18992300
H      68.49047085      84.83926745      99.81609198
C      69.76225666      88.07258918     101.92313681
H      70.37074853      89.11949755     100.25639821
H      71.16632330      86.91985612     102.89445614
H      68.78715787      89.41996405     103.13634111
C      67.02215349      84.59171331     103.46326376
H      65.69745536      83.12150623     102.89067668
H      66.01681910      85.46665660     105.03362633
H      68.64731812      83.58070973     104.22293373
C      61.05628753      87.22599179      97.49361834
O      58.94546323      86.39262249      98.30809038
N      61.05628753      89.13650510      95.77774684
H      62.71924669      89.75255587      95.07287892
C      58.72436526      90.58025600      95.10122483
H      57.06518555      89.40295651      94.78375081
C      58.02894597      92.49832820      97.20449021