 %block lattice_cart
   137.614   0.000   0.000
   0.000 142.646   0.000
   0.000   0.000   160.855
 %endblock lattice_cart

 %block positions_abs
N      87.00695413      41.43886809      77.36803310
H      86.48916911      40.05369870      78.57178876
H      88.63589821      40.87950910      76.54789188
H      85.46682718      41.85838733      76.32112473
C      87.44159117      43.62906089      78.86280662
H      88.93069551      43.23032863      80.23096847
C      88.44692557      45.92318863      77.48141668
H      86.97293905      46.18586059      76.06601167
H      90.18736350      45.35816046      76.53466380
C      88.99116675      48.31558214      78.81556346
H      87.17136032      48.77100618      79.66594030
H      89.37478119      49.88405498      77.53621874
S      91.65568085      48.24566227      80.80922472
C      92.08086927      51.50544016      81.20039807
H      92.61755154      52.28022795      79.36925327
H      93.49438455      51.90984159      82.64414897
H      90.27807037      52.18007245      81.92983242
C      85.10399972      44.15818425      80.56167057
O      83.04797749      44.71565352      79.58279234
N      85.45737854      43.98432943      83.03721204
H      87.15246305      43.42119099      83.70995461
C      83.61111594      44.62116720      84.92882808
H      82.17870339      43.15284986      85.11402126
C      84.94904216      44.49833499      87.66326206
H      86.48727938      45.86838657      87.69916686
H      85.82209572      42.64451348      87.88247031
C      83.26907547      44.92730286      89.89313911
O      81.05242651      45.42430088      89.75896854
N      84.22905644      44.71376379      92.13057506
H      83.23883985      45.58114817      93.51763417
H      86.05075260      44.22054522      92.39702647
C      82.23161572      47.22143061      84.49419103
O      83.66780773      49.05446513      84.10301768
N      79.63324205      47.40851351      84.49608076
H      78.53153160      45.85893794      84.67182530
C      78.05532057      49.59303713      83.84223545
H      78.75262958      50.17696256      81.99408312
C      75.28120236      48.87683086      83.74585941
H      75.12435507      47.11182648      82.69517158
C      74.11713094      48.29290543      86.32722555
H      75.10356807      46.71498396      87.21350719
H      72.20094846      47.60882450      86.00597208
H      74.28153713      50.02956391      87.42515654
C      73.54832332      50.88560993      82.57233937
H      73.92059941      52.77533624      83.30177373
H      71.54899289      50.44152424      82.78209899
C      73.99051927      50.92151473      79.82467731
H      73.44627811      49.02989869      79.21618544
H      75.93126820      51.33536479      79.27287723
H      72.64314441      52.00243818      78.70406961
C      78.72806315      51.77000184      85.64881381
O      78.64491519      53.98854053      84.84756985
N      79.44615914      51.20119422      88.05443540
H      79.58410917      49.37382888      88.58922795
C      80.01307703      53.40083565      89.79676306
H      78.56554669      54.85403519      89.60212125
C      79.84489140      52.20463889      92.42159291
H      80.82565935      53.34792331      93.82754929
H      80.88046141      50.42451671      92.48206415
C      77.28431224      51.65283881      93.53842116
C      76.41125869      49.16406926      93.31921291
H      77.32210677      47.74299507      92.17403876
C      74.03398298      48.62738698      94.42281308
H      73.31399726      46.76222711      94.01274247
C      72.55432728      50.51900302      95.53397215
H      70.57200438      50.51522357      96.01963181
C      73.57477948      52.89060955      96.02908044
H      72.57322455      54.34569881      97.05142238
C      76.08433604      53.45752744      95.00295906
H      76.81754985      55.33969485      95.31476390
C      82.67381169      54.48175910      89.22984517
O      83.05175694      56.71352588      89.67582058
N      84.33299138      52.85092529      88.18104707
H      83.67725635      51.09159010      87.84656551
C      86.90868835      53.68996378      87.52909149
H      87.56631311      55.07324344      88.90859170
C      88.60188313      51.27111410      87.80877098
H      90.54452179      51.74543540      87.31933187
H      88.06520086      49.65539810      86.65036875
C      88.63211875      50.24877216      90.58477894
H      90.13256144      48.85604387      90.81910500
H      86.83309931      49.30390900      90.92492967
C      89.19336746      52.29345603      92.67670596
O      87.30931034      52.90572736      93.95605068
O      91.35332465      53.19674521      93.03197451
C      87.15813223      54.77844613      85.02331440
O      88.53763244      56.67384162      84.91371027
N      85.43092237      54.15672618      83.35846551
H      84.26496124      52.67140129      83.63436556
C      85.37989977      55.51165994      80.99441790
H      87.26584662      55.39638664      80.17805613
C      83.49773235      53.92240011      79.29177449
H      81.59477797      54.13782891      80.04388556
H      84.15724685      51.97220256      79.16327310
C      83.32387753      54.85025573      76.60080422
H      85.18147851      54.79356394      75.71641230
H      82.78152608      56.83635809      76.50442818
S      81.09777994      52.84714584      75.05122864
C      79.75229481      54.91261670      72.81190296
H      78.75451931      53.87704668      71.33602671
H      81.27541421      55.79700862      71.74609732
H      78.57310558      56.23731485      73.86070107
C      84.51062567      58.22530693      81.38559124
O      85.67469707      59.96574486      80.69395141
N      82.25240272      58.40294120      82.67438459
H      81.37179025      56.78533548      83.17327234
C      81.09589021      60.74998128      83.03154286
H      80.95227101      61.80255884      81.26464876
C      78.31610280      60.34935930      84.12947385
H      77.28998142      62.06334107      84.62836160
H      78.38035351      59.15316255      85.80566109
C      76.53598062      58.91127758      82.28699070
H      77.35234239      57.20863417      81.45929057
C      74.13980765      58.39538230      83.68916762
H      72.71306429      57.22375198      82.77076063
H      73.17604723      60.15849695      84.13892248
H      74.54987827      57.19162663      85.31055280
C      76.02575452      60.28132916      79.84924375
H      75.30576880      62.12570204      80.41805137
H      74.64625430      59.30434065      78.67383398
H      77.80398698      60.58368537      78.85146826
C      82.70782677      62.60002334      84.62269242
O      82.72483429      64.88092300      84.14648139
N      84.17047492      61.62870402      86.55210298
H      84.11567286      59.77488250      86.99618867
C      86.12256220      62.76631926      88.07900184
H      85.40068675      64.28565921      89.26952942
C      87.19781649      60.86525459      90.00085350
H      88.31464474      59.48764410      88.95205540
H      85.68036625      59.88259690      90.98918037
C      88.81731194      62.11625341      92.01152230
H      87.71938094      63.53354814      93.02630533
H      90.31964435      63.25008919      91.17437355
C      90.23271693      60.41549972      93.92014588
H      90.83553964      61.64571155      95.45838310
H      91.92591171      59.57268179      93.10945329
N      88.53385298      58.49931724      94.98973097
H      88.19559197      56.80612247      94.17903838
C      87.04285893      58.80356318      96.89835455
N      87.10144044      60.87281349      98.29486229
H      86.69136982      60.90493884     100.15813244
H      87.95937618      62.46018360      97.67692179
N      85.88445669      57.03477935      97.97171909
H      84.65424486      57.44862941      99.37011656
H      86.02996561      55.25276744      97.30275598
C      88.19181253      64.01542835      86.50485983
O      88.89668043      66.23018759      87.14358732
N      89.48816478      62.64915623      84.78331915
H      88.78518659      60.94084364      84.29765949
C      91.41946506      63.62425500      83.05232985
H      92.61188236      64.82612094      84.22773962
C      93.38100098      61.62681429      81.98463449
H      94.69247103      62.86269530      80.98685899
C      94.92112792      60.63848743      84.23718825
H      93.65501129      59.44040095      85.33511924
H      95.58253213      62.16349656      85.45417200
H      96.62944051      59.63882221      83.66649090
C      92.18291450      59.57835097      80.32734451
H      91.20214653      60.48352987      78.75887167
H      90.77317867      58.65238507      81.50842345
C      94.03862573      57.65838903      79.17839091
H      95.83953490      58.48230971      78.61525247
H      93.26194822      56.77966630      77.48519613
H      94.52617512      56.22219704      80.57300893
C      90.38578478      65.28343471      80.83946034
O      91.74827744      66.98229866      79.91538417
N      87.97260427      65.06800591      80.11569516
H      87.05986646      63.57323239      80.86969596
C      86.79152532      66.44561639      77.96707634
H      88.32598309      66.54010270      76.59513504
C      84.56164827      64.87147437      77.03733100
H      83.08199258      64.55211062      78.43194902
H      85.21738330      62.92316654      76.87481453
C      83.41458440      65.79177108      74.59580460
O      84.60889144      65.29477306      72.51710566
O      81.23006079      66.66860409      74.61470186
C      86.33232182      69.27264695      78.38092641
O      86.82743013      70.88647322      76.77843849
N      85.29297236      69.86980047      80.66560552
H      84.52574347      68.32589407      81.48196729
C      84.49550785      72.43226935      81.57645360
H      84.30842494      73.67570926      79.94373007
C      81.89146500      72.32266522      82.94272573
H      82.22972601      71.03765133      84.51875747
H      80.41180929      71.62346649      81.68983718
C      80.88424086      74.85300876      83.96884711
H      82.09366571      75.85834315      85.29921444
H      79.28364269      74.39002581      85.18205141
C      79.93370853      76.54998298      81.90148653
O      77.59044791      76.76730151      81.47818783
O      81.47761494      77.95782909      80.76576101
C      86.51184582      73.65870173      83.38870114
O      86.85010684      76.02841852      83.35846551
N      87.98205289      72.15636931      84.67938421
H      87.88567685      70.27231217      84.38080745
C      89.93791964      73.16926261      86.35179199
H      91.19458764      74.35223128      85.22551511
H      90.80719373      71.40236851      86.95839414
C      89.03652019      74.44482787      88.74229578
O      86.88223219      75.28575608      88.97284239
N      90.71270743      74.64702859      90.66981662
H      92.41913028      73.80043120      90.54131523
C      90.01917787      75.67314998      93.18504234
H      87.97449400      75.80543082      93.39291224
C      91.14734447      73.97428602      95.31665362
H      93.19769752      74.12735385      95.19760087
H      90.61822111      71.99574257      95.07854811
C      90.68625126      74.93993617      98.06431568
H      91.44781095      76.83533166      98.32698764
C      88.00850906      74.65836695      98.89390553
H      86.80664314      75.68259861      97.57487657
H      87.64757135      75.53708968     100.72127088
H      87.53985694      72.68927213      99.27374052
C      92.19236312      73.20705714      99.92002692
H      94.16334767      73.59823048      99.46460288
H      91.83520486      71.20205752      99.62711934
H      91.85599185      73.80232093     101.86266557
C      90.98671773      78.48317300      93.44204512
O      93.14667492      79.50362521      92.79575872
N      89.47304696      79.84377595      94.78753026
H      87.88756659      79.07276761      95.51507489
C      90.03996485      82.18703658      96.01396263
H      92.08842818      82.25884618      96.21427362
C      88.94959277      84.41313417      94.43604116
H      88.82298110      86.15357211      95.53019270
H      87.00506440      84.03707864      93.87290272
C      90.31397517      85.16146579      92.04931683
H      90.74861223      83.46449156      90.96650365
H      92.11488435      85.83609809      92.78631009
C      89.19336746      87.41590928      90.51107961
H      90.69381015      88.59509850      89.73629182
H      88.10488512      88.75383551      91.63546677
N      87.45859871      86.11010840      88.58544850
H      87.46615762      84.20148483      88.58733822
C      86.81042258      87.37433531      86.58233860
N      87.26395691      89.80074389      86.23273924
H      86.36066772      90.70781252      84.81733423
H      87.78363164      90.73237896      87.81821961
N      85.92603068      86.05152689      84.68316366
H      85.21927304      86.79796878      83.07500657
H      85.34777442      84.27518415      85.08000619
C      88.71337698      82.22672083      98.63690276
O      87.13734523      80.71493978      99.17736448
N      89.26328734      84.12967523     100.16758107
H      90.38200532      85.60366175      99.69892894
C      88.44503585      84.08432179     102.85855134
H      87.17325003      82.55175375     103.38389525
C      90.85443690      83.94826150     104.44781117
H      90.30452653      84.73060819     106.27328679
H      92.20559121      85.17658360     103.49538911
C      91.98638295      81.27051931     104.95803727
H      92.99738654      81.32721110     106.75327727
C      90.27429091      79.02174500     105.38889487
H      88.88534207      79.11056214     106.90634510
H      91.44970068      77.42681599     105.95014359
H      89.21226472      78.45482711     103.71648708
C      93.94224970      80.73950622     102.87366915
H      95.02317315      82.37789893     102.25194919
H      92.94258448      79.86645266     101.29763740
H      95.22159441      79.39780054     103.77317887
C      86.80664314      86.40112625     103.47649184
O      85.02463123      86.04207826     104.92024275
N      87.27151581      88.60454714     102.47871635
H      88.66046465      88.63478276     101.17102574
C      85.71060187      90.85521117     102.83209517
H      84.57298664      90.27506520     104.44592144
C      87.05419729      93.25138414     103.63711858
H      88.20693033      92.73170940     105.26228321
H      85.70493269      94.62521517     104.37222212
C      88.66613383      94.81229807     101.71526692
H      87.37545076      95.66078519     100.35466397
H      90.19870187      93.78050751     100.79874966
C      89.93414019      96.97792443     103.06831096
H      90.99805609      96.12565786     104.61410708
H      88.31275500      97.92656704     103.91112889
C      91.61032742      98.41789588     101.26362233
H      92.05441310     100.24904068     102.09510191
H      90.61255193      98.83363567      99.50995631
N      94.23137782      97.34642106     100.84977227
H      95.16490262      97.07430047     102.49194443
H      95.23293277      98.38577053      99.59877345
H      94.03484629      95.62865984     100.03907968
C      83.97772285      91.19536191     100.71182225
O      84.66558323      90.33931589      98.67280756
N      81.83666294      92.46903745     101.08220860
H      81.56265262      93.27406085     102.79052119
C      79.89969346      92.98682246      99.17547475
H      78.71483507      91.35409892      98.75784524
C      78.14791716      95.08063921     100.39245850
H      77.76619245      94.45325007     102.31619989
C      79.53875573      97.56562931     100.57387223
H      81.48517383      97.27839091     101.17858465
H      78.38791240      98.81284868     101.73983336
H      79.87134756      98.25537942      98.66335892
C      75.78386955      95.43023858      98.88823635
H      74.79365297      93.70491845      98.35344381
H      76.46039156      96.10676060      97.06276074
C      73.75997267      97.18201487     100.15246326
H      71.89292307      96.32974830     100.31308999
H      73.43871920      98.90733499      99.07342953
H      74.41003853      97.93601567     101.95526216
C      81.04108815      93.92223698      96.60355724
O      82.91002748      95.20347142      96.59032916
N      79.96016470      93.20792043      94.43037198
H      78.45972201      92.03062094      94.52863775
C      80.66881206      94.31341033      91.96238942
H      81.50218138      96.18234965      92.19482575
C      82.64168634      92.72415050      90.56021249
H      84.42936744      92.69958406      91.58444416
H      83.25773711      93.82019176      88.92559923
C      81.98784104      89.95003227      90.06699393
C      80.91825594      89.13367050      87.82010934
H      80.60267165      90.54529606      86.38202762
C      80.23228529      86.61655505      87.55365793
H      79.30820913      86.03451935      85.82833781
C      80.53842096      84.98383152      89.55865755
O      79.83355303      82.50451060      89.32622121
H      78.90947687      82.21538247      87.79176345
C      81.88201636      85.74350150      91.68837910
H      82.44893425      84.26006634      92.97150327
C      82.55853839      88.20959434      92.04742710
H      83.29742137      88.74249716      93.87290272
C      78.29720554      94.65167134      90.36746041
O      76.24118332      94.01105412      91.15358656
N      78.61278984      95.95558249      88.23017995
H      80.19827021      96.99304224      88.01853060
C      76.62101831      96.31274077      86.37257898
H      74.92215436      95.79117630      87.41381818
C      76.37913334      99.06985146      85.48251789
H      74.95238998      99.10764598      83.99719301
H      78.14035827      99.91455912      84.83056231
C      75.43049072     100.68934691      87.87869086
H      76.89124917     100.69690581      89.33378012
H      73.75241377      99.95046392      88.81788483
C      75.48340307     103.51637747      86.92815852
H      74.14169739     103.55228227      85.36535486
H      77.29754032     103.98125014      86.07022277
C      74.68593857     105.43255995      88.92559923
H      75.87835587     105.61775313      90.59422757
H      72.84912458     104.89776741      89.69471784
N      74.42326660     107.99880829      87.73507166
H      75.95583464     108.71123511      86.85067974
H      74.12468985     109.35185233      89.05032117
H      73.03620749     108.06872816      86.42738105
C      76.90636697      94.48159597      84.15404029
O      78.96427893      93.97136986      83.25264084
N      74.91459545      93.37232662      83.12791890
H      73.37068905      93.55940953      84.23529852
C      74.72940227      91.70369829      80.87536514
H      76.11079220      90.17490970      80.92071857
C      72.12724913      90.34120562      80.96796173
H      70.53609957      91.62244006      80.69962059
H      72.11591078      89.32831231      82.76320173
C      72.06110872      88.32108819      78.86658607
O      73.00786159      86.28018377      79.49775466
O      71.29576956      88.74438688      76.75198232
C      75.36812977      93.20981016      78.45840519
O      75.48151334      95.57952696      78.53399424
N      75.36057086      92.04762848      76.24553567
H      75.15081124      90.15034326      76.25498430
C      75.70072160      93.29862730      73.90416477
H      77.14825194      94.71214258      74.28966894
C      76.62479776      91.66968322      71.65161101
H      74.98262560      90.93646941      70.64627661
C      78.13846854      93.13611083      69.74865661
H      79.65024958      94.12065824      70.74265265
H      77.04809646      94.59308982      68.78678592
H      78.94727140      91.80385378      68.40317147
O      78.10256374      89.60610208      72.56434881
H      77.10100879      88.11699775      72.82702077
C      73.41793220      94.87654877      73.06701601
O      73.62769182      96.79651070      71.72342061
N      71.14837091      94.11120961      73.86259079
H      71.11246610      92.49549361      74.87737382
C      68.86747124      95.68913108      73.58102157
H      69.12258429      96.99493197      72.00687955
C      66.64137365      93.84286848      72.95741189
H      66.16327290      92.85643134      74.70162927
H      67.36135938      92.38588949      71.69318498
C      64.19984726      95.04662414      71.68940553
H      63.93339584      96.88910729      72.57001799
H      62.68995592      93.79373559      72.31679467
C      64.41716578      95.12977209      68.80568318
O      65.97807972      96.66989904      67.70019329
O      63.32112452      93.53862254      67.42240352
C      68.55566641      97.36153887      75.93940001
O      66.44673184      97.94357457      76.55923024
N      70.62680644      97.93601567      77.27921597
H      72.24441216      97.09319773      76.71796725
C      70.61357836      99.56873920      79.49964438
H      69.21518088     101.04461545      79.17272173
H      72.43338479     100.47202838      79.83790539
C      69.78776796      98.35364518      82.13770232
O      69.63281041      99.87109541      83.87625052
N      68.99975208      95.97070030      82.33423385
H      68.71629314      94.90111521      80.77898910
C      67.63725942      95.12599264      84.54521364
H      66.19917770      96.49415449      85.09512400
C      66.05744821      92.72981968      83.97451629
H      64.87636928      92.48604498      85.64503435
H      67.42372034      91.19158246      83.88758888
C      64.46251921      92.79596010      81.56133579
C      64.30567192      90.59631867      80.12892325
H      65.70217967      89.16579585      80.54277331
C      62.48397576      90.13333572      78.27321201
H      62.53688810      88.36455189      77.25464952
C      60.74353782      92.06274629      77.75542700
O      58.83869370      91.51850511      76.16805689
H      57.75588053      92.96981492      76.03955550
C      60.88526729      94.41923500      79.27665668
H      59.71363699      96.02928182      78.83257100
C      62.82412650      94.76505492      81.15693436
H      62.88837719      96.52061066      82.19628383
C      69.24919596      94.48915487      86.91304071
O      71.30332847      93.48004102      86.67682492
N      68.40448829      95.17323580      89.14480749
H      66.54310788      95.58330641      89.05410062
C      69.37580762      94.53072885      91.64869485
H      71.29010037      95.28850910      91.64302567
C      67.95095398      95.81196329      93.79542394
H      68.44228283      94.74804738      95.49050844
H      65.91760847      95.50960708      93.65558419
C      68.63881437      98.57474316      94.14502331
C      66.83034628     100.52116127      93.74818078
H      64.81022884     100.23392287      93.76140887
C      67.64670804     103.05339452      93.85022600
H      66.28043593     104.49903515      93.39291224
C      70.28287626     103.64676859      94.18659729
O      70.97829554     106.14120732      94.23195072
H      69.54399326     107.07662185      93.63668693
C      72.06488816     101.78160872      94.54186584
H      74.09067477     101.98947861      94.65335969
C      71.22018051      99.14733024      94.58910899
H      72.68660813      97.73192523      94.69871312
C      69.60446450      91.65267568      92.05309628
O      67.82056286      90.19380696      91.94727161
N      71.96473267      90.86843926      92.32521687
H      73.37257877      92.15345315      92.36112167
C      72.88502938      88.17557926      92.34033468
H      71.25230586      86.92269072      92.44804908
C      74.17004327      87.65023535      89.74951991
H      76.06921823      88.43825122      89.89691856
C      74.02075489      84.84777123      89.39425136
H      74.62546731      84.36589102      87.48562778
H      72.04977036      84.35644238      89.73440209
H      75.13191398      83.75928887      90.74540567
O      72.90392664      88.78974031      87.58011410
H      72.93794173      90.57742141      87.88813949
C      74.73129200      87.83353880      94.41147472
O      75.97473190      89.74027265      95.08421729
N      75.24718728      85.50350626      95.22405703
H      74.20594807      83.96715876      94.77808162
C      77.27108415      84.98761097      96.97394360
H      78.80176248      86.23483034      96.39001817
C      76.43204567      85.76806794      99.77451800
H      75.40592428      87.53496204      99.53452275
C      74.66326184      83.87078272     101.02740654
H      75.62513254      82.08877081     101.41480044
H      73.06833284      83.52496281      99.77073854
H      73.82044391      84.62478352     102.75083694
C      78.73373233      86.11577758     101.39968262
H      80.46094217      86.89623455     100.59276949
H      79.20427417      84.28274306     102.21226494
C      78.22917539      87.82220044     103.65223639
H      79.90347291      88.03951897     104.83142561
H      76.76652723      87.07008937     104.89378658
H      77.66981641      89.67980141     102.95681711
C      78.25941101      82.20971329      96.63568259
O      76.95738959      80.69415279      95.45271392
N      80.40802983      81.74862007      97.84699716
H      81.51729918      83.06009013      98.68036646
C      81.28675257      79.10678269      97.87912250
H      79.66725713      78.02207978      98.54241644
H      82.67570142      78.92914841      99.38901383
C      82.08610681      77.95215991      95.37901459
O      83.14246381      79.25796079      93.75384996
N      81.67981565      75.49740543      94.83099396
H      80.87290252      74.40136417      96.16892019
C      81.69493345      74.37679772      92.38001893
H      83.04230831      75.31221225      91.13279957
C      82.56609728      71.58378223      92.80520735
H      81.12990529      70.55577112      93.86156436
C      82.63790689      70.07389091      90.37690904
H      83.50151182      68.20495159      90.41092411
H      83.63001320      71.14536573      88.92370951
H      80.68770933      69.84901348      89.75140963
C      85.09644083      71.27764657      94.00518356
H      85.60099775      72.98028998      95.05020221
H      86.57798625      71.22284451      92.57466074
C      85.18525795      68.91170923      95.72672423
H      87.09955072      68.86068662      96.48450448
H      84.81865106      67.18071993      94.67036722
H      83.82087556      69.10257159      97.25740255
C      79.09844951      74.75285326      91.17815300
O      77.39580609      73.09367356      91.20460917
N      78.71294534      76.82588303      89.93093363
H      80.07543800      78.16002980      89.84022677
C      76.50007582      77.33610913      88.38135805
H      75.92370929      75.66937052      87.31555241
H      76.75140943      78.86489772      87.02075511
C      73.90926104      77.97483662      89.48495822
O      72.24819161      78.38112778      87.97506690
N      73.62013293      78.19215515      91.99073531
H      75.02419957      77.69893658      93.18504234
C      71.14837091      78.40002505      93.25118276
H      69.91060017      77.09233444      92.25151754
C      71.32411545      77.47594888      95.97805783
H      72.20661764      78.74584496      97.33677105
H      72.38425192      75.71283423      95.89679960
C      68.68416780      77.08477553      96.83977303
N      67.43505870      74.71883819      97.00795867
H      68.05299920      73.15225507      96.10844895
C      65.01620902      75.16859305      97.81676154
H      63.40994165      73.93271204      97.59188410
N      64.67227883      77.75373865      98.40446642
H      62.99798131      78.59655658      98.77107332
C      66.92483259      78.88568471      97.74306221
H      67.27254224      80.89068433      97.90368895
C      70.00886594      81.01918572      93.04520260
O      70.63814480      82.56498184      94.54375556
N      68.14937525      81.37634399      91.40492016
H      67.79221698      79.97794652      90.15770079
C      66.31823044      83.35299771      91.19516053
H      67.24041689      85.14445826      90.76997211
C      64.38126098      82.71049077      89.12024104
H      63.11325463      81.31965220      89.95927953
H      65.39982346      81.89223927      87.52909149
C      62.75798607      84.98950070      88.07711212
H      61.96241130      85.90790769      89.74007127
C      64.34157673      86.83387358      86.52186736
H      65.82690161      87.55007985      87.75774837
H      63.15482859      88.45147930      86.05321524
H      65.25620426      85.92680495      84.91560000
C      60.75109673      83.94259232      86.26297486
H      59.58513559      85.52618297      85.65070353
H      59.55112053      82.57443047      87.22484555
H      61.63737837      83.12245110      84.59245680
C      64.90849461      83.84054710      93.78408558
O      63.61214236      82.31931742      94.75729463
N      65.23352755      86.13467484      94.73461792
H      66.49586472      87.25528255      93.84833628
C      63.93528557      86.96804415      97.00417922
H      63.29655808      85.32776171      98.07565404
C      65.81367352      88.70659236      98.48761438
H      64.59857951      89.82908979      99.71593648
H      66.79822094      90.10498983      97.34055050
C      67.91315945      87.50850587      99.96727008
H      68.88825823      86.20648444      98.70115345
C      69.70839946      89.42468836     101.14079012
H      71.30899765      88.44581013     101.99116696
H      68.76542603      90.60387757     102.54107732
H      70.24697145      90.55285496      99.50428713
C      66.75475722      85.70759670     102.04785875
H      65.64548788      86.86410920     103.34421100
H      68.39503966      85.25406238     103.21004043
H      65.43194880      84.34321430     101.25795315
C      61.52966397      88.42313341      96.32198802
O      59.65127602      88.32864709      97.65613480
N      61.54856124      90.14089463      94.47950487
H      63.13215188      90.28640355      93.42314786
C      59.29222801      91.41457016      93.58566432
H      57.71430654      90.12766654      93.90313834
C      58.50988133      93.62932940      95.25240293