 %block lattice_cart
   137.614   0.000   0.000
   0.000 142.646   0.000
   0.000   0.000   160.855
 %endblock lattice_cart

 %block positions_abs
N      90.51239643      41.13178756      82.47596332
H      90.32342380      41.32831910      84.36379992
H      92.38133576      41.06564714      82.09234888
H      89.68280658      39.50851266      81.91282488
C      89.34454557      43.31442145      81.22685424
H      90.25917311      44.90746073      82.16226875
C      89.86422031      43.35977488      78.43005929
H      88.85321673      41.87822946      77.41716598
H      91.87866856      43.12166937      78.05778320
C      89.20659555      45.98838419      77.62125642
H      87.19214730      46.30774793      77.90660510
H      89.69603467      45.98082528      75.62192599
S      90.80908346      48.50172018      79.13492720
C      88.87211399      51.23426443      78.18628460
H      89.20470582      51.68590902      76.20396170
H      89.41068599      52.73659685      79.48830602
H      86.89168082      50.88088561      78.62092164
C      86.51751501      43.30686255      81.55188716
O      85.29108263      41.52296091      80.70906922
N      85.38178949      45.41390739      82.30399823
H      86.45704377      46.96726242      82.55722155
C      82.70215758      45.56697522      83.06366821
H      81.60989577      44.58242781      81.62180704
C      82.42436781      44.25361543      85.74896931
H      83.15002272      42.32987404      85.65448299
H      80.54220041      44.09676815      86.57477970
C      83.75851459      45.72004305      87.89947784
O      83.04041859      47.63055635      88.85001019
N      85.67280735      44.69959084      89.03709308
H      86.24917387      45.74083004      90.52997688
H      86.38523417      43.00261661      88.53820534
C      81.71005127      48.32786536      83.12791891
O      82.92136583      50.03239850      82.51942703
N      79.25718651      48.56219142      83.88947860
H      78.20271923      46.98426995      84.08978959
C      78.02697468      50.98104110      83.85924298
H      78.15547607      51.51205420      81.87314063
C      75.17348795      50.72592805      84.37135881
H      74.38358235      49.31997168      83.08823465
C      74.87491119      49.70169639      87.25697089
H      75.12813452      51.15867538      88.69127317
H      76.04276205      48.01983997      87.47617915
H      72.97195680      48.92312915      87.37035447
C      73.69005279      53.10131403      84.22773962
H      73.95839393      54.33530531      85.85479397
H      71.74741415      52.44746872      84.03876698
C      73.99618846      54.68679440      81.76542623
H      75.88213532      55.51071508      81.66149128
H      72.51653275      56.11920695      81.70495499
H      73.88469461      53.26005104      80.28388080
C      79.33088584      52.95580510      85.64692408
O      79.46127695      55.19324106      84.93071781
N      80.16614487      52.03361866      87.74263056
H      79.84300167      50.25538620      88.35679161
C      81.47383548      53.75704906      89.44149452
H      80.31165380      55.45213356      89.55865755
C      81.96894377      52.58541874      92.00018395
H      82.75506992      54.03105937      93.23795467
H      83.39190769      51.10198359      91.87735174
C      79.67670575      51.45158296      93.36078688
C      79.48206394      48.94202641      94.26974524
H      81.06187514      47.75338856      93.76140886
C      77.34100403      48.01606052      95.62278928
H      77.19549511      46.01484035      95.99128591
C      75.34545305      49.68090940      95.94593249
H      73.52942606      48.87210654      96.40324625
C      75.41915237      52.12054607      95.10311456
H      73.81288501      53.37532434      95.23161593
C      77.58099927      53.01816607      93.73684242
H      77.69249313      54.98726089      93.21527796
C      84.00417901      54.64711015      88.36812998
O      84.62211952      56.89966392      88.54954369
N      85.49139362      52.87265714      87.17193321
H      84.80731269      51.09253496      87.05665991
C      88.05008305      53.49248737      85.99841317
H      89.12722705      54.79072935      87.17760239
C      89.53351820      50.98860001      85.57133502
H      91.27773559      51.41000898      84.55655199
H      88.23338650      49.91901492      84.38647663
C      90.22704776      49.71681420      88.09034021
H      88.49983791      49.33886894      89.14858693
H      91.23427188      51.09820414      89.23929381
C      91.57442262      47.27339808      87.70105659
O      93.76083597      47.27717753      88.41915258
O      90.46893273      45.21926558      87.09634417
C      87.82520562      55.01182733      83.61924774
O      89.64123260      56.29495150      82.90871065
N      85.55186486      55.20457941      82.56478046
H      84.02874545      54.11420733      82.93516682
C      84.79030516      56.97714270      80.48419180
H      86.16980537      57.20579958      78.97241075
C      82.46783152      55.83952746      79.04044088
H      80.89557923      56.50282139      80.19317394
H      82.42436781      53.78161550      78.96485184
C      81.93114925      56.67478649      76.31545554
H      83.50529126      56.19101655      75.07768481
H      81.86689855      58.72891899      76.45340556
S      79.03986799      55.64110619      75.11547934
C      80.06598938      55.11765200      72.02388708
H      81.89146499      54.20113474      71.73853841
H      80.39858121      57.08107764      71.49476372
H      78.62601792      54.25971626      70.82958005
C      84.29330714      59.73236366      81.62747622
O      85.37045114      61.51437557      80.53710412
N      82.72105484      60.11219865      83.65893200
H      81.38501834      58.84797175      84.16915810
C      82.24106436      62.62175519      84.65103831
H      82.21460819      63.90109991      83.03910176
C      79.75796399      62.84663262      86.10990702
H      79.67103658      64.67777742      87.05288045
H      79.72016946      61.34052075      87.51397368
C      77.58666845      62.38553940      84.26931359
H      78.04020277      60.59785831      83.35468606
C      75.00719204      62.21546404      85.71117478
H      74.98451532      60.64510147      87.04343182
H      73.50108016      61.76570917      84.37891772
H      74.44405359      63.98046841      86.61068450
C      77.46950542      64.36975203      82.10935643
H      77.83989178      66.24436053      82.88225449
H      75.65158871      64.10708007      81.17961107
H      78.98506592      64.05416774      80.75064321
C      84.34432975      63.74047317      86.14770155
O      84.54086128      66.04593927      86.20817279
N      85.98839164      62.10963936      87.19083047
H      85.67280735      60.23881031      86.97729141
C      88.25606322      63.12253267      88.60056631
H      87.68347614      64.85730142      89.54920891
C      88.98738730      61.20446046      90.73406732
H      89.50517231      59.46402252      89.76463771
H      87.16191168      60.72069052      91.55798798
C      90.79018620      62.17200033      92.79197926
H      89.90579429      63.83306976      93.62912802
H      92.53062414      62.79938947      91.88680036
C      91.05285816      60.05928631      94.72516928
H      92.61944127      60.42967267      96.00451401
H      91.17380064      58.26404632      93.72361435
N      88.67180300      60.15377263      96.34277502
H      88.05953168      61.72413519      97.23661556
C      87.51151105      58.15444219      97.13646006
N      87.91213303      55.88677061      96.24828869
H      86.65357530      54.49782177      96.60733670
H      89.38234010      55.62598838      95.05776111
N      85.56131349      58.10341958      98.61044658
H      84.74684145      56.43290152      99.04508363
H      85.21927303      59.55094993      99.80475361
C      90.39145395      63.84818757      86.83745165
O      92.06008228      65.28437957      87.65570315
N      90.15334843      63.21512926      84.33734374
H      88.58109614      62.27404555      83.80633065
C      91.37600136      64.68722605      82.22274000
H      93.28840439      65.03115624      82.89926202
C      91.74638772      62.65954972      80.14215133
H      89.94169909      61.71846602      79.81522868
C      92.52684468      63.93511498      77.72141192
H      90.93569513      64.94800828      76.88804262
H      93.28840439      62.59718875      76.35513979
H      93.99516203      65.36374807      77.91983319
C      93.84965310      60.78872067      81.21551587
H      93.18824889      60.02149179      83.00886614
H      95.67323899      61.73925300      81.33267890
C      94.25405453      58.65144021      79.35035600
H      94.77372927      59.44134581      77.52110093
H      92.66290498      57.34374960      79.39004026
H      95.87921916      57.64043663      80.11191571
C      89.98138334      67.12497300      81.39881932
O      90.88845197      69.31327607      81.27787684
N      87.53229804      66.75080719      80.60135483
H      86.91624726      64.95556719      80.38970547
C      86.03185535      68.78415270      79.41271697
H      87.31497951      69.64775762      78.05022431
C      83.57899059      67.89976079      78.02187840
H      82.71916512      69.59484529      77.23008309
H      82.46405207      66.97568462      79.48641629
C      83.91347215      66.06294681      75.82601643
O      86.05453206      65.89287144      74.68840119
O      82.03508419      64.91210348      75.04744919
C      85.34021551      71.04804482      81.09079393
O      85.16069151      73.13997185      80.22151983
N      85.21738330      70.78159341      83.62869638
H      85.25706756      69.02225822      84.36757936
C      84.98305724      72.93777114      85.18961031
H      84.76573872      74.70844469      84.16159919
C      82.80798226      72.74879850      87.21728665
H      83.03474941      74.41553711      88.40781422
H      83.01585215      71.08583935      88.41537313
C      80.22283666      72.91887387      86.02297961
H      78.89435906      72.38597105      87.50263531
H      80.14157843      71.44677707      84.58300816
C      79.38757763      75.39819480      84.84379039
O      80.59889220      77.38429715      85.04221166
O      77.26730471      75.34528246      83.91404506
C      87.51151105      73.21745063      86.75808315
O      88.25606322      75.34339273      87.28909624
N      88.55275025      71.19922293      87.70294630
H      87.75339602      69.54193295      87.20216883
C      90.23838612      71.20867156      89.95361035
H      91.90512473      72.38597105      89.66448223
H      90.51050671      69.26036373      90.56399194
C      89.13289622      72.44644229      92.29687098
O      86.88979109      72.87729989      92.38568811
N      90.64656700      73.06816225      94.20360482
H      92.51739605      72.68454781      94.20738427
C      89.72627029      73.88074457      96.73961753
H      87.67213778      73.91286991      96.58465997
C      90.34421079      71.87763467      98.80130895
H      92.38889466      71.64519834      98.90335416
H      89.46170860      70.16176318      98.07943350
C      89.33509694      72.66376082     101.55464018
H      90.57664713      74.21711585     102.09132245
C      86.60066297      73.45177669     101.22960726
H      85.69170461      72.11007101      99.95971117
H      86.47972048      75.33205437     100.39434823
H      85.68414570      73.57082945     103.06831096
C      89.68469631      70.44333240     103.38011581
H      91.69158565      70.00680562     103.51239664
H      88.82298111      68.71045337     102.67524789
H      88.86455509      70.80615985     105.23393731
C      90.64656700      76.56037648      97.31220461
O      92.94258447      76.88351968      97.80731291
N      88.93069551      78.42931580      97.56920738
H      87.22616237      77.93231778      96.87000865
C      89.36722229      81.00312304      98.36667189
H      91.25505887      81.19965458      99.16980557
C      88.76817905      82.93442333      96.31253940
H      88.68503109      84.82603937      97.12512170
H      86.91624726      82.57915478      95.48105981
C      90.83742936      83.21788228      94.24517880
H      91.44025205      81.36028131      93.59322323
H      92.43046864      84.09471529      95.21271868
C      89.67524768      84.64840510      91.93782298
H      91.18702873      85.33248602      90.71894950
H      88.33543172      86.10916354      92.49718196
N      88.18803307      82.88151099      90.42793165
H      87.30364115      81.37728885      91.20082971
C      88.14834882      82.80025276      88.00341280
N      88.91935715      84.58226468      86.53320573
H      88.73416397      84.66919209      84.63592051
H      89.74894700      86.11105326      87.32122159
N      87.16758086      80.83493740      86.76186261
H      87.12789661      80.52313256      84.87969519
H      86.79152532      79.23055976      87.72373330
C      87.58143092      81.32059706     100.53229824
O      85.37989977      80.61194969     100.39245850
N      88.46204338      82.45065340     102.62800472
H      90.20248132      83.23677954     102.60721773
C      87.44915008      82.23900405     105.16023798
H      85.96760465      80.81037096     105.09976674
C      89.57509218      81.45287790     107.06697184
H      89.01951265      81.74389575     109.02661803
H      91.28340477      82.59238287     106.89878619
C      90.39523340      78.53325075     106.70225466
H      91.30419176      78.56915555     104.85410232
C      92.25283437      77.77924995     108.73371044
H      92.74227348      75.82527294     108.30852203
H      91.21915407      77.79058831     110.51950181
H      93.98571340      78.88096039     108.56363507
C      88.00283989      76.80415117     106.90634510
H      87.01451303      76.68131896     105.10543592
H      86.80286368      77.57138006     108.39355971
H      88.49416873      74.85962280     107.38066640
C      86.17358482      84.57848522     106.15045457
O      85.31375935      84.68053044     108.26316859
N      85.95437657      86.42663756     104.50828241
H      86.74050271      86.02790531     102.81508763
C      84.83565859      88.95509136     104.86922013
H      83.45048920      88.86249478     106.39044981
C      86.85766574      91.06969511     105.44369693
H      87.98583235      91.19063759     103.72404599
H      88.18614334      90.26089225     106.79674097
C      86.00917863      93.61704618     106.13911622
H      84.95093189      93.63216399     107.90601032
H      84.79597434      94.23498668     104.59332009
C      88.34677008      95.42173481     106.51328202
H      89.72249083      95.29323342     104.98827289
H      89.43147298      94.85859637     108.17246173
C      87.33765623      98.02577767     106.81185878
H      87.16002195      98.34703114     108.83953512
H      85.46493745      98.06357219     105.95392304
N      88.82865029      99.95896769     105.45314556
H      90.61633138     100.02699783     106.11832922
H      88.13134128     101.70507480     105.78762713
H      88.67936191      99.69629573     103.56908843
C      83.38434878      89.44830993     102.38989921
O      84.20071055      88.56769747     100.40757632
N      81.27730394      90.73521355     102.62044583
H      81.13179502      91.40039721     104.40434747
C      79.53686601      91.35882323     100.51718044
H      78.44082475      89.63728256     100.23939067
C      77.54320475      93.29012353     101.05764217
H      78.33122062      95.16662176     101.36755727
C      75.71583940      93.58492083      98.74650689
H      76.68148955      94.43529767      97.14023952
H      74.26641932      95.02678201      99.00539939
H      74.83711667      91.83503427      98.10211021
C      75.99740862      92.72131591     103.55208090
H      77.38068828      92.51344601     105.06575168
H      75.12813452      90.86749439     103.31019593
C      73.96217338      94.68852100     104.15112414
H      73.54454387      94.67151346     106.16746211
H      72.47306905      94.25010449     102.79808010
H      74.79932214      96.52722470     103.74483297
C      81.18281763      92.04101443      98.27218557
O      82.32988150      94.04412433      98.27029586
N      80.80298264      90.68797039      96.16325102
H      79.69182357      89.14406400      96.32198802
C      81.82910403      91.30024172      93.55731842
H      82.64168634      93.18807831      93.68015064
C      83.79630912      89.33303663      92.64269090
H      85.37801004      89.19319688      93.95605068
H      84.72605446      89.88672644      90.88902488
C      82.65302470      86.74600130      92.18726684
C      82.10122461      86.03168476      89.65881305
H      82.62089935      87.37150071      88.20750324
C      81.50029165      83.58259946      88.89914307
H      81.06565459      83.17063912      86.94894550
C      81.01463198      81.70799095      90.72461868
O      80.16992432      79.37417896      89.95738980
H      80.10000445      79.17953715      88.15459089
C      81.37745944      82.45632257      93.23039577
H      81.35478272      80.82926822      94.46249733
C      82.24862327      84.85438527      93.99762465
H      82.67003223      85.25122779      95.95538111
C      79.76174344      91.48732462      91.56932634
O      77.92870892      90.09648606      91.84333666
N      79.80331742      93.40161738      89.96305897
H      81.31887792      94.55812988      89.85912403
C      77.53942529      94.28789902      88.64591973
H      75.90670176      93.20697557      89.28086778
C      77.30887868      97.13004739      89.09945405
H      79.21939199      97.79901051      88.71394988
H      77.15014167      97.34547619      91.14035847
C      75.19049549      98.38293594      87.64436480
H      73.38202741      98.01632904      88.56088205
H      75.10923726      97.73664954      85.69038778
C      75.47773389     101.28177610      87.51586341
H      76.78731422     102.04333581      86.12124538
H      75.99551890     102.02254882      89.36779519
C      72.78298416     102.39671463      86.82233385
H      71.40348396     101.45563093      88.02797924
H      72.41259781     101.95262895      84.84568013
N      72.52031221     105.04233147      87.18138185
H      70.86113250     105.63759526      86.45005776
H      74.04910079     105.88514940      86.41415296
H      72.43149507     105.26909862      89.07488761
C      77.83611233      93.59814892      85.89825767
O      79.86945784      93.61704618      84.72095819
N      75.81599490      92.48510012      84.88914383
H      74.22862479      92.51155629      85.95117002
C      75.71772913      91.56291368      82.34935167
H      77.36179102      90.33837103      82.15282012
C      73.28376164      90.04357372      82.36824893
H      71.83434156      91.47220681      82.05455435
H      72.82455814      89.13461536      84.15781974
C      73.24596711      88.02156657      80.26498354
O      73.06644311      88.59037419      77.94062017
O      73.58989730      85.79546897      80.95662337
C      75.80843599      93.57925165      80.19317394
O      75.40025511      95.79023144      80.63725962
N      76.68715873      92.75533098      77.92739210
H      76.86101355      90.89584029      77.54188792
C      76.63613612      94.29545793      75.52743967
H      77.49407186      96.01321914      76.27766103
C      77.99295961      93.00855431      73.22953247
H      77.73595683      94.03467569      71.46263837
C      80.82754908      92.65139603      73.51110169
H      81.48706356      91.78779111      75.26287799
H      81.57021152      94.56946824      73.41094621
H      81.77052251      91.66684862      71.96530558
O      77.06510399      90.40262172      73.11236944
H      77.61501435      89.63728256      71.56090414
C      73.91493023      95.03245119      74.58257651
O      73.59556648      96.88249325      73.29378318
N      72.04032172      93.41673519      75.41594582
H      72.50141494      91.81235755      76.34002198
C      69.27187268      93.93640993      75.27799581
H      69.21896034      95.20819573      73.65850036
C      67.68639230      91.31346980      74.98508822
H      67.35757992      90.68230121      76.91827824
H      68.74274931      89.86971890      73.96274628
C      65.15604877      91.66684862      73.56968321
H      64.00142599      93.09926117      74.49942855
H      63.97119037      89.98310248      73.56401403
C      65.95729272      92.43407751      70.83335951
O      66.29555373      90.78056698      69.21953324
O      66.00264615      94.69985936      70.25699298
C      68.40448830      95.47464714      77.57401327
O      66.08957356      95.76944445      77.77999343
N      70.05610910      96.45730483      79.29366421
H      71.91371006      96.12660272      79.01776417
C      69.54588299      98.22419893      81.33267890
H      68.38748076      99.73031080      80.54277330
H      71.37324834      99.12937783      81.63314539
C      68.56511503      97.06390697      83.77231557
O      68.25708965      98.54545240      85.56377613
N      68.13992661      94.67151346      83.73830050
H      68.18339032      93.81546744      82.03376737
C      67.11569495      93.28256462      85.85290425
H      65.42816935      94.22742778      86.55588244
C      65.83446051      90.82969987      85.11780072
H      64.80644940      90.19664155      86.78642904
H      67.44639706      89.54657570      85.04410139
C      64.09591230      90.55002037      82.88414421
C      64.27921576      88.13683987      81.66149128
H      65.64926733      86.78946501      82.35313111
C      62.83735458      87.71165145      79.49019576
H      63.11514435      85.95042653      78.49997916
C      61.26888174      89.64106202      78.47541272
O      60.11047951      89.18185852      76.28899938
H      59.19207252      90.59159435      75.61247735
C      60.97975361      91.85582126      79.81900814
H      59.63426848      93.18618858      79.05555870
C      62.39893807      92.43596723      82.00542147
H      62.32901820      94.24254559      82.95595382
C      69.11691512      93.00477485      87.84845524
O      71.27687229      92.41329052      87.30421406
N      68.39314994      93.07658445      90.18415695
H      66.53932843      93.32224887      90.55643304
C      70.21673583      92.60415287      92.32710660
H      72.12724913      93.18618858      91.81499077
C      69.33801310      94.21797915      94.71005148
H      70.48318724      93.60381809      96.30498049
H      67.31978539      94.01577843      95.07098921
C      69.70273027      97.09225287      94.37556991
C      67.70906901      98.66639489      93.38157388
H      65.89304203      97.81979750      92.98095190
C      68.15315470     101.17784116      92.92426011
H      66.90026615     102.44206806      91.93026407
C      70.50586396     102.27577214      93.41180950
O      71.04632568     104.62659168      92.48206416
H      69.53265491     105.38815138      91.83766748
C      72.55243755     100.87926440      94.39824663
H      74.45539195     101.51232271      94.77241245
C      72.10646214      98.26955236      94.81587615
H      73.72406787      97.12437822      95.30153581
C      70.39248038      89.79790930      93.16236562
O      68.50842324      88.83603861      94.20360482
N      72.51086358      88.61494063      92.90158340
H      74.02453435      89.42752294      92.07388328
C      73.04943557      85.84271213      93.62156912
H      71.31088737      84.91296678      94.22439182
C      73.98296037      84.53691124      91.14224819
H      74.75774816      82.69253836      91.63546677
C      71.90804088      83.90952211      89.26763969
H      72.65259305      82.69253836      87.78042509
H      71.14648118      85.51956893      88.22829022
H      70.31122215      82.88340072      90.06888365
O      75.47395443      86.19987040      89.73251236
H      76.60967995      87.23733015      90.69249333
C      75.02797902      85.51201002      95.82310028
O      76.71550462      87.01245271      96.34844419
N      74.93916189      83.19520556      96.91536208
H      73.38580686      82.13506910      96.59032915
C      77.07455262      82.35427735      98.57265206
H      78.94349195      82.95898977      97.95660129
C      76.58700323      83.42008299     101.29007850
H      75.68938323      85.27390451     101.28440932
C      74.65948239      81.57759984     102.63367390
H      75.49663115      79.81637491     103.30074729
H      73.00597187      81.14674224     101.48472030
H      73.92059941      82.52435272     104.30419197
C      79.14947211      83.70165221     102.81886708
H      80.58755384      84.74478114     101.77384844
H      79.89402428      81.89696359     103.47460211
C      78.70160698      85.12461613     105.37566678
H      77.53753557      86.76678829     104.94102974
H      80.45527300      85.68964430     106.29974295
H      77.39013692      84.10227419     106.59076081
C      77.56021228      79.48000363      98.71249180
O      76.06732850      78.01924519      97.70148823
N      79.55576327      78.71466447      99.97860843
H      80.92392512      79.98456056     100.37923041
C      80.55164904      76.26935863     100.21671396
H      79.26474542      74.99379336     101.19559218
H      82.41113973      76.30904288     101.09543668
C      81.42092314      75.27158313      97.59944300
O      82.96293981      76.57927374      96.32387775
N      80.07354828      73.31193695      96.80575796
H      78.76396795      72.70344507      98.05675677
C      80.17937295      72.03448196      94.42092335
H      81.68926428      72.93021223      93.34188962
C      80.69715796      69.07706028      94.57021174
H      79.22695089      68.06227725      95.59444339
C      80.64235590      67.92621695      91.86034419
H      82.56987674      67.66543472      91.17815300
H      79.40458517      68.91076436      90.54320495
H      79.62001397      66.13853586      91.84711611
C      83.21238369      68.59140062      95.96105029
H      83.15947135      69.44177746      97.83376907
H      84.80542297      69.34162196      94.88957548
C      83.74528651      65.75870087      96.48450449
H      83.43159194      64.63620344      94.78564052
H      82.65491442      65.05572268      98.08699239
H      85.71249160      65.78326731      97.09488608
C      77.69060340      72.66187109      93.03386423
O      75.96150382      71.09339825      93.18504234
N      77.46572597      74.99568309      92.24017919
H      78.97750702      76.15408532      92.16081069
C      75.47773389      75.65141812      90.46194673
H      75.21884138      73.97334116      89.29409587
H      76.20149906      77.19910397      89.31299312
C      72.89069856      76.13140860      91.53153181
O      70.98963389      76.36762439      90.11045764
N      72.53731974      76.25424081      94.05053700
H      74.01319599      75.93109762      95.21649813
C      70.09390362      76.49045660      95.18437278
H      68.88825823      75.28859067      94.02408082
C      70.10146253      75.64763867      97.91124785
H      71.31277709      76.88918886      99.02429664
H      71.06522295      73.82972196      97.98494718
C      67.66560531      75.50779892      99.24161517
N      66.14248590      73.36106983      99.20948982
H      66.35980443      71.74724356      98.21171433
C      63.95040338      73.96578225     100.44348111
H      62.19673736      72.93588141     100.60221812
N      64.08457395      76.37896275     101.22582780
H      62.57657235      77.38051770     101.83242995
C      66.43917293      77.34839235     100.61544620
H      66.96262712      79.29292073     100.94425859
C      69.05833360      79.17197824      95.24106457
O      70.15248514      81.00501277      96.27285514
N      66.86814081      79.41953239      94.08266235
H      66.25020030      77.86050818      93.16992453
C      65.38470565      81.71366013      93.81243147
H      66.65271201      83.15174186      93.05654096
C      63.28899917      81.29414089      92.00963257
H      62.08335378      79.76535230      92.68048541
H      63.97685955      80.62328805      90.18793641
C      61.56178932      83.72243920      91.72617363
H      60.77377345      84.31959272      93.53464171
C      63.16805668      86.04869230      90.86067897
H      64.50598291      85.47043604      89.40558972
H      64.36803289      86.77812665      92.36490113
H      61.97752911      87.42819250      89.90069802
C      59.53033353      83.31803777      89.67393085
H      58.26799635      84.90162842      90.04431721
H      58.58736010      81.56626148      90.20872339
H      60.16528157      83.12339596      87.72373330
C      64.56645416      82.82481921      96.43348187
O      63.40805193      81.39807584      97.93014512
N      65.18250493      85.20020518      96.82276549
H      66.44484211      86.09404573      95.70404751
C      64.26031849      86.65529444      98.93358978
H      63.39104439      85.55736345     100.44348111
C      66.41838594      88.19920084     100.18269887
H      65.85146805      89.16863044     101.91179845
H      66.89081752      89.78090176      98.95059733
C      68.60479929      86.56458758     100.90646406
H      69.32856446      85.85971966      99.11122407
C      70.57956328      88.46943170     101.83242995
H      70.84790442      90.06625044     100.55875441
H      72.40125945      87.50945074     101.87778339
H      70.15437486      89.08359275     103.75050215
C      68.02276358      84.52179343     102.72627049
H      66.88514834      85.05091680     104.36088376
H      69.81233440      83.70543167     103.33476237
H      66.79822093      83.18008775     101.75495118
C      62.08713323      88.28045907      97.75440056
O      59.90638907      87.52834800      98.08699239
N      62.41216616      90.35348884      96.39001817
H      64.17150136      90.74655191      95.76640848
C      60.27866515      91.66306917      95.11823236
H      58.63649299      90.41962926      95.10689401
C      59.33758145      94.06302159      96.64891067