 %block lattice_cart
   137.614   0.000   0.000
   0.000 142.646   0.000
   0.000   0.000   160.855
 %endblock lattice_cart

 %block positions_abs
N      89.40596168      42.74750356      82.10557697
H      88.99589107      42.63034053      83.96506766
H      91.22954757      43.24828103      81.84479473
H      88.75589583      41.18092045      81.23063369
C      87.89796008      44.76384154      81.01331516
H      88.20031629      46.37199863      82.26809343
C      88.66518896      45.20036831      78.27699146
H      88.19275739      43.53929889      77.15260430
H      90.71176256      45.42335602      78.21652021
C      87.27624012      47.48882688      77.31323104
H      85.26746105      47.25828027      77.71763247
H      87.61261141      47.65323307      75.28744443
S      87.76378951      50.57852940      78.83068126
C      91.07270029      51.15678565      78.37525722
H      91.28057018      50.66356709      76.38537542
H      92.12338812      49.72248338      79.41649642
H      91.77000930      53.04273251      78.81178400
C      85.23911516      43.93803114      81.35913507
O      84.61739520      41.81586849      80.64292880
N      83.72355466      45.65012318      82.58178800
H      84.56826232      47.26205972      83.16004425
C      81.06282001      45.49894507      83.02398395
H      80.20488426      44.33487366      81.55566661
C      80.56960144      43.97015648      85.45984117
H      81.10439399      41.98216440      85.37291376
H      78.51924839      43.95881813      85.66582134
C      81.83382834      45.41768684      87.74263056
O      80.75101517      47.20725766      88.82544373
N      83.97677798      44.56919973      88.63080193
H      84.95943567      45.51973206      89.96305897
H      84.83660345      43.07253649      87.81632988
C      79.95544039      48.14834136      83.25831003
O      81.44832418      49.90200738      82.99185861
N      77.47989892      48.49605100      83.51342307
H      76.25724599      47.03718229      83.65515254
C      76.20811311      50.96970275      83.75908749
H      76.17031858      51.70480628      81.83534610
C      73.35273665      50.74671504      84.39781498
H      72.70833998      49.30485387      83.07878602
C      72.75369341      49.90767656      87.14358732
H      74.03870730      48.32597564      87.45161270
H      70.80916503      49.27461825      87.39492092
H      73.00880646      51.46670077      88.46261628
C      71.66332133      53.03895306      83.82144846
H      72.13953236      54.59608754      85.08189591
H      69.75280802      52.37565913      84.21829098
C      71.33261922      53.98759567      81.09457339
H      70.16098891      55.68268017      81.06811722
H      70.24791632      52.70447150      79.90404581
H      73.07305716      54.48270396      80.10813625
C      77.29470574      52.86698797      85.53731996
O      77.49690646      55.15544653      85.02898357
N      78.21878191      52.06574401      87.72562302
H      78.28681205      50.17412797      87.96750799
C      79.34505879      53.58319424      89.73440209
H      78.08083189      55.20268969      89.89880828
C      79.25435193      52.12243580      92.10978807
H      79.85717462      53.41500860      93.59700267
H      80.61306515      50.57852940      92.01530175
C      76.70133168      51.20780826      93.01118752
C      76.08906035      48.58297842      93.25685194
H      77.60651058      47.24694191      92.98662108
C      73.67021067      47.74771938      93.85211573
H      72.94455577      45.83909581      93.94471232
C      71.81827888      49.55996692      94.54753501
H      69.95878819      48.95525450      95.12957071
C      72.34173307      52.12621525      94.38312883
H      70.93955615      53.45658258      95.04453304
C      74.67365534      53.08997567      93.58755404
H      74.96089374      55.10820337      93.48550882
C      82.08705167      54.26160599      89.15236639
O      83.09427579      56.06440489      90.07833228
N      83.29458678      53.14666746      87.23429418
H      82.35161335      51.87299193      86.17226799
C      85.66997276      54.22381146      86.08156113
H      86.81136745      55.33686026      87.38925174
C      87.17797436      51.95802961      85.08945481
H      88.50834168      52.90478249      83.83278682
H      86.04224884      50.46136637      84.24663689
C      88.78613145      50.57852940      87.19272021
H      87.46332303      49.67901968      88.49096219
H      89.95020286      51.84653576      88.32088681
C      90.57948172      48.59998595      86.13447346
O      92.76022589      49.16690385      85.15559523
O      89.86705490      46.30774793      86.21006252
C      85.01045828      55.95480076      83.80633065
O      85.72666455      58.22247234      83.98207519
N      83.57048683      55.14788763      81.89770707
H      83.18876211      53.28083803      81.79377212
C      82.46121748      56.60486661      79.79822114
H      83.95599099      56.81084678      78.39226476
C      80.26535550      55.17623352      78.63037028
H      78.55326346      55.15355681      79.77365469
H      80.68865420      53.19202089      78.27888118
C      79.31860262      56.29684122      76.15293908
H      80.86250902      56.04550763      74.81312312
H      79.09561492      58.33018674      76.38915487
S      76.45755698      54.76238346      74.94162452
C      77.02447488      55.33119108      71.61948565
H      75.31994174      54.67545605      70.66895332
H      78.78192035      54.42601217      71.03933968
H      77.29281601      57.35508796      71.35492397
C      81.68265024      59.30906497      80.53899385
O      82.50657091      61.17422484      79.29744366
N      79.89496915      59.60575200      82.26620370
H      78.99167997      58.19979562      83.19027987
C      78.83294296      62.10963936      82.83501132
H      78.58160936      63.05072307      81.01898434
C      76.26480490      61.79405507      84.23529852
H      75.98890486      63.27749022      85.63747544
H      76.44243917      60.22747196      85.56188639
C      73.91020591      61.69767903      82.77454008
H      74.13130389      60.40510623      81.18528025
C      71.80127135      60.76415423      84.66993557
H      70.00225190      60.32006855      83.77042585
H      71.55749665      62.17577978      86.14770155
H      72.26425429      59.01426766      85.65259325
C      73.31305240      64.02015267      81.37047343
H      73.05793935      65.55083098      82.72540720
H      71.40631855      63.97668896      80.59379591
H      74.83806153      64.80249936      80.22718901
C      80.49779184      63.80283414      84.49797048
O      80.33527538      66.15365367      84.30710812
N      82.25712704      62.74080795      85.80377136
H      82.08705167      60.84163301      85.89447823
C      84.43031230      63.94834307      87.35712639
H      83.60450190      65.64909675      88.17348816
C      84.89329524      62.25514829      89.64558495
H      85.55469945      60.44479048      88.91993005
H      83.23033609      61.74870164      90.75107485
C      86.87939760      63.05450252      91.54853935
H      86.63940236      64.97824391      92.24017918
H      88.70109376      62.94111894      90.59422756
C      86.84349280      61.14587894      93.76518832
H      84.96321512      61.04383372      94.59855762
H      88.16441149      61.67500231      95.25240292
N      87.65040593      58.60419705      92.88835531
H      86.22555229      57.35319823      92.67859569
C      89.96154122      57.62720855      92.64647034
N      91.93252576      59.01426766      93.09433548
H      93.65973561      58.23570042      93.32677182
H      91.82859081      60.90210425      93.36456635
N      90.33948648      55.31418354      92.10978807
H      92.14795456      54.71703003      92.23073055
H      88.90518421      54.05940527      92.05309628
C      86.69987360      64.68722605      85.71117477
O      88.01701284      66.47112769      86.58233860
N      86.95687638      63.95401224      83.29988399
H      85.81926114      62.47246682      82.91249010
C      88.61227663      65.01036925      81.23252341
H      90.28657414      65.92688652      82.00542147
C      89.29824728      62.87119907      79.35413545
H      87.61450113      61.71279684      79.10658131
C      90.34326593      64.06739582      76.90693988
H      88.92030202      65.24658504      75.99609180
H      90.70231393      62.59907848      75.50854241
H      92.03457098      65.18611380      77.27543651
C      91.39773321      61.21957827      80.68828223
H      90.97821397      61.23658581      82.70462021
H      93.33659241      61.83373932      80.35758013
C      91.47521199      58.38687853      80.04010610
H      92.01945317      57.22091739      81.64637347
H      92.63172450      58.03538943      78.37336750
H      89.59682404      57.63665718      79.64137385
C      87.04380379      67.14764971      79.87947937
O      88.07748408      69.17721577      79.41838615
N      84.64385137      66.73946883      79.12736830
H      83.78969508      65.04627405      79.34657655
C      83.10939360      68.51014239      77.77621398
H      84.21677322      69.19044386      76.18128497
C      80.82471449      67.26292302      76.71418780
H      79.22978548      68.54982664      76.49686927
H      80.23134043      65.95901186      78.19195377
C      81.37840430      65.86263582      74.17250590
O      83.42875735      66.26703725      72.86670502
O      79.74757049      64.30928079      73.46196881
C      82.27224485      70.87985918      79.21618543
O      81.87729205      72.86407181      78.10880581
N      82.13618455      70.84206466      81.77298513
H      82.12484620      69.25280483      82.82745242
C      81.94532220      73.30626777      83.20917713
H      81.47289062      74.83883581      81.91471461
C      79.83638763      73.15697939      85.30488361
H      79.95921984      74.68387825      86.68249410
H      80.33905483      71.39386474      86.24596732
C      77.13218928      73.01336019      84.33356429
H      76.25535627      72.18943952      86.00408235
H      77.09628448      71.77936891      82.68572294
C      76.11173707      75.51913728      83.42460593
O      73.84784494      75.74023526      82.92949764
O      77.67076128      77.19154507      82.81989351
C      84.36417188      74.38908095      84.37702799
O      84.48133491      76.60950936      84.91748972
N      86.35216396      72.85084373      84.96095342
H      86.17641941      71.14064141      84.13514303
C      88.30614097      73.43098970      86.82989275
H      89.30391646      75.21111189      86.56155161
H      89.80847338      72.02314360      86.82422357
C      87.42741823      73.60106507      89.54353973
O      85.23911516      72.80926975      90.01597131
N      88.97510408      74.54214878      91.36334617
H      90.69475503      75.20544271      90.87390706
C      88.30236151      74.46278027      94.11100823
H      86.33893587      73.87885484      94.32265758
C      89.91051861      72.43132449      95.47917008
H      91.76622984      73.31571640      95.60767147
H      90.21854399      70.75324752      94.32454730
C      89.13951027      71.73401548      98.16825063
H      88.89951503      73.54626301      99.11878296
C      86.46176808      70.84584411      98.34210545
H      86.09138173      70.38097144     100.31497973
H      86.31058998      69.06572192      97.31409433
H      84.99345074      72.11007101      97.64290671
C      91.18797359      70.05215906      99.33043231
H      93.09281772      70.74190916      98.95626650
H      90.94041945      68.18510946      98.50084246
H      90.98010370      69.87641451     101.37133673
C      88.77290336      76.96855736      95.24295429
O      90.93475027      77.91908970      95.36200705
N      86.71499141      78.27624797      96.01207290
H      85.12951103      77.58082869      95.20893922
C      86.72444004      80.83682713      97.12323197
H      88.66707869      81.36028131      97.56542793
C      85.87217347      82.83426784      95.16169607
H      85.29769668      84.48210918      96.25962705
H      84.37928969      81.99333963      94.02219109
C      88.14929368      83.70165222      93.57999514
H      88.69731431      81.98767045      92.57844019
H      89.50422745      84.44053520      94.94248781
C      87.68064156      85.74255663      91.65814348
H      89.49099936      86.24522383      90.81343582
H      86.89262568      87.43953086      92.52174840
N      85.90618855      84.61061057      89.87235211
H      85.37517545      82.83048839      90.30509944
C      85.26935078      85.58381962      87.64814424
N      85.86650430      87.87983709      86.83934138
H      85.42052889      88.39762210      85.05732947
H      87.02301680      89.02879069      87.83333742
N      83.88985057      84.12873036      86.22518033
H      83.55536901      84.67864072      84.42994033
H      82.98656139      82.61883904      86.96217359
C      85.24100489      80.81792986      99.63467824
O      83.02813537      80.17731264      99.75940018
N      86.52790850      81.32626624     101.73227445
H      88.34204577      81.89696359     101.58487580
C      85.43564670      81.29792035     104.23427209
H      83.87662249      79.95243521     104.26261798
C      87.46521276      80.21699689     105.99927647
H      86.53924686      79.98078111     107.82286236
H      88.91274311      81.60972519     106.44903134
C      88.61227663      77.59783622     105.37944624
H      89.75556105      77.82649311     103.68058228
C      90.41129608      76.45077235     107.39389449
H      89.37194661      75.57771880     108.94347006
H      91.53757296      78.03247328     108.07986514
H      91.63583873      74.99568309     106.60398890
C      86.64129208      75.67031539     104.68780641
H      87.43497714      73.82594250     104.23805154
H      85.71343646      76.19376957     102.92469176
H      85.17486446      75.42843042     106.11454978
C      84.45865819      83.74322619     105.30574692
O      83.60828135      83.90952211     107.45436573
N      84.36417188      85.71610047     103.70892818
H      85.05959116      85.33248602     101.97226969
C      83.03380455      88.20109057     104.06419672
H      81.91319685      88.41085019     105.78195794
C      84.97644320      90.10971414     104.63489407
H      86.01768240      90.08892715     102.85855133
H      86.21232421      89.61838530     106.20903609
C      84.02213141      92.87060429     105.19803251
H      82.80514767      92.67029330     106.84776358
H      82.77491205      93.44697081     103.66357474
C      86.11783789      94.81513266     105.70069971
H      86.67719688      95.63338416     103.89223163
H      87.69197991      93.69074551     106.40745735
C      85.33360148      96.80123502     107.56019041
H      84.67030754      95.83558487     109.25338518
H      83.97299853      98.02766739     106.61532724
N      87.53702236      98.25632428     108.49371521
H      88.73510884      97.01666382     109.31007697
H      87.21198943      99.54889708     109.85998732
H      88.32503823      99.09725249     106.97437524
C      81.36328649      88.96265027     101.81731214
O      82.04925714      88.30880497      99.67814196
N      79.29025673      90.40640117     102.33887660
H      78.82160460      90.84670741     104.13411660
C      77.37785370      91.07725402     100.43214276
H      76.77125155      89.30091128      99.58554536
C      75.32372120      92.76477961     101.63778814
H      76.16464940      94.50521755     102.35021496
C      73.57950381      93.60759755      99.43247753
H      73.39242090      92.07880896      98.06620540
H      74.58105875      95.12315805      98.46304793
H      71.72946175      94.35970862      99.94081391
C      73.78548398      91.59692875     103.98482822
H      75.04971088      90.99977524     105.49849899
H      72.85573863      89.92830042     103.21759933
C      71.75780764      93.38460984     105.04685440
H      72.75369341      94.87560390     106.06163743
H      70.66176638      92.42840833     106.50572312
H      70.43121977      94.15750791     103.67302338
C      78.67042650      92.48510012      98.21360406
O      79.90630750      94.45041548      98.56887260
N      78.32271685      91.50622189      95.93459412
H      77.30982355      89.89617507      95.76829821
C      79.25246220      92.34526037      93.51763417
H      80.13496439      94.13672092      94.01841165
C      81.05337138      90.48199023      92.50852032
H      82.51035036      90.24955389      93.94471232
H      82.02280097      91.14528416      90.81721527
C      80.15197192      87.93085970      91.94349215
C      78.99545942      87.66440829      89.61345961
H      78.78947925      89.34626471      88.47584437
C      78.17909765      85.34382438      88.80843620
H      77.41753795      85.24933807      86.91682016
C      78.69688266      83.20087474      90.28242272
O      78.21878191      80.86517302      89.26952942
H      77.67832018      81.09949908      87.55365793
C      79.73623214      83.52023849      92.69560322
H      80.12551576      81.83271289      93.77652667
C      80.42220279      85.90696282      93.58188486
H      81.33494060      86.23010602      95.37712486
C      77.17565298      93.05012829      91.59011333
O      74.90042250      92.35281928      91.63924622
N      77.97878666      94.59592441      89.74574045
H      79.68143007      95.39338891      90.07644255
C      76.42165218      95.31968959      87.48184833
H      74.44877791      95.31402041      88.07522239
C      76.92998856      98.02766739      86.48974201
H      75.95677951      98.44718664      84.72473763
H      78.92176010      98.15049961      85.98329536
C      76.29126107      99.93818070      88.55521287
H      77.87296199      99.86826082      89.87235211
H      74.51869779      99.37504226      89.44149451
C      75.78103496     102.49309067      87.15114622
H      74.04626621     102.10191733      86.11179676
H      77.29281601     103.11103118      85.90014740
C      75.20466844     104.68517320      88.93126841
H      73.51147366     104.19384435      89.99518432
H      74.56972040     106.32734536      87.85979359
N      77.37029479     105.55066785      90.62257346
H      77.75012978     104.11447585      91.82254967
H      76.83361252     107.08512561      91.62412840
H      78.89719365     105.99097408      89.56621645
C      76.61818372      93.54901603      85.25575073
O      78.37184974      93.69452496      83.77231557
N      74.72467795      91.80668837      84.95717397
H      73.36407501      92.00888909      86.27998239
C      74.50357998      89.93963878      83.00130724
H      76.12307543      88.67541187      82.87280585
C      72.19433442      88.08203781      83.56633540
H      70.60129514      89.38783869      83.62680665
H      72.53448516      87.02001162      85.29921443
C      71.87308095      86.11483272      81.48196728
O      70.21012179      86.57403621      79.83034648
O      73.32628048      84.33848998      81.44606248
C      74.11996553      91.30969035      80.28388080
O      73.09573387      93.36949203      80.28766025
N      75.00057800      90.19664155      78.31478599
H      75.92087471      88.53935158      78.54344287
C      75.32561092      91.38527940      75.72775066
H      76.78447964      92.82903031      75.90538494
C      76.72967757      89.45964829      74.08557849
H      76.87329677      90.12672168      72.14293985
C      79.41497866      88.75100092      74.86036628
H      80.63952131      90.40073200      75.00776493
H      80.31070894      87.69842337      73.33346742
H      79.48489854      87.40173634      76.41372131
O      75.48056848      87.02379107      73.97786410
H      76.19677475      86.12806080      72.57379744
C      73.02959345      92.59659397      74.33313264
O      73.46800996      93.63027426      72.35458919
N      70.72034790      92.52478437      75.60302872
H      71.05482945      91.99566100      77.40771735
C      68.25425506      93.58303111      74.96619095
H      68.57739826      94.67718264      73.25220919
C      66.22090955      91.41173557      74.51454637
H      65.48391628      90.58025600      76.24931512
H      67.05994803      89.96798467      73.30890098
C      63.96646605      92.14305966      72.90072009
H      63.04050016      93.78523182      73.73408940
H      62.70223915      90.52167448      72.78544679
C      64.90188058      92.62116041      70.17195530
O      66.03004719      94.61293195      69.48220519
O      64.42755927      90.85426631      68.54301123
C      67.57962276      95.70519376      76.78788712
O      65.58974096      96.92784668      76.52143571
N      69.23124356      96.29856782      78.61147301
H      70.84318011      95.29134369      78.43761819
C      69.04416066      98.20530167      80.63536989
H      68.37141809     100.04211564      79.98908349
H      70.97546095      98.44529691      81.31378164
C      67.25458984      97.52877965      82.84257023
O      65.75414715      99.17851072      83.49074635
N      67.39065013      95.25732862      83.58334294
H      68.53204483      93.92885102      82.82745242
C      65.99036294      94.55812988      85.82077890
H      64.86786551      96.08313902      86.63147148
C      64.05717292      92.43596723      85.00063769
H      62.99136728      91.75377604      86.62580231
H      65.00203607      90.77111835      84.23718825
C      62.19012332      93.23721119      83.03910176
C      61.65344105      91.58936985      80.92071857
H      62.75326176      89.91507233      80.52387604
C      59.79206063      92.27723022      79.18783954
H      59.32718796      91.01867250      77.64960232
C      58.30106657      94.45419494      79.57334371
O      56.49448821      95.03056146      77.94062017
H      55.47025655      96.51210689      78.16549760
C      58.79428514      96.15305889      81.65393238
H      57.86831924      97.96530643      81.78810294
C      60.73503406      95.42551426      83.29043536
H      61.13376631      96.64438773      84.87780547
C      67.70434470      93.64539207      88.08845047
O      69.89075805      92.96131115      87.68593877
N      66.87475485      93.88160786      90.41470356
H      65.03227169      94.30301683      90.67170634
C      68.33740302      93.23532146      92.73906693
H      70.35752044      93.43752218      92.39513674
C      67.94056049      94.89450117      95.06909947
H      69.05927847      94.34837026      96.70938191
H      65.93934032      94.66962374      95.50751598
C      68.35630028      97.65539131      94.64013160
C      66.43066917      99.41283678      95.32421252
H      64.61086273      98.86292643      96.07254414
C      67.01459460     102.02065909      95.30531526
H      65.61052795     103.47196890      95.58877422
C      69.25014083     102.82568250      94.11667741
O      69.77737447     105.35413631      93.89179998
H      68.62842087     106.41427277      94.81398642
C      71.18522057     101.07768566      93.54031088
H      73.05415989     101.82412756      93.20016015
C      70.78459859      98.47742226      93.89368971
H      72.29260019      97.17351110      93.46094238
C      68.25614478      90.43474707      93.52897253
O      66.22090955      89.40295650      94.19415619
N      70.40287388      89.21776332      93.53653144
H      71.80505080      90.31002513      92.84489161
C      70.58239788      86.45120400      93.83510819
H      68.93455653      85.60838607      94.73461791
C      71.21545619      85.56870181      91.15169683
H      72.64408928      86.80269310      90.32588644
C      72.01292069      82.77001714      90.91359131
H      72.18866524      82.17286363      88.95016567
H      70.53893417      81.50956969      91.60523114
H      73.84784494      82.29569584      91.72239417
O      69.22368466      85.96932379      89.59078289
H      69.45045181      84.99989419      88.07522239
C      72.84629000      85.81436623      95.51129543
O      74.55460259      87.39228771      95.81554137
N      72.67621463      83.68464468      96.94937715
H      71.27970689      82.39963079      96.75095589
C      74.67554507      82.70954590      98.62745412
H      76.14575214      84.15140708      98.55753425
C      73.70044629      82.63017740     101.41480043
H      72.79715711      84.39329205     101.97604915
C      71.46301034      80.62517778     101.67558266
H      72.04882549      78.65419323     101.77384843
H      69.88886832      80.91241618     100.38112014
H      70.87341573      80.96343879     103.62011104
C      75.83583703      81.96121428     103.35743908
H      76.23645900      79.96377357     103.06642123
H      74.87207661      82.15396637     105.16968662
C      78.14130313      83.56181247     103.33287264
H      77.58194414      85.53846619     103.48216102
H      79.25813138      83.52401794     101.60188334
H      79.38663277      83.07615281     104.89945575
C      75.57694452      79.99022974      97.74306221
O      74.03681758      78.73923092      96.55631408
N      77.87107227      79.25134675      98.21549378
H      79.24490329      80.44187433      98.80319867
C      78.89530393      76.69832650      97.93770402
H      77.82193938      75.19221463      98.84477265
H      80.65085967      76.61706827      99.01106856
C      79.29781563      75.79125787      95.26563101
O      80.22189180      77.12918410      93.64235611
N      78.61940389      73.33461366      94.93114945
H      78.16020039      72.44077312      96.55253464
C      78.26791479      72.10062238      92.51229977
H      79.81371091      72.69588617      91.28775712
C      78.44932852      69.25847401      92.69749295
H      76.77125155      68.56305472      93.66881227
C      78.60239635      67.85818681      90.17281860
H      78.88774502      65.81917212      90.25407683
H      80.11039795      68.83139586      89.15803557
H      76.83172279      68.06983615      89.14102803
C      80.94754670      68.61218761      94.21494318
H      80.90408300      69.47579253      96.08388250
H      82.54247571      69.48335144      93.24362385
C      81.61839954      65.81728239      94.84611177
H      81.59950228      64.78549182      93.06221014
H      80.27480414      64.84407334      96.06687497
H      83.51001558      65.70767826      95.64924545
C      75.56371644      72.85462318      91.42192769
O      73.93855181      71.37118802      91.44460440
N      75.18955063      75.22433998      90.72461868
H      76.55393302      76.46777989      91.20838861
C      73.12219004      76.26557917      89.20905818
H      72.90487151      75.16197901      87.48373805
H      73.69855657      78.19310001      88.77064167
C      70.56728007      76.69076759      90.38068849
O      68.77015034      77.33138481      89.07677733
N      70.26492386      76.24290246      92.83922242
H      71.79560217      75.46622494      93.67259173
C      67.91410432      76.49234633      94.35289321
H      66.54216302      75.10528722      93.69526844
C      68.33362356      75.83472157      97.20260048
H      69.52226141      77.22178069      98.15502254
H      69.44667236      74.10373227      97.26496145
C      65.90154580      75.54181400      98.67658700
N      64.59385519      73.31949585      98.96760486
H      65.05305868      71.72456684      98.02463143
C      62.64365763      73.77680962     100.50962153
H      61.24714989      72.35951489     100.96126612
N      62.69279052      76.18999012     101.27307096
H      61.23014235      77.23311905     101.92124708
C      64.75448193      77.36539989     100.14112490
H      65.20801624      79.35528170     100.15057353
C      66.72735620      79.25890565      94.41147472
O      67.68922689      80.96343879      95.70593724
N      64.72235658      79.78613930      93.05843068
H      63.97969414      78.33860894      92.06065518
C      63.45435022      82.14262801      92.97528272
H      64.76204083      83.65629878      92.48395388
C      61.28494442      82.10105403      91.01941598
H      59.71836130      81.25256691      92.05309628
H      62.00493014      81.03524839      89.41125889
C      60.06796067      84.65785373      90.17281860
H      59.26671671      85.31169903      91.95483051
C      62.05028357      86.46443209      89.25441161
H      63.49970365      86.98599655      90.62068374
H      61.12620741      88.18597276      88.60245603
H      63.18789881      85.59326826      87.77475590
C      58.08185832      84.26290093      88.19049569
H      58.98325777      83.87550704      86.38013789
H      57.13321571      86.08837655      88.11490664
H      56.72692455      82.76812742      88.61190466
C      62.29783772      82.84371647      95.58310503
O      60.69534981      81.48689298      96.68103602
N      62.85908643      85.17752847      96.42025379
H      64.24236610      86.19042177      95.58499476
C      61.63643351      86.36616632      98.61044658
H      61.00526492      84.81659074      99.81420224
C      63.64143313      87.93274943      99.99183652
H      62.67578298      89.00989343     101.45826414
H      64.54472231      89.43886130      98.91280279
C      65.68422727      86.16774505     101.18803327
H      66.31539586      84.68053045      99.91246801
C      67.90843514      87.94408779     102.04974847
H      69.33706824      86.84048762     103.04563424
H      67.17333161      89.52578871     103.14578973
H      68.89865173      88.53179267     100.34143589
C      64.89432167      84.81659074     103.65412611
H      65.92044306      83.08182199     104.08120426
H      62.93467549      84.22510640     103.42735895
H      64.73180521      86.09971491     105.25850375
C      59.47269688      88.04424328      98.01140334
O      57.43746164      87.52267882      98.92792060
N      59.83741406      90.00199974      96.42592296
H      61.33218757      90.16451621      95.25240292
C      57.90422404      91.71787124      95.64735572
H      55.96725457      91.01489305      95.59444339
C      57.85131171      94.00444007      97.41236010