 %block lattice_cart
   137.614   0.000   0.000
   0.000 142.646   0.000
   0.000   0.000   160.855
 %endblock lattice_cart

 %block positions_abs
N      93.02384271      44.14117672      81.97802044
H      94.68302241      44.89139806      82.55060751
H      93.28084549      42.68230800      80.77426478
H      92.14889943      43.50433895      83.55027273
C      91.47237741      46.09326400      80.77615450
H      91.86355074      47.72220808      81.97424100
C      91.86921993      46.25955991      77.92833695
H      90.82420128      44.68352817      77.11197519
H      93.85721201      46.17263250      77.39543413
C      90.61255193      48.67274041      76.94189981
H      88.61133177      48.54990820      77.40677249
H      90.97159993      48.46487052      74.92556185
S      91.81819732      51.62260319      78.01148492
C      94.80774435      51.33725452      76.54883674
H      95.88110889      49.68374399      77.14221080
H      95.68646708      53.00966230      77.37086769
H      94.41657100      51.38071822      74.52871931
C      88.67180301      45.46965431      81.31094705
O      87.68536587      43.51567731      80.59663051
N      87.44159117      47.17418745      82.62241711
H      88.42424886      48.67651987      83.27248296
C      84.69203939      46.96253810      83.62019260
H      83.51096045      46.01578522      82.22179514
C      84.38212428      45.65295777      86.09951353
H      85.39312786      43.86338695      85.96723268
H      82.48294934      45.15218029      86.71745404
C      85.65957927      47.26867376      88.12341041
O      84.89612984      49.27178366      89.05126603
N      88.11433375      46.82647781      88.39175155
H      88.88723180      47.59937587      89.95833466
H      88.80597358      45.15595975      87.77570077
C      83.58088032      49.62516248      83.68822275
O      84.89046065      51.48087372      83.34240285
N      81.03541897      49.93696732      84.35907560
H      79.92803936      48.46676025      84.87119143
C      79.63324206      52.36904508      84.26269955
H      80.02630513      53.03044929      82.35218625
C      76.85912382      51.85314980      84.65576262
H      76.37913334      50.25444134      83.44444806
C      75.92181958      50.78923388      87.27114384
H      77.01408139      49.08470075      87.64719938
H      74.00941655      50.03334336      87.15398082
H      75.94260657      52.23487451      88.73946119
C      75.23395920      54.22664605      83.86207758
H      75.59867638      55.81023670      85.12819420
H      73.22895958      53.75988365      83.87530566
C      75.70261131      55.19985510      81.27504225
H      77.68871368      55.23764963      80.73458052
H      74.81821941      56.97619783      80.71946271
H      75.06577356      53.76744255      79.93711602
C      80.62156891      54.40050087      86.04660119
O      80.35889696      56.61903956      85.38708672
N      81.51918892      53.72019940      88.31049332
H      81.79508896      51.83425254      88.39364127
C      82.76829801      55.54567501      89.95644494
H      81.48706356      57.13871430      90.19266072
C      82.61523018      54.19830015      92.66064329
H      83.23883986      55.56646200      94.06659966
H      83.96260504      52.64494512      92.53025217
C      80.02819485      53.15517123      93.41842354
C      78.61467957      54.65750365      95.10027996
H      79.16458993      56.54534023      95.64641087
C      76.34322854      53.56902129      96.10750408
H      75.08278109      54.78789476      97.15441247
C      75.70261131      51.07836201      95.62373414
H      73.91493023      50.44152424      96.36828632
C      77.14258277      49.54012479      94.09116610
H      76.54164981      47.64661903      93.63574206
C      79.32332694      50.58892290      92.95355087
H      80.54409014      49.47020492      91.75924384
C      85.44415047      56.34502925      89.06071467
O      85.89768478      58.61270082      88.96622834
N      86.98427741      54.66128310      88.08183643
H      86.47783075      52.82635885      88.22923508
C      89.48627504      55.36048184      86.93477257
H      90.66357454      56.29967581      88.34072893
C      90.77884785      52.69974719      86.39809028
H      89.41824490      51.65661826      85.25669559
H      91.17191091      51.74354567      88.18010220
C      93.22415369      53.08714108      84.97890582
H      94.63955870      54.13404946      86.04849093
H      92.86510570      54.20018988      83.28382132
C      94.67735323      50.65128386      84.40820848
O      96.38944527      50.71175511      82.84351509
O      93.91012434      48.69541713      85.40976342
C      89.06675580      56.95541084      84.48568726
O      90.02862649      59.07379404      84.42710575
N      87.42269392      56.17873333      82.73769043
H      86.53263281      54.49309746      82.80572057
C      86.49105884      57.87003838      80.68922710
H      88.02740634      58.06656992      79.33051388
C      84.21393864      56.70974642      79.40043375
H      82.47350069      56.82879918      80.49458528
H      84.55975855      54.68207009      79.29082962
C      83.58654949      57.89460482      76.81339843
H      85.00006477      57.23698006      75.46980303
H      83.44104058      59.92795033      77.10819574
S      80.46472163      56.50376626      75.85908664
C      79.91859073      57.57146162      72.67489781
H      77.87957603      57.44107051      72.41222584
H      81.02974980      56.67951080      71.18768320
H      80.11134281      59.61614549      72.53127861
C      85.69926351      60.59124427      81.38086692
O      86.48161021      62.41105071      80.23002360
N      84.12134205      60.91060802      83.36507955
H      83.55064470      59.45929821      84.46490027
C      83.12167683      63.50331252      83.96790225
H      82.69837813      64.72596544      82.36730406
C      80.65558399      63.02332204      85.35685109
H      80.46094217      64.64659694      86.61162936
H      80.94282238      61.30745054      86.45856154
C      78.40680968      62.68695075      83.51436793
H      78.69971726      61.29422246      82.02337388
C      76.14291755      61.89137597      85.15276065
H      74.53098101      61.31123000      84.00758651
H      75.64780925      63.13292616      86.71934376
H      76.65881284      60.20951956      86.22423546
C      77.68304450      65.14170523      82.26525885
H      78.98884538      65.26264772      80.67410928
H      78.11579183      66.66293491      83.58617753
H      75.68182433      64.95651205      81.81550398
C      85.01707232      65.13981551      85.45511685
O      85.10588946      67.42449462      85.29071067
N      86.83687876      63.99653109      86.71934376
H      86.85955548      62.09357669      86.85729378
C      88.93447497      65.28910388      87.83428229
H      88.17858444      66.84434864      88.95300026
C      89.98516280      63.66393926      89.88652507
H      91.19080819      62.11625340      89.25913593
H      88.44692558      62.79277543      90.94666152
C      91.52906920      65.19083812      91.69688288
H      90.07964911      66.17349580      92.78347550
H      92.73660431      66.55144106      90.72745327
C      93.40178797      63.53732759      93.33527559
H      94.22948810      64.80911340      94.72989361
H      94.92679711      62.86647475      92.12396101
N      91.84087403      61.58713004      94.64296619
H      91.02829172      62.06901025      96.30214589
C      91.83142541      59.14182419      94.49178808
N      92.99360709      57.62626369      92.86662345
H      92.62700018      55.76110381      93.02158102
H      93.97059558      58.35191859      91.39641639
N      90.62200057      57.80578769      96.19065205
H      90.32153408      55.94440727      95.89774446
H      89.68658604      58.76387893      97.55125498
C      90.88467252      66.26042321      85.93321761
O      91.81819732      68.32400434      86.24124301
N      91.34765547      64.95651205      83.85640839
H      90.51050670      63.24442001      83.80349606
C      92.89156186      65.61980599      81.63409025
H      94.66790460      66.30199719      82.42588557
C      93.07297559      63.47307690      79.74625366
H      91.21348490      62.68695075      79.34374196
C      94.34098195      64.36124826      77.30472728
H      93.41312633      65.94861837      76.37687166
H      94.17846549      62.82112132      75.94790377
H      96.31196648      64.70139900      77.79794584
C      94.61688199      61.32445808      81.05205455
H      94.14256069      60.96541008      83.02681854
H      96.56707954      61.95562667      80.87253054
C      94.51672650      58.75632002      79.70278996
H      95.03451150      59.14560364      77.74503351
H      92.69125088      57.80956714      79.81050436
H      96.02283836      57.57902053      80.47001884
C      91.46481850      67.89125702      80.35663526
O      92.61755154      69.65248194      79.48169198
N      88.86266536      67.70984329      80.20923662
H      87.96693510      66.11491428      80.75725725
C      87.45859872      69.73940935      78.79761106
H      88.42424886      70.04743474      77.00237107
C      84.84888668      68.77564893      78.09652260
H      83.80953720      70.47640261      77.56928895
H      83.67158719      68.07833992      79.63664954
C      84.73739283      67.13536649      75.63609894
O      86.51562528      67.48685559      74.05628773
O      82.69081922      65.91460329      75.12587283
C      87.29419252      72.25841453      80.28104622
O      87.71749122      74.25774497      78.98847341
N      86.51184583      72.40770291      82.70745479
H      86.12634166      70.82789171      83.70712001
C      85.95815602      74.84544985      83.97168171
H      85.54619569      76.30431856      82.57706368
C      83.42970222      74.41837170      85.50424975
H      83.40702549      75.96227810      86.86674242
H      83.23317068      72.54376320      86.33194986
C      81.00518335      74.57899844      83.92443854
H      79.47639477      74.00830109      85.18110655
H      81.19226626      73.31855099      82.30305337
C      80.10189417      77.18871048      83.00603155
O      77.81721506      77.64791397      83.39531518
O      81.48328412      78.78552921      82.01959443
C      87.98961181      75.72606231      85.78014978
O      87.98016318      77.90113730      86.60973964
N      89.44848051      74.01774972      86.80816089
H      88.99305648      72.20361246      86.42454645
C      91.22482326      74.48640185      88.88119066
H      92.38889467      76.15125073      88.53915020
H      92.63833854      72.99918724      89.05315576
C      89.84721278      74.94749507      91.51924859
O      87.50773160      74.56199090      91.60428629
N      91.19269791      75.83755616      93.40330574
H      93.08809340      76.01708016      93.26913516
C      90.22515804      76.15880964      95.97144379
H      88.17480499      76.00574181      95.83349376
C      91.19647735      74.04609562      97.83093449
H      93.09187286      73.39980922      97.34905427
H      90.04563404      72.35479057      97.58715979
C      90.86010608      74.84167040     100.61639106
H      91.99205214      76.54242408     100.88095276
C      88.18047417      75.66748080     101.36472269
H      86.81798149      74.28231141     100.68253148
H      87.45292954      77.46838997     100.67686231
H      87.90457413      75.68448833     103.40562711
C      91.59143015      72.80076598     102.51934546
H      90.08153884      71.40236851     102.60438314
H      91.61977606      73.66626063     104.38639506
H      93.40178797      71.92960215     102.07525978
C      90.73916360      78.92158951      96.79725418
O      92.76306048      79.74551018      96.70843705
N      88.79463521      80.45982673      97.54936527
H      86.99183632      79.83243759      97.51535018
C      89.09888116      83.05442095      98.56981748
H      91.10199105      83.30008537      98.98555726
C      88.12189265      84.90257329      96.65174526
H      87.27529526      86.59387834      97.46621730
H      86.68570066      84.00684301      95.47822522
C      90.27807037      85.78696520      94.90374843
H      91.75394662      84.42069308      94.46533192
H      91.64812194      87.17591404      95.56137319
C      89.21037501      86.71482082      92.28269803
H      90.72404579      87.53118259      91.14886223
H      87.93480975      88.27006558      92.72678372
N      88.09165703      84.73060819      90.79926288
H      88.21259952      82.92214011      91.39263693
C      87.14301442      84.94036781      88.49757622
N      87.07876373      87.14189897      87.31649727
H      86.02807590      87.24205446      85.72723744
H      87.71182203      88.75950469      88.10829261
N      86.34932937      83.09221548      87.09917875
H      85.76729367      83.48338883      85.32472574
H      86.12823139      81.34988782      87.84562064
C      87.64379190      83.28496756     100.97165961
O      85.33832579      82.90702230     101.11338908
N      88.99116676      84.07676289     102.97099005
H      90.79018620      84.59076845     102.58359616
C      87.90079467      83.99361493     105.66951922
H      86.84821712      82.22672083     105.76400555
C      90.02295731      83.74417106     107.74443873
H      89.13856541      84.25439716     109.53400953
H      91.46859794      85.16146579     107.37216263
C      91.47615685      81.14957683     108.06191275
H      92.73093513      81.02485489     106.43296865
C      93.15612354      80.91147131     110.47131379
H      93.56997361      78.96316349     111.00043715
H      92.33409260      82.16813931     111.88104961
H      94.86065669      81.95082079     109.96486713
C      89.95303745      78.64568946     108.09970727
H      91.05285816      76.90525153     108.09403808
H      88.64723657      78.57010041     106.50855771
H      88.58109615      78.85355936     109.62282667
C      86.25106360      86.27262486     106.24777549
O      84.80164352      86.10065977     108.05624356
N      86.63656777      88.44014095     104.98732803
H      88.01984743      88.33053682     103.68152714
C      85.34210524      90.83253446     105.14417531
H      84.23472563      90.71159197     106.87705435
C      87.23372129      93.04162452     105.42196509
H      88.67180301      92.84131353     103.96120665
H      88.09165703      92.76572448     107.27578659
C      86.37767527      95.69480026     105.61849661
H      84.94715245      95.84597837     107.09059342
H      85.61044638      96.43935243     103.85916142
C      88.32787282      97.54484232     106.47832210
H      89.19903665      97.25193474     108.32269497
H      87.30931034      99.33063369     106.33848234
C      90.57853686      97.53350396     104.48277110
H      89.59398945      97.42389984     102.67430303
H      91.73504936      95.85164754     104.75300197
N      92.39456385      99.66889470     104.67174374
H      93.17313109      99.67267415     106.41407140
H      91.39678835     101.26193398     104.34482109
H      93.84587366      99.38921520     103.46420862
C      83.65268992      91.26717151     102.92941608
O      84.25173316      90.50183235     100.76189999
N      81.61556496      92.72415050     103.37917093
H      81.57021153      93.30807593     105.19708765
C      79.57655027      93.28161976     101.64251246
H      78.63735629      91.53929210     101.07559456
C      77.65469861      95.12221319     102.92563663
H      78.55042888      96.73037028     103.84971279
C      75.84434080      96.33919693     101.02457195
H      74.53098101      94.85765150     100.45954378
H      77.08589099      96.90611483      99.48066556
H      74.66326185      97.93034649     101.58771039
C      76.18827099      93.68980064     105.10071160
H      77.43926981      92.92068203     106.54446251
H      75.15648042      92.11376890     104.26356286
C      74.36279537      95.40756186     106.56713923
H      73.24785684      96.49037504     105.21598492
H      75.68749351      96.65478123     107.53089965
H      73.31210754      94.17923976     107.84459422
C      80.75384976      94.42490418      99.16508125
O      82.15413695      96.22770308      99.35594362
N      80.05276130      93.51972527      97.00701381
H      79.05498580      91.90778873      97.24322960
C      81.42659233      94.06963563      94.61651002
H      82.27129998      95.93290578      94.87351280
C      83.45426866      92.09109218      94.01368733
H      84.47094141      91.48071058      95.69743347
H      84.65613459      93.09831631      92.67954055
C      82.60578154      89.54185139      92.95544059
C      82.27129998      89.34909930      90.27013951
H      82.46216235      90.97426393      89.04937631
C      81.50974027      87.06253046      89.26858455
H      81.27163477      86.83954276      87.25413631
C      81.17336900      84.98005207      90.84272658
O      80.73117303      82.64057089      90.00368810
H      80.45905244      82.61222500      88.21033783
C      81.38312862      85.15012743      93.45810779
H      81.33021627      83.40213059      94.51635452
C      81.96705404      87.56330794      94.51824425
H      82.05776091      87.71448604      96.55158976
C      79.55765299      94.62143571      92.45088366
O      77.63958079      93.30240675      92.22411651
N      80.03764349      96.41100653      90.70855600
H      81.54186562      97.57318822      90.85784438
C      78.31610280      96.53950792      88.49190705
H      76.33944908      96.13321677      88.89441874
C      77.80020753      99.33252341      87.69255281
H      76.97250741      99.10197680      85.81983403
H      79.51985848     100.43612358      87.43743976
C      76.11835111     100.61375785      89.71078052
H      77.30509924     100.73847979      91.39074720
H      74.48751730      99.48370152      90.26824977
C      75.41915238     103.31417675      88.89819820
H      74.32689056     103.09496850      87.16342944
H      77.04620673     104.41966665      88.28781660
C      73.98296038     104.82784753      90.88808001
H      75.25852563     105.03193797      92.49245765
H      72.24063272     103.91510972      91.49657189
N      73.35557123     107.41677258      89.91676068
H      71.95717377     107.38086778      88.62040844
H      75.06199410     107.90810142      89.21567222
H      73.03809722     108.60541043      91.37373967
C      79.22128172      94.86898986      86.32061151
O      81.29053203      95.22047896      85.28504150
N      77.56588147      93.35342936      85.35118191
H      75.85000998      93.42523896      86.18266149
C      77.95138564      91.45047496      83.24980626
H      79.91292155      90.85332145      83.44255834
C      76.14102783      89.09965543      83.64853851
H      74.35334674      89.89523021      84.29293517
H      76.98384576      88.01873198      85.18488600
C      75.82166408      87.23638528      81.46401488
O      77.39391637      85.43547611      81.35441076
O      74.06799806      87.57842575      79.91065986
C      77.84745068      92.64667172      80.44167296
O      77.81910479      94.96725563      80.07884549
N      78.41625830      91.16512629      78.33273838
H      78.60523094      89.27728970      78.53493911
C      78.71483507      92.20258603      75.80995376
H      80.06787911      93.74082325      76.02538255
C      80.08299692      90.33364671      74.04116992
H      80.25118255      91.12166258      72.14577443
C      82.72483430      89.65334524      74.97091528
H      83.32009808      87.97337855      73.93912470
H      82.76451856      89.27162052      76.99670188
H      84.02874546      91.17457492      74.49848370
O      78.68081998      88.02440116      73.57629725
H      78.88868989      87.60299219      71.82263123
C      76.39992033      93.67090338      74.57974193
O      76.75329914      95.37165706      73.01882800
N      74.09823368      93.26839167      75.40744205
H      73.74107541      91.98148806      76.76993472
C      71.79843675      94.79718026      74.93878993
H      72.18961010      96.01038455      73.31929447
C      69.54777272      93.27028140      74.05061855
H      68.49141571      92.60509774      75.69279073
H      70.15815432      91.48826949      73.22102871
C      67.48041214      94.36254321      72.31207036
H      66.59790994      95.98581811      73.21913899
H      65.86091669      93.10398549      72.09664155
C      68.37236295      95.05418304      69.73070420
O      67.60324435      93.91089862      67.71625595
O      70.05421937      96.78328262      69.54740075
C      71.19939352      96.60564834      77.20835123
O      69.18683499      97.72814577      77.34252180
N      72.96817735      97.13477171      78.82028777
H      74.65192348      96.23904144      78.76926517
C      73.07211230      99.11898434      80.68544765
H      72.57133482     100.98414421      79.96546191
H      75.02419957      99.28716998      81.32228542
C      71.54332371      98.62765550      83.06650279
O      71.03498733     100.50037427      84.43466464
N      70.69294687      96.28439487      83.57105972
H      71.18994489      94.89733576      82.35407598
C      69.03754662      95.54173243      85.67621483
H      67.76198136      97.10642582      86.08250599
C      67.32923403      93.45358485      85.00347228
H      66.17083179      93.35531909      86.70233623
H      68.26275883      91.61866060      84.91843458
C      65.70217967      93.47059239      82.58462259
C      65.87036532      91.29929686      80.96890659
H      67.00609083      89.70814730      81.55661148
C      64.53621854      91.23504616      78.58785144
H      64.38504044      89.60799181      77.36519852
C      63.12648271      93.30807593      77.96802120
O      61.51454616      93.30051702      75.92522707
H      60.85314195      94.96914536      75.66444483
C      62.87136965      95.40189268      79.58373721
H      61.72052632      96.97036552      78.96579671
C      64.12425819      95.50015845      81.91943893
H      63.74820266      97.12721281      83.09295897
C      70.79121264      94.86710014      87.96656312
O      72.82455814      94.00349521      87.83806173
N      69.63470013      95.22236868      90.21155798
H      67.89993138      96.01038455      90.31360320
C      70.85357360      94.88221795      92.64363575
H      72.84723487      95.39244405      92.56048780
C      69.63658986      96.54517710      94.76957785
H      69.94461525      95.44913584      96.48544935
H      67.58434708      96.63588396      94.60328194
C      70.76097702      99.13410215      95.26279643
C      69.20762199     101.25815453      95.49901221
H      67.19317374     100.96524695      95.35917247
C      70.21862556     103.61464324      96.26813082
H      68.97518565     105.23224896      96.32671233
C      72.87936020     103.98125014      96.58938430
O      74.05288025     106.26970871      96.88796106
H      72.87369102     107.57739932      97.32826729
C      74.45539196     101.81751351      96.18498286
H      76.44527377     102.25215057      96.30025617
C      73.36501987      99.41756110      95.81270678
H      74.63491596      97.82263209      95.71633073
C      70.70428523      92.06274629      93.32393723
O      68.58023284      91.05552216      93.28614269
N      72.91904446      90.77395294      93.70188248
H      74.46484059      91.89078119      93.62440370
C      73.29321026      88.07353404      93.79069963
H      71.57166960      86.95292634      93.94565718
C      74.40436935      87.29307707      91.29626089
H      76.30732374      88.07920322      91.28681227
C      74.66704130      84.41691362      90.88430056
H      72.77353554      83.65913337      91.17720814
H      76.06732849      83.54763952      92.11829184
H      75.43993937      84.02007110      89.01725096
O      73.00597188      88.20014570      89.18543661
H      73.09478901      90.01050351      89.22134141
C      75.09222972      87.60299219      96.21332875
O      76.48306829      89.31508423      97.03346998
N      75.27364345      85.20492950      97.17897891
H      74.27208850      83.74795051      96.46655208
C      77.05376564      84.31675813      99.21043470
H      78.55609806      85.67169190      99.60160803
C      75.71017022      84.27329442     101.75400630
H      74.92971326      86.14223375     102.13762076
C      73.71650897      82.21160302     101.91463304
H      72.50897386      82.14735232     103.58137165
H      74.57255499      80.34266369     101.76723440
H      72.46173069      82.27585371     100.28379924
C      77.60178627      83.71960462     104.00467034
H      78.39169186      81.82042967     103.90451486
H      76.58889296      83.77818613     105.79991035
C      79.46127696      85.73027341     104.50733754
H      78.59200286      87.59543328     104.39584369
H      81.00518335      85.49027817     103.16374214
H      80.27385928      85.65468436     106.40084332
C      78.07610757      81.71082554      98.57170719
O      76.95927932      80.30675889      97.19031727
N      80.31354353      81.13067957      99.57704159
H      81.33399574      82.46671607     100.47844105
C      81.36990053      78.59088740      99.76601422
H      80.01874622      77.43815435     100.80914315
H      83.09522066      78.66080728     100.88851166
C      81.94248761      77.53642012      97.07315424
O      83.41647413      78.57765932      95.57271153
N      80.80676210      75.33866842      96.55158976
H      79.72205919      74.71127928      97.98967150
C      81.20738406      73.93838122      94.20454968
H      82.81932062      74.61490324      93.11606733
C      81.95004651      71.13780682      94.69587852
H      80.35322778      69.91326417      95.14185394
C      83.03663914      70.01719912      92.26002131
H      85.01896205      70.55955057      92.10884320
H      81.93492870      70.61057318      90.62351832
H      82.87412268      67.96117689      92.28647749
C      83.96260504      70.73529512      96.85205626
H      83.28230357      71.72173225      98.53013322
H      85.56698268      71.93527133      96.37962468
C      85.06998465      68.15203925      97.37362071
H      85.99406081      67.43583298      95.67664648
H      83.45804811      66.99174729      97.91597216
H      86.42491842      68.29187900      98.91752711
C      78.86790290      74.52419638      92.63040767
O      77.22951018      72.96328244      92.19577061
N      78.86223372      76.77863987      91.44743899
H      80.48361890      77.77830509      91.56271230
C      76.98384576      77.54775848      89.45566747
H      77.11045743      76.04542606      88.05349054
H      77.65658833      79.29197586      88.58828309
C      74.28342686      77.86334277      90.47611968
O      72.43905398      77.94460100      88.94922081
N      73.99051928      78.04286677      92.98189676
H      75.47962362      78.04286677      94.17809352
C      71.52253672      78.02774896      94.23100586
H      70.47184888      76.50840900      93.32015777
C      71.80599566      77.26429953      97.18086863
H      72.86613213      78.72505797      98.17486468
H      72.51842249      75.33866842      97.34149536
C      69.16037883      77.10556252      98.29202771
N      67.58056763      75.04387111      97.97077422
H      67.95473344      73.29209482      97.30748030
C      65.32612414      75.68448833      99.05358741
H      63.77276910      74.40136417      99.37862033
N      65.51320704      78.03908732      99.98333275
H      63.96363147      78.99150938     100.56536845
C      67.76009163      79.08977515      99.17830935
H      68.43661365      80.99461927      99.45987856
C      70.26208927      80.62045346      94.14974763
O      70.99341335      82.33821468      95.51413002
N      68.16449306      80.78485965      92.76457823
H      67.27254224      79.16725393      92.27702884
C      66.77743394      83.16213535      92.48489875
H      68.06622729      84.64934996      91.87829659
C      64.58724115      82.82765380      90.45155324
H      63.51954577      81.12690011      90.91264645
H      65.29021934      82.54230512      88.53726048
C      62.82790594      85.09910482      90.09628469
H      61.83957908      85.48271927      91.86317879
C      64.43606304      87.43480655      89.60495585
H      65.65682623      87.72393467      91.23767937
H      63.01498885      88.88989581      89.27236401
H      65.56045020      87.19481130      87.89664325
C      60.75487619      84.64746023      88.17443302
H      59.42639859      83.31898264      89.01536124
H      61.46541328      84.39990609      86.25825055
H      59.54545135      86.31419884      88.19144056
C      65.51131731      83.86511354      95.03602926
O      63.89938077      82.55931266      96.15096779
N      66.08957356      86.09310086      95.94498763
H      67.17805592      87.27417981      94.91319705
C      64.93684052      87.37811476      98.18620302
H      64.35291509      85.89090015      99.48255528
C      66.79444147      89.40957054      99.33137718
H      65.93839546      90.36388233     100.94331372
H      67.28010115      90.60198785      97.72510980
C      69.27187267      88.42124368     100.27624034
H      70.22051529      87.39134284      98.76445928
C      70.95939827      90.66056936     101.15307334
H      72.63180607      89.82720006     102.01478854
H      70.27153790      91.72637500     102.77823797
H      71.35057163      91.84164831      99.51279091
C      68.73141096      86.98505168     102.82170167
H      68.22874376      85.01406714     102.50233793
H      67.36324910      88.02629088     103.95742719
H      70.31689133      86.70915164     104.11049503
C      62.41405588      88.70848208      97.53046800
O      60.49220422      88.13211556      98.61328117
N      62.44807096      90.43191248      95.66341840
H      63.97119036      90.58687004      94.52391343
C      60.22953227      92.03440039      95.07571351
H      58.52310940      90.87977762      95.05114707
C      60.08024389      94.07341508      97.10905904