 %block lattice_cart
   137.614   0.000   0.000
   0.000 142.646   0.000
   0.000   0.000   160.855
 %endblock lattice_cart

 %block positions_abs
N      90.06831075      41.33493314      81.37803234
H      89.74705728      40.83415566      83.19027988
H      91.85221239      41.05903310      80.75442265
H      88.94770304      40.05936789      80.50308906
C      89.00817430      43.94086572      80.99819734
H      90.33287243      45.24477689      81.88636872
C      89.17635994      44.75911722      78.25809419
H      87.77985218      43.65362733      77.22252418
H      90.98293829      43.98054998      77.64771260
C      88.90423935      47.43496968      77.53810848
H      86.90490890      47.90740125      77.68550713
H      89.61666616      47.51433818      75.60680817
S      90.95081294      49.32280626      79.61680741
C      89.86233058      52.33880946      78.30911681
H      91.08498350      53.79200900      79.11036076
H      87.84221315      52.48809784      78.68328261
H      90.11555390      52.22353616      76.26821238
C      86.34366019      44.19975824      81.96384749
O      84.73172365      42.50278400      81.60479949
N      85.68036625      46.37483321      83.18272097
H      86.95971096      47.74110534      83.56255595
C      83.01018298      46.80380109      83.72696215
H      81.88012663      45.60193516      82.49108114
C      82.30531505      45.92885781      86.45950640
H      82.94593228      43.99566780      86.76753179
H      80.26252091      45.73421599      86.63525094
C      83.64135157      47.55591216      88.45694710
O      84.12701123      49.79901729      88.13947309
N      84.47472086      46.43530447      90.58477894
H      85.62367447      47.72031836      91.40114071
H      84.53330238      44.56258569      90.94760639
C      82.10500407      49.54012479      83.14870590
O      83.50340155      51.42229221      82.86524694
N      79.64647014      49.96720294      83.40948812
H      78.48428845      48.45920134      83.54176897
C      78.26319048      52.37093481      83.33389908
H      79.02475017      53.18540685      81.60102004
C      75.42482155      51.79078884      83.55121759
H      75.18104686      50.16373447      82.31344687
C      74.61601869      51.11048736      86.19683443
H      74.77664542      52.92084517      87.16059485
H      76.02575452      49.89539335      87.07744689
H      72.79810197      50.15239612      86.35746117
C      73.68060417      54.08869603      82.65359759
H      73.71650897      55.57591063      84.07656151
H      71.71717852      53.57658020      82.30777769
C      74.42326660      55.65338942      80.42561027
H      72.96061844      57.08013279      80.17049723
H      74.62735704      54.58191460      78.67761343
H      76.22795523      56.62092929      80.65426717
C      79.10033924      54.09814467      85.51464323
O      79.04364745      56.40927994      85.33322951
N      80.05465102      53.15706096      87.68215932
H      80.47983944      51.31457780      87.94483127
C      81.07321350      54.78789477      89.64180550
H      79.82032496      56.39983131      89.90825691
C      80.98061691      53.53311650      92.21372301
H      81.51729918      55.04111810      93.51196499
H      82.49617742      52.13849848      92.18159768
C      78.48239872      52.36904508      92.96961355
C      76.97817658      53.78445009      94.57777064
H      77.55454311      55.59858736      95.31098445
C      74.57255498      52.76966707      95.42247830
H      73.24974656      53.88838505      96.50529148
C      73.90548159      50.29034615      94.47194597
H      72.12157996      49.57602959      95.15791662
C      75.52119760      48.78234455      93.02630534
H      74.95805916      46.89450795      92.49151278
C      77.84178151      49.88405499      92.24962781
H      79.14758239      48.85793360      91.06476942
C      83.72072006      55.84236205      88.81410539
O      84.26874070      58.06845965      89.26574996
N      85.24950865      54.56112760      87.24185309
H      84.54275102      52.84903556      86.79020850
C      87.59465900      55.59669763      86.07967140
H      88.55841942      56.80612247      87.43838462
C      89.36344284      53.37815894      85.25197128
H      91.13978558      54.14160836      84.53765474
H      88.49416874      52.21786698      83.79121285
C      90.19870187      51.59236757      87.44405380
H      91.47048768      50.26955915      86.50863928
H      88.48660983      50.63805579      88.07522239
C      91.43269315      53.04745684      89.70227675
O      90.45192520      52.98320614      91.82821884
O      93.39611878      54.33436045      89.15047666
C      87.11655826      57.34658420      83.89892724
O      88.35999817      59.16828036      83.55877650
N      85.35533333      56.58880394      82.16604822
H      84.63723733      54.86348381      82.54588320
C      84.67503186      58.04011374      79.82656703
H      86.16224646      58.03822403      78.40360313
C      82.39413219      56.69273888      78.68895179
H      80.88613059      56.58124503      80.08923900
H      82.96105008      54.78600504      78.15793871
C      81.43604095      57.90783291      76.12459318
H      83.03096996      57.73775754      74.83013066
H      81.04675733      59.91283252      76.39293432
S      78.81877001      56.23164567      74.50131828
C      79.27230433      57.09525059      71.20752533
H      81.08644159      56.42061829      70.49887795
H      79.19104610      59.14371392      71.01099378
H      77.59044791      56.45274364      70.20786010
C      84.04386326      60.80289362      80.38025685
O      85.38178950      62.47530140      79.62058687
N      82.24484381      61.25264848      82.00542148
H      81.37745944      59.68228591      82.65359759
C      81.39635671      63.71874132      82.79532708
H      81.03730871      64.52754418      80.93394665
C      78.96616866      63.67905706      84.33356430
H      78.74507069      65.37036212      85.48818707
H      79.22128172      62.37703563      85.90770631
C      76.67204091      62.79277543      82.68572294
H      77.36557047      61.22808203      81.53865907
C      74.37602345      62.01798763      84.21829098
H      72.73952046      61.29800192      83.19783877
H      73.58611785      63.64126255      85.20850757
H      74.71995363      60.39471273      85.43905419
C      75.95205519      65.03777028      80.96229254
H      75.98040108      66.72340616      82.14526122
H      74.00563709      64.86013601      80.30466780
H      77.23517937      65.56878339      79.44106287
C      83.40135632      65.34390595      84.08223070
O      83.78497076      67.57756245      83.69105735
N      85.01329286      64.09101741      85.59968093
H      85.02841068      62.18617328      85.69416723
C      87.13734525      65.22674292      87.10768251
H      86.29452731      66.98985756      87.76341756
C      87.99906044      63.40504676      89.22795545
H      90.05319295      63.46362826      89.35456711
H      87.50017270      61.50398209      88.61190466
C      86.96726987      64.29888730      91.75262980
H      84.93581409      63.96251602      91.81688050
H      87.59465900      66.24719513      91.98884559
C      87.93103029      62.96851998      94.05998562
H      87.15057332      63.76409476      95.79097493
H      89.97760389      63.09891108      94.25273771
N      87.14112470      60.27943944      94.14502330
H      85.64824090      59.82590511      95.24673375
C      88.54141189      58.36136722      94.07699317
N      90.77884785      58.34813913      93.09622520
H      91.94291926      56.96296976      93.70093762
H      91.73504936      59.90905308      92.55198402
N      87.58521038      56.25432238      95.08232756
H      88.68125163      54.71797489      94.79508917
H      86.06398069      56.36014705      96.22939143
C      89.21793392      66.02798687      85.27653772
O      90.38200532      68.04054539      85.60346037
N      89.35588393      64.77698806      83.00319697
H      88.09921594      63.38048031      82.66115650
C      91.23049244      65.47807651      81.06055831
H      92.98037901      66.10924510      81.94495023
C      91.91646309      63.25008920      79.34657655
H      90.19870187      62.24664452      78.81178401
C      93.22793314      64.16660646      76.94095495
H      92.16212751      65.53098886      75.82601643
H      93.43202358      62.62458978      75.59169037
H      95.04962932      65.07367509      77.27165706
C      93.66445993      61.27910465      80.64103907
H      92.77250910      60.45707370      82.30210851
H      95.43702321      62.20696027      81.13047819
C      94.06697164      58.90749813      78.96674157
H      95.39733895      59.37048108      77.46629888
H      92.22259874      58.36703641      78.22974831
H      94.57530800      57.18973691      79.99097323
C      90.22515804      67.72685083      79.65082249
O      91.70481374      69.49185520      79.28043614
N      87.75906520      67.70228438      78.86280661
H      86.73483354      66.23774649      79.52988000
C      86.44948487      69.84901347      77.61558725
H      87.52851859      70.25908408      75.90916438
C      83.69048444      69.36902299      76.96174194
H      82.95349119      71.21339588      76.41939050
H      82.59822263      68.85312771      78.63037028
C      83.15569190      67.57567273      74.80178476
O      84.09488588      67.98385360      72.69285020
O      81.71949991      65.73696902      75.10414098
C      86.56664790      72.36423920      78.98752855
O      86.95782125      74.28042168      77.81211878
N      86.38334445      72.44927689      81.51787208
H      86.31531430      70.82789170      82.52131676
C      85.77107312      74.74529435      83.07122711
H      86.07720878      76.42715078      81.92227352
C      82.99884461      74.87190601      83.84979436
H      82.91758639      76.61234396      84.94961507
H      82.57743564      73.10501191      84.82489313
C      80.95416074      75.14213688      81.70873445
H      79.14380293      74.44482788      82.40037428
H      81.31320874      73.70594488      80.27632189
C      81.08455186      77.78208455      80.29710889
O      81.41525397      79.69826702      81.65393239
O      80.55353876      77.90680647      78.06534212
C      87.26962608      75.24796156      85.52976105
O      87.50773159      77.34366803      86.26108514
N      88.49416874      73.38847087      86.81666467
H      88.37322624      71.66126101      86.01731043
C      90.10421555      73.82688736      89.08433625
H      91.60654797      75.10623209      88.49285190
H      90.87144444      71.93905078      89.39047190
C      88.66802356      74.89080328      91.30476466
O      86.34177046      74.80198615      91.37279480
N      90.04374431      75.74118012      93.25307249
H      91.78607197      76.29109048      92.70316213
C      89.28785378      76.24573704      95.84766672
H      87.25072882      75.95471919      95.76451875
C      90.61444166      74.32199567      97.58621493
H      92.64211800      74.66592585      97.47850053
H      90.29129846      72.50029949      96.67725656
C      90.00028061      74.29176005     100.44915029
H      90.49727863      76.02085961     101.44503606
C      87.20159594      74.16136892     100.84410309
H      86.32476293      75.91503495     100.21482423
H      86.72538490      73.78720311     102.81319790
H      86.41546978      72.71005911      99.61200154
C      91.20970544      72.13369259     101.71904638
H      90.84876771      72.51541730     103.71081790
H      93.25060987      72.29809878     101.49416894
H      90.65412591      70.34223205     100.86677981
C      89.90390457      78.94993540      96.53174764
O      91.99961104      79.83243760      96.05364689
N      88.03118579      80.23872875      97.42936764
H      86.39090334      79.26551969      97.54086150
C      88.06898032      83.02985451      97.74495194
H      89.97004499      83.81031148      97.87723277
C      86.95026234      84.60210680      95.54531051
H      87.00128494      86.59576807      96.05553661
H      85.01518259      83.98038684      95.20515977
C      88.55275024      84.63612188      93.06787931
H      89.29163324      82.77285174      92.59544773
H      90.11744364      85.78318575      93.76140887
C      87.29230279      85.77562684      90.75863376
H      88.74361260      86.47293586      89.47550958
H      85.97705328      87.29496681      91.20649889
N      85.91280258      83.90290806      89.39803081
H      85.18903742      82.42325236      90.36179123
C      85.28541345      83.84432655      86.98674003
N      85.88445669      85.42224803      85.26708910
H      85.18147851      85.10855345      83.52098197
H      86.79719451      87.01339758      85.79810219
N      83.87000844      81.98861531      86.30454884
H      83.26151658      81.81853994      84.50363966
H      83.53741661      80.51840825      87.47617915
C      86.74995134      83.90668752     100.22994203
O      84.40669071      83.79519366     100.34143588
N      88.09165703      84.26006634     102.30864098
H      89.99650116      84.21093346     102.20659577
C      87.10521990      84.10699852     104.87488932
H      85.58587993      82.71615995     104.81630780
C      89.40879627      83.18670179     106.52839984
H      88.83054001      83.25095249     108.50505356
H      90.80719375      84.68714448     106.34509639
C      90.66735399      80.62612264     105.82164219
H      90.58798549      80.40502466     103.77506861
C      93.27328658      80.66013771     107.08019993
H      94.32964358      78.93292786     106.70414439
H      93.23360233      80.39746575     109.12299407
H      94.32964358      82.35333250     106.57186354
C      88.96660031      78.42837094     106.78918207
H      87.02963084      78.53608535     106.09376278
H      88.70770780      78.51907780     108.83008648
H      89.77162372      76.58777751     106.32808884
C      85.99784028      86.70537219     105.71203807
O      85.21171413      87.02284622     107.84364935
N      85.84288272      88.66690810     104.12466797
H      86.36066772      88.22849159     102.34265606
C      84.48605923      91.07441943     104.37033238
H      83.37112070      90.94024885     106.09754224
C      86.32476293      93.35531908     104.20403647
H      86.57987598      93.84664792     102.21793412
H      88.12945156      92.99438136     105.12811265
C      84.98305724      95.63621874     105.51928598
H      84.52196403      95.12599264     107.46003491
H      83.27474466      96.25037980     104.54796667
C      86.60444243      98.00593554     105.71581753
H      88.50928654      97.34075189     106.12777786
H      86.12256222      99.04906447     107.42601984
C      86.81042258      99.64243853     103.35176990
H      84.88668121     100.10164203     102.77729310
H      87.50962132      98.28939449     101.96660051
N      88.49038929     101.94412517     103.55397063
H      88.49038929     103.10252741     102.03652039
H      90.23082722     101.18823466     103.77128914
H      88.36755708     102.96268766     105.16212771
C      82.53586166      91.05174272     102.08943272
O      83.03285969      89.97270898     100.02207214
N      80.55920794      92.58620047     102.33320742
H      80.18126269      93.28350948     104.06986591
C      78.87357207      93.10398548     100.24128040
H      77.83611233      91.36165782      99.88223240
C      76.69471764      94.98615290     100.99528120
H      77.40525473      96.81351824     101.63022924
C      74.66893103      95.32819335      98.93925896
H      74.05476997      93.39689307      98.56887260
H      75.40025512      96.06518662      97.15913677
H      73.28754109      96.69257575      99.62333990
C      75.40970375      93.86365546     103.46326375
H      76.68715873      93.77861778     105.07897976
H      74.68404883      91.95692161     103.16657672
C      73.26675411      95.53984270     104.51584132
H      71.71717852      95.35464952     103.17035619
H      74.09634395      97.39555395     104.85032288
H      72.71495402      94.71214258     106.31864022
C      80.21905720      94.00727466      97.78274647
O      81.85556019      95.57574750      97.96982936
N      79.30631940      93.13989028      95.59633312
H      77.77564109      92.00038532      95.65491463
C      79.92992908      94.11120961      93.03764369
H      80.72361414      96.01227429      93.09055602
C      82.12390133      92.48604498      91.98128669
H      83.59599812      92.29140317      93.40991978
H      83.12167682      93.50460746      90.49596179
C      81.22250188      89.87822268      91.00807762
C      80.57621549      89.50594659      88.37946833
H      80.80487236      90.97615365      86.98296059
C      79.45182832      87.23827501      87.51775312
H      78.94160222      87.12678116      85.54487885
C      79.35734201      85.05375139      89.03520336
O      78.51641380      82.81442571      88.10356828
H      78.08177674      82.81064627      86.34045364
C      80.24740311      85.34287951      91.55987771
H      80.25307229      83.87267244      92.97339299
C      81.15825118      87.65968397      92.44237990
H      81.71761018      87.83542852      94.39824664
C      77.55454311      94.29262334      91.34822836
O      75.74418529      93.04729369      92.07388328
N      77.52241776      95.84597836      89.38291301
H      79.05687552      96.91934292      89.00874719
C      75.52686678      95.76849959      87.35334694
H      73.74107541      95.11465429      88.14892172
C      74.98262560      98.40844724      86.35368173
H      73.79020829      98.04373006      84.71339928
H      76.74951970      99.34764123      85.87180152
C      73.60312538      99.85597760      88.39836560
H      74.86168312     100.08841394      90.01219187
H      71.83245184      99.00371103      89.02008555
C      73.22140067     102.57529376      87.40247983
H      72.37480328     102.39199032      85.53354051
H      75.05443519     103.51259801      87.43460518
C      71.62269222     104.16266387      89.16748420
H      72.57700399     104.83351672      90.86445842
H      69.87847482     103.18000618      89.64936441
N      70.81955853     106.43600462      87.78420454
H      70.13169815     107.88731443      88.81788484
H      69.45328641     106.05427991      86.50863928
H      72.35023684     107.08607047      86.84690029
C      76.17126344      93.93168561      85.29543498
O      78.23673430      93.82964039      84.32411566
N      74.42326660      92.20069630      84.64725886
H      72.93038282      92.17046068      85.83778643
C      74.59901115      90.70781252      82.41171264
H      76.50196555      89.93302474      82.26620370
C      72.92471364      88.48738411      82.72351747
H      70.98963389      89.18658285      82.64414896
H      73.49352126      87.61622028      84.49986021
C      73.50485962      86.42380298      80.69017197
O      71.64536892      85.37878431      79.61869714
O      75.76686202      85.81342137      80.31411642
C      74.22862480      92.28006482      80.17994585
O      73.73918568      94.59120009      80.63348018
N      74.63680568      91.27850987      77.90660510
H      75.06388383      89.42090890      77.81778796
C      74.76719680      92.57675185      75.46885816
H      76.50385528      93.67846228      75.35169513
C      74.89002901      90.74938651      73.22386330
H      74.37791318      91.69047020      71.46452810
C      77.67170613      89.76483909      72.98386806
H      78.09500483      89.23004654      71.04122940
H      78.08555621      88.32108818      74.39549362
H      78.86034399      91.36732700      73.48842498
O      73.19683423      88.64801085      73.63015445
H      73.99807818      87.38567366      74.65627584
C      72.53354029      94.43813226      74.82635122
O      73.02486914      96.47714695      73.83613462
N      70.10335226      93.91845752      75.48586570
H      69.80855496      92.27628536      76.40994186
C      67.94339507      95.65511600      75.29878279
H      68.12480881      96.69257575      73.52999897
C      65.52643513      94.01861302      75.12114852
H      64.94061996      93.68035201      77.06756662
H      65.98752835      92.27628536      74.12526275
C      63.22852793      95.26772211      73.58291130
H      62.54066755      96.96658607      74.52588472
H      61.73564415      93.85420683      73.69251542
C      63.77843829      95.84597836      70.82580060
O      63.69151087      94.22270346      69.10048049
O      64.60991786      97.96247184      70.38171492
C      67.85835739      97.69979988      77.37748174
O      66.28610511      99.40433301      77.12425841
N      69.43438914      97.64499781      79.32389984
H      70.80255100      96.32974830      79.13681693
C      69.41738161      99.13599188      81.64826321
H      68.73519040     101.05595381      81.34590700
H      71.36568944      99.41567138      82.25675508
C      68.17394169      97.98136910      83.91971423
O      68.00197660      99.09441789      85.87180152
N      67.36702855      95.59275504      83.84412518
H      67.56922927      94.55340556      82.25675508
C      66.31256128      94.37199184      86.21951116
H      64.81400831      95.67590300      86.76186261
C      65.35258031      91.77739761      85.40125966
H      64.42661442      90.99316119      87.06610855
H      67.00609083      90.57175222      85.18583086
C      63.49119989      91.55440991      83.20917714
C      63.24553547      89.37366574      81.80511049
H      64.50409319      87.86188470      82.34746193
C      61.48620027      89.02595610      79.73586017
H      61.34636053      87.20048048      78.83257099
C      60.17661993      91.09331669      79.00453608
O      58.44941009      90.79662966      77.10347142
H      57.82391068      92.46714771      76.77087959
C      60.35236448      93.36854718      80.38214658
H      59.44151640      95.06930085      79.71696291
C      61.97563939      93.63688830      82.49297087
H      62.16272229      95.34520089      83.59279158
C      68.23252321      94.13577605      88.37379915
O      70.22996391      92.86399024      87.98829498
N      67.59379571      95.02016796      90.58855838
H      65.92894682      95.89133179      90.92681939
C      69.14715075      94.40600691      92.78631010
H      71.11813528      94.78017272      92.32143742
C      68.30244307      95.91967769      95.01807686
H      69.64981794      95.39244405      96.48450449
H      66.42216540      95.22236868      95.47728036
C      68.24953075      98.77127470      94.70060285
C      66.03666123     100.11298039      94.02219109
H      64.23197261      99.15866859      93.94471232
C      66.04799958     102.78505338      93.74818079
H      64.37370208     103.61464324      92.92614984
C      68.24386157     104.17211251      94.35289321
O      68.39692940     106.67222041      93.96171985
H      66.76798532     107.39976504      93.63479720
C      70.56822492     102.85497326      95.10878372
H      72.22929436     103.78282889      95.84766672
C      70.43594409     100.22636396      95.26185157
H      72.16882311      99.21536038      95.62845846
C      69.03376717      91.53173320      93.37968416
O      66.96640658      90.43569193      93.33433073
N      71.14270172      90.41490495      93.93904314
H      72.72440266      91.48071058      93.86912326
C      71.64347921      87.70881687      93.87857189
H      69.95217415      86.62789342      94.33399594
C      72.54865811      86.85844002      91.19327080
H      74.08878504      88.06597514      90.55454332
C      73.11935546      84.08243206      90.97217283
H      71.62458193      82.77474146      91.51641401
H      74.77097624      83.67992037      92.13435451
H      73.56722059      83.71393543      88.99362939
O      70.57578383      87.26662090      89.37913355
H      70.37169339      89.05619172      89.17126366
C      73.70139115      87.27229008      95.98750646
O      75.26230508      88.81430676      96.70371273
N      73.77886994      84.95737535      97.05898129
H      72.44094370      83.70070735      96.53552710
C      75.72339831      84.08999097      98.90524389
H      77.28242252      85.42980694      98.77485277
C      74.64247486      84.33943484     101.63778815
H      73.79776720      86.18947690     101.96282106
C      72.59779099      82.21538247     101.74550254
H      72.05354981      81.91680571     103.70892817
H      73.40092467      80.36156096     101.33354221
H      70.93105238      82.68025515     100.63056402
C      76.52275255      84.08054234     103.75050216
H      77.49974105      82.28152289     103.52751446
H      75.71583940      84.15235194     105.64589765
C      78.48806790      86.21971252     103.51617610
H      79.29687076      86.14790292     105.40779213
H      77.43926980      87.98471690     103.34232128
H      79.93370853      85.69814806     102.14423480
C      76.69093819      81.34988782      98.44981986
O      75.47584416      79.88912939      97.06087102
N      78.96805839      80.86800761      99.33988095
H      80.02252567      82.25506672     100.12222764
C      79.58977834      78.16191953      99.92380637
H      77.97784180      77.35122694     100.91402297
H      81.26029641      78.22994968     101.12756203
C      80.66125317      76.75218370      97.60700191
O      82.71916513      77.52886121      96.69804355
N      79.19293583      74.81332450      96.64135176
H      77.64336024      74.23317852      97.59377383
C      79.83355305      73.74562914      94.10533906
H      81.51351974      74.68482312      93.37023552
C      80.73495250      70.92237803      94.23384044
H      79.08711114      69.87357993      94.88957548
C      81.53619645      69.75830661      91.64491539
H      82.04264310      67.76842480      91.48050921
H      83.14624326      70.89592185      91.04587215
H      80.21149831      70.18349503      90.12557544
C      82.83443843      70.44427726      96.16325102
H      82.24484381      71.51008290      97.82621017
H      84.56920718      71.43260412      95.66058381
C      83.20671451      67.69094603      96.95504634
H      83.74906596      66.55899996      95.32043307
H      81.51540945      67.03899046      97.93581430
H      84.58999418      67.46228914      98.46304794
C      77.48462324      74.14058194      92.48206416
O      75.89347367      72.51541730      92.25718672
N      77.20494374      76.41203296      91.69782774
H      78.64869465      77.57988382      92.15136204
C      75.03553794      77.42114682      90.23140011
H      75.02230984      76.48384257      88.39647586
H      75.56466130      79.38835190      89.92526446
C      72.18016148      77.61200917      91.28775712
O      70.34523723      77.77263591      89.86857267
N      71.87780527      77.54208929      93.77463696
H      73.37635823      77.15847485      94.88957548
C      69.38525626      77.56287629      94.93303918
H      68.06433757      76.27408295      94.01841165
C      69.57044944      76.95627414      97.77896700
H      70.39814956      78.46238601      98.91280280
H      70.73074139      75.28008690      98.06809514
C      67.03821618      76.34967199      98.97516377
N      65.82501189      74.04042644      98.66146919
H      66.48830582      72.47195360      97.79408482
C      63.48742044      74.15003056      99.71026731
H      61.91894759      72.86690640      99.47027205
N      63.35891905      76.48195284     100.71182224
H      61.65816537      77.28319679     101.03685517
C      65.53588376      77.88224003     100.26962629
H      65.97996944      79.80031225     100.80819829
C      68.14559579      80.25573628      94.65335968
O      69.10746649      81.88657009      96.02719072
N      66.28610511      80.60155620      92.93370875
H      65.81178379      78.98772992      92.02664012
C      64.96140696      82.88812504      92.46316690
H      66.26342838      84.33187594      91.78286542
C      62.78066279      82.37789893      90.46950564
H      61.79611539      80.60722537      90.84367144
H      63.61025265      82.20215439      88.58922795
C      60.90983375      84.60966571      90.38068850
H      59.89127125      84.89312465      92.14947233
C      61.96430102      87.15134760      89.46795069
H      60.30134186      88.32108818      89.12968967
H      62.95451762      86.76017425      87.70294630
H      63.29844781      88.16235117      90.66603717
C      58.94262866      83.81787038      88.43238066
H      57.45163459      85.21059867      88.13380390
H      57.95430178      82.20782356      89.25063216
H      59.79111577      83.28307784      86.63336121
C      63.91638830      83.78763476      95.04642277
O      63.01876831      82.28152289      96.44104078
N      63.86725543      86.29152213      95.49239818
H      64.42283495      87.50472643      94.12612605
C      62.72775045      87.41024010      97.78274647
H      62.02477227      86.04585771      99.15657749
C      64.54377745      89.21303900      99.09610625
H      63.50253825      90.02562133     100.67780717
H      65.10502615      90.58309058      97.66369371
C      66.80389012      87.80519290     100.13734544
H      67.48797104      86.57309134      98.63690275
C      68.90526578      89.65145551     100.70993252
H      68.50275407      91.07819887     102.13856562
H      69.17738637      90.64734128      98.92603089
H      70.56822492      88.52517864     101.15968738
C      66.42405512      86.32742692     102.63367390
H      65.12770288      84.76462326     102.29163345
H      65.44139745      87.33276132     104.13789605
H      68.18905950      85.56397750     103.36499799
C      60.38637955      88.61399576      96.84733193
O      58.21130456      88.01684226      97.44637518
N      60.69251522      90.53395770      95.14090907
H      62.47641686      90.98749202      94.64202133
C      58.69885396      92.24604974      94.15258221
H      57.04723316      91.07252970      93.78408558
C      57.85981547      94.15656304      96.06498525