 %block lattice_cart
   137.614   0.000   0.000
   0.000 142.646   0.000
   0.000   0.000   160.855
 %endblock lattice_cart

 %block positions_abs
N      87.69764909      41.26501327      79.79916600
H      89.36438770      40.44298232      79.36263922
H      86.38617903      41.34060232      78.41210689
H      86.84349280      39.82504182      80.71757299
C      87.78646623      43.54591293      81.22590937
H      89.32281372      43.23221836      82.56383560
C      88.37984029      45.94775507      79.78593792
H      86.70365305      46.84915452      78.99792205
H      89.42674867      45.39028581      78.10408150
C      89.88217271      47.83181221      81.46779434
H      91.66985380      46.93608193      81.95912318
H      88.56881292      48.51589313      82.90020688
S      90.94419890      50.58703317      79.72546668
C      93.47265270      49.15462062      77.69212116
H      92.91707317      48.30235406      75.89877089
H      94.48554601      47.94330606      79.01303986
H      94.54034807      50.74577018      76.93812036
C      85.41674943      44.02401368      82.77359522
O      83.35316830      43.53457457      81.84384987
N      85.80036387      44.58715213      85.20756271
H      87.58804497      44.87250080      85.81227513
C      83.82371015      45.18808509      86.97445681
H      82.35350308      43.82181297      86.51147387
C      84.76101440      44.97076657      89.75613395
H      85.99311596      46.57514421      90.15675592
H      85.84571730      43.27379234      90.18699154
C      82.64641066      45.05391453      91.67609588
O      80.78314051      46.19152977      91.32460679
N      83.10183470      43.93897600      93.90408320
H      81.96421946      44.06747739      95.43098206
H      84.60416712      42.78813268      94.14785790
C      82.89396480      47.88283482      86.46423071
O      84.51534998      49.57225014      86.52848140
N      80.39952607      48.37227393      86.50391496
H      79.29214645      46.81891890      86.56816566
C      79.32238207      50.94419144      86.41131837
H      80.24645824      51.65661826      84.71434414
C      76.34417340      50.81380033      86.20722793
H      75.73946098      49.13950281      85.17165791
C      74.94577593      50.23365435      88.71300502
H      75.43710477      51.40717439      90.33250047
H      75.07049787      48.28156707      89.36118115
H      72.91620987      50.40561944      88.39931045
C      75.35395682      53.28556234      85.11118667
H      75.55426780      54.98064685      86.26391972
H      73.30360377      53.13060479      85.00536199
C      76.01725075      53.57846992      82.32195063
H      75.37852326      52.00243818      81.15787922
H      78.04681681      53.69941241      82.00636634
H      75.01758553      55.26410579      81.68889232
C      80.25212742      52.67896020      88.48245841
O      80.77180215      54.80679203      87.99301930
N      80.66975693      51.71519978      90.78792451
H      80.43543087      49.83681182      91.01658140
C      81.91319685      53.13816369      92.74001179
H      81.04392274      55.00143384      92.88174127
C      81.47667007      51.96464365      95.31759848
H      82.56326270      53.04178765      96.69520897
H      82.38940788      50.12216050      95.17397928
C      78.91420119      51.50732988      96.40797057
C      77.36273589      49.42107203      95.64830059
H      78.19421546      47.93196770      94.52580316
C      74.74735467      49.73476660      95.91475200
H      73.48879694      48.19086020      95.47822522
C      73.79304288      51.85692925      97.19976589
H      71.77859463      52.01944572      97.48511457
C      75.30671366      53.76744255      98.44509553
H      74.54137450      55.36615102      99.45420938
C      77.93532296      53.41973291      98.03691465
H      79.26380056      54.75765914      98.81737162
C      84.58149040      53.81846517      92.27891857
O      85.42808779      55.54945447      93.56960165
N      85.98744678      52.59014306      90.56682653
H      85.30336585      51.09725927      89.59172776
C      88.63495334      53.48587333      89.92620931
H      89.45320484      54.54978925      91.48712325
C      90.33570702      51.14072298      89.48779281
H      92.22732306      51.58480866      88.80182216
H      89.50422745      50.12216050      87.90420216
C      90.47743650      49.51933780      91.92553975
H      88.53857730      48.90328702      92.24301377
H      91.19931195      50.62860715      93.50346122
C      92.18196963      47.21954088      91.70822123
O      94.51767136      47.45386694      91.73089794
O      91.25033456      45.12383440      91.22445129
C      88.64062252      55.12993523      87.59239732
O      89.79335557      57.13682457      87.40342469
N      87.31025520      54.34569881      85.54393399
H      86.43531191      52.65439376      85.68377374
C      87.11939284      55.57969009      83.08728979
H      88.91463284      55.46819624      82.08762457
C      85.08793705      54.21908714      81.68889232
H      83.50245668      54.12649055      83.00225210
H      85.22966653      52.16495464      81.60196490
C      84.40952531      55.34536403      79.07351110
H      85.79658442      54.56679679      77.76393076
H      84.60038766      57.39571708      79.07162137
S      81.48800843      54.44963375      77.67700335
C      80.78314051      57.44862941      76.06884626
H      82.51601954      57.99665004      75.09941666
H      80.14252329      58.91883648      77.36519851
H      79.21655740      57.01588209      74.80461936
C      86.53546741      58.36514667      83.38586654
O      87.81670185      59.89771471      82.25014103
N      84.66841781      59.14938309      84.98079555
H      83.44576489      57.80200823      85.56283126
C      83.81048207      61.79499993      85.22268052
H      83.64607588      62.59813362      83.33295421
C      81.12896043      61.60413757      86.43021563
H      80.52802746      63.53732759      86.81194035
H      81.30281525      60.50620659      88.16309466
C      79.25435193      60.29644697      84.55749686
H      79.68331980      58.31034461      84.22679475
C      76.68810359      60.32857231      85.99179913
H      75.16309446      59.59535850      84.82205854
H      76.23645900      62.25609315      86.55871702
H      76.74479538      59.31567901      87.78325967
C      78.83672241      61.82334583      82.14053690
H      77.19077079      60.90682857      81.30149842
H      80.47322540      61.73263896      80.89142781
H      78.39830591      63.71496187      82.82461783
C      85.58304535      63.48252553      86.94611092
O      85.30147613      65.74830738      86.80249172
N      87.50489701      62.39971235      88.20277892
H      87.70520800      60.53833193      87.83050283
C      89.50233772      63.78299201      89.43299075
H      88.70487322      65.20784565      90.68776902
C      91.06136193      61.94239858      91.02414030
H      92.61660668      62.99686587      91.86695824
H      91.99866618      60.53833193      89.84495108
C      89.53068362      60.54022166      93.06504472
H      88.25511835      59.20796461      92.14474801
H      88.33826631      61.97830338      93.92864964
C      90.94986808      59.27221530      95.20232518
H      92.06669633      60.60447236      96.30403562
H      92.27456622      57.94373771      94.35383807
N      88.96943490      57.70941164      96.54781031
H      88.50834168      56.11637236      95.60483688
C      87.74867170      58.04767265      98.70398804
N      88.20220602      60.10936406      99.94931768
H      87.64284703      60.11314351     101.77290357
H      89.47966100      61.31878890      99.21043469
N      86.19153722      56.48108954      99.65074092
H      85.30714531      56.79667383     101.31370008
H      85.83815840      54.66128310      99.19909633
C      91.32214416      64.91115862      87.50924936
O      92.62794504      66.68750136      88.14419740
N      91.42796883      64.00597972      85.11307639
H      90.43586252      62.43939661      84.66332153
C      92.91140399      65.22863264      83.06083362
H      94.13783637      66.79899521      83.59184671
C      94.74632824      63.42583374      81.84196015
H      95.41151190      64.63147913      80.31128183
C      97.01777927      62.75687063      83.36318983
H      97.75288280      64.48408048      84.20978722
H      98.61648773      62.22207808      82.18022116
H      96.73621005      61.16383134      84.63875509
C      93.31013624      61.08635256      80.63820449
H      91.83237026      61.73641842      79.36074950
H      92.50133338      59.85425101      82.07628621
C      95.07892007      59.40071669      78.94123026
H      96.94219021      59.01521253      79.73302558
H      95.26411325      60.12259215      77.02126832
H      93.99799662      57.65083013      78.84485421
C      91.18419414      66.54199243      80.99536276
O      91.95709220      68.28620982      79.68578242
N      88.80691844      65.52909913      80.85363328
H      88.57637183      63.78110229      81.58306764
C      87.08159831      66.41916022      78.89398710
H      88.42141427      66.94828359      77.42189030
C      85.17864392      64.50297774      78.14376575
H      83.69898821      64.46707294      79.57806802
H      86.06303583      62.64726650      78.01715409
C      84.21110404      65.24941963      75.56806879
O      85.54714055      65.12280797      73.71235755
O      81.94154274      65.78799163      75.26949203
C      85.62650905      68.97218047      79.64609817
O      84.87817743      70.57466838      78.09274314
N      85.44131587      69.38792026      82.17077253
H      86.06303583      67.95361799      83.26870351
C      84.36606160      71.43638358      83.67121522
H      83.88985057      72.98973861      82.40698831
C      81.96232973      70.77308965      85.07150242
H      82.35539280      69.28776476      86.44533345
H      80.71133091      69.96617651      83.64853850
C      80.72455900      73.12579891      86.43210536
H      82.17775853      74.15947920      87.46011648
H      79.28269782      72.46817415      87.74924460
C      79.51135470      75.00796631      84.54615850
O      77.26069066      74.93426699      84.05671939
O      80.97022342      76.34778227      83.22335008
C      86.27468518      72.70627966      85.49669084
O      86.67908661      75.02875330      85.38141753
N      87.60694223      71.04898969      87.02736915
H      86.92286130      69.26886750      87.10862738
C      89.40785140      71.90881516      88.83016805
H      90.67963721      73.34122770      88.07049807
H      90.40751662      70.24774573      89.52180788
C      88.32125877      73.16359343      91.11673689
O      86.20854476      74.18971482      91.24901773
N      89.85760627      73.12957836      93.14819268
H      91.60182365      72.51163785      92.67765083
C      89.29824728      74.29176004      95.64074168
H      87.25167368      74.10656686      95.77302253
C      90.54546665      72.60423444      97.66274884
H      92.49944365      72.20928164      97.13362547
H      89.52690416      70.81655335      97.61361595
C      90.50956185      73.54342842     100.46143351
H      91.40529212      75.39913966     100.50111776
C      87.77890732      73.64925309     101.26456719
H      87.53513263      74.44104842     103.14862433
H      87.04002433      71.73873979     101.46865763
H      86.65074071      74.74529436      99.93419987
C      91.95142302      71.93905078     102.31714475
H      91.08781810      70.09278817     102.60627287
H      91.81914218      72.99540779     104.08025940
H      93.92618702      71.81054939     101.75400631
C      90.09949124      77.16225431      95.66908758
O      92.06102715      77.85956332      94.83004910
N      88.63495334      78.82332374      96.80859255
H      86.79624964      78.35467161      97.02591107
C      89.40785140      81.35366727      97.86117010
H      91.45820445      81.28941658      98.04636328
C      88.69542458      83.45693266      95.94120817
H      88.69164513      85.11422263      97.16386109
H      86.83215444      83.10355384      95.13996421
C      90.55491528      83.94448205      93.86628868
H      90.92530163      82.25884618      92.74190152
H      92.30480184      84.55675337      94.76201895
C      89.65918500      86.23105089      92.28080830
H      89.10738492      87.72960385      93.58471946
H      87.91496762      85.80964192      91.26980472
N      91.67363325      87.03607430      90.53470119
H      91.37505650      86.45970777      88.73946119
C      93.44241708      88.64612111      91.03169921
N      93.72209658      89.87822267      93.09905979
H      95.26222352      90.95536667      93.42220299
H      92.33692719      89.66657332      94.39163259
N      94.98632348      89.22437737      89.28559209
H      96.20708668      90.63978237      89.67487571
H      94.52711999      88.83509375      87.47523429
C      87.95843132      81.78830432     100.31214513
O      85.74934126      82.62923253     100.48599995
N      89.44186648      81.62956731     102.31903447
H      91.18608387      81.09099531     101.76534466
C      88.81636707      81.74106117     104.99299721
H      87.27057094      80.44470892     105.39928836
C      91.17285578      81.00595763     106.46509401
H      90.88750711      81.40846933     108.46442444
H      92.74699780      82.02452011     105.61093771
C      91.75111203      78.24695721     106.23832685
H      91.24466538      77.77830509     104.29568820
C      94.42318504      77.44382353     106.57469813
H      94.63105493      75.45583145     106.07770011
H      94.64617274      77.44760298     108.62316145
H      95.73276537      78.71371961     105.61471716
C      90.06736589      76.79375768     108.11671480
H      90.61349679      77.21327692     110.05935345
H      90.43208307      74.83033204     107.60459897
H      88.06425600      77.05831936     107.71609282
C      87.83937857      84.41313417     105.83770487
O      86.27090573      84.49439240     107.62916541
N      88.45353962      86.40490571     104.46954302
H      89.72154597      86.15735156     103.06547637
C      87.44820522      88.97304377     104.74544306
H      86.32948724      88.88233690     106.47265291
C      89.70075898      90.89300570     105.16874175
H      90.99333178      91.34087084     103.63050454
H      90.74955709      90.32797753     106.84870845
C      88.56692320      93.47059239     105.90195556
H      87.08915722      93.11910330     107.29279413
H      87.75245115      94.20758565     104.15773818
C      90.57003309      95.07874948     107.31925030
H      92.38039090      95.07308030     106.33470289
H      90.77979271      94.11498906     109.12771838
C      89.65918500      97.83963963     107.59704007
H      87.82992993      98.01538417     108.52678541
H      89.57036787      98.74481853     105.74888773
N      91.47521199      99.38543575     109.24677114
H      93.20620129      99.61787209     108.47576280
H      91.74355313      98.72403154     111.01555497
H      90.75522627     101.09185861     109.70219518
C      85.72666455      89.46059315     102.60060369
O      86.13106598      88.75761497     100.47466159
N      83.70654712      90.86088035     103.05602774
H      83.37206556      91.52228456     104.81536293
C      81.70910641      91.39378317     101.22299321
H      81.07415836      89.65523496     100.31403486
C      79.68898898      93.21736906     102.45509477
H      79.09939437      92.19124768     104.14073064
C      81.01179740      95.80818384     103.24877982
H      82.93175933      95.43023858     103.89317649
H      80.00646300      96.72848055     104.79268622
H      81.42564746      97.05351348     101.65951999
C      77.18321189      93.47248212     100.87339384
H      76.37062957      91.60732225     100.55780955
H      77.79926266      94.23026237      99.06114631
C      75.49946574      95.39055432     102.07525978
H      76.07016309      97.32752380     101.67841725
H      75.31616229      95.03717550     104.09537721
H      73.67776958      95.43968721     101.11905827
C      82.94309769      92.67312789      98.82682025
O      84.91219251      93.99971576      98.97988808
N      81.72611394      92.19313740      96.64796581
H      80.28047331      90.94969749      96.73678295
C      82.47255584      93.27784031      94.21966750
H      83.41174981      95.07874948      94.56170796
C      84.38684859      91.84164831      92.78914468
H      86.24822901      91.77172844      93.66786741
H      85.01423773      92.98682245      91.19610540
C      83.69331903      89.14311913      91.84995070
C      83.19254156      88.65179029      89.21000304
H      83.56481765      90.22215286      87.95900422
C      82.63129285      86.05152689      88.44088443
H      82.44987912      85.65090491      86.44722317
C      82.20043525      84.21093346      90.36084637
O      81.68831942      81.75239952      89.70700106
H      82.20421470      81.48216866      87.98923984
C      82.60672640      84.78918971      92.95166114
H      82.68987436      83.16024563      94.17809352
C      83.33805049      87.28929762      93.72266948
H      83.76134918      87.43291682      95.71255128
C      80.02724999      93.60476296      92.58316451
O      77.99390447      93.51783555      93.67542632
N      80.05559588      93.88066300      90.04148262
H      81.75634956      93.67090338      89.20055441
C      77.92965378      93.83153012      88.24813235
H      76.36873985      93.12855193      89.38952704
C      77.31549273      96.48092641      87.13886300
H      75.56182671      96.30896131      86.06927791
H      78.83483268      96.96847580      85.83495185
C      76.72022894      98.66167057      89.15709070
H      77.94099214      98.42923424      90.80304232
H      74.96656292      98.28750476      90.16998401
C      76.86006869     101.24870590      88.06293917
H      75.66954111     101.31862577      86.38297248
H      78.77625117     101.91199983      87.69633226
C      75.70544591     103.09874796      89.93376822
H      76.95266528     103.50881857      91.51735887
H      74.02358949     102.21435604      90.72556354
N      74.87018688     105.32295583      88.44088443
H      73.86107303     106.22246555      89.78825929
H      73.77225589     104.90154686      86.93666229
H      76.42732136     106.34151831      88.00813711
C      78.19799492      91.96070107      86.05038065
O      80.38818771      91.79440515      84.99213391
N      76.15709050      90.84198309      85.14898119
H      74.58105875      91.77739761      85.68755319
C      75.94355142      89.54752057      82.66021164
H      77.59139277      88.31352928      82.69044726
C      73.39053118      88.06030596      82.51659244
H      71.74835901      89.27728970      82.76603631
H      73.29226541      86.63734204      84.00380705
C      72.77637012      86.55797354      80.15632428
O      71.14742604      87.44047573      78.60107952
O      74.06327374      84.69659312      79.53838377
C      76.39519601      91.23693589      80.31884074
O      76.40086519      93.51216637      80.66277093
N      76.54259467      90.27884465      78.03038217
H      76.21189256      88.40423615      77.88865270
C      76.83928170      91.83408940      75.91199898
H      78.43232098      93.10020603      76.23514218
C      77.37596397      90.31097000      73.55551026
H      75.79048359      89.07886844      73.08685814
C      77.91264624      91.76416953      71.12154277
H      78.93309845      90.54907551      69.81007271
H      79.04459230      93.36098826      71.76593945
H      76.16842886      92.40856620      70.23904058
O      79.58505403      88.78029168      73.97313978
H      79.02947449      87.12489143      74.47391725
C      74.66420671      93.76727942      75.50003864
O      75.13663829      95.76472013      74.58352138
N      72.40409404      93.28161976      76.39954837
H      72.05638440      91.62244006      77.27638137
C      70.15531973      94.81607753      76.27671615
H      70.26870331      96.06896607      74.64399262
C      67.91032487      93.00382999      75.67011401
H      67.37553232      91.91723736      77.33685262
H      68.29393931      91.54874073      74.26226791
C      65.49714437      94.33986649      74.87642896
H      65.10219157      95.97070030      76.07451544
H      63.85119275      93.14933892      75.21657969
C      65.39509915      94.90867411      71.98514770
O      64.64865725      93.25894304      70.43368240
O      65.49336491      97.14611007      71.24815444
C      69.81705872      96.40344763      78.62564596
O      67.84607417      97.16500733      79.46846390
N      71.98268507      97.31807516      79.71412832
H      73.46800995      97.21414022      78.51793156
C      72.13197345      99.07363091      81.81550398
H      71.35907539     100.90855516      81.28071143
H      74.08595046      99.57062893      82.22746431
C      70.96223286      98.09097323      84.28915572
O      71.12285960      99.44779672      86.24124300
N      69.62241691      95.87054481      84.44411328
H      69.35029632      94.79340081      82.89264798
C      68.36385918      94.72726039      86.70233622
H      67.04105076      96.00660510      87.62830212
C      66.69712058      92.61643610      85.79337787
H      65.92044306      91.93613462      87.57727951
H      67.96890638      91.11032423      85.20189353
C      64.57306820      93.15878755      83.88286456
C      63.89465645      91.31630439      82.12163964
H      64.73936411      89.46626233      82.30116364
C      62.08051919      91.84164831      80.23002360
H      61.50982185      90.46214810      78.83729531
C      61.16211220      94.32663841      79.93333657
O      59.91867229      94.84253369      77.76959994
H      59.74859692      96.62832506      77.49747935
C      61.79328079      96.24471062      81.75881219
H      61.20935536      98.19679790      81.63031080
C      63.54316736      95.63810847      83.62775151
H      64.36141885      97.10642582      84.77859484
C      70.28004166      93.77861778      88.69221803
O      72.02803850      92.53328814      87.88530490
N      69.87752996      94.39844801      91.11484716
H      68.24291670      95.30929609      91.49468215
C      71.55371720      93.63310885      93.11039815
H      73.42832570      94.36821239      92.67009192
C      70.86396710      94.97670426      95.62373415
H      71.73135147      94.04506919      97.24322960
H      68.81172432      94.80284944      95.63318278
C      71.78237408      97.75271222      95.78625061
C      69.93800120      99.66322552      95.36862110
H      67.98969337      99.07552064      95.23634025
C      70.68444310     102.18789987      95.15130257
H      69.32006070     103.67322475      94.84327718
C      73.22234553     102.74914859      95.72199992
O      73.92532372     105.18689553      95.96010543
H      72.51180844     106.26970871      95.61050606
C      75.00813690     100.86131200      95.93931844
H      76.93943719     101.35453057      96.38340413
C      74.35240187      98.28561504      95.96766434
H      75.94166170      97.01382923      96.08860682
C      71.71623366      90.77584267      93.81904552
O      69.86052242      89.50216713      94.49178809
N      74.01225113      89.88956103      94.15919625
H      75.50702465      91.03473517      93.85117087
C      74.66420671      87.15323733      94.31604354
H      73.00124756      86.07042415      94.87162307
C      75.65064385      86.29341185      91.82349453
H      76.33850422      84.37911910      92.14852746
C      73.73446136      86.36900091      89.71455997
H      72.37196869      84.84588150      89.98668056
H      74.50169025      86.32175775      87.80404666
H      72.78959821      88.19825598      89.76747230
O      77.68209963      87.87511278      91.14697251
H      79.06915875      87.48393943      92.25057268
C      76.68432414      86.64490095      96.32671234
O      78.24523807      88.27951421      96.93898366
N      76.53314603      84.33565539      97.38117962
H      75.03837252      83.19426070      97.05236724
C      78.47767441      83.35299771      99.29547237
H      80.29559112      84.14857249      98.74745174
C      77.90886679      84.17313893     102.13573102
H      77.16431462      86.08365223     101.94108921
C      75.86229319      82.55175375     103.39239902
H      76.24023846      80.54108496     103.15807296
H      74.09539909      82.83521270     102.37383654
H      75.83772675      82.89946340     105.42385481
C      80.34283428      84.35077320     103.81569771
H      81.85650506      85.21437813     102.71776673
H      81.15730632      82.49128251     104.15206900
C      79.82315955      85.95326112     106.28179055
H      78.41342372      85.15201716     107.55168663
H      79.32049235      87.79952373     105.51834112
H      81.69587832      86.02507072     107.13783657
C      78.75168473      80.43715001      99.14807372
O      77.52147290      79.14457721      97.65518993
N      80.85306039      79.65480332     100.19309237
H      82.19665579      80.92658913     100.65796505
C      81.42942691      77.00918648     100.62583970
H      79.77402666      75.96416783     101.25889801
H      83.13018059      77.00729675     101.78802138
C      82.12295647      75.89046850      98.03691465
O      83.54592038      76.99595839      96.67253225
N      81.13273988      73.65492227      97.39251798
H      80.22945070      72.67793377      98.76256955
C      81.27257963      72.60045499      94.72989360
H      82.75223533      73.61334829      93.71700030
C      81.88863041      69.69405592      94.72989360
H      80.27480413      68.87958388      95.72011019
C      81.78847491      68.49030026      92.09750485
H      81.98689617      66.44183694      92.06348977
H      83.02624565      69.42193533      90.74068135
H      79.93843285      68.61124274      91.19799512
C      84.36795133      69.08934350      96.02813558
H      84.74778632      70.23640737      97.69676391
H      86.03091048      69.28965449      94.83004910
C      84.19976569      66.43049858      97.17708918
H      85.92130636      65.93350056      98.18998248
H      84.08827183      64.96596069      95.73144855
H      82.63318257      66.21506978      98.49800787
C      78.79892788      73.25807975      93.26724544
O      77.11518174      71.74818842      92.76079878
N      78.59105799      75.67314997      92.54159053
H      80.02536026      76.80320631      93.09528034
C      76.73534675      76.88635427      90.68776902
H      76.38196793      75.48984652      89.21378249
H      77.32305163      78.61923330      89.74290586
C      74.04815593      77.23784336      91.72144931
O      72.22268031      77.53075094      90.32872102
N      73.72879219      77.08855498      94.19510105
H      75.28214722      77.01863511      95.30059095
C      71.11341097      77.46461052      95.31192931
H      69.72824158      76.23628842      94.41241958
C      71.32128086      76.74462479      98.20510029
H      72.57227968      77.99562361      99.26334703
H      72.12063509      74.84922930      98.14084960
C      68.62086196      76.58588778      99.44098130
N      67.20167750      74.49396076      99.69798408
H      67.83851527      72.79131735      99.11216892
C      65.19667788      75.06276838     101.17763978
H      63.77182424      73.68137844     101.66140972
N      65.34218681      77.52886121     101.81069810
H      64.17244622      78.32632572     103.09004281
C      67.48324672      78.58710795     100.55214037
H      68.16543792      80.50895961     100.49733831
C      70.21012179      80.07243283      94.96232994
O      71.27970688      81.86578310      96.09238627
N      68.21457080      80.50140070      93.46188725
H      67.50403371      78.93292786      92.63985630
C      66.97113089      83.05442095      93.19921529
H      68.36196946      84.45659788      92.61717958
C      65.13431691      82.93725792      90.98067660
H      63.99292222      81.23650424      91.19799512
H      66.34563148      82.50640032      89.37062978
C      63.33529746      85.27106992      90.53659091
H      62.24303566      85.75483985      92.21277815
C      65.01715388      87.33654078      89.48968254
H      63.81339822      89.00516911      89.42354211
H      65.80328003      86.96993387      87.62074321
H      66.46090479      87.68614015      90.91642590
C      61.44368143      84.44903897      88.52970157
H      60.58007650      86.14223375      87.73601652
H      60.00748943      83.48149910      89.64464009
H      62.43956719      83.45693266      87.02358970
C      65.74091906      83.96526904      95.68231566
O      64.75637165      82.26451535      96.95221175
N      65.87697936      86.37467009      96.38340413
H      67.14120626      87.49149834      95.48767385
C      64.80739426      87.54441067      98.61517090
H      64.31039624      86.09121114      99.98711220
C      66.96924116      88.90501362     100.11939305
H      66.20201228      90.25049875     101.47810627
H      67.79883102      90.27884465      98.82682025
C      69.05360929      87.21559829     101.03213086
H      69.78304364      86.21593308      99.38428951
C      71.30994251      88.73682798     101.96187620
H      70.63342049      90.14656381     103.30358188
H      72.16787825      89.44169589     100.22710745
H      72.59495640      87.33276133     102.74800235
C      68.19756327      85.62444874     103.21476475
H      67.26403847      86.78663042     104.63772866
H      69.80383063      84.77218217     104.18230462
H      66.94278500      84.22227181     102.37761599
C      62.74948231      89.40012191      98.04447355
O      60.74826214      89.18091366      99.06303604
N      63.06884605      91.13489067      96.19443149
H      64.77715864      91.34465029      95.36673137
C      61.05628753      92.76761420      95.35917246
H      59.20813520      91.87944284      95.55003482
C      60.80306420      95.25449403      97.02969052