 %block lattice_cart
   137.614   0.000   0.000
   0.000 142.646   0.000
   0.000   0.000   160.855
 %endblock lattice_cart

 %block positions_abs
N      90.00217033      40.71982723      77.46629888
H      89.68280658      39.03041190      78.29588872
H      91.44214178      40.44014773      76.24742539
H      88.38834406      41.24895059      76.59702476
C      90.82987046      42.59632546      79.35035601
H      92.46637344      41.98405413      80.44261782
C      91.11899858      45.21548613      78.13715171
H      89.27084625      45.86933143      77.50409339
H      92.60621319      45.07942583      76.71796725
C      92.26228300      47.26583917      79.83412594
H      93.79863049      46.31719657      80.82434252
H      90.74294305      47.85921324      81.09079393
S      93.67390856      50.05696494      78.32801407
C      95.59764994      51.30418431      80.72418703
H      97.10754127      49.98893479      81.20039807
H      94.72648611      51.61220969      82.56289073
H      96.51416721      53.09186540      80.27254244
C      88.61133177      42.82309261      81.15315491
O      86.48727939      42.90624057      80.27821162
N      89.18202911      42.99127825      83.62113747
H      90.99994582      42.97805017      84.20128346
C      87.39056857      43.68102836      85.66015216
H      85.94870739      42.21460074      85.79432274
C      88.93636469      43.58087286      88.17537788
H      90.37633614      45.05296966      88.23584912
H      89.88122785      41.79886095      88.58544850
C      87.29797198      44.19881337      90.45060836
O      85.18903741      44.94525526      90.18982614
N      88.21448924      43.74716878      92.72016967
H      86.93703425      43.48071737      94.11289797
H      89.93980936      42.92702756      92.75418475
C      86.14523893      46.18491572      85.00252740
O      87.55308503      48.05952423      84.80032669
N      83.56576251      46.19058490      84.61513351
H      82.69648841      44.49172095      84.66615612
C      82.03508420      48.52817635      83.98396493
H      82.81743089      49.35020730      82.26431399
C      79.14947212      47.97826599      83.62491693
H      78.83199810      46.95970351      81.86180228
C      78.34444871      46.18680545      85.73952066
H      79.04364744      46.69703155      87.60846000
H      79.06443443      44.28385105      85.41826719
H      76.30732374      45.89956705      85.66015216
C      77.56210201      50.37443896      83.30933264
H      78.51641380      51.84086658      82.21896054
H      77.17848757      51.08875551      85.20283839
C      74.87491120      50.04940603      82.07723107
H      73.58800758      48.97226204      83.27342784
H      75.03553793      49.25194153      80.18372530
H      74.25508097      51.99015496      81.77487486
C      82.44704453      50.69569243      85.88691933
O      82.47728015      52.82163454      84.95717397
N      83.07821312      50.27617319      88.23584912
H      83.58843923      48.52250717      88.78386976
C      83.49773236      52.31896734      90.15581106
H      81.97650268      53.70413672      90.03864803
C      83.18970697      51.26072060      92.86945804
H      83.98717148      52.82730371      93.94282259
H      84.07976807      49.41445799      93.06221013
C      80.50251616      51.14544730      93.89368971
C      79.07766252      49.00060793      93.31354373
H      79.79764824      47.41323783      92.25151754
C      76.63613612      48.76061269      94.06943426
H      75.70450105      46.99749804      93.64046638
C      75.45127772      50.70892052      95.43003720
H      73.47840345      50.65033900      95.95349139
C      76.83644711      52.88777496      95.90057906
H      75.79142846      54.47703479      96.64513123
C      79.38946736      53.11832157      95.18059332
H      80.24551338      54.96458417      95.34310980
C      86.04697316      53.74193125      89.53787055
O      86.36066773      55.98125693      90.14447270
N      87.86300015      52.47959407      88.49852108
H      87.63434326      50.65789791      87.98073607
C      90.43113820      53.36776544      88.13002445
H      90.77506839      54.90411293      89.45850205
C      92.27929054      51.13410894      88.52686698
H      94.15956822      51.97314742      88.54765398
H      92.24149601      49.64878406      87.10012362
C      92.06764119      49.69602721      91.16681464
H      93.74382843      48.49794073      91.12902012
H      90.32909298      48.59809623      91.04398244
C      92.13000216      51.61598915      93.37023552
O      90.22515804      52.11676662      94.54753501
O      94.12744287      52.94824620      93.84266709
C      90.71081770      54.54128548      85.52031242
O      92.24338574      56.18723710      85.28031717
N      89.23683117      53.76649769      83.52665115
H      88.12756183      52.24715774      83.85168408
C      88.87778318      55.03450405      81.07756585
H      90.63900810      55.15922598      80.01742939
C      86.92380617      53.51894354      79.52799028
H      84.96604971      53.80429222      80.09868762
H      87.24883909      51.49882612      79.75475743
C      86.64979585      54.41278409      76.77087958
H      87.98394263      53.25816131      75.70318423
H      87.25639800      56.36676110      76.52332544
S      83.68670499      53.76082851      75.14760469
C      81.81020676      56.12865558      76.58190695
H      80.02063595      56.06629461      75.56523420
H      82.72483430      57.97302846      76.52332544
H      81.57966015      55.84330691      78.60769357
C      87.84221316      57.62909828      81.48385701
O      89.14234486      59.43756636      80.76198156
N      85.80886764      57.96735929      82.91060038
H      85.08132301      56.43290152      83.77798476
C      84.55597910      60.35597335      83.72885188
H      84.27629960      61.52004475      82.05266463
C      82.03130474      59.73992257      84.99685822
H      81.34155464      61.57673654      85.61857818
H      82.42625754      58.42089360      86.52942626
C      80.13024007      58.45301895      83.20161823
H      81.00518336      56.80895706      82.32478522
C      77.71516984      57.88799078      84.42805060
H      76.36968471      56.94123790      83.19216959
H      76.71550462      59.60575200      84.97040207
H      78.19893978      56.77116253      86.08912004
C      79.54253519      60.28416375      80.96985145
H      81.22061216      60.35975280      79.77932387
H      79.13624403      62.23058185      81.50842345
H      78.06476921      59.70212804      79.65460194
C      86.36255745      61.90176947      85.41448775
O      86.36822663      64.18266913      85.08756510
N      88.03118579      60.68289600      86.95083523
H      87.81386726      58.79316968      87.13413868
C      90.14767926      61.86019549      88.33600462
H      89.36155311      63.51559574      89.27708832
C      91.29663286      60.02149179      90.23895902
H      92.38133576      58.57963061      89.24496299
H      89.75650591      59.16544577      91.30665439
C      92.87266460      61.49925776      92.20994357
H      91.77284389      63.16599637      92.70505185
H      94.49782923      62.18900787      91.14791737
C      93.74193871      59.93267465      94.54564529
H      94.25594426      60.98147275      96.24261952
H      95.35765470      58.82718476      93.90313835
N      91.89567610      57.94657230      95.30909471
H      92.20559121      56.22125217      94.55509391
C      89.88689703      58.20924425      96.65269012
N      89.42958326      60.30873019      97.71093687
H      88.05953168      60.42022404      99.03374529
H      90.73160469      61.70145848      97.64668617
N      88.44503585      56.31573849      96.98339223
H      87.08632263      56.51227002      98.30809038
H      88.86833454      54.49404232      96.60544696
C      92.15078915      63.19056281      86.66548657
O      93.51517155      64.84407334      87.61223945
N      92.04685420      62.67655726      84.11057658
H      91.11710886      61.10430496      83.54932787
C      93.70603391      64.19400749      82.37769755
H      94.51483677      65.75114197      83.46051073
C      96.07197125      62.66521890      81.30433301
H      97.20580704      64.01637321      80.23852737
C      97.78784274      61.80350370      83.56066623
H      98.64010931      63.47024231      84.41671225
H      99.31852105      60.55061516      82.98807916
H      96.71447820      60.72069052      84.94394589
C      95.42001567      60.50148227      79.40515806
H      93.97248532      61.20257073      78.11825444
H      94.29562851      59.09552589      80.40482328
C      97.61965710      59.19001221      78.04455512
H      96.88455356      57.93901339      76.58001723
H      98.92167853      58.13932438      79.24453134
H      98.53428463      60.81895629      77.17906047
C      92.34165151      65.45067548      80.18561503
O      93.40745715      67.01725860      78.87603470
N      89.93602991      64.82517608      79.71885263
H      89.07809416      63.48347039      80.76954047
C      88.26551185      66.10452079      77.82534688
H      89.52217985      66.55616538      76.25687403
C      86.28885813      64.24880955      77.07134608
H      84.97360861      63.83873894      78.60013466
H      87.31308979      62.51593052      76.62915011
C      84.60889143      65.35618917      74.93406562
O      85.61611556      65.17288572      72.84402830
O      82.60956100      66.54104757      75.28366499
C      87.13167606      68.45534032      78.91382923
O      86.94837261      70.16176318      77.51165230
N      86.55530954      68.66321022      81.27787685
H      86.36255745      66.99080243      82.17927629
C      85.66335872      71.03292701      82.52698593
H      85.29486209      72.62029712      81.26653848
C      82.93459392      70.49624474      83.66649090
H      82.93837337      68.92588217      84.99685822
H      81.57966015      70.11452003      82.16226875
C      81.89902390      72.90186634      85.05732947
H      83.21994259      73.62752124      86.46139612
H      80.20582912      72.19510870      85.99652345
C      80.74629085      74.92387349      83.23374358
O      82.08799653      76.56793538      82.23974753
O      78.43893502      74.94655021      82.81044488
C      87.57198229      71.78692781      84.67749448
O      87.92158166      74.09806309      84.96284316
N      88.86833454      69.99924672      85.91148577
H      88.43747694      68.16621220      85.59401174
C      90.62389029      70.67954819      88.04498677
H      91.90701446      72.13085800      87.34200859
H      91.69725483      68.99958150      88.55521287
C      89.47682642      71.77369973      90.48273371
O      87.28096444      72.44077312      90.37501932
N      91.05663761      72.11196074      92.47639498
H      92.91045913      71.82472234      92.13813397
C      90.49349917      73.26469379      94.91603165
H      88.45826393      73.07572116      95.17303442
C      91.81441787      71.84928878      97.11567307
H      93.83453529      71.83417097      96.72449972
H      91.20592599      69.88208369      97.12890115
C      91.50639248      72.75068823      99.85955569
H      92.26795218      74.65553236     100.02585160
C      88.73983315      72.63919438     100.68725581
H      87.52284941      73.82972196      99.52696384
H      88.41480023      73.41965135     102.56564377
H      88.07653922      70.69655573     100.52095990
C      92.90667967      71.15009004     101.75117171
H      92.05252338      69.28493017     101.55841964
H      92.61188237      71.92109838     103.63711858
H      94.90978957      71.07072154     101.27496068
C      91.15301366      76.04826065      94.91792137
O      93.27139685      76.74934911      94.26974524
N      89.41068600      77.87562599      95.49806735
H      87.60032819      77.45988620      95.94404277
C      89.86233058      80.52880174      96.55820381
H      91.89000692      80.60628052      96.91536208
C      88.95148250      82.29380611      94.46816650
H      88.27307076      84.02101596      95.36767624
H      87.56064394      81.36217104      93.27196975
C      91.25883833      82.92308497      92.70694158
H      92.15267888      81.23555938      91.93782297
H      92.53629332      84.05125158      93.86345409
C      90.51617589      84.60116194      90.67359608
H      92.09031791      85.72932855      89.97061788
H      89.04785854      85.71232101      91.59389279
N      89.40690654      83.11961651      88.58922795
H      89.43714216      81.21099294      88.64780946
C      88.32409337      84.28557765      86.68627355
N      88.26551185      86.72899377      86.34045363
H      87.21104457      87.53212745      84.96662260
H      88.86077564      87.79479941      87.80688126
N      87.19214730      83.04024801      84.89481301
H      86.46649240      84.05881049      83.45484156
H      86.69136983      81.23555938      85.26330963
C      88.66235438      80.93509289      99.24728436
O      86.32854238      80.83304767      99.42491863
N      90.15712789      81.23933883     101.26362234
H      92.05819256      81.16563950     101.10110586
C      89.16691130      81.72310877     103.82609121
H      87.39623775      80.69131820     104.03585083
C      91.03207117      80.88973946     105.78384768
H      90.31964435      81.44153955     107.63577946
H      92.74794266      81.84972043     105.17535580
C      91.60843770      77.99467875     105.73849424
H      92.26039328      77.65830747     103.81664258
C      93.66257020      77.22933959     107.53940341
H      92.81030363      77.49390128     109.39511465
H      95.32930881      78.44065416     107.53373423
H      94.23137782      75.29237012     107.12744308
C      89.23116200      76.45455181     106.33186831
H      88.26929130      77.15752999     108.01372473
H      89.76784427      74.47978781     106.56052518
H      87.58521038      76.82682789     105.15078936
C      88.23905568      84.38573314     104.47615706
O      86.78207669      84.81281129     106.20903609
N      89.00439484      86.33593070     103.11366440
H      90.03618541      86.02034640     101.53952237
C      87.99150153      88.94186328     103.24216578
H      87.12600688      89.16485099     105.09976674
C      90.05886212      90.72576492     102.78296228
H      89.03274073      92.50966656     102.77540339
H      90.87900334      90.04735317     101.01984763
C      92.03551584      90.67474231     105.03929550
H      92.50038852      88.70942695     105.43046885
H      91.01884309      91.47598627     106.64367315
C      94.40523264      92.19597199     104.52340022
H      93.78918186      94.11971338     104.12655770
H      95.37844169      91.55913423     102.82264653
C      96.22503908      92.24699460     106.82130742
H      96.82597205      90.30435595     107.14445061
H      95.02884232      92.85359675     108.38222135
N      98.23948733      94.04223460     106.62288616
H      97.63855436      95.85259241     106.59265053
H      99.07096691      93.77389346     104.92402219
H      99.74937865      93.72854003     107.74916304
C      85.90902314      89.06280577     101.19181273
O      86.13201084      87.94219806      99.20948982
N      83.86622899      90.37994501     101.66802376
H      83.87756735      91.33614652     103.31964455
C      81.64391085      90.85237658      99.91624746
H      80.68770933      89.17240989      99.20571037
C      79.50096121      92.34148092     101.31464494
H      79.19482555      91.02434168     102.86611024
C      80.46850108      94.81891212     102.53729786
H      79.00018374      95.92629173     103.46704321
H      81.22061216      96.06613148     101.08031887
H      81.91225199      94.43151822     103.95459260
C      77.10667797      92.46053368      99.81987143
H      76.51897309      90.56324846      99.27751997
H      77.51485886      93.20697557      97.94526293
C      74.89947764      93.66239961     101.22015862
H      75.22073111      95.68629649     101.43369770
H      74.72751254      92.79501523     103.07964931
H      73.20817259      93.59059001     100.04474885
C      82.46594180      92.22998707      97.46527244
O      84.13834958      93.69641469      97.55786903
N      81.28864230      91.72543014      95.32043307
H      79.99984896      90.31947376      95.30909471
C      81.96705405      93.00099540      92.83355324
H      82.78152609      94.85481692      93.20960879
C      84.04386327      91.45519928      91.35767699
H      85.67091762      91.40417667      92.62001417
H      84.58243527      92.38494462      89.60023152
C      83.27852411      88.77934682      90.49785152
C      82.68515005      88.24833372      88.00152306
H      82.57176647      89.69208463      86.56533107
C      82.30153561      85.67074703      87.34956748
H      81.92359034      85.04902708      85.44472336
C      82.39791165      83.77157209      89.08811569
O      81.53619645      81.50390051      88.31332790
H      81.15447173      81.63618136      86.54454408
C      82.87790213      84.29124683      91.51641401
H      83.13679464      82.70765618      92.77686145
C      83.58277005      86.83670817      92.31954769
H      84.29141741      87.25622741      94.18659729
C      79.51229957      93.26555709      91.24051396
O      77.48840269      92.60982206      92.20994357
N      79.70127220      94.46742302      88.97851157
H      81.37934917      94.80190458      88.13569363
C      77.43738008      94.89450117      87.32689077
H      75.79709764      93.89294622      88.07144295
C      77.03297865      97.77066462      86.90548180
H      75.61757364      98.24498592      85.48629734
H      78.86601317      98.51899624      86.33289473
C      76.44149431      99.17473127      89.34889792
H      77.96839317      98.71741750      90.65280909
H      74.64436459      98.59836474      90.17281861
C      76.61912858     102.01876937      88.79142866
H      78.55987751     102.68773248      88.60623548
H      75.87268669     102.98064006      90.45438782
C      75.09222972     102.95229417      86.59556668
H      73.46328564     101.70507480      86.78831877
H      75.80843599     102.24742625      84.79843697
N      74.21728644     105.57901374      86.66926602
H      72.85668349     106.16482890      85.46928980
H      75.75741338     106.66749610      86.36502007
H      73.78642884     106.18372616      88.42671148
C      77.70383149      93.68696605      84.73607599
O      79.75418454      93.25421873      83.88569915
N      75.53820513      93.24665982      83.46617991
H      74.03398299      93.64539207      84.56978008
C      75.13380370      92.16573637      80.84512951
H      76.79487313      90.97142934      80.60702400
C      72.80188143      90.46309296      81.12291928
H      71.08412021      91.59881848      81.06622749
H      72.66960059      89.53334762      82.95595381
C      72.37480328      88.45431389      79.24453134
O      71.67938400      89.08359276      77.02599265
O      72.86424240      86.17341423      79.80011086
C      75.07333246      94.02522706      78.56989903
O      74.57066526      96.28345001      78.96863129
N      75.41537292      93.12382761      76.38348569
H      75.71205995      91.24732938      76.20396170
C      75.16214960      94.63938812      74.16494700
H      76.58889296      96.11904382      74.30289702
C      76.17126345      93.13138652      71.90483434
H      74.67271048      91.77834248      71.49854318
C      77.09533961      94.54112235      69.54078671
H      75.71017023      95.82424651      68.72253523
H      77.72461848      93.32224888      68.00254949
H      78.74507069      95.66928896      70.03211555
O      78.48806791      91.86149044      72.63615841
H      78.04398222      90.13617031      72.97630915
C      72.53920947      95.50866222      73.75676612
O      72.14803613      97.21886453      72.15994738
N      70.66271124      94.59403468      75.00209575
H      71.04821541      93.04823856      76.05656304
C      68.04544030      95.41039645      74.94351424
H      67.76387108      96.58580622      73.27488590
C      66.25209003      93.05768719      74.69784982
H      65.89682148      92.16951582      76.52143571
H      67.21774018      91.61393629      73.58480102
C      63.66883415      93.55279549      73.42228456
H      62.28555449      94.71308744      74.41628060
H      62.76743470      91.71220206      73.62826473
C      63.71796704      94.44096685      70.62548961
O      63.37970603      96.67462335      69.97164431
O      64.33968700      92.87249401      68.94174347
C      67.42749980      97.08847342      77.20551664
O      65.18250493      97.66861940      77.59102080
N      69.22462952      97.85948175      78.75698195
H      71.00286198      97.31713030      78.32990380
C      68.85046371      99.64338339      80.79410691
H      67.80355533     101.32712954      80.23096846
H      70.73074139     100.24998554      81.37236316
C      67.60324433      98.54167295      83.19027987
O      66.71129352      99.95329851      84.85701848
N      67.60324433      96.02455750      83.34334770
H      68.23252321      94.98331830      81.87692008
C      66.81333874      94.80190458      85.77164601
H      65.52832485      95.85637186      86.98862976
C      65.57556801      92.25833296      85.28031717
H      64.96518640      91.44197119      87.07177773
H      67.00987027      90.86749439      84.78331915
C      63.35513959      92.14494938      83.38492168
C      63.33624233      90.04735317      81.84479473
H      64.84235419      88.67352215      81.87125090
C      61.48620027      89.91507233      79.94561979
H      61.62981946      88.32392278      78.67383398
C      59.56434861      91.82936509      79.74152935
O      57.89194081      91.49299380      77.76865509
H      56.70330297      92.86115565      77.84424413
C      59.48686982      93.94963801      81.51598236
H      58.05823674      95.39149919      81.28921521
C      61.55234069      94.19530243      83.26775865
H      61.72241605      95.94707872      84.30143895
C      69.10557676      94.50332782      87.61034971
O      71.25797503      94.84536828      86.80532632
N      68.66904998      93.52633932      89.87235211
H      66.90404561      93.64539207      90.58855838
C      70.60224000      92.53423300      91.57310580
H      72.33322931      93.46208862      90.95705502
C      70.03343238      93.47342698      94.31887814
H      71.16159899      92.35470900      95.62845846
H      68.10024236      92.96131115      94.81398642
C      70.59468110      96.22675822      94.61556516
C      68.68416779      98.16750714      94.35478294
H      66.69617571      97.69885502      94.33210621
C      69.37202817     100.66761505      94.85178095
H      68.04166085     102.21341118      94.84989122
C      71.96284295     101.28933501      95.04831248
O      72.73952046     103.66850044      94.96138507
H      71.30899764     104.76454170      94.75540491
C      73.93949667      99.42795459      95.03886385
H      75.86134833     100.08368962      95.25996183
C      73.16281916      96.91083914      94.82532478
H      74.51775292      95.41039645      95.09933509
C      71.00097225      89.61082640      91.60712087
O      69.16793773      88.01967684      91.30098520
N      73.38013768      88.92107629      92.18348739
H      74.71995364      90.21553882      92.58977856
C      74.30988303      86.33593070      92.40080592
H      72.61101907      85.20965381      92.69371351
C      75.64591953      85.36650110      90.03108912
H      77.60556572      85.99766969      89.96305897
C      75.47206471      82.55269862      89.56243700
H      76.30165456      81.84783070      87.81444017
H      73.48974181      82.00845744      89.44149451
H      76.54353953      81.64751971      91.07232833
O      74.33255974      86.22443684      87.79743262
H      75.36435031      85.64240114      86.42360160
C      76.02764425      86.11105326      94.82343506
O      77.60745544      87.71354118      95.40169130
N      76.05032096      83.83582278      95.94215303
H      74.77286598      82.60372123      95.23917485
C      77.98540071      82.85883428      97.74306222
H      79.61623452      84.01912624      97.25740254
C      77.23139991      83.65062961     100.32820781
H      76.36590526      85.51578948     100.21293450
C      75.01664067      81.98011154     101.23716616
H      75.51930787      80.02424481     101.63778815
H      73.68627335      81.72688822      99.68381113
H      74.21350699      82.81915003     102.93980957
C      79.57088108      83.71299057     101.97982860
H      81.13179502      84.78446539     101.16913601
H      80.15669624      81.78546973     102.41068620
C      79.10978786      85.19642573     104.48182625
H      80.90502786      85.79357924     105.29629829
H      78.34822816      83.97755226     105.95581276
H      78.10067401      86.94253284     104.06797617
C      78.84144673      80.12251058      97.31031488
O      77.53753557      78.66931104      96.06687497
N      81.11289776      79.46488582      98.26462667
H      82.21649792      80.77824561      99.09610625
C      82.00862803      76.95910873      98.31942874
H      80.78219565      75.69866128      99.39090355
H      83.74528651      77.03658751      99.42302890
C      82.67948087      75.89141336      95.82687972
O      83.98528175      77.08761012      94.33588567
N      81.71572045      73.58405754      95.41869884
H      81.01085253      72.74501905      96.97961277
C      81.53808618      72.13274773      93.12646083
H      82.98939598      72.98690402      91.93971271
C      82.15035750      69.40776238      93.70660681
H      80.47605999      68.61785679      94.61367544
C      82.30342533      68.01503409      91.09878449
H      80.57999493      68.26825742      89.99896377
H      82.49239796      65.97035022      91.24051396
H      83.77552213      68.93155135      89.98762543
C      84.61267088      68.93533081      95.26752074
H      84.46338251      69.86129670      97.10244499
H      86.09043686      69.68933160      94.04864726
C      85.43659156      66.13286668      95.74184204
H      84.35566811      65.05194323      97.11945252
H      87.42647337      65.98357831      96.25584760
H      85.30620044      64.97257473      94.04297808
C      79.13813376      72.76202659      91.55987771
O      77.37501911      71.32205514      91.40114070
N      79.04175772      75.05426461      90.49029262
H      80.50440588      76.25991000      90.69627278
C      76.93093342      75.94054625      88.88024580
H      76.28275730      74.30215353      87.81255043
H      77.60367599      77.32193618      87.51019422
C      74.47239949      76.67564978      90.11234735
O      72.83589650      77.24256768      88.57411013
N      74.23429398      76.73990048      92.64458061
H      75.76875174      76.82304844      93.77841641
C      71.63214084      76.98178545      93.68015063
H      70.26019954      75.78936814      92.71072104
C      71.56222097      76.40352920      96.56576272
H      72.68660813      77.83594174      97.52574369
H      72.48251768      74.59695084      96.92859017
C      68.90904523      76.41864701      97.62400945
N      67.40104362      74.25680010      97.90935812
H      67.72985601      72.48801627      97.27252035
C      65.26565289      74.94088103      99.03563500
H      63.62159100      73.73712537      99.16791585
N      65.44517689      77.32949509      99.80853307
H      64.02599242      78.34994730     100.57765167
C      67.82623205      78.37640347      99.02051719
H      68.55944586      80.28313732      98.96193568
C      70.43972354      79.61984338      93.14724781
O      71.00097225      81.43209091      94.51540966
N      68.41015748      79.83338245      91.67893047
H      67.89993137      78.18176166      90.87012760
C      67.00609083      82.19554034      91.17248381
H      68.35724514      83.68086523      90.73028787
C      65.39415428      81.80625672      88.81032593
H      63.76709992      80.68942847      89.40369999
H      66.66216064      80.85761411      87.49129697
C      64.45496031      84.13250982      87.41759763
H      65.97052081      85.41185453      86.85823865
C      62.89404637      83.41819327      85.14803634
H      64.11669930      82.26734994      83.95372930
H      62.54444700      85.06603461      83.96317794
H      61.15171871      82.40341024      85.56188639
C      62.63515387      85.72365937      89.07110815
H      63.64048827      86.26223137      90.78697965
H      61.08935774      84.62005920      89.86668294
H      62.14004557      87.45275895      88.06955321
C      65.57745774      82.89284935      93.67826091
O      63.74820267      81.74389576      94.54375556
N      66.27098729      84.96398939      94.93870836
H      67.95095399      85.66885731      94.37179047
C      65.22218919      85.94475735      97.26118200
H      64.82723639      84.47266055      98.64824111
C      67.06089289      87.90251381      98.47816574
H      66.09902220      89.12516673      99.82743034
H      67.85457794      89.17996880      97.07031964
C      69.15093019      86.57025676     100.02585160
H      69.81422413      84.87517226      99.06020145
C      71.30521819      88.48832897     100.22616258
H      72.96817735      87.57937061     101.03307573
H      70.68916741      90.07380934     101.38834427
H      71.65481756      89.21398387      98.33076709
C      68.17961087      85.78602034     102.62044582
H      67.41049226      87.41307469     103.62389049
H      69.86713647      84.89029007     103.39145415
H      66.61680721      84.45754274     102.42391428
C      62.68617648      87.35260345      96.56954217
O      60.76243509      86.43419646      97.42747791
N      62.86003129      89.37839006      95.04075359
H      64.41716578      89.82436547      94.02975000
C      60.66983850      91.07347456      94.69493367
H      58.99554099      89.87727781      94.61556516
C      60.28244461      92.57958643      97.08165801