 %block lattice_cart
   137.614   0.000   0.000
   0.000 142.646   0.000
   0.000   0.000   160.855
 %endblock lattice_cart

 %block positions_abs
N      84.84888667      40.89840636      74.29911757
H      83.08577203      40.50156383      73.68117707
H      85.18714769      39.52457533      75.57846229
H      86.13956974      40.82281731      72.89316119
C      84.68070102      43.38339646      75.39137938
H      86.37200608      43.50433894      76.56300969
C      84.65235513      45.43374951      73.49787361
H      82.76451854      45.28635086      72.68340157
H      86.03374507      45.09548850      72.01065901
C      85.23061139      47.98865949      74.66383475
H      86.55719926      47.92062934      76.23608704
H      83.42781249      48.84470551      75.17595058
S      86.49294857      50.14483721      72.37726591
C      88.40346186      52.53723072      73.95140793
H      88.90045989      53.91673093      72.50387757
H      90.05508267      51.78134020      74.92083753
H      87.45670899      53.54634457      75.47641706
C      82.43948563      43.62528143      77.13370704
O      80.30787434      43.30213823      76.39104460
N      82.98561653      44.01267532      79.61113824
H      84.79597434      44.01456505      80.21396093
C      81.06754431      44.12227945      81.54243853
H      79.60300642      42.74655869      81.09457339
C      82.23161573      43.59126636      84.04632589
H      83.49017345      45.08037069      84.71339928
H      82.97049871      41.70154004      83.70050598
C      80.44582436      43.22465945      86.16848854
O      78.17059388      43.58559718      85.94739056
N      81.41525397      42.60104977      88.38891696
H      80.10945308      42.44987166      89.77219662
H      83.29742136      42.78813267      88.64214029
C      79.88079619      46.91151549      81.56511524
O      81.46438685      48.79179317      81.76164678
N      77.46950542      47.24410732      81.68227828
H      76.34133882      45.71909818      81.88825844
C      76.25441140      49.88783443      81.56700497
H      77.23139990      50.88372020      80.05144447
C      73.35557124      49.82736319      80.94339529
H      73.14203216      48.62927671      79.28232586
C      71.89481280      48.73321165      83.21295659
H      73.06077394      47.10804702      83.71184434
H      70.00697621      48.37605338      82.47407360
H      71.86079772      50.18074201      84.67749448
C      72.03654227      52.53723072      80.32734451
H      71.95717376      53.48776306      82.15282013
H      70.10146252      52.39172179      79.63381495
C      73.37446850      54.16428508      78.36391887
H      75.20183385      54.92962423      78.92894704
H      72.15559502      55.82346478      78.33179352
H      73.42171165      53.47264525      76.42316995
C      76.87046218      51.42418192      83.84790463
O      77.54131502      53.66350760      83.61924775
N      77.08211152      50.19208037      86.13825292
H      76.11646138      48.56691574      86.40848379
C      77.78697944      51.35993123      88.45694711
H      76.87991081      53.20808356      88.55143342
C      77.02353000      49.74799468      90.67170635
H      77.50163076      50.84592567      92.34789359
H      77.98162125      47.95086496      90.98351119
C      74.23618369      49.21887132      91.00429818
C      72.95683898      50.45853178      92.99229026
H      74.01130627      51.77378129      94.14313358
C      70.40570847      49.94830567      93.54975952
H      69.50430901      50.94041199      95.08799674
C      69.01486990      48.37038420      91.93593325
H      67.05144426      47.88472454      92.19482576
C      70.40192900      46.94364083      90.06132475
H      69.51564737      45.43185978      89.01630610
C      73.00975132      47.37638816      89.50574521
H      73.89981242      46.24633182      88.05821486
C      80.55353877      52.10637312      88.67615536
O      81.22817105      53.81090626      90.10289873
N      82.22594654      51.04623666      87.16626404
H      81.62879304      49.75744331      85.89258850
C      84.86589420      51.93062857      86.88658454
H      85.40635593      53.06446436      88.51741835
C      86.58743488      49.66106727      86.80910576
H      86.73105408      49.04501649      84.84945958
H      85.82776491      48.21353692      88.06010458
C      89.32753804      50.22798517      87.75774837
H      89.19336746      51.95519502      88.87079717
H      90.55586013      50.45475232      86.11935566
C      90.63144919      48.05668963      89.21094791
O      92.37377685      46.76789629      88.17915734
O      89.87177922      47.70897999      91.40303043
C      85.46115800      53.54823430      84.59623625
O      87.23372127      55.06757425      84.77764998
N      84.02118655      53.39516647      82.54399348
H      82.65113497      52.07046832      82.65359760
C      84.05331190      55.06190508      80.35191095
H      86.01106835      55.15828112      79.71507318
C      82.37712465      54.06412958      78.11636472
H      80.43826545      53.70319186      78.71351824
H      82.95349118      52.25188205      77.32456940
C      82.30720479      55.71008120      75.74475820
H      83.39379741      54.89182971      74.19896208
H      83.08010284      57.56579244      76.19262334
S      79.23262006      56.32046280      74.30289702
C      78.14035827      53.16839931      73.82857572
H      77.49218214      52.30479438      75.58413146
H      79.52174819      51.92117994      72.94985298
H      76.52653198      53.02100066      72.55678991
C      83.38623850      57.66972739      81.14181655
O      84.74117227      59.47252629      80.44072809
N      81.26407585      58.12326170      82.51186813
H      80.50818534      56.63226764      83.43216484
C      80.49306752      60.61203126      83.38681141
H      80.76707784      61.78933075      81.71818308
C      77.65469860      60.58746481      84.33923347
H      76.97250740      62.44884523      84.90048219
H      77.54131502      59.21363378      85.86991179
C      75.82166408      59.83346402      82.21707082
H      76.63235667      58.17806377      81.29677411
C      73.02864859      59.27977421      83.07500657
H      72.63558552      57.51099038      84.05388480
H      71.67182510      59.11347829      81.53298990
H      72.45606151      60.75754018      84.39025608
C      75.50230032      61.93672940      80.20451230
H      75.25663590      63.68850569      81.26275903
H      73.84878980      61.52665879      79.04422034
H      77.26352525      62.28443904      79.19539845
C      82.25807190      62.04255408      85.13102880
O      81.85744991      64.30266675      85.62802682
N      84.31787357      60.81990115      86.05321524
H      84.59377362      59.05678650      85.37291377
C      86.51184582      62.12192258      87.26264008
H      85.75217585      63.63937281      88.43049094
C      87.72882957      60.46652233      89.29787532
H      88.83809891      61.75909513      90.45627755
H      88.68314137      58.93017484      88.30954846
C      85.65202035      59.24764886      90.94382694
H      84.70526747      57.74720617      89.89691856
H      84.22338727      60.68762031      91.31043384
C      86.66302394      57.99853977      93.31165401
H      87.21860347      59.57079206      94.52107885
H      88.05764196      56.58124503      92.77875119
N      84.55408937      56.46786145      94.63446243
H      84.47850031      54.68773927      93.94660205
C      83.17269943      57.10469922      96.67158739
N      82.98372681      59.49709273      97.46905190
H      82.04264309      59.86369964      99.09043707
H      84.09866533      60.82557033      96.67536684
N      81.71383072      55.60992571      97.80542318
H      80.71605522      55.98031206      99.39090356
H      81.56454233      53.82224461      97.15346760
C      88.58487559      63.26520700      85.55621722
O      89.85477167      65.04721891      86.38013789
N      88.73794342      62.45262469      83.15059562
H      87.55686447      61.02777105      82.67438459
C      90.25539366      63.72441049      81.04166106
H      91.67268838      64.93572506      81.92038379
C      91.72938017      61.72130060      79.56389508
H      93.09565230      62.71340692      78.38659559
C      93.37911124      60.15093804      81.27976657
H      92.11488435      58.69962823      82.01298038
H      94.25405453      61.33390671      82.71973802
H      94.98348889      59.38748861      80.23852737
C      90.13634089      59.99220103      77.87636948
H      88.51306600      60.83879841      76.93339605
H      89.41446544      58.47286107      79.06311761
C      91.71804181      58.47853025      75.89026713
H      93.25438931      57.48264448      76.83513028
H      92.72904540      59.72197016      74.59580460
H      90.61255192      57.21430335      74.69784982
C      88.44125640      65.46484843      79.30500257
O      89.23494145      67.54543710      78.51887643
N      86.20382044      64.49730856      78.47541272
H      85.65957926      62.87403365      79.32389984
C      84.64479622      65.54610666      76.40994186
H      85.94681765      66.18672388      74.94729370
C      82.95916035      63.58268102      75.42350473
H      81.53241700      63.21229466      76.86158645
H      84.10055506      61.88570679      75.16461222
C      81.91225199      64.50297773      72.87237421
O      83.34088507      64.61258186      71.07335476
O      79.67670576      64.41227087      72.54167210
C      83.23883986      67.99141251      77.14504540
O      83.29364191      69.87546964      75.80900890
N      82.15980612      68.12936253      79.47885740
H      82.25429245      66.50608763      80.47663289
C      81.37179026      70.30254779      80.89615213
H      81.24895804      71.82755692      79.51665192
C      78.83766726      69.77909360      82.17738657
H      78.77341657      68.27298173      83.58334295
H      77.50729994      69.27642640      80.68639251
C      77.48651295      71.94283023      83.43783402
H      78.84144672      72.30754741      84.94394589
H      75.71772913      71.20016779      84.18805537
C      77.02353000      74.10467713      81.77298514
O      75.50419006      73.86279216      79.89081773
O      77.89091439      76.18526580      82.28510097
C      83.38434878      71.19638834      82.76887091
O      84.56164828      73.27886673      82.45517634
N      83.98150230      69.58445179      84.61702324
H      82.78530553      68.13881116      84.97796097
C      85.84477244      69.96239705      86.56155162
H      87.59087955      70.62758072      85.69794669
H      86.07153959      68.06322211      87.32689077
C      84.95849079      71.66693019      88.68938344
O      82.71727540      72.44549743      88.72528824
N      86.59877324      71.98440421      90.70005224
H      88.40724131      71.44205276      90.42793165
C      85.73327858      72.95950299      93.14157864
H      83.67536663      73.03887149      93.12268138
C      86.36822663      71.05087941      95.33555089
H      88.33732145      70.45183617      95.29019746
H      85.09833055      69.42949423      95.28452828
C      86.05075261      72.11290560      98.02652116
H      87.27907470      73.74373941      98.30620065
C      83.29553165      72.89714202      98.60288768
H      83.31631863      73.32610989     100.61733593
H      82.04642255      71.27764657      98.35155408
H      82.73995211      74.41270252      97.32543270
C      86.82743013      70.04743474      99.85199678
H      88.86266536      69.73751962      99.94648309
H      85.89768477      68.27109200      99.37767547
H      86.33232183      70.53309440     101.78896625
C      86.76695888      75.57677393      93.68770954
O      89.05163799      75.85078424      93.80487257
N      85.01140313      77.39658037      94.27352470
H      83.17836862      76.92603852      94.03730891
C      85.49895252      79.88723965      95.31665362
H      87.51340078      80.31431780      95.30720499
C      84.41047016      81.84877556      93.38157388
H      84.01362765      83.67614091      94.24517881
H      82.65869388      81.18170217      92.52552786
C      86.44948486      82.27774343      91.22728588
H      87.20159594      80.49762125      90.51107961
H      88.14834881      83.18292234      91.96805860
C      85.58399020      83.65724364      88.75174441
H      87.33765622      84.34699375      87.92404429
H      84.41047016      85.23138566      89.37535410
N      84.07787834      82.02263038      86.78642905
H      84.00039956      80.14991161      87.13602842
C      83.63757211      82.68025514      84.38647663
N      84.23283589      84.90068356      83.60601966
H      84.02685572      85.44114528      81.78810295
H      84.88668119      86.08743168      84.94961507
N      82.86089459      81.06831859      82.65548733
H      82.54531030      81.73728171      80.89615213
H      82.38657328      79.29764504      83.18650042
C      84.26118178      80.52596714      97.83376907
O      81.95193624      80.14991161      98.04352869
N      85.81642655      81.39902070      99.57987619
H      87.62111517      81.70893581      99.04319391
C      85.27596482      81.81287076     102.20281631
H      83.66591800      80.62423291     102.70170406
C      87.51718023      80.83021308     103.76373024
H      87.37734048      81.60122141     105.66668464
H      89.28029488      81.54830908     102.97760410
C      87.96882482      77.93137291     103.80908368
H      88.09732621      77.19626938     101.88912174
C      90.47838136      77.51941258     105.23204759
H      90.97348966      75.61078900     104.63489407
H      90.23460667      77.65169342     107.27106228
H      91.98827268      78.73261687     104.52906940
C      85.87878751      76.54431380     105.29062910
H      84.20448999      76.33644391     104.11143989
H      85.34021552      77.47972833     107.04618485
H      86.71593627      74.67348475     105.49849900
C      84.52385374      84.51706912     102.89256641
O      83.49962208      85.01784659     104.89945576
N      85.04163876      86.40301598     101.25984288
H      85.46493745      85.95515084      99.45326452
C      84.56164828      89.15823694     101.71715665
H      83.57710087      89.26406161     103.52373500
C      87.20537538      90.45458919     102.19147795
H      88.11433375      90.49616317     100.34332562
H      88.30330638      89.22059791     103.41980005
C      86.99939521      93.27973003     102.91713286
H      86.07720878      93.33075264     104.75961601
H      85.97705329      94.39088910     101.51684566
C      89.61099699      94.45513980     103.16090755
H      90.74672250      94.48537542     101.44314633
H      90.68247179      93.54240199     104.66512970
C      89.30108187      97.12154362     104.12466797
H      88.11244401      97.11587444     105.80652439
H      88.23338649      98.17412118     102.71115269
N      91.68591647      98.42356505     104.83709479
H      92.59109538      97.37476695     106.15045458
H      91.14356502     100.16778244     105.38700515
H      92.85565705      98.54261781     103.33287264
C      83.09522065      90.32986725      99.57798646
O      83.89646461      89.82342060      97.43314710
N      80.83699770      91.25772287     100.21482423
H      80.39102229      91.15000847     102.06675601
C      78.89624879      92.10620999      98.44037122
H      77.64524997      90.49427344      98.16258145
C      77.45249789      94.17357058      99.67247278
H      76.68337927      93.49893828     101.46204359
C      78.77341657      96.79462097     100.13923518
H      80.63479699      96.39399899     100.92725105
H      77.74918492      97.92656703     101.52251484
H      79.18915637      98.06073760      98.56698288
C      74.98073587      94.84820287      98.17580954
H      73.99807818      93.08319849      97.76384920
H      75.43615991      95.82330165      96.41836407
C      73.05888420      96.55651546      99.63278852
H      73.48029318      98.57285343      99.68192141
H      72.76597663      95.88566261     101.55652991
H      71.36946889      96.57541272      98.45737876
C      79.84678113      93.08886767      95.82687973
O      81.54564508      94.60064872      95.59255367
N      78.48617817      92.23849083      93.76518832
H      77.07833207      90.99316119      94.10155961
C      78.99262483      92.90178477      91.08933586
H      80.07165855      94.64978161      91.23484479
C      80.83321825      90.96481530      89.85723431
H      82.38846302      90.66434881      91.17626327
H      81.66280811      91.88322228      88.21128269
C      79.68426465      88.40801559      89.02953418
C      78.69026862      87.97904772      86.57666943
H      78.72050423      89.61366098      85.35212678
C      77.88902466      85.55263914      85.77164602
H      77.00463275      85.26918019      83.95183958
C      77.80209726      83.51173472      87.52720176
O      76.65692311      81.33099055      86.87335646
H      76.77030669      81.08910558      85.08000619
C      78.67326109      83.86322381      89.96872816
H      78.37657405      82.45159826      91.41247906
C      79.65213931      86.30097076      90.64902963
H      80.13212979      86.62600368      92.60678609
C      76.48306829      93.55563007      89.69660757
O      74.45161250      93.47248211      90.70761115
N      76.62857720      94.05640754      87.22673528
H      78.25374183      94.50238295      86.33289473
C      74.48751730      94.65734051      85.42204665
H      72.77164580      94.13010687      86.43305023
C      74.27775768      97.40311284      84.71150956
H      72.81321979      97.35586969      83.26586893
H      76.04087233      98.11176021      83.91782450
C      73.32533562      99.09063844      86.78075987
H      74.44972277      98.79395141      88.48151355
H      71.41293258      98.37254244      87.04910101
C      73.34045342     101.90255120      86.04754606
H      73.16092943     102.12364917      84.00853137
H      75.25096673     102.43923347      86.59745642
C      71.34301272     103.33307401      87.59145246
H      71.83245182     105.32862500      87.43082572
H      71.24852639     102.89654724      89.60401098
N      68.96195755     102.96079793      86.34045364
H      68.52732051     101.13721204      85.97951591
H      69.22085007     103.42756033      84.50741911
H      67.32545458     103.68834256      86.99996812
C      74.63302623      92.98115327      83.12602918
O      76.72117379      92.62399500      82.23785781
N      72.39181082      91.88700174      82.49108114
H      70.97451609      92.27250590      83.71184434
C      71.91182033      90.27317547      80.29710889
H      73.04943557      88.57998069      80.57678838
C      69.18305553      89.43980616      80.38781575
H      67.82812177      90.98938174      80.38214657
H      69.15281992      88.49872246      82.21896055
C      68.58401230      87.47827025      78.45273601
O      70.00508648      85.50539598      78.54533260
O      66.92672232      87.86377442      76.82379193
C      72.49763548      91.63566814      77.77432426
O      72.62235742      93.90900889      77.44740161
N      72.76975608      90.05018776      75.86003151
H      72.76219718      88.21715324      76.39104460
C      72.91526501      91.07441942      73.28244482
H      74.45350222      92.44447100      73.28244482
C      73.15903969      89.00327938      71.15650271
H      73.33100480      89.95381172      69.33480655
C      75.50985923      87.41779901      71.75932541
H      76.07488740      86.04396798      70.33258204
H      75.33600441      86.41813379      73.55078595
H      77.08211152      88.73682797      71.93884941
O      71.07467157      87.27984899      71.10170065
H      70.19594885      87.91668675      69.64850112
C      70.73263112      92.64667171      72.57001800
O      71.12758392      94.37010211      71.17162052
N      68.37047323      92.34809496      73.52244006
H      68.12858826      90.72104060      74.49186966
C      66.20484687      94.09420207      73.20307631
H      66.41838594      94.90111521      71.31901918
C      63.86158623      92.44825045      73.03489067
H      63.46096427      91.57141744      74.85469711
H      64.48897537      90.98938174      71.72342061
C      61.53533315      93.61988077      71.89727543
H      60.75865564      94.99560152      73.22008385
H      60.20496583      92.05329765      71.77822267
C      61.79989484      94.70458367      69.30835038
O      61.04211459      96.95713743      68.93418457
O      62.53310864      93.32508346      67.53389737
C      65.99130779      96.26927706      75.16839168
O      64.10347121      97.46169436      75.63893353
N      67.97174097      96.54895655      76.57434805
H      69.48352203      95.52661462      76.02065824
C      68.56133557      98.20057735      78.74942304
H      68.14559579     100.15455436      78.24297639
H      70.58901192      97.94168484      79.00264636
C      67.35946964      97.69979988      81.44039331
O      68.16827251      98.91867335      83.23752303
N      65.79477626      95.78172767      81.75597760
H      65.80044544      94.71592203      80.17238695
C      64.66094047      95.10709537      84.18616564
H      63.56300949      96.65478122      84.98740960
C      62.92428199      92.89044641      83.59657103
H      61.66194481      92.62588472      85.20283840
H      64.15827327      91.25961260      83.35657579
C      61.01754813      92.96603546      81.29866383
C      60.81345770      90.82497555      79.80766977
H      62.01910308      89.20170065      80.09868763
C      58.97853345      90.74938650      77.82156742
H      58.84436288      89.08453761      76.64993710
C      57.25699278      92.89044641      77.33590776
O      55.23498563      92.70147378      75.72397121
H      54.54523552      94.35120485      75.42728418
C      57.47809076      94.95969672      78.99886691
H      56.00977340      96.37510173      78.94028540
C      59.47364175      95.04851386      80.82434253
H      59.75710068      96.76438535      81.89392762
C      66.50531335      94.48726514      86.28187212
O      68.45740063      93.27973003      85.58078366
N      65.81178379      94.46080897      88.64969919
H      64.04299997      95.06363167      89.03898281
C      67.56544981      93.88444245      90.69249334
H      69.46651449      94.46836788      90.14258298
C      66.76798530      95.45291529      93.04520260
H      67.41427171      94.52883912      94.77052272
H      64.73652953      95.78361739      93.09244575
C      67.84134986      98.14388556      93.27763893
C      66.29744346     100.26604821      93.13401973
H      64.29811301     100.00715570      92.81843544
C      67.36135938     102.78883284      93.54409034
H      66.34090717     104.49336597      93.08866630
C      69.96540223     102.97402601      94.00140411
O      71.15970925     105.25303595      94.05242672
H      69.95217414     106.57962382      93.78219586
C      71.55088260     100.72147225      94.25462744
H      73.55588223     100.78572294      94.62312407
C      70.43972354      98.45380067      93.54031089
H      71.61513331      96.78706207      93.45527321
C      67.82812177      91.04040435      91.27452904
O      66.00831533      89.71570620      91.38035371
N      70.19405911      90.19947614      91.89246955
H      71.67938399      91.38622426      91.74129144
C      70.98963389      87.55196957      91.79987296
H      69.33423365      86.39167762      92.19104630
C      72.11969022      86.89812427      89.19960955
H      73.09667874      85.08587674      89.13913831
C      69.97863032      86.38033926      87.27586816
H      68.93361167      84.76651299      88.01475115
H      70.89892703      85.92113577      85.49385625
H      68.86180207      88.09054157      87.01508593
O      73.67304526      88.80296839      88.28687174
H      74.46484058      89.52673357      89.74951991
C      72.89636774      86.93969825      94.02030137
O      74.57255499      88.38911833      94.55698365
N      72.78487388      84.63801160      94.91981110
H      71.44694766      83.54386006      94.11100824
C      74.31933166      83.38701278      96.87945729
H      76.06354905      84.47927459      96.82465522
C      73.03053830      83.83109846      99.59877345
H      72.42582588      85.79830356      99.52696385
C      70.81388935      82.05286600      99.89923993
H      70.15815431      82.08688108     101.85132721
H      71.53009561      80.15180133      99.55908920
H      69.57422888      82.74450583      98.40635615
C      75.02608929      83.66480255     101.64534705
H      76.07110794      81.92058516     101.31275522
H      74.14169739      83.57031623     103.50294801
C      76.95361013      85.91924604     101.72471555
H      75.94827574      87.65023534     102.21793412
H      78.20082951      86.23105088     100.11466873
H      78.36901514      85.57153640     103.18169454
C      74.66893103      80.57698975      96.23506061
O      73.15148079      79.42425670      94.91225219
N      76.55865733      79.39591081      97.39157312
H      77.90414248      80.41258356      98.28730339
C      76.82510874      76.61612340      97.43503682
H      74.94105161      75.80543081      97.61834027
H      78.02508496      75.91125549      98.95437678
C      77.71894929      75.48228761      94.88957548
O      79.21183307      76.61234395      93.48550883
N      76.82888819      73.11257082      94.43982062
H      75.93504766      72.25085562      95.88735097
C      76.95172041      71.88046926      91.97750723
H      78.34633842      72.61935225      90.65091936
C      77.25029717      68.95139348      92.09655999
H      75.59489691      68.15203925      93.02630533
C      77.69438286      67.67960767      89.46417123
H      79.38568790      68.48652080      88.60434576
H      76.03520314      68.01408922      88.29065119
H      78.08177675      65.66326969      89.62479797
C      79.68426465      68.42604956      93.75573969
H      79.39324680      68.74730303      95.77018794
H      81.08644158      69.83578539      93.22094714
C      81.13746420      65.91082384      93.62534857
H      82.54153085      65.75775601      95.12201181
H      81.95382596      65.59334982      91.76018870
H      79.87512702      64.29132839      93.78597531
C      74.59901114      72.48518168      90.31643780
O      72.67715949      71.18504998      90.41848302
N      74.79932214      74.74151490      89.18071229
H      76.36212579      75.82810753      89.31488285
C      72.79243279      75.81487944      87.55554766
H      72.50330467      74.60734433      85.91337549
H      73.19116504      77.74617974      86.95839414
C      70.14870569      76.34778226      88.76875195
O      68.40637803      76.47628365      87.08122635
N      69.90304127      76.69738163      91.33311056
H      71.47907301      77.06587826      92.34978331
C      67.56922927      77.49106668      92.50663060
H      66.16894207      76.31565692      91.55987771
C      67.52198610      76.67092546      95.34499952
H      68.79944109      77.75184892      96.54686545
H      68.21551566      74.73584572      95.46594200
C      64.94628915      76.44604803      96.56198326
N      63.38537521      74.45805595      96.19537636
H      63.94851364      72.82533242      95.39035295
C      61.33502215      74.86056766      97.68259097
H      59.98008840      73.39980922      98.11722802
N      61.41628040      77.24162281      98.73138907
H      60.10481033      77.92570374      99.93514473
C      63.71985677      78.19404487      97.97738827
H      64.44551166      80.00440268      98.58210069
C      67.02687782      80.20660340      91.81688049
O      68.63881435      81.92058516      92.08711136
N      64.60424869      80.73383704      91.43137633
H      63.30033753      79.37701354      91.74696062
C      63.46852317      83.25851139      91.29720576
H      64.87258981      84.63423215      90.68304471
C      61.33124271      83.00339834      89.40747944
H      59.67773219      82.40624482      90.48084399
H      61.73186468      81.45004331      88.11301692
C      60.79456044      85.32587198      87.62168808
H      59.22419787      84.77785135      86.40281461
C      59.94040414      87.88834086      88.82544374
H      58.39649774      88.70281290      87.73129220
H      61.48053109      89.18847256      89.25819107
H      59.00121017      87.49527779      90.61690428
C      63.17939504      85.84932617      85.97762619
H      64.73652953      86.71671054      87.00752703
H      62.74475798      87.10221471      84.39970471
H      64.01654380      84.19203619      85.08189591
C      62.34224629      84.27140470      93.88046163
O      61.15549816      82.87867640      95.27696937
N      62.75798607      86.77151261      94.22439182
H      63.79544582      87.52173395      92.80709708
C      62.16272229      88.27384503      96.51474011
H      61.62226056      86.88300646      97.93770402
C      64.54566716      89.94625281      97.47661080
H      63.80867390      91.19158245      98.94303842
H      65.21840973      91.17835437      95.97049893
C      66.77932366      88.41179505      98.29486229
H      67.41805117      87.27795926      96.69804356
C      68.85046371      90.34309534      98.68603564
H      70.40192900      89.38878355      99.64790633
H      68.45740063      91.97770860      99.87656322
H      69.44005831      90.95158721      96.80764769
C      66.19728797      86.64868040     100.51340099
H      65.36958784      87.52740313     102.18391905
H      67.96607180      85.89845905     101.25039425
H      65.06345218      85.01028768      99.99183652
C      59.80434384      89.85176650      96.15758183
O      57.84280794      89.62310961      97.36889640
N      59.93662468      91.41834961      94.34533430
H      61.64871672      91.55252018      93.51196500
C      57.88438191      93.07186013      93.37212525
H      56.18551796      91.90778873      93.32488209
C      57.43084760      95.34709062      95.07665838