 %block lattice_cart
   137.614   0.000   0.000
   0.000 142.646   0.000
   0.000   0.000   160.855
 %endblock lattice_cart

 %block positions_abs
N      84.02780059      39.80425483      78.39604422
H      85.37706518      38.95954717      77.34346666
H      82.72577916      40.69431592      77.32078995
H      83.38907309      38.42664435      79.55066700
C      85.21454871      41.53335441      80.10057735
H      86.53357768      40.54502754      81.33645836
C      86.43909136      43.84071023      78.80233538
H      84.89140551      44.81202956      77.85180304
H      87.84693747      43.05080463      77.52299066
C      87.71465662      45.64539886      80.65426716
H      89.06392121      44.86305217      82.00164202
H      86.27468517      46.56380585      81.80322076
S      89.41352058      47.92440880      78.81745319
C      90.94797835      49.61760357      81.45740084
H      89.72154597      51.04434694      82.30021878
H      92.56936352      50.53601056      80.57867811
H      91.45631472      48.48376778      83.10146274
C      83.18309293      42.29869356      82.08290025
O      81.03447411      42.71632308      81.40070906
N      83.75568000      42.35160590      84.50174994
H      85.54714054      42.10216203      85.11402126
C      82.00201398      43.35694030      86.41037351
H      80.21055344      42.34593672      86.50674955
C      83.24923335      43.23410809      88.96339376
H      84.96888429      44.33770825      88.71206016
H      83.98433688      41.32737424      89.22228627
C      81.69587832      44.13928699      91.28964685
O      79.43576565      44.78368366      91.13090984
N      82.53680653      43.91818901      93.54031089
H      81.22911592      44.23377331      94.89524466
H      84.26968556      43.22465946      93.93148424
C      81.11762207      46.08759482      85.65826244
O      82.65963874      47.80346631      85.05355002
N      78.76491281      46.59782092      85.97195701
H      77.55548797      45.13895221      86.19683444
C      77.64808456      49.18296652      85.46551035
H      78.47011550      49.70831044      83.65137309
C      74.84184098      48.93541237      84.84379040
H      74.54137450      47.38772652      83.51909225
C      73.41131816      48.19841911      87.29665515
H      71.35907539      48.10015334      87.13791814
H      73.61162915      49.68752345      88.70639098
H      74.16531896      46.39562021      87.94294155
C      73.72501273      51.38638740      83.66838063
H      73.98201551      52.99265477      84.93449726
H      71.68788776      51.14828189      83.83845600
C      74.42043201      52.10259367      81.00764598
H      73.65131340      53.96964327      80.59946510
H      73.82138877      50.80246197      79.52610055
H      76.47645424      52.13093957      80.86402678
C      78.35484220      51.18985587      87.46673052
O      78.74601554      53.41784319      86.80910576
N      78.81026624      50.28845641      89.77786580
H      78.46066687      48.45542189      90.17092887
C      79.94410203      51.78511965      91.93782298
H      79.04837175      53.63705144      92.03041957
C      79.46033209      50.30735368      94.40769527
H      80.72833845      50.73254210      95.97427838
H      80.10094931      48.36093557      94.18848702
C      76.84684060      50.31491258      95.40547076
C      75.29726502      48.20597802      95.14846798
H      75.96244868      46.34081815      94.65713914
C      72.80282629      48.16818349      95.99506537
H      71.69733640      46.45987090      95.82876946
C      71.80316107      50.29223587      97.16102651
H      70.04571560      50.37160437      98.19470680
C      73.37163391      52.42762660      97.39346284
H      72.70833997      54.04334260      98.44981985
C      75.80938085      52.50321565      96.41269489
H      76.85817896      54.23420496      96.68103602
C      82.88451617      52.33691974      91.29909548
O      83.58560463      54.04523232      92.53497649
N      84.22622185      51.21064285      89.39047191
H      83.30403541      49.91618033      88.33222517
C      86.82270581      51.77189157      88.64780947
H      87.55025044      52.84147666      90.25029738
C      88.89195612      49.73098715      88.22073132
H      90.57192281      50.74010100      87.58578328
H      88.16819094      48.68218905      86.60312560
C      89.26801165      47.95842387      90.49785153
H      87.44442576      47.10615730      90.92870913
H      89.87083435      48.99588362      92.17403877
C      91.30324689      46.19908867      89.74007127
O      93.51422668      46.90962577      89.99518433
O      90.88183793      43.90118148      89.34889793
C      86.76412429      53.38004866      86.21573170
O      88.16441149      55.28489279      85.96061865
N      85.06526033      52.65439376      84.51308829
H      84.19598623      51.00466269      84.91937945
C      84.74589659      53.82413435      82.02809819
H      86.50334206      53.50288087      81.00575626
C      82.92042097      52.11771148      80.37269794
H      80.93620834      52.49376702      80.77520965
H      83.32860185      50.11838105      80.64481853
C      83.19254156      52.62604786      77.47574750
H      84.91597196      51.64527991      76.92394742
H      83.45710324      54.62537830      77.06189744
S      80.62251377      51.38449768      75.52554995
C      78.42098262      54.00176862      75.41972527
H      77.26069066      53.91484121      73.72275105
H      79.40741975      55.74787573      75.89026713
H      77.18888106      53.74287611      77.05055908
C      83.97110880      56.56234777      82.28321124
O      84.99534046      58.24987337      80.96607200
N      81.94343246      57.01777181      83.76097722
H      81.01935630      55.53622638      84.53009583
C      80.92109053      59.56512288      84.27687250
H      80.78125078      60.43061754      82.41360236
C      78.33972439      59.46685712      85.49952543
H      78.04114763      61.29044301      86.41415296
H      78.54948401      58.00798840      86.93760715
C      76.01536102      58.30278571      84.11246631
H      76.48401315      56.42250803      83.41893676
C      73.87997029      58.26499118      85.99085427
H      72.17165770      57.58091026      85.06488838
H      73.53981955      60.22274764      86.53887490
H      74.30704843      57.20674445      87.70483604
C      74.90231222      59.90149417      81.87125091
H      73.20155854      58.99442554      81.14559600
H      76.27047407      59.78433114      80.33868287
H      74.65475808      61.89704515      82.31911604
C      82.72199971      61.25831766      85.56755558
O      82.77491204      63.55811458      84.82678286
N      84.42653284      60.37581547      87.24752227
H      84.25645747      58.49553779      87.52531204
C      86.43342218      61.98586229      88.55332315
H      85.30903503      63.41827484      89.51897330
C      87.98299776      60.36447711      90.38635767
H      89.45320483      61.49831290      91.27641877
H      88.74644719      58.59002411      89.66637195
C      86.42586328      59.75031606      92.76174365
H      84.77235276      58.71285632      92.10222917
H      85.72666454      61.36036288      93.83888765
C      87.82804020      57.82279522      94.51351994
H      89.59304458      58.59380356      95.24484402
H      88.24000054      56.23353539      93.27008003
N      86.55814412      56.87793207      96.83032440
H      86.07437419      55.02977973      96.82276550
C      86.29925162      58.08924663      98.98083295
N      87.07970858      60.37392575      99.25484326
H      86.38806875      61.55122524     100.58899004
H      87.91118816      61.26587657      97.78652592
N      85.30903503      57.08580196     100.83654418
H      85.26557132      58.26121173     102.34076633
H      84.16197116      55.58535927     100.56064414
C      87.96787995      63.42205429      86.58233861
O      88.07181490      65.71240258      86.59367696
N      88.84849241      61.90649379      84.74174518
H      88.48755469      60.03188528      84.68505339
C      90.83837422      62.85135694      83.04666067
H      91.92685658      63.98897218      84.37324855
C      92.77912314      60.81045252      82.34179276
H      94.20964596      61.62681429      81.10213230
C      94.07547539      59.69740373      84.54521364
H      93.01155948      58.20263021      85.48251789
H      94.45342066      61.12414709      85.97951591
H      95.88772293      58.82435017      84.10301768
C      91.54891131      58.63915699      80.92260830
H      90.42641388      59.37803998      79.35980464
H      90.05980698      57.89271510      82.13581259
C      93.43485817      56.69084916      80.01553967
H      95.17718583      57.39004790      79.17083201
H      92.65251148      55.48709350      78.54155314
H      93.71264794      55.63449215      81.76164678
C      90.05224807      64.30077702      80.72229731
O      91.61505173      65.41193610      79.33523820
N      87.55591961      64.35368936      80.32734451
H      86.44287082      63.47118717      81.60290977
C      86.18019886      66.09223757      78.67950316
H      87.18742298      66.40026296      76.90882961
C      83.62528888      65.08312372      77.93684072
H      82.50846063      64.63903803      79.60924851
H      83.92386564      63.22930221      77.09024334
C      82.05492632      66.71773698      76.21530005
O      82.81081684      67.12969732      74.12337302
O      79.86662325      67.26575761      76.96552140
C      85.85516593      68.71139824      79.94184034
O      86.93042020      70.59545537      79.04799980
N      84.53991642      68.81344346      81.98652421
H      83.77835671      67.25252953      82.77831954
C      83.85394577      71.15292464      83.38681141
H      82.83727301      72.44927689      82.15282013
C      81.82060025      70.27042245      85.40503911
H      82.63507230      69.14225584      86.92626879
H      80.59227815      68.96084211      84.39592526
C      80.38251853      72.41526181      86.64847903
H      81.83004889      73.53397979      87.59712164
H      79.02191559      71.54031853      87.92404429
C      78.81404569      74.11790522      84.80410615
O      76.50102068      73.66815036      84.36191019
O      79.88741024      75.94716029      83.75908749
C      86.16319132      72.46628442      84.71339928
O      86.25011873      74.84922930      84.57544926
N      87.98488749      71.15481436      85.86424261
H      87.74678197      69.27075723      86.08156113
C      89.69320007      72.45305634      87.61979835
H      90.05224807      74.37868745      86.98485031
H      91.59804420      71.69149663      87.42515654
C      88.95620681      72.67037486      90.46950563
O      87.10805448      71.42882468      91.18760163
N      90.01634327      74.34467238      92.03797847
H      91.52056542      75.34244787      91.42003797
C      89.31525481      74.92103890      94.67036723
H      87.27057094      74.68671284      94.74973573
C      90.51901047      72.95383381      96.49206339
H      92.48432584      72.89903175      95.87601261
H      89.65729527      71.16426299      95.95349139
C      90.58326117      73.49618526      99.36255766
H      90.93852971      75.50874379      99.62522962
C      87.88851145      72.96895162     100.24317012
H      86.61294618      74.50151966      99.72916457
H      87.67497237      72.92926737     102.29163345
H      87.12128256      71.20394725      99.50806659
C      92.40684706      71.63480485     100.80819829
H      94.37594188      72.14125150     100.48505509
H      92.14795456      69.73374017     100.05986667
H      92.17630045      71.82188775     102.84721298
C      89.80469393      77.67625987      95.18626251
O      91.94953329      78.26018530      94.93681864
N      87.99055667      78.99150938      96.04608798
H      86.26712627      78.17892707      96.12167703
C      88.03968955      81.43870496      97.20637994
H      89.91051860      81.88468037      97.94337320
C      87.09482639      83.61377994      95.45460365
H      86.68097633      85.29563636      96.56765244
H      85.30525558      83.01284698      94.63257270
C      88.97321435      84.12211632      93.19071152
H      89.51178635      82.35144277      92.28931207
H      90.54168719      85.08965619      94.10722878
C      88.01134366      85.94948167      91.10445367
H      89.69131035      86.77151261      90.24084875
H      86.64129208      87.26095173      91.91136681
N      86.67719688      84.51517939      89.19205064
H      86.05547692      82.75773392      89.60401098
C      85.61895014      85.62444874      87.20972774
N      85.81170223      88.00550389      86.83556193
H      84.51534998      88.61777522      85.57511448
H      86.54869549      89.07886844      88.23206968
N      84.51912943      84.26195607      85.50897406
H      83.70276766      84.97627262      83.94050122
H      84.48511436      82.36089140      85.66771107
C      86.52223932      81.51996319      99.72538511
O      84.41519448      80.44092946      99.76317964
N      87.63528812      82.62167363     101.76062035
H      89.42674866      83.25662167     101.59621416
C      86.65640989      82.61978390     104.44781117
H      85.29013777      81.09855422     104.67079887
C      88.94486845      82.27774344     106.30730186
H      88.57070264      83.33032100     108.03640144
H      90.67774748      83.06953877     105.52117571
C      89.40029250      79.49417658     106.99138279
H      87.66741347      78.86867717     107.91356923
C      89.75178159      77.40224955     105.00717016
H      88.18897793      77.54397903     103.67113365
H      89.64028774      75.48606707     105.75172232
H      91.50166816      77.46838997     103.92246725
C      91.84937780      79.50173549     108.54851727
H      92.28023540      77.57988383     109.14945024
H      91.57914693      80.69037334     110.20958670
H      93.28934925      80.19148559     107.24649584
C      85.39974189      85.10666373     105.00339070
O      84.00890333      85.30508499     106.84020468
N      85.71343646      87.08520718     103.46893294
H      86.85294143      86.91891126     101.94959298
C      84.38306914      89.47193151     103.59365488
H      83.54592038      89.62121989     105.47015310
C      86.26334682      91.70369829     103.34610073
H      85.35438846      93.38177526     104.11899879
H      86.28791326      92.22715248     101.35432919
C      88.88817667      91.29173795     104.49127487
H      89.91240833      89.69302949     103.69003092
H      88.44409098      90.92891050     106.46792860
C      90.65507077      93.57263761     103.99049740
H      90.21476454      95.34709062     104.93914001
H      90.92530163      93.63688831     101.94770326
C      93.33848213      93.00571972     105.04118523
H      93.62572053      91.17457492     104.14167551
H      93.36304857      92.93957930     107.09909719
N      95.07514061      94.90867412     104.06041727
H      96.87227034      94.62710490     104.63678380
H      94.61593712      96.68312712     104.59143037
H      95.19797282      94.98237344     102.15935260
C      82.19665579      89.55507947     101.55841964
O      82.36673116      88.27195531      99.56853783
N      80.28425276      91.18969273     102.07053547
H      80.57149116      92.28762372     103.60688296
C      78.31137849      91.75094145     100.22049341
H      77.43076603      89.93869391      99.78774608
C      76.23834873      93.37232662     101.41857989
H      75.67898974      92.73737858     103.29507812
C      77.32683108      96.04250990     101.86266557
H      75.69032810      97.25382447     102.17824987
H      78.36996001      96.88532784     100.29608246
H      78.70822102      95.88377289     103.38389525
C      73.82327850      93.48382048      99.84632760
H      73.31872157      91.51283593      99.51562549
H      74.16720869      94.40978637      98.03785952
C      71.50836376      94.64222271     101.20693054
H      71.49135623      94.08853290     103.18925344
H      69.92099366      93.89389109     100.12789682
H      71.64253433      96.66611959     100.84410309
C      79.51135470      92.78084229      97.80164373
O      81.35761731      94.29451306      97.78085674
N      78.37184973      91.93424490      95.58121531
H      77.21911668      90.41490494      95.68326053
C      79.05971011      92.89800532      93.05843068
H      79.86095407      94.76316519      93.39858142
C      81.23289537      91.42968797      91.90380790
H      83.03758400      91.65645513      92.87701695
H      81.57871529      92.16668124      90.01219186
C      80.56960144      88.62911358      91.57121607
C      79.63418691      87.80141345      89.19205064
H      79.57938485      89.14689859      87.65948260
C      79.06726902      85.24272403      88.81221566
H      78.55137373      84.45659788      87.00185785
C      79.46600127      83.42480731      90.74918513
O      79.12585053      80.85477953      90.24273847
H      78.71389020      80.65446854      88.48529300
C      80.49968156      84.25628689      93.06032041
H      80.94187752      82.84277161      94.46438706
C      80.85872956      86.79418933      93.55353897
H      81.68076051      87.38189421      95.32610226
C      76.78825908      93.31563483      91.23295506
O      74.70011151      92.58997993      91.89813872
N      77.30037491      94.50805214      89.04276227
H      78.93120872      95.44724612      88.74418551
C      75.41442805      94.59497955      86.92815852
H      73.75713808      93.53484309      87.53476067
C      74.98357045      97.29350872      86.15526046
H      74.26547446      97.43712792      84.23151907
H      76.77503100      98.30829175      86.21573170
C      73.12407976      98.66733975      88.07333267
H      73.71367437      98.37443217      90.02353022
H      71.18333084      98.09286295      87.68971823
C      72.91243042     101.55673129      87.71617439
H      72.54582351     102.06506766      85.75463848
H      74.76058275     102.35608552      88.15648062
C      71.02648355     102.70379516      89.52275275
H      71.38364183     101.89310257      91.38224344
H      69.07628600     102.50915335      88.89158416
N      71.58962200     105.39854488      89.74007127
H      70.40287387     106.29994433      90.93437830
H      71.39686991     106.24514227      88.03931759
H      73.33194966     105.86530728      90.36935014
C      76.16086995      92.96225601      84.63969996
O      78.35295247      92.47281690      84.05199507
N      74.14831142      92.03251067      83.53043061
H      72.46267555      92.33864633      84.37324855
C      74.29759980      90.71537143      81.06055832
H      75.78292468      89.31508423      81.33456863
C      71.82583779      89.36421711      80.75442266
H      70.26870330      90.70781252      80.88292405
H      71.61040899      88.03762924      82.31533659
C      71.77481517      87.52929286      78.56611959
O      70.57294924      88.26817585      76.68206245
O      72.87274616      85.45248365      78.78910729
C      74.88530469      92.30274153      78.67950316
O      74.69066288      94.59497955      78.80233538
N      75.35395681      91.27284069      76.42505967
H      75.66009247      89.39634246      76.25120485
C      75.46734039      92.84131353      74.13282166
H      76.90542211      94.31530005      74.15549837
C      75.93788224      91.02717627      71.84814254
H      74.61507382      89.45492398      71.98987202
C      76.07961172      92.45580936      69.33669627
H      76.57472001      91.19347218      67.78523097
H      77.47989891      93.96570069      69.30835038
H      74.27114363      93.33264237      68.89072086
O      78.40964426      90.10498983      72.19774191
H      78.44932851      88.93902869      73.59047020
C      72.91998932      94.15656304      73.69818460
O      72.81038519      96.32218940      72.71930637
N      70.83373147      93.16445673      74.59391488
H      70.78081913      91.53362292      75.58413146
C      68.32606465      94.57986174      74.58824570
H      68.07851051      95.44157694      72.73253446
C      66.21713009      92.56730321      75.00587521
H      66.48736095      91.56574827      76.78599740
H      66.65554659      91.02906600      73.71141269
C      63.43545296      93.35909854      74.48053130
H      62.86475561      94.73670902      75.90349521
H      62.27894045      91.65834486      74.57879707
C      63.20301662      94.28128498      71.81034802
O      63.01971317      96.55840519      71.28311438
O      63.39387898      92.79784982      69.95652650
C      68.12386394      96.69824493      76.59891449
O      66.51381712      98.38766026      76.43450830
N      69.76225665      96.90233538      78.52832506
H      71.35907539      95.86487563      78.38848531
C      69.42399564      98.55773563      80.80166581
H      68.77581952     100.48525647      80.47474316
H      71.23057400      98.75048771      81.77487487
C      67.83095636      97.51838615      82.98429971
O      67.11286036      98.91111445      84.69639175
N      67.45679055      94.99938098      83.18461070
H      68.01425981      93.97136987      81.67660910
C      65.99225266      93.75594107      85.24252265
H      64.62409081      95.04095496      86.09100976
C      64.52582504      91.61110170      83.99530328
H      63.60552832      90.46025838      85.43338501
H      65.90721497      90.32041863      83.17705179
C      62.53594323      92.13644562      81.92794270
C      62.17500550      90.18624806      80.17805613
H      63.75292698      88.91068280      79.96073761
C      59.87898803      90.18624806      78.76076140
H      59.32529822      88.80296840      77.36614338
C      58.08563776      92.12321753      79.21429571
O      55.73103878      91.76227981      78.25242502
H      54.58775436      93.11910330      78.63037028
C      58.56373852      94.20191648      80.70906922
H      57.12376707      95.64566738      80.80355554
C      60.81440256      94.19813702      82.26620371
H      61.11108959      95.63999820      83.67971899
C      67.82906663      92.79973955      87.30799351
O      69.75847720      91.53362292      86.82422357
N      67.21868503      93.38177526      89.60023153
H      65.37053270      93.73137462      89.92715418
C      68.77204006      92.82241627      91.75640925
H      70.63342048      93.68224174      91.57499552
C      67.36419396      94.17735003      94.11667742
H      68.20512217      93.72003627      95.94215303
H      65.41021695      93.52728418      94.04864727
C      67.03538158      96.94957853      93.99573493
C      64.88865249      98.07396569      92.95071628
H      63.52049064      96.77761344      92.16836959
C      64.59196546     100.74414897      92.83922243
H      63.01404399     101.50948813      91.79609350
C      66.51570685     102.34663688      93.82754929
O      66.44200752     104.87698042      93.27385948
H      64.92644702     105.51381818      92.50663060
C      68.67944347     101.20146274      94.93870836
H      70.11374575     102.47702800      95.63601737
C      68.89298255      98.55773563      95.15791661
H      70.54460334      97.54673205      95.80420301
C      68.84951884      90.06152612      92.39324702
O      66.98246924      88.75005606      92.26852508
N      71.08695480      89.36988629      93.32299236
H      72.47401391      90.64923101      93.59889241
C      71.85607341      86.69781329      93.38913279
H      70.19500398      85.73216314      94.13179523
C      72.71778860      85.67169190      90.82666390
H      74.61507382      86.37278036      90.44115974
C      72.91998932      82.82576407      90.47706454
H      74.36374022      82.01885094      91.70538664
H      73.49635585      82.37978866      88.54954370
H      71.15309522      81.81665022      90.79831801
O      71.06805753      86.53151737      88.93882732
H      71.44789252      88.26628613      88.56655123
C      73.94233126      86.14979266      95.46405228
O      75.00435744      87.97337855      96.49584284
N      74.27870254      83.83487792      96.43537160
H      73.01069618      82.51584896      95.89302015
C      76.21756174      83.15457645      98.35722326
H      77.75768868      84.35833211      97.70715741
C      75.38041298      84.02763001     101.05953189
H      74.30326898      85.77184739     100.84599282
C      73.79871206      82.03963792     102.52784923
H      74.82861290      80.25951574     102.64879172
H      72.00725151      81.85822420     101.53007374
H      73.18077155      82.74261611     104.36466321
C      77.65753319      84.67391641     102.74705749
H      78.90097310      85.78696520     101.53952237
H      78.43987988      82.93536820     103.52373500
C      76.86951731      86.54096600     104.95425782
H      75.39364106      85.72649396     106.13722649
H      76.05504527      88.28518339     104.21915429
H      78.44743879      87.12867089     106.13911622
C      76.92053993      80.39935549      98.17769926
O      75.49568629      78.90080252      97.34621968
N      78.99734914      79.80787115      99.35121930
H      80.14252329      81.08721586     100.18647833
C      79.74190131      77.08099608      99.65924469
H      78.26035588      75.96983701     100.55875442
H      81.33305087      76.81832412     100.93858941
C      80.44298977      75.91125549      97.17425459
O      81.55792830      77.10934197      95.49428790
N      79.95733011      73.41681676      97.01551758
H      79.12585053      72.41148236      98.40824587
C      80.38818771      71.98440421      94.67603640
H      81.73556257      72.99918724      93.49117801
C      81.22155701      69.16871201      95.06343030
H      79.60584102      68.21251049      95.91380714
C      81.49934678      68.18983378      92.40269565
H      82.42720240      66.35113007      92.41214428
H      82.91286206      69.33689765      91.44082496
H      79.73434241      68.22384885      91.34066946
C      83.68387040      68.67549344      96.59788806
H      83.53080257      69.90570527      98.24383968
H      85.29769667      69.27264695      95.46594200
C      84.11850745      66.05066359      97.73172385
H      82.72955861      65.77665328      99.23216655
H      85.85705566      65.98641290      98.83532402
H      84.14685335      64.56911816      96.30120103
C      77.74635032      72.25841453      93.36078689
O      76.09661925      70.59356565      93.62156912
N      77.26824957      74.38435663      92.00018395
H      78.60617580      75.73551094      92.15703123
C      75.03081361      74.80765532      90.37312959
H      74.56783067      73.38847086      88.95394513
H      75.42954586      76.54620353      89.33944930
C      72.55527214      75.52575132      91.54475990
O      70.60507459      75.35000678      90.21628231
N      72.26803374      76.37612816      93.97683767
H      73.77603534      76.67848437      95.10878373
C      69.75280802      76.75596315      95.04264331
H      68.44511741      75.41425747      94.18470756
C      69.81705871      76.17959663      97.84132798
H      70.59562596      77.77452564      98.89012608
H      70.91876915      74.45616623      98.06809514
C      67.24136175      76.05298497      98.93547951
N      65.78438276      73.81743874      98.68414591
H      66.36452874      72.15636931      97.94526293
C      63.54316736      74.23506825      99.86144541
H      62.08240892      72.81588379      99.98616734
N      63.52427009      76.72950699     100.57576195
H      62.01248904      77.55153793     101.39968263
C      65.86375127      77.80854071     100.20915505
H      66.09807733      79.82487869     100.44159139
C      68.49614002      79.34110875      94.61178571
O      69.29549425      81.15146656      95.74562150
N      66.70090002      79.37134437      92.95449573
H      66.42499998      77.75940783      91.96994832
C      65.18344979      81.59177279      92.19293603
H      66.56483973      83.05820041      91.77152706
C      63.30884129      80.73950622      90.27675355
H      62.46791308      78.97639157      90.93059885
H      64.28582980      80.53541578      88.47584437
C      61.27549578      82.68214487      89.74951991
H      60.23803603      83.05442095      91.48995784
C      62.27516100      85.22949594      88.79709784
H      60.69723953      86.43703106      88.25285667
H      63.31828992      85.02918495      87.03398319
H      63.31451047      86.20459472      90.28431245
C      59.54639620      81.45949195      87.86357305
H      57.98359254      82.75206474      87.49318669
H      58.91711734      79.60944989      88.51552862
H      60.56117923      81.58610361      86.07589195
C      64.05150373      82.56120239      94.74028710
O      62.85152752      80.98895009      95.99317564
N      64.25181472      85.00083906      95.36767623
H      65.13809636      86.21026390      94.18470756
C      63.03105152      85.93625358      97.55786903
H      62.61531174      84.32809649      98.77863223
C      64.75637165      87.62566891      99.27185080
H      63.59607969      88.31352928     100.83087501
H      65.30817173      89.13556023      97.98305745
C      66.94845417      86.12522621     100.30553109
H      67.77615430      85.00272878      98.79186031
C      69.09707299      87.86188470     101.36566755
H      68.54527291      89.14311914     102.87933833
H      69.78871282      89.26973080     100.03152078
H      70.64097939      86.73938727     102.13856561
C      66.18311501      84.31864786     102.62611500
H      64.71479767      82.95993464     102.13856561
H      65.60107931      85.37122541     104.29852279
H      67.69300634      82.95048601     102.92847121
C      60.62165048      87.31764352      96.95693606
O      58.58830496      86.31419884      97.68259097
N      60.87865325      89.35098903      95.51129543
H      62.63042955      89.75161101      94.86122958
C      58.59775359      90.47537619      94.40580554
H      57.02550130      89.14878831      94.30376032
C      57.79839936      92.82052654      95.81743110