 %block lattice_cart
   137.614   0.000   0.000
   0.000 142.646   0.000
   0.000   0.000   160.855
 %endblock lattice_cart

 %block positions_abs
N      88.17574985      39.17970028      79.57523344
H      89.96721039      38.98883792      78.94217512
H      86.96443528      39.31387085      78.10691609
H      87.67497237      37.75673637      80.74119457
C      88.13228614      41.57776297      81.03032270
H      89.46643292      41.53996845      82.59879554
C      88.69731431      43.83787564      79.28421558
H      87.33104218      43.98338457      77.75164754
H      90.62294542      43.75094823      78.56234013
C      88.52534921      46.09420886      81.07378640
H      89.37761578      45.70681497      82.90871065
H      86.55814412      46.65167812      81.31378164
S      90.23177207      48.88722435      80.00609104
C      92.45597994      49.23871345      82.73296611
H      93.68997123      50.84498081      82.35502084
H      93.71831712      47.62677690      82.95217436
H      91.50166816      49.36532511      84.55466227
C      85.47722067      41.75728697      82.21140164
O      83.67253204      40.83699026      81.11158093
N      85.24667406      42.95726318      84.29576977
H      86.91152294      43.24261185      85.18583086
C      82.89963398      43.61866739      85.58645284
H      81.35761731      42.36388912      85.04599111
C      83.39663200      43.15568444      88.46072656
H      84.87250825      44.42747025      89.12591022
H      83.94276290      41.17525127      88.62891220
C      81.18754194      43.45048175      90.19738504
O      79.31482316      44.76384154      89.68526921
N      81.55792830      42.47538297      92.46316689
H      80.20866371      42.59254600      93.80865203
H      83.25490253      41.71382327      92.88835531
C      82.05303659      46.29640958      84.95150480
O      83.66686286      47.86488242      84.58678762
N      79.42442729      46.82364322      84.66237667
H      78.25657643      45.35532587      85.01953494
C      78.35862165      49.44847307      84.04632589
H      79.24112384      50.08342111      82.29454960
C      75.54103972      49.19336001      83.47562855
H      75.18388144      47.83464679      81.96951668
C      73.88563947      48.43935922      85.80755082
H      71.84851450      48.28440166      85.53354050
H      74.18610595      50.04373685      87.06232909
H      74.23145938      46.60443497      86.68249410
C      74.54515395      51.70669601      82.41738181
H      75.14041774      53.22414624      83.67593954
H      72.51558789      51.70858574      82.76509145
C      74.88152523      52.29818035      79.69995537
H      76.78447963      53.03706333      79.42972451
H      73.68910793      53.86287373      79.08957377
H      74.53570532      50.65789791      78.50375862
C      78.98412106      51.38166308      86.03809743
O      79.47733963      53.57752506      85.52031242
N      79.09750464      50.69380271      88.43993957
H      78.33972439      48.99115930      88.84812045
C      79.90252805      52.35865159      90.62635292
H      78.58538881      53.93846279      90.74162622
C      79.67387116      50.88844452      93.10945329
H      80.52235828      52.07897209      94.55887337
H      80.62251377      49.10076342      92.72583885
C      77.04148241      50.55207323      94.10911851
C      75.41820751      48.87021681      93.01307725
H      75.75079934      47.87055159      91.26130096
C      72.88786397      48.93446751      93.70849653
H      71.46490006      47.75905774      92.83733270
C      71.83150696      50.55018351      95.41869884
H      69.83406625      50.52561706      95.84199754
C      73.46423050      52.29251117      96.63190314
H      72.72534751      53.69657782      97.91880676
C      76.07583226      52.25471664      95.96860920
H      77.42509685      53.54539971      96.79252987
C      82.67664627      53.23359487      90.10856791
O      83.29269705      55.47670000      90.28998163
N      84.31692871      51.50449529      89.19960955
H      83.56103819      49.78484435      88.85756909
C      86.88884623      51.86165357      88.49852109
H      87.62206004      53.30351474      89.77597607
C      88.41196563      49.48059841      89.17693283
H      90.30169195      49.74327037      88.39458614
H      87.60505250      47.73071185      88.45316766
C      88.70298349      48.77384077      91.95672024
H      89.81603228      47.06363846      92.23828946
H      86.81325717      48.37699825      92.67481624
C      89.60438294      50.95836439      93.48550883
O      88.84660269      51.18135210      95.70026807
O      91.11805371      52.52872696      92.59355801
C      87.39529288      52.87643660      85.86424261
O      89.32848290      54.16145049      85.52598160
N      85.66241385      52.60620574      84.01986972
H      84.22244240      51.35709664      84.13892248
C      85.70398783      54.02539020      81.55377689
H      87.44064631      53.66445247      80.50875824
C      83.55536901      52.72714822      79.90593554
H      81.67320160      53.08997567      80.66182607
H      83.66119368      50.67490544      80.04199584
C      83.46088269      53.71736481      77.22630363
H      84.99911991      52.88399550      76.13782127
H      83.67820122      55.76582813      77.25275980
S      80.32960619      52.89533386      75.82979588
C      81.24612346      53.29217639      72.56812827
H      82.16075099      55.10820337      72.24498507
H      79.59072321      53.15233664      71.35114452
H      82.50090173      51.72370355      72.10325560
C      85.08793705      56.81651596      82.11691533
O      86.41263520      58.49837238      81.31945082
N      83.05459154      57.40989002      83.47373882
H      82.20232497      55.93779323      84.34112320
C      82.19098661      59.97424863      83.88758888
H      81.99256535      60.98336248      82.10179752
C      79.56993622      60.07062467      85.15748497
H      79.25624165      61.91499755      86.01542071
H      79.69654788      58.91033272      86.85634892
C      77.32305163      59.11442316      83.46429019
H      77.74446060      57.37965440      82.43627907
C      74.89286359      58.74592653      85.03843221
H      75.22167597      57.09997491      86.23273924
H      73.26391951      58.57396143      83.79121284
H      74.82861290      60.43534185      86.21573170
C      76.70889058      61.14398922      81.58401251
H      75.95300005      62.90143469      82.35124139
H      75.14419719      60.58274050      80.36702876
H      78.25090725      61.55594955      80.28010135
C      84.08449238      61.43311734      85.57700421
O      84.65707945      63.64409713      85.09890345
N      85.61517069      60.14999318      87.18327157
H      85.21076926      58.30939975      87.48562778
C      87.73355389      61.34052075      88.58544850
H      86.77357292      63.00914909      89.31488285
C      88.47810606      59.39410265      90.67926525
H      89.29257810      57.63098800      89.99329460
H      86.66774825      58.81584640      91.47484003
C      90.19586727      60.51848981      92.65780870
H      89.08659793      61.88854138      93.72172462
H      91.67930243      61.44823515      91.56932635
C      91.40340239      58.79883886      94.61367544
H      92.35771418      59.83062943      96.11978731
H      92.88683754      57.78027638      93.61023076
N      89.85949599      56.80706733      95.71349615
H      89.88028298      55.08174721      94.89713438
C      88.63684307      56.97903242      97.92069648
N      88.34015603      59.14087933      99.12823160
H      87.35749835      59.34685949     100.75150650
H      88.90518420      60.81328711      98.40068697
N      87.45009494      55.11387255      98.86744937
H      86.40696602      55.20835887     100.46237837
H      87.42363877      53.54539971      97.78274646
C      89.92374668      62.16066197      86.84501056
O      91.44308664      63.73480399      87.55176820
N      90.11460904      61.26871115      84.50552939
H      88.69542458      60.19345688      83.81766901
C      92.02701207      62.25136884      82.72918665
H      93.44052735      63.39276353      83.70050598
C      93.63705889      60.11975756      81.47251865
H      95.01844882      61.00225974      80.22718901
C      95.03923581      58.59663815      83.60601966
H      93.80146508      57.71224623      84.99685823
H      96.28645518      59.93078492      84.55655200
H      96.23921202      57.10942354      82.83312160
C      92.15173401      58.16200110      79.68294784
H      91.02167767      59.11253343      78.24675584
H      91.09915645      57.01871668      81.03599188
C      93.93941510      56.46124741      78.15415925
H      94.85782209      54.94946636      79.20673681
H      95.41907080      57.68956952      77.41905571
H      92.79046150      55.55606851      76.70284944
C      90.92719136      63.95968142      80.79599663
O      92.29724293      65.74925224      80.11569516
N      88.52345949      63.68000193      80.02498830
H      87.53702235      62.25892774      80.83379116
C      87.06459077      65.39776315      78.23541748
H      88.17386012      65.58106660      76.51009736
C      84.63440273      64.12219789      77.40771736
H      83.14907785      64.43967191      78.80044565
H      84.97077402      62.09074210      77.40582763
C      83.72166493      65.33729191      74.77721833
O      84.24133966      64.13353624      72.83646940
O      82.64452093      67.34985043      74.67328338
C      86.50901124      68.11329986      79.30311285
O      87.42174905      69.92176794      78.19951268
N      85.14462884      68.24180125      81.39881933
H      84.54936505      66.59962908      82.17171739
C      84.36039242      70.70789409      82.42116126
H      83.69331903      71.87763468      80.86213706
C      82.10027975      70.24491114      84.08978960
H      82.52357844      69.36996786      85.90581659
H      80.62251377      69.21123085      83.09579356
C      80.72077954      72.67131973      85.05732947
H      82.21933251      73.89208292      85.77164602
H      79.55859786      72.04015114      86.63525094
C      79.01624641      73.97712061      83.17516206
O      77.24746258      72.74690878      82.26053453
O      79.54725950      76.19376957      82.30399823
C      86.51090096      72.11385046      84.01231082
O      87.12695174      74.32860970      83.66082173
N      87.75434088      70.62474613      85.69416724
H      87.35749835      68.76336571      85.79432273
C      89.56280896      71.66220588      87.46106134
H      90.92341190      72.84895400      86.47273448
H      90.72499064      70.22034470      88.36435052
C      88.66140951      73.23823762      89.75896854
O      86.58460029      74.37018368      89.76463772
N      90.29035359      73.34973147      91.67515102
H      92.06102714      72.67131973      91.44649413
C      89.78957612      74.54403850      94.21683291
H      87.75812033      74.29837408      94.44548979
C      90.97632424      73.00391156      96.41080516
H      92.96242660      72.69021699      95.95727084
H      90.06736588      71.15575922      96.35033392
C      90.57381254      73.92987745      99.14145968
H      91.05002357      75.93109762      99.28129943
C      87.90173953      73.49335067     100.04474886
H      86.41830437      74.65931181      99.21704873
H      87.58426551      74.13585762     101.97604915
H      87.28946820      71.54504284      99.77073854
C      92.44464159      72.42943476     100.80063938
H      92.29913266      70.53970845      99.99561597
H      91.94386411      72.76391632     102.77162393
H      94.34003708      73.20989173     100.60788730
C      90.55680500      77.40886359      94.62312407
O      92.78101287      78.08349589      94.64769051
N      88.77857254      79.10772755      95.42625775
H      86.94364829      78.58238363      95.43759611
C      89.25289384      81.70043205      96.40891543
H      91.23710647      81.69476287      96.95315661
C      88.78046227      83.62984262      94.35100348
H      88.41952454      85.43642097      95.27318992
H      87.12506202      83.10638843      93.24551358
C      91.13884070      83.92086047      92.82599434
H      91.92118740      82.15963554      92.10411889
H      92.67707792      84.85249554      93.83132874
C      90.77790298      85.67074703      90.39391658
H      92.71109300      86.12617108      89.84400622
H      89.90673915      87.42252333      91.03075435
N      89.48155073      84.29313655      88.47584437
H      89.43241784      82.38451298      88.54198479
C      88.08504298      85.06792434      86.65414821
N      88.15685258      87.44520004      85.74518985
H      87.02679625      88.03101520      84.32411566
H      89.44375620      88.62249953      86.51808791
N      86.77735237      83.46165697      85.36724459
H      85.54336109      83.96621390      84.00097246
H      86.47877562      81.74767521      86.14770155
C      87.78835595      82.21443761      98.85800073
O      85.47344122      82.40529996      98.69737400
N      88.96943490      82.60561095     101.04630380
H      90.86483039      82.74167125     100.86866953
C      87.91874707      82.31270338     103.66924393
H      86.71499141      80.64218531     103.69381037
C      90.22421317      81.76279302     105.36999761
H      89.35115961      81.57759984     107.22759857
H      91.49977843      83.37850902     105.30196746
C      91.54702159      79.12473509     104.99961125
H      91.69064079      78.79970216     102.97193492
C      94.16240280      79.16441934     106.17880047
H      93.76367055      79.17953715     108.19891790
H      95.13561186      80.87462165     105.57030860
H      95.01277965      77.37484852     105.61377230
C      89.82359119      77.06493340     105.99360729
H      89.23777603      77.57704924     107.90034114
H      90.86860984      75.29048040     105.93691550
H      88.19464711      77.03847724     104.73504957
C      86.73388867      84.70131744     104.54229748
O      85.37139600      84.66163318     106.35265529
N      87.20065107      86.90662804     103.29696784
H      88.41763481      86.71576568     101.84187858
C      85.78902551      89.36894143     103.76373024
H      84.34149516      88.98532699     105.17724553
C      87.72977444      91.23788075     104.69725504
H      88.97132462      91.51189107     103.07586987
H      88.84282323      90.33081212     106.17313129
C      86.95687637      93.83814416     105.69125108
H      85.84382758      93.70397359     107.42035066
H      85.79280496      94.69796963     104.22671319
C      89.28879864      95.41606563     106.07297580
H      88.78613144      97.23398234     106.89878620
H      90.47176732      95.81857733     104.43458308
C      90.99900096      94.19152298     108.10632131
H      92.06669632      92.64761658     107.25783420
H      89.86327544      93.45452972     109.65589689
N      92.61093750      96.03589586     109.31574615
H      93.65973561      96.82391173     107.93057676
H      93.86571577      95.17040121     110.46847920
H      91.53568323      97.40027826     110.10943120
C      84.23567048      90.12483195     101.46960250
O      84.99345073      89.49744282      99.40602137
N      82.27602430      91.68007671     101.92880599
H      81.86595369      91.88983633     103.78262751
C      80.26724523      92.37171654     100.05608722
H      79.18821150      90.75222109      99.37956520
C      78.26980451      94.05546268     101.35243947
H      77.69154826      93.06146664     103.06264178
C      79.45466291      96.59714458     102.11777862
H      78.16775929      97.41539607     103.50105829
H      79.72300405      97.89160710     100.53796743
H      81.24990291      96.44218702     103.11555412
C      75.72623290      94.24065586      99.85955568
H      75.21600679      92.35848846      99.19437202
H      76.07205281      95.53889784      98.30053147
C      73.57950380      95.43685262     101.39401345
H      71.80694052      95.08347380     100.41135576
H      73.66454149      97.49287485     101.31275522
H      73.58328326      94.68663127     103.31208565
C      81.59572282      93.67184824      97.66747316
O      83.38718337      95.16284230      98.02652116
N      80.60361651      93.13138652      95.44893447
H      79.32616152      91.73109932      95.22216731
C      81.56548720      94.21986887      93.03008479
H      82.61050585      95.95274790      93.40991977
C      83.59694299      92.46242340      91.86223392
H      85.30147612      92.25833296      92.99984916
H      84.27157528      93.24288037      90.08022201
C      82.72766888      89.83759355      91.41814824
C      81.80926190      89.21398387      89.04465199
H      81.48233924      90.77678753      87.77475591
C      81.53903103      86.72143486      88.33411490
H      81.16864468      86.16018615      86.40659406
C      82.01335234      84.76556813      90.20305422
O      81.95477082      82.36372599      89.43015616
H      81.61084063      82.12751020      87.66326206
C      82.88451617      85.45909769      92.73528748
H      83.40797036      83.96054472      94.01463219
C      83.11695251      88.08392754      93.27196975
H      83.89740947      88.73021393      95.04264331
C      79.38096358      94.38427506      91.19893999
O      77.39486123      93.17485022      91.54287018
N      79.54914923      96.00754997      89.14858694
H      81.22533647      96.91083914      88.99929856
C      77.75201950      96.05290340      87.05099073
H      76.04370692      95.13827586      87.74452029
C      77.16053517      98.75143257      86.29698993
H      75.48434793      98.60592365      85.10646235
H      78.77058199      99.31646074      85.14425688
C      76.59739673     100.80556507      88.43049094
H      78.45688742     101.28366583      89.17315338
H      75.39553079     100.10636634      89.95172062
C      75.46923012     103.13937707      87.17382294
H      75.72245344     104.70407046      88.49096218
H      73.44911269     102.84835922      86.88469482
C      76.84495087     103.86125252      84.75308353
H      77.16431462     102.36269956      83.37736278
H      78.72900801     104.38092726      85.40314939
N      75.76591715     106.15915972      83.53798951
H      76.84684060     106.73363652      82.07345162
H      75.59017260     107.72763256      84.61135406
H      74.11807580     105.72452267      82.67816404
C      78.14886203      94.17262572      84.81922396
O      80.30126030      93.67373797      84.13136358
N      76.20811311      93.19752694      83.67404981
H      74.52625669      93.83247498      84.31655676
C      76.06260418      91.60448766      81.36480426
H      77.54981879      90.18719292      81.52543099
C      73.41320789      90.44608543      81.27031794
H      72.24157757      92.08825759      80.85835760
H      72.99935783      89.74688669      83.16193398
C      73.09951332      88.33715086      79.32767929
O      74.21067239      86.21498821      79.80389032
O      71.95811863      88.93619410      77.32078995
C      76.58038919      93.24099064      78.97430047
O      76.37818847      95.55968483      79.06122788
N      77.17376325      91.92574113      76.99575702
H      77.29848519      90.03034564      77.16394266
C      77.60084140      93.01989267      74.40872170
H      78.87640666      94.63749839      74.32557374
C      78.77814089      91.10937936      72.46041387
H      78.87451693      92.19597199      70.71241703
C      81.35950703      90.43096762      73.24465029
H      81.42375773      89.87349835      75.22697319
H      82.65774901      92.00321991      72.95741189
H      81.77524682      88.65084543      72.29411795
O      77.38919205      88.76611873      72.19396246
H      78.18287710      87.91763162      70.79934444
C      75.21789652      94.34270108      73.30323180
O      75.47867875      95.80723898      71.48720482
N      72.85006945      93.94018938      74.28022031
H      72.54015433      92.42273915      75.39515883
C      70.73357598      95.43496289      73.83235517
H      71.08317534      96.42706921      72.05979189
C      68.44889686      93.69452496      73.67928734
H      67.88575842      93.00855431      75.53877803
H      68.78526815      92.16384665      72.34136111
C      66.12642323      94.97575940      72.49064949
H      65.17400116      96.10770546      73.92306203
H      64.56172984      93.76444483      71.91806242
C      66.69334112      96.57824731      70.15116831
O      67.22624394      95.47842660      68.21041939
O      66.74625346      98.94418466      70.20597038
C      70.07028204      97.33980702      76.07357058
O      68.42999960      98.86103670      75.88648767
N      71.60662953      97.36248373      78.17872569
H      73.07116743      96.14549999      78.30533735
C      71.87308094      99.41472651      80.10246708
H      70.76948078     101.00398634      79.39192998
H      73.80627096      99.92684234      80.59379592
C      70.45578621      98.71363805      82.51564758
O      70.55783143     100.11770470      84.39781499
N      69.08195518      96.50265826      82.70462021
H      69.12919834      95.29701287      81.22496451
C      67.88008924      95.71653211      85.02709385
H      66.49491986      97.12248849      85.61668846
C      66.32484449      93.37138176      84.47340404
H      65.55572588      92.77611797      86.28943103
H      67.78371320      92.03723498      83.89514779
C      64.41811064      93.46775780      82.30210851
C      64.62975999      92.25644323      80.04955474
H      65.96579649      90.75411082      79.70184510
C      63.08774331      92.83092003      77.88392839
H      63.27104677      91.87093907      76.09435757
C      61.21691426      94.70552854      78.18628460
O      59.81662707      95.16851148      76.11136510
H      58.54484126      96.44974592      76.30789664
C      60.89188134      95.91495338      80.48986097
H      59.47458660      97.36248373      80.74119457
C      62.46980281      95.23843136      82.53265512
H      62.21091030      96.09636710      84.36568964
C      69.79060255      95.20063683      87.24752227
O      72.02992823      94.50899700      86.73540644
N      68.86274693      95.25921835      89.50196576
H      67.12041927      95.98676298      89.78353498
C      70.28571084      94.33703191      91.68082020
H      72.16409880      95.17796011      91.59389279
C      69.10652162      95.63149443      93.97683767
H      70.07406149      94.95686214      95.66436327
H      67.09207337      95.21386491      94.08455207
C      69.71312377      98.48498116      94.02030137
C      67.69300634     100.23675745      93.82943902
H      65.84485400      99.44874158      93.47606020
C      68.29582903     102.76332153      93.74062188
H      66.80672470     104.15227037      93.87290272
C      70.82806229     103.59858057      93.93337396
O      71.38553155     106.14215218      93.65747392
H      69.95689846     107.22685509      93.38724306
C      72.80660574     101.88459880      94.19226647
H      74.74924439     102.49309067      94.35856238
C      72.20000360      99.32212992      94.10533906
H      73.76469698      98.01632904      94.00140411
C      70.55972116      91.46653764      92.27230453
O      68.64164895      90.09837579      92.38001893
N      72.89164343      90.64450669      92.53497649
H      74.42043201      91.78779111      92.59733746
C      73.67399012      87.83637339      92.24962782
H      72.23212894      86.39262249      92.53308676
C      74.79081837      87.25622741      89.56432673
H      76.58038919      88.24455427      89.30543422
C      75.23301433      84.42163794      89.29031641
H      73.50769420      83.41441382      89.79487334
H      76.86573786      83.70165222      90.31832753
H      75.34072873      84.14573790      87.25319145
O      72.91620987      88.04613301      87.76719700
H      72.30771800      89.64484147      88.36624024
C      75.65631302      87.12583629      94.41714390
O      77.12463037      88.87383313      95.33177143
N      75.84528565      84.68242017      95.31665362
H      74.46011627      83.43520081      94.90469329
C      77.73501197      83.87361731      97.16291623
H      79.45844236      84.89973870      96.70182301
C      76.93754746      84.84115718      99.85766595
H      75.98134595      86.65151499      99.62145016
C      75.07427732      82.91741580     101.13134149
H      76.00780212      81.09382990     101.34866002
H      73.31305239      82.84182674     100.06742557
H      74.47901353      83.66385769     102.95492738
C      79.36962523      85.44209015     101.47716140
H      80.50724047      86.63828691     100.24505985
H      79.95166093      83.52590767     101.95904161
C      78.92931900      86.77812665     104.09443235
H      80.71511036      86.91607667     105.11299483
H      77.54037016      85.91263200     105.34543117
H      78.20933327      88.65651461     103.65034666
C      78.47011550      81.02391003      97.22338747
O      77.06415912      79.37984814      96.37679009
N      80.63574186      80.51935310      98.40635615
H      81.96044000      81.87239714      98.62934385
C      81.73745230      77.90208216      98.82776511
H      80.49401238      76.75312856     100.00317488
H      83.45143406      78.13451850      99.94648309
C      82.18153798      76.59061210      96.39190790
O      83.80481288      77.32004646      94.93870836
N      81.07226863      74.41364739      95.88924070
H      80.03102944      73.66342604      97.29897653
C      81.04392274      73.07950061      93.45527321
H      82.84672164      73.42909998      92.52174841
C      81.38407348      70.23168306      94.05620617
H      79.65497390      69.59106584      94.98028234
C      81.70910640      68.74635817      91.58633388
H      81.53336186      66.72813047      91.95483051
H      83.62906834      69.17343632      90.96839338
H      80.28992194      69.38130622      90.23517957
C      83.79536425      69.74602339      95.76451876
H      83.70654712      70.57561325      97.64668617
H      85.45643368      70.47923720      94.78941998
C      84.22055267      66.87363940      96.38434899
H      82.42153322      65.90420980      96.64513122
H      85.30147612      66.93789009      98.13612528
H      85.34305010      66.15554340      94.81587615
C      78.88207584      74.05459939      91.76585788
O      76.96400363      72.84706427      91.37090508
N      79.09750464      76.48478743      91.21405780
H      80.72077954      77.18965534      91.93404352
C      77.55737769      77.97389176      89.33755957
H      77.98823529      77.17453753      87.48940724
H      78.25279698      79.91086123      89.28842669
C      74.69633205      77.87940545      89.87235212
O      73.07305715      77.94932532      88.25852584
N      74.06705319      77.75657323      92.30254015
H      75.49568629      77.58460814      93.55542870
C      71.48568705      77.62807185      93.34755881
H      70.36885880      76.31282233      92.22317165
C      71.41009800      76.76068747      96.13679484
H      72.73290642      78.02491437      97.08165800
H      72.29448991      74.90308650      96.24639897
C      68.81172432      76.84950460      97.42180874
N      66.93144663      75.05993379      97.64290672
H      67.11852954      73.27036297      97.00984840
C      64.91510866      76.12573943      98.79375004
H      63.11230976      75.21678107      99.08476789
N      65.45557038      78.53514048      99.45326452
H      64.39921338      79.87117698     100.31309000
C      67.90654541      78.86773231      98.64635139
H      69.03093257      80.56659626      98.74839661
C      70.29138002      80.28313732      93.18126289
O      70.98868903      81.91208140      94.69493367
N      68.51881674      80.61761887      91.46350167
H      67.86686116      79.10394810      90.50541043
C      67.03349186      82.93442333      91.26508041
H      68.27315232      84.54635988      90.95516529
C      65.36675325      82.84560620      88.87079717
H      64.39165447      81.02957921      88.85756909
H      66.60830344      82.78702468      87.22862500
C      63.42600432      84.95643049      88.72150879
H      62.90632959      85.72176964      90.56210222
C      64.48614079      87.24866851      87.30043460
H      65.48013683      86.64962526      85.59968092
H      65.91099443      88.25400290      88.39458614
H      63.02916180      88.67541187      87.00752703
C      61.01660327      84.10038447      87.38925174
H      59.99615107      85.62539360      86.45005776
H      59.67867705      83.50890013      88.84056155
H      61.41533553      82.60183150      86.03620770
C      65.46501902      83.53913575      93.66692255
O      64.23102773      81.83838207      94.66280832
N      65.51982108      86.02223613      94.39635691
H      66.63853906      87.26000686      93.47039102
C      64.13654142      86.86694379      96.73205863
H      63.98158386      85.15863120      97.87345333
C      65.77682386      88.66785297      98.28163421
H      64.68078260      89.30847019      99.90112966
H      66.13209240      90.39506282      97.21582857
C      68.11063585      87.24488905      99.06965008
H      69.02526339      86.18853204      97.55597930
C      70.11185602      88.91540711     100.36222288
H      69.34462714      90.02656619     101.91746764
H      71.20411783      90.09081688      99.07153981
H      71.43088499      87.72676926     101.40535180
C      67.39065013      85.52901756     101.38834427
H      69.04227093      84.50856535     102.07620465
H      65.90910470      84.25345230     100.74583732
H      66.69712057      86.59860265     103.00783972
C      61.60619788      87.99322067      95.92136604
O      59.56151401      87.46220758      96.84355248
N      61.50793212      89.60704694      94.02030137
H      63.18033990      90.08703743      93.23606495
C      59.08152353      90.50844640      93.03008479
H      57.73414867      88.95320164      92.92992929
C      57.96091583      92.38494462      94.97650289