 %block lattice_cart
   137.614   0.000   0.000
   0.000 142.646   0.000
   0.000   0.000   160.855
 %endblock lattice_cart

 %block positions_abs
N      85.64918576      39.85433258      79.06689705
H      84.42086367      40.41558129      77.71763246
H      84.77991166      38.59388512      80.20451230
H      87.25167368      39.18159001      78.27699146
C      86.19531667      42.10499662      80.70717949
H      87.54080181      41.45493077      82.12636396
C      87.29702711      44.32920449      79.07823541
H      86.14996324      44.54463329      77.38126118
H      89.21509932      43.80008111      78.54155314
C      87.31403464      46.80663569      80.54655275
H      88.16063203      46.39467534      82.37769755
H      85.36005764      47.44347346      80.70906922
S      88.93164038      49.43902444      78.96107238
C      92.33503746      48.70014144      79.31256147
H      92.83014575      47.69291732      81.04166105
H      93.53123422      50.33097525      78.91760867
H      92.77156423      47.17891176      77.99542223
C      83.85205605      42.92135839      82.13392287
O      81.86217423      43.42591531      81.03599187
N      83.96354989      43.06119813      84.70017119
H      85.71532619      43.09521321      85.45417199
C      81.87540232      43.45426120      86.31777691
H      80.37306989      42.15412951      85.76975628
C      82.62940312      42.88923304      89.07488761
H      84.37739995      43.86244208      89.56810617
H      82.76546341      40.90124096      89.59267261
C      80.62818295      43.92102361      90.75296457
O      80.93053916      45.94303075      91.83388802
N      78.64774977      42.41491174      91.02886462
H      77.58572359      42.66624533      92.59544773
H      78.53058674      40.67447379      90.25029738
C      80.89652409      46.20192327      85.81510971
O      82.44798940      47.86488241      85.28031717
N      78.37751891      46.61199387      86.17226799
H      77.23423450      45.26272929      86.88658453
C      77.20588860      49.09509424      85.51653296
H      77.81249074      49.38611210      83.57011485
C      74.20500322      48.82864283      85.72440285
H      73.73446136      47.38867138      84.32978483
C      73.37352363      47.70425569      88.40025531
H      73.92154426      45.72382251      88.53820534
H      71.33828840      47.91779476      88.62324302
H      74.32216625      48.69636200      89.93849253
C      72.69322217      51.19458019      85.28787607
H      73.08439552      52.56274203      86.77698041
H      70.75814242      50.49160199      85.22362538
C      73.30738321      52.29440089      82.76509146
H      71.91465493      53.76460796      82.39092564
H      73.14486676      50.80151711      81.35346589
H      75.17065336      53.15800583      82.58745717
C      78.13941339      51.32875074      87.17571266
O      78.61751416      53.37154489      86.12502483
N      78.74979500      50.87710617      89.54353973
H      78.36240111      49.13099904      90.21250285
C      80.06504452      52.77250165      91.03075434
H      79.05026148      54.56207247      90.94193721
C      80.37118018      51.89566865      93.83888764
H      81.44643444      53.32430174      94.86122957
H      81.57493583      50.22326086      93.88613080
C      77.97689694      51.48181858      95.22972621
C      76.56905084      49.28217715      94.97839261
H      77.25880094      47.72126321      93.85967463
C      74.16720868      49.18202165      96.15380237
H      72.92943795      47.57953375      95.88735096
C      73.36407500      51.19080073      97.63345809
H      71.58017337      50.77884040      98.53674725
C      75.00057799      53.18446198      98.22683215
H      74.39964503      54.66411770      99.50050767
C      77.30226465      53.35453736      96.87567782
H      78.70444156      54.71703002      97.45960326
C      82.66152847      53.25060240      90.03486857
O      83.48166968      55.39166232      89.84211649
N      84.09394101      51.21158772      89.26952941
H      83.30214568      49.49760595      89.54920891
C      86.64696126      51.33630965      88.36435051
H      87.69953882      52.62321327      89.58133426
C      87.80725322      48.67557500      88.47773410
H      89.41352058      48.79084832      87.19272021
H      86.66585853      47.12788916      87.73885110
C      88.55936428      48.03306806      91.34633863
H      89.54769114      46.23782807      91.55231880
H      86.86239005      47.89133858      92.50285114
C      90.28279468      50.10798755      92.56332238
O      92.07803469      50.93001849      91.32933110
O      89.85571653      50.89411370      94.80642751
C      86.87183869      52.69502288      85.79999190
O      88.81447733      53.88744017      85.29732470
N      84.86872880      52.52683724      84.15970946
H      83.66308341      51.10009387      84.55088281
C      84.64007191      54.10286898      81.88825844
H      86.34271533      53.75704907      80.78276854
C      82.31570855      53.32052228      80.34435204
H      80.78503023      53.38477298      81.72007279
H      82.67286682      51.37221446      79.78688279
C      81.86217423      54.83797252      77.92928181
H      83.38529364      54.45624779      76.59135559
H      82.09083111      56.85997966      78.24864556
S      78.88585529      54.13310460      76.33057335
C      79.89685887      51.43835488      74.38793470
H      78.47200523      50.91868014      72.99520641
H      80.57527061      49.92468410      75.61058762
H      81.34816868      52.10542827      73.08591327
C      84.29992118      56.90911256      82.63281061
O      85.82682003      58.50782102      81.82589747
N      82.68609491      57.62531882      84.42616087
H      81.62973790      56.32329739      85.33700896
C      81.99445507      60.29172266      85.01386576
H      81.94154274      61.20635019      83.16760315
C      79.31671289      60.28227403      86.13447346
H      78.90664229      61.84885714      87.40436954
H      79.36395605      58.70246282      87.45350243
C      77.07738721      60.16322127      84.28254167
H      77.26069066      58.68545529      82.85768803
C      74.70200124      59.40355129      85.96061864
H      74.70200124      60.18022880      87.86924222
H      74.76436220      57.35319823      86.14581182
H      72.90676124      60.04416851      85.17827195
C      76.86951731      62.57073259      82.98429970
H      75.08183622      62.73702850      81.97518585
H      78.40586480      62.28349418      81.64448375
H      77.12840983      64.05416775      84.39025607
C      84.04291839      61.72035575      86.55777217
O      84.19976568      64.03149102      86.13069402
N      85.79091523      60.49392337      88.01853060
H      85.55847890      58.66844774      88.52119779
C      88.14929367      61.69578931      89.16181502
H      87.53702236      63.30016695      90.29565080
C      89.82926037      59.83440889      90.63202209
H      91.61316200      60.67155765      91.23295505
H      90.45475978      58.22625179      89.50763493
C      88.17386011      58.86308956      92.85245050
H      86.80569826      57.47603045      92.17970794
H      87.25356340      60.48636446      93.72361433
C      89.79713502      57.41366948      94.75351517
H      90.94986808      58.77994161      95.77963656
H      90.73443927      56.00393365      93.58188486
N      88.21354437      55.89055006      96.51474011
H      88.54802592      54.02727993      96.26529623
C      86.75845512      56.58030018      98.42525340
N      86.44665026      58.87631765      99.36633710
H      85.31659393      59.16544577     100.87811817
H      87.50678673      60.22180278      98.52540890
N      85.51690493      54.86820814      99.74806182
H      84.36228214      55.32363218     101.19748191
H      85.70965700      53.02761471      99.28318916
C      89.84248845      62.97702374      87.34578803
O      91.33348251      64.63242399      88.23395939
N      89.76878913      62.20034623      84.99874795
H      88.79746980      60.56951242      84.81733422
C      91.62261065      63.09229704      83.17516206
H      92.79802040      64.56628357      84.00475191
C      93.31958486      60.85864055      82.31155714
H      94.48365627      61.59185435      80.77898910
C      95.13939131      59.99125616      84.40348416
H      96.80801965      59.46213280      83.32067098
H      94.70853371      58.47380594      85.72629258
H      95.69308112      61.63153861      85.52220214
C      91.69630997      58.68545529      81.16260354
H      90.26956660      59.42811773      79.87381019
H      90.62861460      57.91444696      82.74619418
C      93.20431157      56.57085154      79.86814101
H      94.56869396      57.46280237      78.60958328
H      91.93819494      55.26127120      78.90816005
H      94.21720487      55.51638426      81.31756110
C      90.31680976      64.32250887      80.75253292
O      91.46009417      65.77948787      79.43350396
N      87.81859157      64.07495474      80.65615689
H      87.04758323      62.75403603      81.80133103
C      86.32759752      65.48658029      78.79288674
H      87.32915246      65.54705153      76.99386730
C      84.17897870      63.61386151      78.21652022
H      82.99978948      63.21134980      79.85491292
H      84.95754594      61.84318796      77.50976257
C      82.47255584      64.55872466      76.16616716
O      83.46466215      65.07650967      74.03833533
O      80.20866372      64.77037402      76.63103983
C      85.27313022      67.98101902      79.69995538
O      85.47155149      69.90476041      78.41494147
N      84.69109453      68.25691907      82.13014340
H      84.47944517      66.68088732      83.18650041
C      83.92386565      70.74001944      83.35846551
H      83.49867722      72.14408608      81.91282488
C      81.50501597      70.53970845      84.99685822
H      81.90374822      69.27548155      86.57288997
H      80.02158081      69.67232406      83.86302243
C      80.26535549      72.90186634      86.10990702
H      81.55036939      74.01113568      87.27775788
H      78.84995050      72.24802104      87.45728189
C      79.17687315      74.50057480      84.12569439
O      80.50724046      76.13707779      83.07500656
O      76.91487075      74.33427889      83.65893200
C      86.00256458      72.03259224      84.92315890
O      86.60916674      74.25491038      84.60568487
N      87.01923734      70.62096668      86.76942150
H      85.92697553      69.12808290      87.24185309
C      88.95053763      71.49779969      88.55899232
H      90.19775700      72.74690879      87.49885586
H      90.24311044      69.97279056      89.05599034
C      87.89040117      72.87729990      90.79831800
O      85.73800291      73.89775211      90.66981662
N      89.06392121      72.71478344      92.97717244
H      90.63239405      71.63385999      92.82977379
C      88.09449162      73.72956647      95.32043307
H      86.03657965      73.82405277      95.22027757
C      89.03557531      72.03826142      97.59188410
H      91.08592837      71.85684769      97.49928751
H      88.04535874      70.24491115      97.37456557
C      88.72188076      72.91131498     100.35844342
H      89.64973636      74.74057004     100.54741605
C      85.84382758      73.38185682     100.96315585
H      85.20510008      74.68765771      99.50428713
H      85.42619806      74.39286039     102.71115269
H      84.91408222      71.54693257     100.88378733
C      89.87272408      71.01214003     102.26895672
H      89.60249322      69.09784728     101.55841963
H      88.83715406      71.24268663     104.03396111
H      91.88528260      71.07261127     102.70548351
C      88.92786091      76.54714840      95.82498999
O      91.16340715      77.19532453      95.95349138
N      87.16285655      78.31026304      96.35033391
H      85.33360147      78.15152604      95.83065917
C      87.56158880      80.81604014      97.46716216
H      89.56469868      80.96910797      97.92636565
C      86.97388391      82.86828292      95.69459888
H      86.99656063      84.77690648      96.46560721
H      85.10683431      82.72655345      94.83477342
C      88.83715406      83.03268911      93.41747867
H      89.45698429      81.15430115      92.83544297
H      90.51712074      84.08148721      93.97494794
C      87.65985456      84.87139280      91.42759686
H      89.15273834      85.95231625      90.51107960
H      86.79247019      86.43419646      92.45182853
N      86.05358720      83.52401794      89.74385073
H      85.44320559      81.78735947      90.24840765
C      85.57548643      83.79613853      87.31933186
N      86.38995848      85.58948881      85.88125014
H      86.18775776      85.57248127      83.98585465
H      87.49733810      86.96520957      86.60690504
N      84.26968555      82.06703896      86.26675430
H      83.76890808      82.21254789      84.43183005
H      83.64796559      80.66108259      87.40059009
C      86.16130159      81.16374977      99.99183652
O      83.90685810      81.03524840     100.01073378
N      87.58615524      81.75712385     101.91368817
H      89.42674866      81.91019168     101.43369769
C      86.63940235      81.70988069     104.56875365
H      85.02746580      80.44565379     104.77095436
C      88.78046227      80.52502229     106.25438952
H      88.26645670      81.12028608     108.15923365
H      90.61160706      81.25256692     105.65345655
C      88.69920404      77.59216705     106.26761760
H      88.93919927      77.15186082     104.27017689
C      91.03112630      76.69454705     107.68113288
H      92.79613069      77.52602663     107.01783896
H      91.18608387      74.64230428     107.75294248
H      90.93097081      77.38807661     109.61810235
C      86.49578315      76.27880726     107.56585958
H      86.60538727      74.27758710     107.09720746
H      84.70054315      76.86840187     106.74760808
H      86.42019411      76.58872238     109.59920510
C      85.75878990      84.33471053     105.56085996
O      84.33015679      84.46699138     107.33720270
N      86.24633929      86.50222661     104.25505908
H      87.36316754      86.40396085     102.70926295
C      85.11250349      88.98343727     104.87488931
H      84.08638211      88.87572287     106.65690122
C      87.19120244      90.85426632     105.44936612
H      88.27968480      91.35126434     103.77128914
H      88.57826156      90.02656619     106.72682109
C      86.55247495      93.30713107     106.83453549
H      86.03657965      92.72320563     108.74126934
H      84.97644320      94.27278122     105.92746686
C      88.85794104      94.99843612     106.74571837
H      89.31714454      94.97386968     104.73882901
H      90.50956185      94.13483120     107.62255138
C      88.35149440      97.68373720     107.71325823
H      87.00411954      98.52277570     106.39800872
H      90.11082960      98.74576339     107.56774930
N      87.38773398      97.80656941     110.33619835
H      85.54336109      97.31524058     110.24171204
H      87.64095729      99.60180942     110.93146214
H      88.40629645      96.53100416     111.32452521
C      83.28891760      89.68452573     102.76028557
O      83.88796085      89.44075104     100.55308523
N      81.12140152      90.79001562     103.37066717
H      80.90030355      91.20764514     105.21881950
C      78.96711353      91.62149520     101.75684089
H      78.11295723      89.86782917     101.09354695
C      76.99234953      92.94808307     103.38956443
H      76.59928645      91.77267330     105.03362633
C      77.72178389      95.61826635     104.30419197
H      77.66509210      96.94296449     102.72627049
H      79.68331979      95.49165469     104.92024274
H      76.55393302      96.16250753     105.91045933
C      74.54893341      93.07469474     101.90234983
H      74.15776006      91.19063759     101.16535656
H      74.77003139      94.31246547     100.27151602
C      72.12630426      93.79090101     103.29885756
H      72.06961248      92.92540636     105.16779689
H      70.59184651      93.01800295     102.16313205
H      71.99402342      95.80534926     103.69758982
C      79.70788623      93.06335637      99.41924944
O      81.24990290      94.81513267      99.41735972
N      78.47200523      92.31502476      97.24606418
H      77.11896118      90.97142935      97.34055050
C      79.25624164      93.13705570      94.71005148
H      80.16142056      94.98520803      94.74784600
C      81.33683031      91.29835200      93.65558420
H      82.80703740      91.11315882      95.08610701
H      82.17397908      92.26400215      92.03986819
C      80.63952130      88.69052969      92.80142790
C      79.99890408      88.18975221      90.21628230
H      80.39952607      89.59570858      88.79142866
C      79.30159507      85.78224089      89.34889793
H      78.94443681      85.40618536      87.37602365
C      79.40175057      83.74889538      91.12902012
O      78.83294295      81.37728886      90.28431244
H      78.40019563      81.29036145      88.52497725
C      80.20110480      84.15707626      93.57810541
H      80.42598223      82.49600683      94.74217683
C      80.52046856      86.66852253      94.43415143
H      81.17242412      86.90095887      96.35411337
C      76.95455499      93.49043452      92.87323749
O      74.80215673      93.60570783      93.75384997
N      77.48934754      93.92885103      90.35801177
H      79.28647727      93.77956264      89.73251236
C      75.41442806      94.21986888      88.43238066
H      73.78170452      93.24288037      89.22228626
C      75.02325470      97.09414260      87.91270592
H      73.43966406      97.16406248      86.59934613
H      76.76369264      97.80845915      87.06988800
C      73.90264701      98.69096133      90.11801653
H      75.31049311      98.55112159      91.61467977
H      72.10362756      97.95774753      90.80209745
C      73.39431063     101.47830765      89.40747944
H      72.46645501     102.15105021      91.11957148
H      71.96378781     101.58224260      87.92782373
C      75.97756649     102.74064483      89.02197528
H      77.08872557     101.53121999      87.78042508
H      77.02069543     102.74064483      90.79831800
N      75.59017260     105.39571030      88.08656074
H      74.34484296     105.57901374      86.65036874
H      77.34005917     106.00231244      87.61790862
H      74.89853278     106.59568650      89.39992053
C      76.02669937      92.78178716      85.91337549
O      78.24712780      92.52856383      85.16882332
N      74.03681757      91.80479865      84.65292804
H      72.45133720      92.40951107      85.52787131
C      73.77036617      90.36860664      82.33234412
H      75.40119996      89.10815919      82.37013865
C      71.19088974      88.95509137      82.30588796
H      69.60540937      90.23443608      82.01298037
H      70.86774654      87.88172683      84.03309780
C      71.38742128      87.07103423      80.05522391
O      69.59029155      87.20520481      78.52454561
O      73.31116267      85.81436624      79.80389032
C      74.33728405      91.93896922      79.91727389
O      74.62452246      94.30679629      79.96262732
N      74.29004090      90.77300809      77.71007357
H      74.44121900      88.87194342      77.67227904
C      74.49980052      92.13550076      75.38759993
H      76.03047883      93.48476534      75.65594106
C      75.18199172      90.31380458      73.25787836
H      73.50202502      89.52011954      72.37159673
C      76.62196317      91.57992121      71.13382599
H      78.53058674      92.14683912      71.66672881
H      75.62418768      93.13516598      70.22297792
H      77.04526186      90.20986964      69.65606001
O      76.89408375      88.43541664      74.10825521
H      78.52869702      89.21587360      74.21030043
C      71.92599329      93.42051464      74.71296763
O      71.95055973      95.10615052      73.15772287
N      69.97957518      92.82525086      76.13404182
H      70.05516424      91.11882800      76.98819812
C      67.57962277      94.24443532      76.12459318
H      67.41710629      94.77733814      74.14227028
C      65.31762037      92.37927545      76.58757613
H      65.17022171      91.84826236      78.57178876
H      65.66344027      90.62371970      75.56712392
C      62.82507135      93.22965229      75.46507870
H      62.52082542      95.12126833      76.22096922
H      61.36998209      91.85960071      75.96774591
C      62.91010904      93.47153726      72.62293032
O      63.05750769      91.54212670      71.21886367
O      62.87420425      95.61637663      71.68184662
C      67.50214399      96.60848293      77.89526675
O      66.22468900      98.54167296      77.40393790
N      68.88353391      96.40439250      79.92483280
H      70.17232727      94.99843612      79.93050198
C      69.25581001      98.41128183      81.80888993
H      68.66054622     100.22352937      81.03221242
H      71.27025825      98.48309144      82.23029890
C      67.83473582      97.78767216      84.26742386
O      68.25803450      99.08780386      86.20817279
N      66.44389725      95.79779035      84.15404030
H      66.11130542      94.80568403      82.55722155
C      65.36108407      94.66962374      86.40848379
H      64.14032088      96.10581574      87.24185309
C      63.91166398      92.27723023      85.82455835
H      63.19734744      91.52511915      87.60279081
H      65.24581077      90.79568479      85.30677334
C      61.80272943      92.33959119      83.87058134
C      61.03172109      90.03034564      83.00508670
H      61.86698011      88.32392277      83.74963886
C      59.36309275      89.80924767      80.90371104
H      58.91333788      88.05936109      79.95506842
C      58.37665561      91.94652813      79.75853688
O      56.77983689      91.44764038      77.79133179
H      56.02772581      92.90650909      77.01843374
C      58.78105704      94.24443532      80.95095419
H      57.65478016      95.82802597      80.33112395
C      60.53283333      94.46553330      82.86902639
H      61.08463342      96.19085343      83.80444092
C      67.42844465      94.05357297      88.31143817
O      69.51092306      93.41673520      87.51208395
N      66.88231375      94.20664079      90.77186183
H      65.13809636      94.79623541      91.28019821
C      68.60196469      93.19752695      92.80898681
H      70.50869854      93.74554758      92.24962781
C      67.91032487      94.37482644      95.38846322
H      69.18589012      93.49988316      96.74906617
H      65.92233279      93.99877090      95.77018793
C      68.50369893      97.06957616      95.71160642
C      66.45145616      98.77599902      95.99884482
H      64.52582503      98.09758728      96.03474963
C      66.97680006     101.33846790      96.45426887
H      65.30439227     102.49309068      96.64513121
C      69.52037168     102.18128583      96.69804355
O      69.93611147     104.63981976      97.12890115
H      68.39787426     105.57712402      97.34999913
C      71.47434870     100.37470748      96.58277025
H      73.35273664     101.00965552      97.06276073
C      71.00569656      97.82168723      96.05175715
H      72.48535226      96.41573086      96.12734620
C      68.58306744      90.25333335      93.22850605
O      66.61586234      89.04957769      92.82032516
N      70.80727530      89.30658047      93.92392532
H      72.13764263      90.65773478      94.15069248
C      71.57639392      86.69686843      93.97872739
H      69.84540460      85.66885731      94.40958500
C      72.78203931      85.85027104      91.44271467
H      74.05193539      84.25534203      91.74885034
C      70.93199724      85.07548325      89.45661232
H      69.74524912      86.66474308      88.90292252
H      69.83973543      83.43331108      90.05565556
H      72.09039946      84.54635988      87.83900660
O      74.14075252      87.73999735      90.36179122
H      75.21600679      87.25244796      88.98229102
C      73.53792982      86.18475260      96.03663934
O      74.84184099      87.87416792      96.83221412
N      73.61351888      83.86038923      96.94559770
H      72.51369816      82.54891917      96.10277976
C      75.46356094      83.10071926      98.85611101
H      77.18321188      84.22132696      98.69548426
C      74.08406073      83.46732616     101.38456481
H      73.88374974      85.48744359     101.73983336
C      71.41387744      82.32593147     101.57164771
H      70.24602659      83.32370696     100.19970641
H      70.49169101      83.02513020     103.27429112
H      71.25136098      80.28313732     101.35621891
C      75.81693975      82.55647808     103.53318362
H      76.07016308      80.52124284     103.33854181
H      74.96467319      83.01001239     105.35299007
C      78.39452644      83.82637416     103.82609120
H      79.36962522      84.15707626     102.04218957
H      79.73812186      82.68120001     104.88622768
H      78.26791478      85.63106278     104.80685916
C      76.21000284      80.38329282      98.31186983
O      74.81160536      78.81481998      97.21771829
N      78.34917301      79.61417420      99.20948982
H      79.46978072      80.87084221     100.10899955
C      79.31482317      77.01957997      99.15090831
H      77.96744831      75.67031539      99.92947555
H      80.92864944      77.02146971     100.43025302
C      79.88552051      75.92920790      96.59410861
O      81.36517621      76.99690326      95.07476865
N      78.91231146      73.68799249      96.00640372
H      78.02602981      72.78281358      97.43503682
C      79.18821150      72.22723405      93.63668692
H      80.88896518      73.02091910      92.79008955
C      79.74379103      69.32461443      94.17147947
H      78.26224561      68.48557595      95.33177143
C      80.30881920      67.95834231      91.66759211
H      80.36740073      65.92688652      92.00963257
H      82.14563319      68.62919514      91.01941598
H      78.86884775      68.58384172      90.33533506
C      82.24767840      68.96367670      95.77018793
H      82.07949276      69.80649464      97.64290671
H      83.78780535      70.05593852      94.94626727
C      83.13584976      66.21979409      96.30687020
H      84.48133491      66.17255094      97.86778415
H      84.36984105      65.20501106      95.00484877
H      81.34816868      65.20501106      96.42025378
C      76.79959744      72.80549029      92.12868534
O      75.12152048      71.14064142      91.76774760
N      76.53692549      75.30181875      91.59200305
H      77.80304212      76.60572991      92.17403876
C      74.59050738      76.23912301      89.88558020
H      74.42043201      74.77458512      88.44938819
H      75.29159584      77.82271366      88.76875194
C      71.91654464      76.97989573      90.77186183
O      70.31594646      77.69988145      89.32433149
N      71.42332609      77.10083821      93.24551358
H      72.82361328      76.72856213      94.48706377
C      68.95156407      77.11595602      94.51540966
H      67.62497620      75.88196473      93.53842117
C      69.38431138      76.08416545      97.31598406
H      70.78459858      77.21800124      98.31186983
H      70.11752520      74.15853433      97.34432995
C      67.01837405      76.22967438      98.73138907
N      65.47257792      74.05081994      99.06020144
H      65.92422251      72.30282310      98.43848149
C      63.29750293      74.71978306     100.27529546
H      61.65722049      73.50279931     100.29419273
N      63.36742280      77.21422179     100.68914553
H      61.87642874      78.36506510     101.00095038
C      65.64076357      78.21388701      99.78774608
H      66.09240816      80.19432019      99.60066317
C      67.85174335      79.83905164      94.45304869
O      68.64164894      81.77413138      95.58499475
N      65.79005195      79.93542767      93.03953341
H      65.32139982      78.41986718      91.97750722
C      64.19890238      82.19176090      92.83733270
H      65.30250255      83.72810838      92.02286066
C      62.06540138      81.47933407      91.12902012
H      60.85597653      80.09794414      92.06065519
H      62.87420425      80.81981959      89.35267737
C      60.11520383      83.42008300      89.96872815
H      59.46702769      82.48277875      88.25474638
C      57.84186306      84.08715639      91.63735648
H      56.14488884      84.95832022      90.85312006
H      58.58263579      85.24177916      93.16992452
H      57.04817801      82.41852806      92.54442511
C      60.96369094      85.96365462      88.91426087
H      59.74859692      86.49844717      87.33822912
H      62.90066040      86.13561971      88.23773886
H      60.77282858      87.47165622      90.30320971
C      63.18222963      83.25000763      95.31665363
O      62.06918083      81.81948481      96.86622920
N      63.37309199      85.74255663      95.62845846
H      64.33118322      86.85938488      94.40958500
C      62.22413839      86.92930476      97.84699715
H      61.44368143      85.64051142      99.25295354
C      64.36330857      88.62438927      99.20760010
H      63.52615981      90.15506758     100.29986191
H      65.51982108      89.45208939      97.71471631
C      66.15665885      86.97087873     100.84221336
H      66.87664458      85.48744359      99.60633235
C      68.37330782      88.66974270     101.73227445
H      69.67721897      87.50945074     102.82642599
H      67.69300634      90.15317786     102.99083217
H      69.45423127      89.35382362     100.11655846
C      64.93967510      85.76145390     103.22704796
H      63.29183375      84.63706674     102.71493213
H      64.40110311      87.36772127     104.40245773
H      66.39665408      84.63517702     104.14734468
C      60.00748943      88.54691048      96.88890591
O      57.80217881      88.05558165      97.58810465
N      60.59141485      90.56324847      95.42436802
H      62.37531649      91.22276294      95.26752073
C      58.74893170      92.64194741      95.15791661
H      56.90077936      91.77645276      94.88201657
C      58.47492139      94.09703667      97.64668616