 %block lattice_cart
   137.614   0.000   0.000
   0.000 142.646   0.000
   0.000   0.000   160.855
 %endblock lattice_cart

 %block positions_abs
N      93.37722152      43.59788040      80.79599663
H      92.71581731      42.17680621      79.70751427
H      92.91423858      42.91568921      82.51753730
H      95.23860194      43.90968525      80.50875823
C      92.08653845      46.07531160      80.46907398
H      92.97093036      47.57575429      81.56700498
C      92.19425285      46.87655555      77.69117630
H      91.59143016      45.34587724      76.45151584
H      94.22570864      47.09387408      77.43228379
C      90.97348965      49.42201689      77.24709061
H      88.97604894      49.24627234      77.72897083
H      91.18891845      50.16845878      75.33846704
S      92.12055352      51.99582414      79.34468682
C      95.22348413      52.57974957      77.97463526
H      96.45747541      51.04718152      78.58123739
H      95.67323899      54.43357108      78.75131276
H      95.21025605      52.35676186      75.92617193
C      89.36722229      45.78429374      80.98118981
O      88.22204814      43.87189072      79.97018623
N      88.08976730      47.40756864      82.34935167
H      89.14423458      48.70203118      83.27909701
C      85.50084225      47.19213984      82.96351272
H      84.50495648      46.06964242      81.54999743
C      85.20226549      45.93358213      85.50141515
H      85.88256696      43.99094347      85.45606173
H      83.24450903      45.59154166      86.04376661
C      86.26051223      47.28473643      87.85412442
O      86.79341505      49.49571622      87.73318194
N      86.40224170      45.78240401      89.92526445
H      87.13923496      46.76128225      91.38791262
H      86.03185534      43.90779552      89.87991103
C      84.26307151      49.84342587      82.71217911
O      85.57076212      51.74071109      82.46462497
N      81.75162524      50.11743617      83.07311684
H      80.75196002      48.49605100      82.97296134
C      80.51574424      52.56652148      83.37736277
H      80.90691758      53.66823193      81.68038854
C      77.61501435      52.30762898      83.48507717
H      77.04809645      50.96025411      82.03376737
C      76.72873270      51.12277058      86.04754605
H      77.36746020      49.16501412      86.04754605
H      74.66893102      51.03962263      86.08912004
H      77.48840268      52.23392965      87.60468055
C      75.93126820      54.66978687      83.12980863
H      76.04087233      55.92078568      84.76442189
H      73.95839393      54.22759091      82.73296611
C      76.74574024      56.27416451      80.91126994
H      78.72050424      56.84486186      81.05299941
H      75.55899212      57.95224147      80.77898909
H      76.90069780      55.33686026      79.08579432
C      81.60611632      54.55829302      85.36535487
O      81.97083350      56.72013992      84.82300341
N      82.46216234      53.59075314      87.53854012
H      82.27696916      51.69535765      87.66704150
C      83.45426865      55.04962185      89.63235687
H      82.00673830      56.44423987      90.08211174
C      83.74717623      53.62476822      92.08900109
H      84.42747770      55.01938623      93.44582457
H      85.13801480      52.11109744      91.96049970
C      81.37556971      52.61754409      93.23039578
C      79.85245030      54.21625255      94.76296382
H      80.41180929      56.13810421      95.16736524
C      77.37501910      53.46792093      95.60200230
H      76.15425591      54.72647865      96.64702095
C      76.62290803      51.07552743      94.91981110
H      74.72751254      50.54640405      95.46216255
C      78.16681443      49.42012716      93.57999514
H      77.32399649      47.60221046      93.19449098
C      80.57432575      50.17223825      92.70694159
H      81.77619169      48.88722434      91.66948185
C      86.02429644      56.32518712      88.81221565
O      86.52318418      58.42845250      89.50763493
N      87.58521037      54.81907524      87.71806412
H      87.35844322      52.93501812      87.52720177
C      89.89634565      55.84141718      86.55966190
H      90.95270266      56.94879681      87.93916210
C      91.51773083      53.69468810      85.90014741
H      93.09376258      54.52049849      84.86457738
H      90.67869235      52.28117280      84.65859721
C      92.86321597      52.39833583      88.25285666
H      91.25694860      51.78606452      89.38858218
H      93.91390380      53.95358060      89.10512324
C      94.70758885      50.27806292      87.51208396
O      96.60109461      49.75271901      88.86134853
O      94.26917234      48.91745997      85.59212202
C      89.57509218      57.55539894      84.29765950
O      90.90168005      59.41866909      84.07656152
N      87.70426313      57.05273175      82.72162775
H      86.65546503      55.51638426      83.14681616
C      87.15435277      58.46246758      80.38970547
H      88.69636944      58.29239220      79.03288198
C      84.94148326      57.07162901      79.15949364
H      83.30498027      57.18879204      80.40482328
H      85.26084701      55.03639377      79.17272174
C      84.30275577      58.26026687      76.47797202
H      85.85044162      57.65366472      75.26287799
H      84.11945231      60.29928155      76.70284944
S      81.38690807      56.98092214      75.29500333
C      80.98628609      58.10152985      72.12593232
H      81.16581009      60.13865481      71.88593707
H      79.01530154      57.65177499      71.72531033
H      82.19949038      57.00926804      70.86926432
C      86.48538966      61.10430496      80.92638776
O      87.69481450      62.89009633      79.95128898
N      84.93014490      61.55594955      82.89359285
H      84.28763796      60.02149178      83.83278682
C      84.09677560      64.03527048      83.67027035
H      83.84166255      65.10296584      81.92794270
C      81.55887316      64.00503486      84.97229179
H      81.59855741      65.77003923      86.03620771
H      81.56076289      62.47813600      86.35179199
C      79.34600365      64.00125540      83.05988876
H      79.64647013      62.66143944      81.52732072
C      76.83077793      63.17355527      84.19561427
H      75.44749826      62.82395591      82.71217911
H      76.34511826      64.67777743      85.51275351
H      77.21061291      61.42366872      85.21417676
C      78.89435906      66.45412015      81.70306526
H      80.38724285      66.73002020      80.31222669
H      78.70916588      67.97534984      83.07878602
H      77.34289376      66.30105233      80.35569040
C      86.13201084      65.40343232      85.20283839
O      86.28696840      67.76747995      84.96473288
N      87.89323576      64.11652870      86.35557145
H      87.83276452      62.20979485      86.37446872
C      90.06642102      65.36563779      87.63491616
H      89.46359833      67.14198054      88.48529300
C      91.26072805      63.40032244      89.46417124
H      92.72148649      62.35341406      88.46072656
H      89.94169909      62.03782976      90.26163573
C      92.88589268      64.48124588      91.43515577
H      91.63489386      65.35618917      92.81843543
H      94.28051070      65.82295156      90.73028787
C      94.36554838      62.56128395      93.09811494
H      95.40489786      63.95401225      94.20360482
H      95.49749445      61.11375360      92.16647986
N      92.67802279      60.94556796      94.72705902
H      91.55552536      61.79027561      96.01963181
C      91.91457336      58.53805664      94.30753978
N      92.80652418      57.19824067      92.45560799
H      92.26417272      55.40300068      92.09655998
H      93.75705651      58.13365520      91.08933587
N      90.35365942      57.57429622      95.87412288
H      89.92847100      55.71291580      95.81743109
H      89.95303744      58.62309432      97.41613956
C      91.97504460      66.08940297      85.59779119
O      93.46792839      67.89787106      85.96628782
N      92.05252338      65.04627405      83.26397920
H      90.95648212      63.53071354      82.88792366
C      93.70036472      66.15932285      81.24197205
H      95.45214101      66.83017570      82.09234889
C      94.49782923      64.25258901      79.23886215
H      92.78006801      63.53827245      78.35447024
C      96.05307398      65.46579329      77.12803787
H      97.86343179      66.01570365      77.94250991
H      95.07608548      67.10229629      76.34569117
H      96.31385621      64.06739583      75.63893352
C      96.07008152      62.13609553      80.53899386
H      95.06096767      61.49547831      82.21707083
H      98.03539688      62.66332918      80.84701925
C      96.04173562      59.83062942      78.81178400
H      94.11043533      59.18056357      78.51320724
H      97.06785701      58.25081823      79.64515331
H      96.97903987      60.26337675      77.02788237
C      92.43991727      68.55549582      80.16671777
O      93.60587841      70.59451051      80.06089310
N      89.97004498      68.28715467      79.76798553
H      89.38611955      66.47112770      79.85113348
C      88.30708582      70.26002895      78.38659559
H      89.28407433      70.67576874      76.61970149
C      85.65202035      69.61374256      77.92361264
H      84.52574347      71.33528322      78.01431951
H      84.89424010      68.27392660      79.29366422
C      85.18525796      68.51770129      75.20996565
O      86.39846225      69.20745140      73.36181332
O      83.32765699      67.18355451      74.84335874
C      88.39779269      72.73368070      79.84735402
O      89.04596881      74.74623922      78.82501210
N      87.87622822      72.68076835      82.33801331
H      87.23939046      71.02347839      83.03721204
C      87.29041307      74.95032966      83.96506766
H      87.63812271      76.59439156      82.77454009
C      84.62778869      74.94466048      85.04788084
H      84.31031467      76.65108335      86.15526045
H      84.35188865      73.19288418      86.09667895
C      82.46594179      74.99001392      83.02398396
H      80.60456137      74.70844469      83.86302245
H      82.86845350      73.35729038      81.83534610
C      82.19193148      77.44098894      81.54810771
O      83.50151181      79.27969264      82.34368248
O      81.00329362      77.34650262      79.51476220
C      88.99683593      75.18465572      86.28754130
O      89.38800928      77.25957521      87.22673528
N      90.17413542      73.24957597      87.01886538
H      89.84910250      71.52425586      86.27053377
C      92.10165626      73.39697462      89.08244651
H      93.42446468      74.93332213      88.71583961
H      93.15423382      71.63197025      89.24118352
C      90.93002595      73.76169180      91.71483528
O      88.56219888      73.42721026      91.98884559
N      92.43613782      74.51380289      93.64802529
H      94.28051070      74.98434474      93.50440610
C      91.29474313      74.87474060      96.11222840
H      89.25383871      74.62529674      95.97427838
C      92.20370148      72.72612179      97.82809990
H      94.26161344      72.71856288      97.91502730
H      91.41001643      71.14631060      96.76607370
C      91.24561024      72.81871838     100.56631333
H      92.47582207      74.23034394     101.42424906
C      88.42991803      73.51980683     100.93858940
H      87.22238292      72.35951489      99.74239264
H      88.15023854      75.52102701     100.53985715
H      87.87244877      73.25902461     102.90579450
C      91.77473361      70.42254542     101.93258545
H      90.38011559      69.11107535     101.17291546
H      91.39489862      70.74379889     103.93002616
H      93.68902636      69.72334668     101.63022924
C      91.64245277      77.59027732      97.15724705
O      93.87232982      78.24034316      97.52574369
N      89.73382919      79.19276524      97.52196424
H      87.97071454      78.60128090      97.09488609
C      89.67335795      81.66263753      98.68036646
H      91.63300414      81.98200127      99.22460764
C      88.78140713      83.47488506      96.70182302
H      88.12378237      85.20587436      97.60700192
H      86.98427741      82.81915002      95.94215303
C      90.72404578      83.88684540      94.64013160
H      91.30986094      81.97822181      94.13179522
H      92.38322548      84.92619486      95.28074882
C      89.51084149      85.11894695      92.35734221
H      90.96026157      86.21120876      91.38035372
H      87.89134604      86.25467246      92.93370874
N      88.61889067      83.10260898      90.49785152
H      88.28818856      81.36406077      91.21216807
C      87.86866932      83.49567205      88.19994432
N      88.23149677      85.68208540      87.18138185
H      86.94270343      86.15451696      85.85290424
H      89.26895652      86.93119449      88.18293679
N      86.56286844      81.92341975      86.96028387
H      86.64790612      82.19743007      85.07433700
H      86.21137934      80.28691677      87.87869086
C      88.18992279      81.92908894     101.12000313
O      85.95815602      81.23555938     101.03496545
N      89.37667092      82.62639795     103.19492263
H      91.10954995      83.40496519     103.01728834
C      88.09921593      82.33160064     105.71959698
H      86.33043210      81.30547925     105.48338119
C      89.93036073      81.06926347     107.56963903
H      89.20848528      81.26579500     109.48771124
H      91.75961580      82.00467799     107.40712257
C      90.26673201      78.13451850     106.86855058
H      90.90168005      77.97200204     104.91646329
C      92.35676931      76.78714364     108.39733917
H      91.91646308      76.23534356     110.33241890
H      94.14445041      77.80948557     108.36899327
H      92.63644881      75.10717695     107.24082666
C      87.84599260      76.63785526     107.42790956
H      88.41857968      74.66120154     107.41090203
H      86.40602115      77.16319918     106.05596826
H      87.13356578      77.17831699     109.28551053
C      87.11466852      84.85627500     106.55674573
O      86.19248208      84.82037020     108.63166523
N      87.25639799      86.92741504     105.14889963
H      88.34110090      86.81592117     103.58231652
C      86.14712865      89.29524210     105.57597778
H      84.82620996      89.29713183     107.15578898
C      88.34110090      91.13772526     106.15801348
H      89.85477167      91.28134446     104.76906464
H      89.27084624      90.53868202     107.89467196
C      87.33765623      93.84759279     106.69658548
H      85.79563955      93.87971814     108.06285761
H      86.68570065      94.67529291     104.92780165
C      89.45414970      95.67306841     107.69814042
H      90.30641626      94.75088197     109.33086396
H      88.45448448      97.42106525     108.14222611
C      91.41757534      96.15305890     105.58353669
H      90.88845197      97.60814816     104.22671320
H      91.61599660      94.38238534     104.55174611
N      93.94224969      96.66895418     106.41312654
H      94.23515727      98.46419418     106.98760333
H      95.39922868      96.38360551     105.21126059
H      94.38633537      95.61259716     107.94002539
C      84.60700170      90.12861141     103.28940894
O      85.03974903      89.21965305     101.12189285
N      82.77396718      91.77267330     103.70703846
H      82.73995211      92.73076454     105.35676953
C      81.01652171      92.61549124     101.65479568
H      79.77308179      91.11504855     100.98961202
C      79.18726664      94.59970387     102.62044582
H      80.10567363      96.07558012     103.72404600
C      77.81154588      96.08124930     100.57387223
H      79.17781801      96.89383161      99.26429189
H      76.55865734      97.55334609     101.28818878
H      76.62668748      94.72253608      99.57798647
C      77.32588622      93.35248449     104.36844267
H      78.49184735      92.28667886     105.69125109
H      76.24685249      91.90306442     103.37822607
C      75.43238045      94.99654639     105.83109083
H      76.44149431      96.65572608     106.51517176
H      74.71050500      93.86837978     107.39767395
H      73.87902542      95.64094306     104.64245297
C      82.57932537      93.71342223      99.50050769
O      84.05142217      95.50488277      99.78585635
N      82.09933489      92.70241865      97.27252036
H      80.83132853      91.27567527      97.25173337
C      83.37490015      93.19185776      94.98217206
H      84.43692634      94.91150871      95.38468377
C      85.11344836      90.91284783      94.07510343
H      86.59877324      90.49332859      95.43759611
H      86.13956974      91.74243768      92.49340251
C      83.96638448      88.56958719      93.19638070
C      83.21049396      88.37305566      90.69060361
H      83.54497552      89.94908741      89.43582534
C      82.09366571      86.19231149      89.72117402
H      81.56454234      86.20553958      87.75207919
C      82.10689379      83.90196321      91.28586739
O      81.28675257      81.53224641      90.46950563
H      80.61023055      81.51334915      88.78575948
C      82.78908499      84.14384818      93.85778491
H      82.45460343      82.52813218      95.05776112
C      83.65080019      86.53435196      94.82721451
H      84.20449000      86.76300885      96.77741206
C      81.46816630      93.95152773      92.83166353
O      79.23262007      93.21453448      92.76552310
N      82.38279383      95.63905333      91.09500504
H      84.22716671      96.08502875      91.29531604
C      81.26596558      96.27022193      88.66292727
H      79.25907624      96.68029254      88.90103279
C      82.40169110      98.83458053      87.95239019
H      82.47728015      99.11803948      85.91337549
H      84.36322701      98.84024971      88.58166905
C      80.96927855     101.14571581      89.13346913
H      82.03319447     102.86536675      88.75363413
H      80.52330314     100.87359523      91.12713038
C      78.33500007     101.52177135      87.76152783
H      77.21817182      99.79834095      87.91270593
H      78.79798302     101.88270908      85.78487411
C      76.84022656     103.80834019      88.68938345
H      76.37157443     103.61747783      90.68493444
H      75.06577355     103.80834019      87.64436480
N      78.03642331     106.24041795      88.10167856
H      79.87890647     106.55033307      88.49285191
H      77.02541974     107.77109626      88.62891221
H      77.89847329     106.59568650      86.23084951
C      81.53430672      94.09325721      86.81666466
O      83.66402827      93.73042976      85.94172138
N      79.48395367      92.83469949      85.98140563
H      77.74918491      92.98398787      86.76375233
C      79.58977834      91.00922387      83.79877175
H      81.22061215      89.77334286      84.02553890
C      77.51674858      89.14784345      84.32222594
H      75.62702226      89.95853604      84.22773961
H      77.64902942      88.32770223      86.20628307
C      77.57533009      86.87072325      82.44383798
O      79.68237493      85.91452173      81.79944130
O      75.51552841      86.19987040      81.47062892
C      79.67670575      92.46998231      81.18150081
O      79.65024958      94.77355868      81.11536039
N      79.65402904      91.18118897      79.04044089
H      79.62757287      89.27256539      79.05744842
C      80.26819009      92.32636310      76.45907475
H      82.09933489      93.26744681      76.54600215
C      80.50818533      90.35537857      74.31801483
H      80.51952369      91.26055747      72.46797277
C      82.73428293      88.63950707      74.41439088
H      83.21238368      88.02534601      76.32112473
H      84.33866057      89.73176888      73.72275104
H      82.43570617      86.95387120      73.27110645
O      78.38413295      88.76044956      74.28399977
H      78.25185211      88.18219330      72.57190772
C      78.54286997      94.42206959      75.46129926
O      79.40647489      96.29289864      74.29344840
N      76.10323330      94.01766816      75.60113900
H      75.53442567      92.33959119      76.31545554
C      73.98107065      95.77322391      75.15894305
H      74.34011864      96.80312475      73.41094620
C      71.72662715      94.06491132      75.01343411
H      71.45072711      93.33736669      76.92016796
H      72.20472791      92.60226315      73.64527226
C      69.17549663      95.28000533      74.14982919
H      68.69550615      96.70296925      75.55956503
H      67.65426695      93.89672567      74.22919770
C      69.03565688      96.16817671      71.45318975
O      69.06022333      94.59025523      69.71275181
O      68.66338080      98.58702639      71.17728970
C      73.70895006      97.84247422      77.23197280
O      72.40881835      99.73031081      76.67072409
N      75.06766328      97.69318584      79.35602518
H      76.44905321      96.37793633      79.31445121
C      75.27742290      99.46763885      81.37992206
H      74.59334197     101.23264322      80.56356030
H      77.31076841      99.66228066      81.64448375
C      73.80532610      98.80623464      83.75908749
O      73.22518012     100.53533422      85.14236715
N      73.11557599      96.37604660      84.21829099
H      73.66548635      95.22331354      82.80099626
C      71.59812576      95.51433139      86.31966665
H      70.17327212      96.98453846      86.55399271
C      70.13358787      93.09548172      85.57511449
H      68.90148632      92.61927069      87.15492567
H      71.44883739      91.51756024      85.42582610
C      68.40448830      93.24099064      83.35468607
C      67.53710392      90.85048685      82.33990303
H      67.98874851      89.10437975      83.29799428
C      65.81745297      90.78812588      80.30277807
H      65.01809874      89.03634960      79.62625604
C      65.01431929      93.02934130      79.17272174
O      63.48175125      92.87627346      77.02977209
H      62.82034704      94.44096685      76.39671377
C      65.79855571      95.33858685      80.16482805
H      65.29588851      97.00154601      79.08957377
C      67.41616143      95.54645675      82.30966742
H      68.08512455      97.33602757      83.02398396
C      73.17226778      95.06079709      88.70072181
O      74.97884614      93.63972290      88.54765398
N      72.31622176      95.95841709      90.87579679
H      70.67215987      96.92028778      90.74351595
C      73.34423288      95.34047657      93.34377936
H      75.35868113      95.67684786      93.07543821
C      72.36157520      97.23020288      95.22783649
H      72.61857797      96.66895418      97.19315185
H      70.35279612      97.33791729      94.78753026
C      73.69761170      99.74164916      95.26185157
C      72.22740463     101.97908512      95.36389679
H      70.18838994     102.02632827      95.36011733
C      73.41604248     104.33557382      95.43759611
H      72.37858273     106.09112957      95.53397215
C      76.04465178     104.46218549      95.85900507
O      77.27675334     106.76954131      95.87601262
H      76.22606551     108.23785867      96.05553661
C      77.43926980     102.15860912      95.73995232
H      79.47639476     102.12270432      95.87790233
C      76.34889772      99.80023068      95.43003720
H      77.35234239      98.02955712      95.59255366
C      72.62424715      92.61927069      93.86912327
O      70.38870092      91.90306442      94.16014112
N      74.53853991      90.95064235      94.26218635
H      76.33000045      91.60070821      94.20360482
C      74.60090088      88.08581727      94.27541443
H      72.72062319      87.41874388      94.78564053
C      75.68371405      87.25622741      91.70160719
H      77.64147051      87.89306518      91.64113595
C      75.69505241      84.40840986      90.85500980
H      76.72306353      83.15741104      92.12868534
H      76.77975532      84.36872561      89.10323350
H      73.76753157      83.76779264      90.51107961
O      74.16248437      88.37494539      89.75140963
H      74.51964264      90.14939840      89.86668294
C      76.55298816      87.33937537      96.33332638
O      78.00051851      88.97587836      97.15535733
N      76.46039157      84.92430513      97.21393885
H      75.02608930      83.81881525      96.61300587
C      78.09311510      83.91897075      99.22838709
H      79.84300167      84.99989420      99.11311378
C      76.62668748      84.07392830     101.76628953
H      75.85000997      85.97310325     101.94959299
C      74.43649469      82.03869306     101.94581353
H      73.38391713      82.33349037     103.69192065
H      75.22262083      80.14329756     102.10266082
H      73.03053831      82.22010678     100.45104001
C      78.42759666      83.81125635     104.00372548
H      79.18348719      81.90263277     104.17191113
H      77.14447249      84.32526189     105.53062435
C      80.42125792      85.84082240     104.20214674
H      79.74662563      87.78913023     104.21915429
H      81.69304373      85.75767445     102.58454102
H      81.29242175      85.60649634     106.05407854
C      78.80743165      81.10705798      98.66335893
O      77.63769106      79.85794890      97.06842991
N      80.86345388      80.24345306      99.84254814
H      81.94815678      81.24878745     101.04630381
C      81.56265261      77.52980608      99.83498923
H      80.01874622      76.33927850     100.49639344
H      83.05742613      77.14808137     101.19937164
C      82.29775615      76.62840662      97.25929228
O      84.09488587      77.62240267      96.13112567
N      81.00329362      74.80293101      96.14057429
H      79.41592352      74.33427889      97.09110663
C      81.15636146      73.87885483      93.47228075
H      82.69459867      74.86340225      92.51796895
C      81.91225198      71.03670647      93.37023552
H      80.46472163      69.67988297      93.92392534
C      82.49995686      70.22979333      90.66036798
H      84.01173791      71.34662158      89.81755005
H      80.69526824      70.51703173      89.70983566
H      82.95160145      68.22101426      90.62068374
C      84.28952768      70.64931258      95.12768099
H      83.43915084      70.36018445      96.98150251
H      85.30053126      72.44266285      95.21649812
C      86.11122385      68.36274374      94.57210145
H      85.20415522      66.52026058      94.41147473
H      87.31686924      68.22857317      96.23695033
H      87.29230279      68.54415746      92.89213477
C      78.70349670      74.48545698      92.13246478
O      76.71739435      73.38374655      92.64647035
N      78.63546655      76.45266208      90.58099949
H      80.09244554      77.67720473      90.73406732
C      76.39614087      77.08194094      89.07488761
H      76.05410041      75.73267636      87.55743738
H      76.87802108      78.72600284      87.93160320
C      74.06421860      77.96444313      90.39580631
O      72.25952997      78.42175690      89.04087254
N      74.01508572      78.33105004      92.78253064
H      75.71205995      78.32538086      93.65369447
C      71.50363945      78.78647408      94.11856714
H      70.05610909      77.73011707      93.10378411
C      71.69828126      77.69799172      96.69993328
H      73.05132530      78.90363711      97.68070124
H      72.64503414      75.87251610      96.59410862
C      69.19250417      77.35784099      98.04730814
N      67.72985600      75.18276599      98.03030061
H      68.40826775      73.47823287      97.50495670
C      65.53777348      75.82716267      99.14901858
H      64.00142599      74.55915632      99.59310428
N      65.65115706      78.27057880      99.83687897
H      64.12236847      79.14363235     100.57198250
C      67.98685878      79.31559745      99.17547476
H      68.56322531      81.27335391      99.12823159
C      70.64381398      81.56815121      94.26785552
O      71.68883263      83.14796241      95.49239818
N      68.70495478      82.06703896      92.73717720
H      67.96607179      80.48155858      91.97372777
C      67.49930939      84.52179344      92.46694634
H      68.93739112      85.93341899      92.04175793
C      65.78721735      84.41596877      90.08022202
H      64.45307058      82.85694455      90.25407684
H      67.13459221      84.20809886      88.53631562
C      64.15071437      86.81025200      89.34700821
H      62.82412649      87.08804176      90.89658378
C      65.90438038      88.90595848      88.98040130
H      67.39915390      88.47510089      87.63113670
H      66.77365449      89.63350311      90.70194197
H      64.71574253      90.45742379      88.32844571
C      62.93562035      86.30002590      86.77698041
H      61.80178456      84.58226468      86.82611331
H      64.34724590      86.46065264      85.28598636
H      61.65249618      87.82692476      86.26486458
C      66.21240577      85.46854631      95.00106934
O      64.81211857      84.01534679      96.18970719
N      66.37114278      87.85716038      95.56420777
H      67.76198135      88.76800846      94.62879324
C      65.07479053      89.23288113      97.50684642
H      63.83324034      87.97432341      98.56509315
C      67.07412097      90.31191485      99.45326453
H      65.95162354      91.17551979     100.94803803
H      68.15504442      91.79912947      98.52351917
C      68.86747124      88.31636388     100.60788730
H      69.57611861      87.05024725      99.14523913
C      71.12191473      89.81113739     101.62456005
H      72.29921423      88.39195292     102.54296705
H      70.36791394      91.36827186     102.74327804
H      72.20850736      90.60860188     100.06553584
C      67.89048274      86.67419170     102.71304241
H      69.40415352      85.47043604     103.42168979
H      66.45995992      85.38161890     101.99494641
H      67.14026139      87.91007271     104.18324949
C      63.35702931      91.22087321      96.55064491
O      61.13282144      91.16040197      97.07220936
N      64.33590754      93.01422349      94.96894399
H      65.95729272      92.62493987      94.03730892
C      62.70885319      94.80379430      93.76707805
H      61.06101184      93.77767291      93.07921766
C      61.55800986      96.65572608      95.78341603