 %block lattice_cart
   137.614   0.000   0.000
   0.000 142.646   0.000
   0.000   0.000   160.855
 %endblock lattice_cart

 %block positions_abs
N      89.94264395      40.36455868      79.61680741
H      89.99555629      39.23450234      81.15315490
H      91.70764833      40.55731076      78.91193951
H      88.88628694      39.74094899      78.15415925
C      88.96943490      42.96293236      80.41049247
H      89.87839326      43.55630642      82.15848931
C      89.76123022      45.11911008      78.65304699
H      89.34549044      44.58620726      76.70662889
H      91.79646546      45.35910532      78.85713743
C      88.40818618      47.71748376      78.92705731
H      88.62172526      48.66423664      80.74497403
H      86.39373794      47.35087686      78.69462098
S      89.57603705      49.79429298      76.43450830
C      92.85282247      50.21948140      77.38882009
H      93.95642264      48.48282292      77.49086532
H      92.96053687      51.22670552      79.18217037
H      93.98476853      51.10954249      75.91861302
C      86.10649954      42.84387960      80.68639251
O      84.92164114      41.28296567      79.48452658
N      85.13518021      44.19125447      82.43438934
H      86.24444956      45.56886494      83.14870590
C      82.29870101      44.24038734      83.10902164
H      81.41619883      43.40323859      81.44795222
C      81.91508657      42.53963366      85.40881857
H      82.34594417      43.55441669      87.14925650
H      83.09049634      40.85021834      85.39181102
C      79.12962999      41.46815884      85.72251313
O      77.43832494      42.19948293      84.29954921
N      78.69499294      39.77874352      87.60657027
H      76.92809883      39.05497834      87.61790862
H      79.77969584      39.38945990      89.12779995
C      81.37651457      46.96537269      83.62302720
O      82.80892712      48.71714898      84.21262180
N      78.90097310      47.46237071      83.40003950
H      77.87863117      45.85799307      83.24130249
C      77.70099690      50.04562658      83.52665115
H      78.71011075      51.23237470      82.17927629
C      74.83428208      49.94925054      82.95595382
H      74.66042726      49.00627711      81.13425765
C      73.31305240      48.14456191      84.66048695
H      73.14675648      49.05352026      86.49919064
H      74.45444709      46.44380823      84.88536437
H      71.38364183      47.78173446      84.03498753
C      73.47745859      52.50982969      82.48163251
H      73.67021067      53.52461272      84.26553415
H      71.48379733      52.08275154      82.18683520
C      74.68499370      54.40711491      80.60891374
H      74.63586082      53.64744493      78.69462098
H      76.63519125      54.78694991      81.14748572
H      73.85918330      56.29306177      80.66749524
C      78.40397508      51.17379319      86.20628306
O      79.05215121      53.39611133      86.41604270
N      78.47011550      49.64311487      88.17726762
H      77.54225989      47.97826599      88.09222994
C      79.23734439      50.37065950      90.76997212
H      78.07138325      52.01283167      91.19893998
C      78.77625117      48.19747424      92.53686622
H      79.16364506      48.95525450      94.41525418
H      80.17653837      46.76695143      92.05309628
C      76.07772199      47.08064599      92.41970319
C      73.94611071      48.70770036      92.78064092
H      74.47145463      50.64466982      93.15102726
C      71.46867952      47.61732827      92.99417999
H      69.94744983      48.96470313      93.19638070
C      71.12474933      44.98871896      92.38757784
H      69.32384015      44.06464280      92.12112642
C      73.25447088      43.39567968      92.09278054
H      73.04282153      41.41335678      91.65625375
C      75.77725551      44.50305930      92.04553737
H      77.41753795      43.40134886      91.54098045
C      81.92642493      51.28528704      91.05721051
O      82.53869626      52.78195028      92.70883131
N      83.50434640      50.91868014      89.15803557
H      82.72577916      50.04373685      87.65003397
C      86.27468518      51.45914186      89.09756433
H      86.93797911      52.09597963      90.94004748
C      87.62394976      48.87210654      89.06354925
H      89.61005212      49.12155041      89.54542946
H      87.40474151      48.28251193      87.10201335
C      86.51279069      46.67813429      90.64147073
H      87.59560387      44.94336553      90.41092412
H      84.65707945      46.10932667      89.95172063
C      86.39184821      47.54173921      93.34566908
O      84.79880893      46.40979315      94.68926448
O      88.30236151      48.47715374      94.40013636
C      87.17986408      53.27705857      86.96784277
O      88.91841229      54.73403756      87.41759764
N      85.91752690      53.11265238      84.77387053
H      84.89896442      51.52339256      84.48852186
C      86.64129208      54.81151634      82.71973802
H      88.68030677      54.57152110      82.55911129
C      85.20887954      53.97625731      80.23285820
H      85.65863440      52.01472140      79.79444168
H      85.72477482      55.27260956      78.71729769
C      82.38751815      54.37309984      80.57300894
H      81.98311672      56.17022956      81.49330565
H      81.63351735      53.03895306      81.95061942
S      80.80770695      54.08019226      77.53054957
C      81.71666531      56.84108240      75.89404658
H      81.72422422      58.43601141      77.19795774
H      80.65841858      56.90155364      74.12904221
H      83.68198068      56.68234539      75.30256225
C      86.08760227      57.52894278      83.47940800
O      87.31025520      59.30339580      82.76131201
N      84.07504375      57.92767504      84.93638698
H      83.30214569      56.49904194      85.94172138
C      83.25490253      60.42211376      85.72818231
H      82.86939836      61.55028037      84.04821562
C      80.80581723      60.51282063      87.35523667
H      80.70566173      62.32128871      88.33600463
H      81.34816868      59.06718000      88.71961907
C      78.30759904      60.11786783      85.82266863
H      78.29626068      58.25270796      84.94583562
C      76.01347130      60.42022404      87.55554765
H      76.41409328      58.96513478      88.95583486
H      74.22767993      60.14999317      86.56344135
H      76.06449391      62.30806062      88.37946833
C      77.77280650      62.15499279      83.89892724
H      77.95988940      63.93511498      84.91559999
H      75.80182195      62.01326332      83.31311209
H      78.95766489      61.79594479      82.25108590
C      85.39407272      61.95846126      87.04343182
O      85.27313023      64.25636846      87.16437432
N      87.25545313      60.77927204      88.23584913
H      87.17797436      58.88576627      88.00530251
C      89.36816715      61.66177422      89.66070276
H      88.64062252      63.27937995      90.70950088
C      90.70987283      59.79283490      91.27263932
H      92.12149839      60.78872067      92.39513675
H      91.75867094      58.57585116      89.98195625
C      89.13762054      57.88232160      92.86000942
H      90.34704538      56.30628985      93.41369923
H      87.52757372      57.20013040      91.77152707
C      87.97165941      59.19379166      95.21460841
H      86.67908661      60.66210900      94.57399118
H      89.40218223      59.84007807      96.55064490
N      86.53546741      57.32863179      96.75284563
H      87.14773873      55.52016371      96.76607370
C      84.88195688      57.68390034      98.56698289
N      84.52290889      59.88354176      99.74617210
H      83.37017583      59.86086505     101.26740179
H      85.84949676      61.22902690      99.47594124
N      83.55158956      55.86220417      99.29830696
H      82.29492156      56.17400901     100.70237361
H      83.78024644      54.10853815      98.58021097
C      91.52434488      62.83340454      88.06010459
O      93.40273283      63.79338551      89.03898281
N      91.08970782      62.92978058      85.55999668
H      89.50044799      61.98113797      85.09323428
C      92.57692243      64.19022803      83.75341832
H      93.50666778      65.88720226      84.46017595
C      94.53656862      62.46490791      82.59690581
H      95.38883519      63.49480875      81.02843298
C      97.00077173      61.76381945      84.05766426
H      98.04390065      60.61297612      82.70273049
H      96.64172373      60.59407887      85.71495422
H      98.14216642      63.43055805      84.46206568
C      93.24777527      59.99692534      81.48196728
H      91.83992917      60.41833431      80.04199583
H      92.43330323      58.82718476      82.96918190
C      95.17529611      58.07129423      80.22151983
H      96.35259560      59.11442315      78.89493196
H      94.16051308      56.57274126      79.23697243
H      96.32424971      57.14532834      81.65960157
C      90.85160231      65.26548231      81.68227828
O      91.75867094      67.23835657      80.80355554
N      88.57259237      64.26203763      80.89426241
H      88.07937381      62.55372504      81.58968169
C      87.18175381      65.32406382      78.85902717
H      88.41007591      65.89665089      77.31134132
C      85.19754118      63.38520463      78.00865033
H      83.59316354      63.40221216      79.29933340
H      85.96477006      61.47658105      78.08990855
C      84.20921432      64.02582184      75.26854717
O      85.82304059      64.39431848      73.58858048
O      81.88107150      64.43211300      75.03989028
C      85.74934126      67.72968542      79.53743891
O      84.98400211      69.27737128      77.86503113
N      85.39596244      68.09818205      81.99219340
H      85.71343646      66.71301266      83.26586893
C      84.76857331      70.52459064      83.29232509
H      84.92353086      72.17621143      82.06778245
C      82.11350784      70.23546251      84.25986497
H      82.11350784      68.64620268      85.56944531
H      80.90030354      69.45311581      82.79154763
C      80.90975217      72.45022176      85.52787133
H      82.06626468      73.04737526      87.12469006
H      79.16931424      71.75291275      86.37824817
C      80.62440350      74.57238440      83.60035049
O      78.47011550      75.25268587      83.08067575
O      82.49145310      75.88385446      82.81611407
C      86.65263044      71.12363387      85.55054804
O      87.85260665      73.05493417      85.49763571
N      87.00978871      69.40209320      87.33444968
H      85.87406320      67.86952516      87.31933186
C      88.55936429      69.69689052      89.62857743
H      90.45853923      70.40175842      89.26763969
H      88.71054239      67.84306900      90.51863852
C      87.56725798      71.53559422      91.70727636
O      85.31848366      72.24991077      91.57121607
N      89.10360547      71.94188537      93.70093762
H      90.84404340      71.19355376      93.46283211
C      88.47243688      73.15319994      96.01207290
H      86.42586328      73.36673902      95.95727084
C      89.32470345      71.48268187      98.23061159
H      91.37505650      71.53748394      98.03596979
H      88.76345473      69.53059459      97.89424032
C      88.61605608      72.13085800     100.86111062
H      89.34549044      73.87696511     101.67747239
C      85.67753166      72.16676280     100.92914078
H      84.82148564      70.34317691     100.50395235
H      85.04825280      73.54437329      99.53074331
H      85.06148088      72.92832250     102.74138831
C      89.17163562      70.19766799     102.84343352
H      88.58393073      70.88741809     104.69158587
H      91.21254003      69.97845974     103.00972945
H      88.27779507      68.35329511     102.64879172
C      89.35682879      75.90653117      96.51474011
O      91.55080104      76.42242647      96.06876469
N      87.61450113      77.39563552      97.50117724
H      85.90996800      76.54525867      97.58621493
C      87.78079705      80.01290646      98.44604039
H      89.79146585      80.30581403      98.78052195
C      87.24222505      81.88184577      96.23128116
H      86.57326193      83.65251933      97.04197375
H      85.46399259      81.13162443      95.51696462
C      89.27179111      82.31270337      94.30187059
H      89.96721039      80.46644077      93.71605544
H      90.69286530      83.55803302      95.12012209
C      88.24189027      83.67519605      91.87168256
H      89.83492955      84.21565777      90.68304471
H      87.28757848      85.40240589      92.46505661
N      86.42586328      82.10672321      90.55643305
H      85.91941663      80.56281681      91.55987771
C      85.56792754      82.06325950      88.25096695
N      86.33893587      83.70165221      86.46706531
H      85.60761179      83.65251933      84.70395065
H      87.55591962      85.11327778      86.87902564
N      84.14118417      80.21888663      87.50641477
H      83.28702788      80.40596952      85.80944055
H      83.77268754      78.85261449      88.78764922
C      86.16130160      80.42864625     100.86489008
O      83.86339440      80.60061133     100.79874965
N      87.41985932      80.67620039     103.13634110
H      89.31903427      80.51557365     103.00594999
C      86.57137221      81.07304292     105.72526615
H      85.02557608      79.80314684     106.21470528
C      88.83148488      80.50045585     107.55263150
H      88.15118341      81.13351416     109.39133521
H      90.38295018      81.78358001     107.11988417
C      89.74989187      77.64696911     107.60365411
H      90.64940159      77.29170056     105.78384768
C      91.54702159      77.57893896     109.75983183
H      92.58637106      75.81771405     109.50282906
H      90.57948172      77.69799173     111.57207937
H      92.94541906      79.09072001     109.70314004
C      87.69197991      75.65708731     107.91734867
H      88.82959515      73.96389253     108.18757955
H      86.45798863      75.76858115     106.27328678
H      86.55814412      75.68543320     109.63699963
C      85.46399259      83.68653441     106.06352716
O      84.07126430      84.03046459     107.87577470
N      86.13295570      85.52145866     104.61788653
H      87.50111755      85.06792434     103.36499799
C      85.27501996      88.16329605     104.91457356
H      84.05614649      88.13306042     106.57375328
C      87.38017507      90.02089700     105.33031336
H      88.69920404      89.86593945     103.75617134
H      88.55369511      89.43508185     106.91957319
C      86.29925162      92.70808783     105.92935660
H      84.92164114      92.78367687     107.46003491
H      85.41674943      93.43752219     104.21726455
C      88.61416635      94.33892163     106.33942721
H      89.79902475      94.25577368     104.65757079
H      89.52879389      93.72854004     108.07986514
C      87.52190454      97.04689945     106.85721222
H      85.62083987      97.03367135     107.64900755
H      87.36505726      98.09380781     105.09031812
N      89.03557532      98.50954760     108.69969538
H      89.16029726      97.60625842     110.37588261
H      88.14740395     100.12526360     109.19102421
H      90.72688037      98.99331754     107.96270211
C      83.56292792      88.67541188     102.66579925
O      84.13740472      87.83637340     100.55308523
N      81.49178788      90.21364909     103.01728836
H      81.31415361      90.97142934     104.75961602
C      79.39419167      90.63883752     101.18425382
H      78.71766965      88.74722148     100.72127088
C      77.15486599      92.06369115     102.34076633
H      76.74479538      90.96198072     104.03018166
C      77.90886679      94.77544841     103.35554937
H      76.65786797      95.35181493     104.88622768
H      77.54225989      96.09825684     101.82109159
H      79.90252805      94.94363405     103.85065766
C      74.60373547      92.03912471     100.64757155
H      74.16153951      90.06436071     100.25639820
H      74.69633206      93.04823856      98.85422128
C      72.58928722      93.70019414     101.97793888
H      73.17132292      95.66361978     101.76439980
H      72.26803375      93.08036390     103.91490835
H      70.81105476      93.36004340     100.99528120
C      80.40330552      91.88038771      98.79563977
O      81.91697630      93.73987840      98.88256718
N      79.76646776      90.89206083      96.53552710
H      78.57594018      89.40484624      96.56954217
C      80.69621310      91.89739524      94.05809591
H      81.80548245      93.56224411      94.55320420
C      82.34027499      89.85082164      92.85434023
H      83.96543962      89.59192913      94.09211097
H      83.07159908      90.66151422      91.10823312
C      81.20643921      87.21465344      92.37623948
C      80.28047331      86.62883827      89.90447746
H      80.14252329      88.11227343      88.50796972
C      79.46978072      84.17786324      89.41881781
H      78.72522856      83.78857962      87.55743739
C      79.47733963      82.21821707      91.24618315
O      78.81404569      79.90708179      90.59611729
H      78.51168948      80.01290646      88.81032593
C      80.58282952      82.83615757      93.67070200
H      80.74156653      81.51901832      95.22027759
C      81.37273512      85.36839083      94.21683291
H      81.96232973      85.79357924      96.12356677
C      78.52491757      92.59092480      92.25151754
O      76.31204806      92.58903506      93.05654096
N      79.05971011      93.48665507      89.88935966
H      80.93242889      93.77767292      89.66259249
C      77.20777833      94.24821478      88.12435527
H      75.27080886      93.95908664      88.75741360
C      77.45344275      96.97697956      87.40625927
H      76.26669462      97.35492482      85.76597684
H      79.31860262      97.44374196      86.66737629
C      76.55393302      98.65505653      89.65503360
H      77.90508734      98.41128183      91.19327080
H      74.58672793      98.53789350      90.25596656
C      77.35139753     101.33090899      88.92937869
H      79.15608616     101.33468844      87.93916210
H      77.55170852     102.42695026      90.66414744
C      75.28592667     102.56867973      87.44783326
H      73.91398536     103.10536200      88.89158416
H      74.50924915     101.29122473      86.02864879
N      76.15898022     104.86847664      86.00975154
H      77.75768868     104.48108275      85.04032193
H      76.54070494     106.31033783      87.20027912
H      74.79270810     105.45429180      84.81544451
C      77.48178864      92.48510013      85.76786657
O      79.52836224      92.01455827      84.87780548
N      75.47300957      91.36449242      84.89859247
H      73.90642646      91.94085895      85.82455836
C      75.25947050      90.13239086      82.54399348
H      76.33850422      88.38061457      82.67627432
C      72.55149269      89.30847019      82.22840919
H      71.22868427      90.87694303      82.07723108
H      71.91276520      88.13495015      83.79499230
C      72.27937210      87.45086922      79.93806088
O      72.47401391      85.17185929      80.40860274
O      72.10740701      88.27101045      77.74030919
C      76.21567201      91.75944521      80.28010135
O      75.94733088      94.04223461      80.54088359
N      76.92620911      90.59915326      78.09935719
H      77.04715159      88.69619886      78.03321677
C      77.53281125      91.97865347      75.80711917
H      79.14663752      93.17485023      76.26443294
C      78.57216073      90.15695730      73.77188394
H      76.85439951      89.42752294      72.90260982
C      80.07071369      91.59692875      71.83869392
H      80.01213218      90.82781015      69.92818060
H      81.92264548      92.02022744      72.63615841
H      79.26946974      93.41862492      71.30201163
O      79.86662325      88.08959671      74.58824569
H      81.54658994      88.16896522      73.90605450
C      75.34828764      93.70019414      74.78666696
O      75.61662877      95.17040121      73.02733176
N      72.92943796      93.45830918      75.72586094
H      72.68377353      91.89928496      76.79922548
C      70.55216225      94.76977923      75.18539922
H      70.74491434      95.92629174      73.49220444
C      68.48480167      92.74966180      74.99453686
H      68.51692701      91.91062332      76.87481453
H      69.05738874      91.30591090      73.64149282
C      65.83162592      93.70397360      74.13093192
H      65.12486828      95.00410529      75.56712393
H      64.62031136      92.03912471      74.21030044
C      65.64643274      94.54679153      71.31334999
O      67.00325624      96.24376575      70.57257728
O      63.76237561      93.90617431      69.93573951
C      69.90398613      96.51588634      77.42094545
O      68.10307695      98.08246945      77.12236868
N      71.54426857      96.58013704      79.45807041
H      72.82739273      95.17040121      79.54310809
C      71.66332133      98.57946749      81.37236316
H      70.45011703     100.09124854      80.67505415
H      73.41320789      99.62637585      81.67471937
C      70.51058827      97.86137149      83.88002997
O      70.94144587      99.26732785      85.70172614
N      68.92699762      95.81668762      83.99152383
H      68.65487704      95.01355392      82.28321125
C      67.45301110      94.85859636      86.23273923
H      66.17933557      96.38360550      86.77698041
C      65.85052319      92.46053367      85.48251790
H      64.65054698      91.99377128      87.09067499
H      67.20734668      90.91284783      85.35212678
C      64.48236134      92.59470425      82.99941752
C      64.14976950      90.34026076      81.50653372
H      65.15888336      88.63005845      81.98085504
C      62.61909119      90.36104775      79.42216561
H      62.19390277      88.66407351      78.37336751
C      61.38698964      92.58336589      78.62281137
O      59.85253187      92.54935081      76.59135559
H      58.84908720      94.06113186      76.58568641
C      61.72903010      94.87938335      79.97018623
H      60.79739503      96.59147540      79.36736355
C      63.28049540      94.94552379      82.19439411
H      63.39576871      96.60659320      83.37358332
C      69.13108807      93.97420446      88.37379916
O      71.13041851      92.86304538      87.85223468
N      68.36952836      94.19152299      90.77375156
H      66.53838356      94.65450592      91.05910024
C      70.15531973      93.36193313      92.87701696
H      72.04126659      94.04412432      92.40269564
C      69.45234154      94.73576415      95.18815224
H      70.71089926      94.06869077      96.67536684
H      67.48513645      94.45986411      95.73050369
C      70.08917931      97.49665430      94.91981110
C      68.21835026      99.33157855      95.03319468
H      66.22279927      98.98008945      95.29208718
C      68.81550377     101.91672414      94.83666315
H      67.36797342     103.34724697      94.67414668
C      71.46301034     102.54222355      94.98217207
O      72.16598852     104.91571981      94.70438230
H      70.62775131     105.87381104      94.69871312
C      73.48501749     100.84713905      95.04831248
H      75.47111985     101.29878364      95.18059333
C      72.70456052      98.26388318      94.91225220
H      74.05193539      96.73887405      94.74973574
C      69.93611148      90.49521831      93.33999990
O      67.86308171      89.26500648      93.47228075
N      72.18110634      89.26311675      93.28897729
H      73.66643122      90.34215048      92.76741282
C      72.45889610      86.56647731      93.30031564
H      70.66365611      85.62350387      93.66881228
C      73.47556886      85.52901757      90.83800227
H      75.52970136      85.69153403      90.80209747
C      72.81794410      82.68875891      90.69627279
H      73.16943320      82.06514924      88.76497249
H      70.78081914      82.65285411      91.00618791
H      74.11240663      81.77602110      92.00963257
O      72.41732212      86.75922940      88.56844097
H      73.22045581      88.36360704      88.30954845
C      74.33917378      85.80491760      95.41491939
O      75.94922060      87.31291920      96.20860445
N      74.15964978      83.51078986      96.31631884
H      72.59117695      82.44120477      96.12545649
C      75.78670414      82.56781643      98.28919312
H      77.45722220      83.74889537      98.04541842
C      74.57161012      83.09693979     100.93292023
H      74.34106351      85.13784422     100.80063938
C      72.04882549      81.61539436     101.18236411
H      70.95278423      82.52057328     102.67335816
H      72.46456528      79.64252010     101.61322170
H      70.85073901      81.74956493      99.50995631
C      76.12118570      82.45443285     103.28751922
H      76.63519125      80.47022022     103.09098767
H      74.82861290      82.53758081     104.89000712
C      78.45310797      84.18731188     103.49538911
H      77.70666607      86.06947928     103.87522410
H      79.39608140      83.94353718     101.68125185
H      79.80615201      83.67897550     104.95992700
C      76.62574262      79.85227972      97.98683691
O      75.18388145      78.27624797      96.95126688
N      78.77625117      79.22111112      99.22838710
H      79.82882872      80.72155383      99.76317964
C      79.54725950      76.57171483      99.69325977
H      78.05248599      75.46433522     100.57576196
H      81.00234876      76.56037649     101.15212847
C      80.15197192      75.09772831      97.24417447
O      81.85839478      75.85928802      95.94026331
N      78.71200047      73.18910474      96.69237438
H      77.47045029      72.38408132      97.90179923
C      78.81593542      71.94944427      94.14691303
H      80.24645824      72.91131498      93.01874643
C      79.65686363      69.09595755      94.26596579
H      78.12051614      67.95267312      95.01807686
C      79.89118969      68.18133001      91.58444415
H      81.43698582      69.16776714      90.64336046
H      78.20933327      68.40431771      90.41659329
H      80.29748085      66.16310230      91.67515101
C      81.81493108      68.69155611      96.15002293
H      81.66942215      69.55516103      98.01329308
H      83.38529364      69.77247956      95.37334542
C      83.13773950      66.23680164      96.66402849
H      81.87918177      65.29571792      97.99439582
H      84.97833293      66.52781948      97.53897176
H      83.54403066      65.18800352      94.93681863
C      76.32527614      72.53903888      92.74284639
O      74.43554983      71.16709758      92.94504711
N      76.33472477      74.62529674      91.42759688
H      77.80304212      75.83850102      91.54287018
C      74.29193063      75.46622494      89.71928429
H      74.18232650      74.02625349      88.24907721
H      75.08561568      77.09327931      88.74040605
C      71.73135147      76.20510794      90.97973174
O      70.12319438      76.91942449      89.52842193
N      71.34017813      76.32982988      93.49306773
H      72.69889134      76.01991476      94.79886862
C      68.86274693      76.91186558      94.56643227
H      67.56072550      75.62118251      93.62723831
C      68.83818049      76.10684216      97.42747791
H      69.89075804      77.49390127      98.52918836
H      69.87752996      74.33049944      97.49928752
C      66.28893969      75.88385446      98.68603565
N      65.15321418      73.63885960      99.22460763
H      65.83540538      71.87763467      98.94114869
C      62.96680083      74.20199805     100.34143590
H      61.63265406      72.82816701     101.05008326
N      62.80239464      76.67942923     100.76284485
H      61.29061359      77.36162043     101.71148747
C      64.84140934      77.72633762      99.70459813
H      65.24392104      79.72566805      99.80853307
C      67.95567830      79.61417420      94.07888288
O      69.07250655      81.41130392      95.04264330
N      65.78438277      79.95243522      92.83544298
H      64.52960449      78.56537610      92.45182854
C      64.96235182      82.44309449      92.13246478
H      66.68956167      83.53535630      91.86979283
C      63.60930778      82.28435748      89.60023152
H      61.61375679      81.88562523      89.91392609
H      64.53149422      80.81226068      88.49285190
C      63.99292222      84.74667086      87.96561827
H      63.18222963      84.27423930      86.13258375
C      62.51326652      87.01056299      88.90481225
H      62.20146168      88.21053921      87.26075035
H      63.70757355      87.99511040      90.26352547
H      60.72558543      86.30758481      89.64369523
C      66.76704045      85.22477162      87.13602841
H      67.57584331      86.38884304      88.62891221
H      67.07884529      86.29813617      85.40503911
H      67.79316184      83.45220835      87.31933186
C      63.44112214      83.81881524      94.31698841
O      61.59108008      82.63962603      95.03319468
N      63.94189961      86.12617108      95.15602689
H      65.52737999      86.94064312      94.47005624
C      62.62853982      87.32614728      97.33299161
H      61.59485953      86.06947928      98.59343906
C      64.64676753      88.63950707      98.94681788
H      63.62064614      89.80924766     100.29986191
H      65.82217729      89.84515246      97.76006974
C      66.27193215      86.75733966     100.55497496
H      66.71223839      85.10193942      99.41358028
C      68.77015034      87.82881449     101.46771277
H      69.56383539      86.62694855     102.93980957
H      68.46401468      89.70153326     102.26706701
H      69.98902381      87.99133094      99.81420225
C      64.91888811      85.74633608     102.87366916
H      64.53905313      87.00678353     104.45725981
H      66.06973144      84.14195845     103.46515349
H      63.04050016      85.22666136     102.20659577
C      60.60653267      89.29902155      96.65457985
O      58.92089680      89.81113738      98.20037598
N      60.98258820      90.65017588      94.55131447
H      62.65688572      90.43474707      93.66125338
C      59.05506737      92.27911995      93.50629582
H      57.46202808      91.07158484      93.00173890
C      58.37476589      94.44663603      95.36767624