 %block lattice_cart
   137.614   0.000   0.000
   0.000 142.646   0.000
   0.000   0.000   160.855
 %endblock lattice_cart

 %block positions_abs
N      87.86488987      41.94531473      78.21274077
H      87.00695412      41.13651187      76.71229807
H      87.95748646      40.93998034      79.83034649
H      89.70170385      41.90374076      77.69873521
C      87.23372128      44.48321718      78.75698194
H      88.46582284      45.25233578      80.21396093
C      87.79874945      46.14617634      76.53655353
H      86.45704377      45.78523861      75.01532384
H      89.72627029      45.77578997      75.90727466
C      87.76284465      49.01100143      77.20362691
H      85.76729366      49.43618985      77.48141668
H      88.27873993      49.99365911      75.46696843
S      89.67713740      50.13349885      79.94373007
C      92.92179748      49.40595423      78.85146826
H      93.02384270      47.35182173      78.71540796
H      94.24649563      49.81791456      80.37458767
H      93.50194346      50.18641118      77.03544127
C      84.56542773      44.68541790      79.65460194
O      82.74562129      44.74777887      78.35069079
N      84.19315164      44.42841512      82.11124615
H      85.66146899      44.01078560      83.25453057
C      81.60989577      44.50778361      83.29043537
H      80.33622024      43.37205810      82.13770232
C      81.82154512      42.89584708      85.76786656
H      83.48261455      43.37961701      86.88658454
H      81.93870815      40.91919336      85.20283840
C      79.46316668      43.14907039      87.44405380
O      79.21183308      44.96887684      88.88591498
N      77.54131502      41.55603111      87.08689553
H      75.91992985      41.98499899      87.99963334
H      77.99673906      40.06125760      85.99463372
C      80.56865658      47.25355595      83.50397444
O      82.09744516      48.98643499      83.69105735
N      78.18949115      47.84881975      83.58523267
H      76.87424163      46.50144488      83.27531756
C      77.21628210      50.41317835      83.75341831
H      77.82666370      51.41284357      82.05833381
C      74.28153713      50.34703792      83.60035048
H      73.94327612      49.15651035      81.95628859
C      73.02675886      49.04501649      85.96439810
H      71.05010514      48.81635961      85.43149528
H      73.25919520      50.40750917      87.48940724
H      74.02264463      47.36882925      86.63336122
C      73.00786160      52.98698558      83.18083124
H      73.27242328      54.21719742      84.81355478
H      71.03120787      52.59770196      82.75375310
C      74.12091040      54.57057624      81.02087407
H      72.79621225      56.13149017      80.79599663
H      74.28909604      53.45185826      79.29744367
H      75.99362917      55.31890786      81.42905495
C      78.09122538      52.02889434      86.15148101
O      78.21027814      54.35136798      86.04376661
N      78.49373708      50.71364483      88.30954846
H      78.35200761      48.82391852      88.52308753
C      79.28364268      52.02322516      90.55265359
H      78.29909527      53.82602406      90.71517005
C      78.42759666      50.30546394      92.69938268
H      79.43293106      50.73065236      94.44548979
H      79.18159746      48.41951708      92.34789359
C      75.55899212      50.43963451      93.07732794
C      73.77509048      48.56313628      91.98695586
H      74.30799330      47.24788677      90.51863852
C      71.45072712      48.37605339      92.99984916
H      70.29799406      47.05324497      91.95860997
C      70.53232013      49.86704744      94.95193645
H      68.55566640      49.59303712      95.37523514
C      72.15937448      51.80212719      95.78530575
H      71.56222097      53.06446437      97.27252036
C      74.70294610      51.86637789      95.16547552
H      75.87646614      53.06824382      96.32576748
C      82.12012188      52.42762660      90.59233784
O      83.11033847      53.89027477      92.03986820
N      83.62812348      51.38638739      88.80465675
H      83.21238369      49.68941317      88.03931759
C      86.14523893      52.58825334      88.09411966
H      86.79341505      53.90161312      89.54353974
C      88.12945155      50.49254686      88.28498201
H      87.44159118      48.71053493      87.51964286
H      88.49227901      50.13916803      90.28242273
C      90.67113345      51.24654766      86.95839414
H      91.58387125      52.84147665      87.89191894
H      90.38011559      51.62638265      84.95150480
C      92.82731117      49.15084117      87.27397844
O      92.38133576      46.96253809      88.04498677
O      94.82286215      49.70264126      86.26864404
C      86.22838688      54.21719742      85.75463848
O      87.49072406      56.18818196      85.79432273
N      84.74684145      53.63138226      83.83089709
H      83.78686049      51.98732037      83.96317794
C      84.72227501      54.92206533      81.38748097
H      86.43058760      54.71608516      80.25742464
C      82.52074386      53.88271586      79.69428619
H      80.64424563      54.44585430      80.33112396
H      82.73050348      51.83992172      79.52421083
C      82.76262883      55.03922836      77.02977209
H      84.47283114      54.24176386      76.20396169
H      83.15758162      57.04611771      77.27921597
S      80.13024007      54.13404945      74.93784506
C      81.73272798      55.46252705      72.19018301
H      80.62534837      54.87860163      70.55368002
H      83.61300567      54.63482694      72.33002275
H      82.05965064      57.49020339      72.35836865
C      84.36133729      57.85681030      81.59913032
O      85.74272722      59.36103243      80.44450754
N      82.53586167      58.65805425      83.09957301
H      81.27730394      57.28422323      83.51720253
C      81.89713417      61.23375121      83.46995937
H      81.74406634      62.13893011      81.62747621
C      79.34222420      61.47563618      84.86646711
H      79.16081047      63.44851046      85.42960555
H      79.41781325      60.21140929      86.49163174
C      76.87613136      60.66872305      83.40570867
H      77.01786083      58.67884125      82.89926202
C      74.50452484      60.87848267      84.99496850
H      74.12657957      62.68695075      85.90770631
H      74.99018450      59.76732360      86.65981738
H      72.81133006      60.06779008      84.14648139
C      76.31677237      62.32790275      81.24575150
H      74.36279536      61.86869925      80.77331992
H      77.51296913      62.02365681      79.59979988
H      76.26574976      64.23652632      82.02053929
C      84.05520162      62.73419390      84.85890821
O      84.14401876      65.01131412      84.51119857
N      85.69359434      61.47941563      86.43116050
H      85.43848128      59.61614549      86.75808315
C      87.77796246      62.73041446      87.80121208
H      87.22238292      64.23274688      89.09756433
C      88.98171812      60.81234224      89.72873292
H      90.27240119      61.75909513      91.02130571
H      90.00972924      59.17961872      89.00685746
C      86.84065821      59.84291264      91.52775237
H      85.60099775      58.52766313      90.54320496
H      85.87311834      61.42083412      92.42915182
C      88.06142141      58.08168772      93.50062664
H      89.34076612      59.21174407      94.65335969
H      89.31808941      56.67573135      92.67103679
N      86.23027661      56.85525535      95.08421729
H      85.66713817      55.18095784      94.36234184
C      85.10777918      57.74153698      97.11000390
N      85.38556895      60.00920856      97.95282183
H      84.51629484      60.56100865      99.56097892
H      86.49672802      61.15627244      96.90780318
N      83.85111118      56.21085867      98.46871711
H      83.40702550      56.76643821     100.23939067
H      83.76796322      54.38727279      97.90935813
C      89.87744839      63.72818994      86.27242349
O      90.54641151      65.98074372      86.33100501
N      90.71837660      62.33357193      84.33923347
H      90.00972924      60.56100865      84.35057183
C      92.22448847      63.10080081      82.16793794
H      93.70603390      64.39337362      82.78020926
C      93.53406881      60.77454773      80.96796173
H      94.52428540      61.37926015      79.26720805
C      95.27261702      59.76354414      82.97863053
H      96.49149049      61.25453821      83.70806488
H      96.59542544      58.36892613      82.23974754
H      94.32019496      58.86970360      84.57355953
C      91.64245277      58.74498166      80.10624653
H      90.20248132      59.65771948      78.95162375
H      90.56341905      57.96452469      81.68038855
C      92.89534132      56.66439300      78.54344287
H      94.52428540      55.94062781      79.57712316
H      93.36588317      57.31634856      76.64804738
H      91.67646784      55.03733863      78.20707159
C      90.90168006      64.62958939      79.99475268
O      92.00905967      66.11491428      78.58690658
N      88.35054953      64.45006541      79.81900813
H      87.57009257      63.05922684      80.86780623
C      86.95593151      65.64626216      77.77621399
H      88.15779745      65.65382107      76.10569593
C      84.59944280      64.04755370      76.95796249
H      83.24261931      64.18361398      78.49808944
H      85.00006478      62.03499518      76.78221795
C      83.30875973      65.09824153      74.56556898
O      84.59377362      65.38359019      72.58135635
O      80.97494773      65.49508406      74.81879231
C      86.03185535      68.34479133      78.31289626
O      86.17169509      69.96617650      76.64237820
N      85.23439084      68.91926813      80.67505415
H      85.14746343      67.46795832      81.91093516
C      84.65235514      71.52142127      81.54243853
H      84.63156815      72.91037010      80.02120885
C      81.81965540      71.12457874      82.62147225
H      81.99162049      69.66571002      84.06333343
H      80.55353877      70.38380602      81.17394190
C      80.39858121      73.30343317      83.88002998
H      81.67036702      74.20861208      85.22551511
H      78.69593780      72.46628442      84.68316366
C      79.32710639      75.28008689      82.18116602
O      77.01219165      75.69582669      82.30777769
O      80.77274702      76.69171246      80.93205693
C      86.50806638      72.36990837      83.51720253
O      87.36789185      74.51285801      83.07122712
N      87.02585139      70.94883420      85.51842269
H      86.50428693      69.12335857      85.72818231
C      88.74361261      72.03164736      87.60279081
H      89.81130797      73.63602500      86.87146673
H      90.06642103      70.51986632      88.05632513
C      87.14301442      72.91792900      89.91581582
O      84.88101202      73.29020509      89.70794593
N      88.47149202      73.33744825      91.98317641
H      90.37066696      73.18060096      91.90191818
C      87.56253366      74.37490800      94.37556992
H      85.51029088      74.46372513      94.21872264
C      88.12378238      72.38880564      96.52418874
H      90.13067172      71.93527133      96.45804832
H      87.05230756      70.65592661      96.23317089
C      87.38489939      73.52264143      99.05831172
H      88.51306600      75.21961565      99.36066793
C      84.66180377      74.09900795      99.56853783
H      83.41458440      72.51163786      99.16224667
H      84.10622423      75.44827254      98.11533829
H      84.40291127      74.89080327     101.45259496
C      88.30708583      71.85590283     101.19181273
H      87.95181728      72.75730228     103.00972944
H      90.24783475      71.44394248     100.63812292
H      87.30742061      70.05688337     101.19370246
C      88.65479547      76.88257481      95.00673851
O      90.96404102      77.18115158      95.24106457
N      86.99750549      78.70238125      95.62278929
H      85.19092714      78.15814007      95.32988171
C      87.38300966      81.00973708      96.98150251
H      89.41068599      81.07587750      97.33677105
C      86.64223695      83.17914288      95.16925497
H      85.80886764      84.75706435      96.19915581
H      85.02841067      82.55553321      94.05053699
C      88.60944204      83.97849711      93.17181426
H      89.37100174      82.16624959      92.56143266
H      90.33287244      84.75895408      93.98817603
C      87.70426313      85.81531109      91.20271944
H      89.32186886      86.76017425      90.34478369
H      86.58554516      87.37811475      91.94160243
N      86.35877800      84.51328967      89.16370475
H      85.87311834      82.73505721      89.66070277
C      85.50840116      85.30508500      86.97162223
N      86.02429644      87.51417505      86.22140088
H      85.05675657      88.13211555      84.69639174
H      87.08632263      88.69903344      87.27397844
N      84.20449000      83.73661216      85.59212202
H      83.53552689      84.17124920      83.85735326
H      84.33677084      81.88468036      86.03809743
C      85.83721354      81.30453438      99.39279328
O      83.59977758      81.00217817      99.37389602
N      87.07498427      81.51807345     101.54708128
H      88.97982840      81.55964744     101.42424907
C      85.99217109      81.87334200     104.15112414
H      84.26685097      80.79997746     104.49127487
C      88.20504061      81.37445426     106.06352717
H      87.56631311      81.88845981     107.95325348
H      89.75650591      82.62923253     105.55708051
C      89.09699143      78.51151889     106.22037445
H      89.87744839      77.95593935     104.39867828
C      91.37222191      77.96538800     107.98537883
H      92.62888991      79.59811152     107.94191512
H      92.30574671      76.29864938     107.21626022
H      90.73538414      77.83499688     109.93935583
C      87.00317467      76.57076997     106.57564300
H      86.05453206      77.05076046     108.34064737
H      87.98583235      74.76230189     106.55674573
H      85.82209573      76.59533641     104.88811740
C      84.89046065      84.43014170     104.74449820
O      83.27096520      84.43959033     106.39422927
N      85.73138886      86.45025913     103.67113365
H      87.24694937      86.19136663     102.53918759
C      84.70526748      88.91824170     103.89979054
H      83.40702550      88.83887319     105.49849900
C      87.04096920      90.73048923     104.28340498
H      87.92347139      91.38622426     102.54107732
H      88.65857492      89.88767130     105.24338595
C      86.46649240      92.93579984     106.02195319
H      85.85989025      92.41045592     107.91923841
H      84.80542297      93.77861778     105.14323045
C      88.63022903      94.68379668     106.34131693
H      89.22927227      95.28472964     104.46481871
H      90.04941349      93.66523419     107.43546847
C      87.96882482      96.98170387     107.94758430
H      87.62300490      96.44313187     109.90534076
H      86.35310882      97.91333896     107.07453074
N      90.23271694      98.72025208     108.03262198
H      90.82609100      98.93190144     106.23360253
H      91.74260826      97.91711840     108.88299883
H      89.57131273     100.36809343     108.73182072
C      83.01396242      89.49460822     101.62833951
O      83.32576727      88.61210603      99.44192617
N      81.18092790      91.09331668     102.15746288
H      80.72928331      91.48637976     103.96971041
C      79.21750226      91.78117706     100.30364136
H      78.31988226      89.95381172      99.98427762
C      77.13691359      93.44224649     101.52818401
H      76.63046694      92.44447100     103.25539386
C      78.19705005      96.01983318     102.25383892
H      80.13968870      95.71747697     102.86611024
H      77.11234715      96.52250039     103.93191589
H      78.21216786      97.51838616     100.84410309
C      74.72751254      93.74460270      99.94459336
H      73.81099528      91.96448051      99.46460288
H      75.10545781      94.74804737      98.18714789
C      72.61479852      95.34331117     101.25795315
H      71.14459145      94.06774590     101.93069572
H      72.02520391      96.60186889      99.73861320
H      73.16470888      96.61320724     102.78485201
C      80.03386403      92.97737383      97.80731290
O      81.72138963      94.59686928      97.82621017
N      78.88113098      92.19313741      95.70782697
H      77.46761570      90.91946187      95.83254891
C      79.55576327      93.08319849      93.17748344
H      80.59322302      94.84820287      93.39291224
C      81.38312862      91.13300093      92.02852984
H      83.13868436      90.85143172      93.06787931
H      81.96894377      91.93802435      90.22573094
C      80.33055106      88.57620123      91.24618315
C      79.86945784      87.85810523      88.71394989
H      80.17559350      89.18091365      87.18894075
C      79.30442967      85.33721033      88.05065595
H      79.00207346      85.07831783      86.04943579
C      79.23262007      83.43992511      89.86479321
O      78.59200285      81.06075970      89.36212601
H      77.97028290      80.88501514      87.66704151
C      79.38190845      84.03896837      92.44804908
H      79.21372281      82.56687156      93.85211573
C      80.13024007      86.66001875      93.02252588
H      80.51385451      87.42913737      94.87256794
C      77.25218690      93.45925404      91.41625851
O      75.14325233      93.24382524      92.19104630
N      77.57533010      94.14900413      89.05032117
H      79.34978310      94.48159596      88.42671149
C      75.61946336      94.20191647      87.03209347
H      73.81099528      93.58397596      87.80310180
C      75.35301195      96.87021002      86.00597208
H      73.93382749      97.03272648      84.52253692
H      77.19927456      97.48059163      85.32756033
C      74.30988303      98.63899385      87.94483128
H      75.62702227      98.35742464      89.50385549
H      72.49007659      97.97192046      88.64025056
C      74.19649945     101.51515731      87.19838938
H      73.34801233     102.62631638      88.71017043
H      72.80944033     101.60586416      85.67904943
C      76.81566012     102.63009582      86.45572694
H      77.84556096     101.63609978      84.97607124
H      78.02130551     102.54694788      88.12435528
N      76.41692787     105.32295582      85.51086379
H      75.69694214     105.24169759      83.74585941
H      78.04398222     106.30561350      85.35590623
H      75.27742290     106.20923747      86.75997288
C      75.96717300      92.37833057      84.84568012
O      78.16681443      91.76605926      84.19750400
N      73.82233364      91.80763323      83.60601966
H      72.28220669      92.57108266      84.43560951
C      73.72217814      90.59820840      81.11536038
H      74.94672079      88.94469786      81.02276379
C      70.96695718      89.73649319      80.55789112
H      69.81044468      91.37866537      80.10246708
H      70.15626459      88.82942456      82.21707082
C      70.83278661      87.77495728      78.38092641
O      71.88347444      85.68114053      78.69651070
O      69.85957756      88.45714848      76.31356582
C      74.47617894      92.42557374      78.96863129
O      74.49507621      94.68190696      79.41838615
N      75.00908176      91.56385853      76.65371656
H      75.22262084      89.71003702      76.24553567
C      75.05254547      93.17957454      74.42950869
H      76.57944433      94.55718502      74.50887719
C      75.21128248      91.69991883      71.94829804
H      73.34045343      91.14433929      71.28689383
C      76.19960934      93.46681293      70.00187994
H      75.76686201      92.89611559      68.07246937
H      78.24240348      93.63310886      70.21919846
H      75.14703178      95.23559676      70.01888747
O      76.94038205      89.58720481      72.01632818
H      77.26730471      88.90501362      70.36848684
C      72.63180606      94.91812274      74.27266140
O      72.82833760      97.17445596      73.89093669
N      70.36413449      93.82775066      74.75454161
H      70.29421461      92.02117230      75.36114376
C      67.95284371      95.26205293      74.52966418
H      68.17394169      96.58108190      72.96119134
C      65.80044544      93.39689307      74.14793947
H      65.18250494      92.78273201      76.01498906
H      66.42216540      91.80763323      72.99520641
C      63.47041290      94.48348569      72.88182284
H      62.79200115      96.16534212      73.86259079
H      62.00965446      93.06619095      73.20307631
C      63.81623281      95.02394741      70.08502789
O      62.57657235      93.65389584      68.62993863
O      65.27510152      96.75682645      69.35748326
C      67.52765529      97.12721280      76.85969672
O      65.56800910      98.33663764      76.97874948
N      69.19817335      97.12532307      78.62092165
H      70.86869141      96.42990380      78.01431950
C      69.25675487      98.91489389      80.69395141
H      68.73330068     100.80084075      80.04955474
H      71.05955377      99.24181654      81.63692484
C      67.45773542      98.29884311      82.87469558
O      66.94372986      99.91455912      84.43183006
N      66.60546885      95.92156741      83.10146274
H      67.10057714      94.59120009      81.82400775
C      65.47163306      94.90678438      85.39181103
H      64.23197260      96.32218939      86.22895978
C      63.87859378      92.63344363      84.76442189
H      62.87325938      92.10809971      86.48596256
H      65.20140220      91.18402355      84.13892248
C      62.26665723      93.00382998      82.41360236
C      62.10036132      90.96103584      80.65237744
H      62.93373062      89.14122940      81.06433777
C      60.52621930      91.31063521      78.50753807
H      60.42417408      89.72137539      77.23008308
C      59.13349101      93.56696843      78.18061542
O      57.54423118      93.71436708      76.22474868
H      56.95652630      95.42078994      76.04144523
C      59.64182739      95.60598312      79.84357457
H      58.58169092      97.30673680      79.46751904
C      61.06668103      95.34709061      82.00164202
H      61.05534267      96.76060589      83.47562855
C      67.45773542      94.09420207      87.30799351
O      69.41360215      93.23815605      86.64658930
N      66.75286750      94.19435756      89.70227675
H      65.11447479      95.02205770      90.22573094
C      68.65393217      93.50649719      91.70349691
H      70.46051053      94.10176097      90.90981186
C      68.22874375      94.90300493      94.23384045
H      69.44761722      94.14522469      95.70971670
H      66.22752359      94.64789188      94.64580078
C      68.74652876      97.66578481      93.79164449
C      66.72074215      99.00560076      92.75607447
H      64.93495079      98.14010611      92.27797371
C      66.80577984     101.56617991      92.58032992
H      65.36013921     102.40332867      91.40869961
C      69.10179731     102.89465751      92.91859093
O      69.38903571     105.38531679      92.34600386
H      67.81300396     106.27726761      92.25529700
C      71.23529832     101.50759840      93.88613081
H      72.91526501     102.59230130      94.29620142
C      70.96884691      98.88465827      94.38879800
H      72.56188619      97.73381495      94.94248781
C      68.75597739      90.65678990      92.13057506
O      66.85113327      89.31886368      92.11923670
N      71.05766404      89.68547058      92.72583885
H      72.46362042      90.90056460      93.15858617
C      71.70017099      87.00205922      92.61245527
H      69.99185840      85.90790768      92.96583409
C      72.74707937      86.35010364      89.94038226
H      74.53476046      87.34787913      89.70983565
C      72.93983145      83.49094772      89.51330412
H      74.03398299      83.22449631      87.78798399
H      71.18994488      82.41191400      89.63235687
H      74.12280012      82.74828528      91.02697489
O      71.01986952      87.05686128      88.01286142
H      70.39814956      88.74060742      88.27742311
C      73.61446374      86.24427896      94.60422680
O      75.20372357      87.81275180      95.25618238
N      73.47840345      83.93503341      95.60011257
H      72.29354505      82.59710718      94.92737000
C      75.20183385      83.14701754      97.66558343
H      77.04242728      84.05975535      97.50495669
C      73.87335625      83.67236146     100.24505985
H      73.24029793      85.63011791     100.23183176
C      71.40915314      81.96026941     100.42836330
H      70.21106665      82.13223451      98.76162469
H      70.29610434      82.38545783     102.11021972
H      71.94772514      79.99873351     100.74961677
C      75.48529279      83.48149910     102.73760886
H      76.24307305      81.58421388     102.98894245
H      74.09445423      83.64590528     104.24938991
C      77.58288900      85.42413774     102.76595475
H      79.27986323      84.64746023     101.89290119
H      78.21405759      85.63956654     104.71615230
H      76.92337452      87.31386407     102.28596427
C      75.75174420      80.25006710      97.48605943
O      74.40058989      78.79497784      96.41269489
N      77.89280412      79.48472795      98.63690276
H      79.03041936      80.91903021      99.17547476
C      79.02475018      77.02052484      98.41202532
H      77.61690408      75.77141574      99.24539463
H      80.73873194      77.14335705      99.54775084
C      79.64647014      76.04164660      95.78530575
O      81.05809569      77.40224955      94.47005624
N      78.85656454      73.71917296      95.01996659
H      77.96650344      72.55321183      96.23884006
C      78.91892550      72.69872075      92.51229978
H      80.32299216      73.67948871      91.37090508
C      79.38001873      69.83011622      92.44426963
H      77.87768631      68.89470169      93.50062664
C      79.36301119      68.91359895      89.76085826
H      79.70316192      66.90293015      89.48117877
H      80.68204015      70.16837723      88.79709784
H      77.60367599      69.39358943      88.80465675
C      81.97272323      69.19705790      93.73117325
H      81.73272798      69.28398531      95.77396739
H      83.32198781      70.69372114      93.30409510
C      82.95916036      66.62136093      93.23795468
H      83.68103581      66.35679925      91.32744138
H      81.46627657      65.23997100      93.56109788
H      84.36700647      66.36435816      94.71950011
C      76.26386003      73.36957359      91.31232357
O      74.48373785      71.95794804      91.62412841
N      75.99362917      75.40480883      89.86290348
H      77.57533010      76.46116584      89.70605620
C      73.68627334      76.10022811      88.44371902
H      73.03998694      74.41270253      87.45350244
H      74.21917616      77.52697148      87.05665991
C      71.31844627      76.80131658      89.75518908
O      69.52698573      77.39847009      88.35490189
N      71.03498733      76.79753712      92.31765797
H      72.57889372      76.43470967      93.38157388
C      68.48385680      77.10934197      93.57054651
H      67.15726893      76.00196236      92.44804908
C      68.89392741      76.14558155      96.18214828
H      70.33389886      77.18304129      97.22716693
H      69.71028918      74.26341414      95.99884482
C      66.41649622      75.93393220      97.51440533
N      64.93684051      73.78531338      97.87912250
H      65.35258030      72.04865490      97.20449021
C      62.97530460      74.40136417      99.43625699
H      61.49564890      73.10501191      99.98616734
N      63.21718957      76.83155220      99.95971118
H      61.91705787      77.83688661     100.93103050
C      65.34124195      77.85200441      98.84666238
H      66.07256603      79.73606154      99.13201105
C      67.61458270      79.86267320      93.38913278
O      68.75030821      81.58610360      94.57966036
N      65.61714199      80.27841299      92.03419902
H      64.94628915      78.82143401      90.99862900
C      64.32267946      82.75395446      91.68648938
H      65.82879133      83.92747450      90.91548104
C      62.12870721      82.41191400      89.82510896
H      60.67739741      81.24784259      90.71139060
H      62.89782582      81.23839397      88.31710736
C      61.16305707      84.89690410      88.63458138
H      60.31834941      85.99105565      90.16148024
C      63.34947041      86.28396322      87.30232433
H      64.58535142      87.15134759      88.70261153
H      62.60869770      87.79385455      86.11368648
H      64.50409319      84.82509450      86.41793242
C      59.25065404      84.29597114      86.55399271
H      58.67617724      86.12522621      85.80188164
H      57.68785038      83.17536343      87.28531679
H      59.98008840      83.13756890      85.01575549
C      63.47041290      83.72905325      94.29053224
O      62.81278814      82.30986878      95.97238865
N      63.51009715      86.25939677      94.53619666
H      64.35858426      87.35165858      93.22094714
C      62.67294839      87.61622028      96.80197851
H      62.00587500      86.07798305      97.99817526
C      64.86314119      89.14311913      98.10588966
H      64.24142123      90.56986249      99.45515425
H      65.82501188      90.18813778      96.61300587
C      66.81144902      87.62566890      99.57042755
H      67.71284847      86.43325160      98.15124309
C      68.83345617      89.51161577     100.54174688
H      69.37580762      90.65112072      98.91469252
H      70.40570846      88.52328891     101.42991825
H      67.96607179      90.78718102     101.90612928
C      65.94595437      85.94003303     101.60755252
H      64.95951723      84.46415679     100.56064414
H      64.79700077      86.88678591     103.03240616
H      67.48230186      85.22571648     102.78107256
C      60.17284048      88.99194103      96.31064966
O      58.11114907      88.37400052      97.39157312
N      60.34858503      91.00638928      94.81020697
H      62.10414077      91.42023933      94.18470756
C      58.25098882      92.75060666      93.99006575
H      56.51433034      91.66779348      93.75573969
C      57.60092297      94.85009259      95.94971194