 %block lattice_cart
   137.614   0.000   0.000
   0.000 142.646   0.000
   0.000   0.000   160.855
 %endblock lattice_cart

 %block positions_abs
N      92.88872727      42.82498234      82.97579594
H      94.49310491      43.83598592      83.16854801
H      92.99077249      41.02974234      82.33706844
H      92.36905254      42.62656108      84.80316128
C      91.03490576      44.29518941      81.49236078
H      91.01411877      46.27373286      82.06305812
C      91.50922706      44.31975585      78.60485897
H      90.35838374      42.83632070      77.76015132
H      93.44808626      43.73772015      78.22124453
C      90.75711599      46.83876103      77.39165469
H      88.70676294      47.01261585      77.30661699
H      91.24088593      46.87655555      75.39043452
S      92.35771418      49.49760595      78.88453847
C      89.64595692      51.58575353      78.48013703
H      89.19053288      51.99393441      76.51482168
H      90.18830837      53.32430173      79.44011801
H      88.04913819      50.68624380      79.42311047
C      88.41007591      43.33898790      82.05360950
O      87.66741347      41.14879510      81.53960394
N      87.02679625      45.02084431      83.45389669
H      88.04724846      46.55719181      83.94711525
C      84.41141503      44.85832785      83.94900499
H      83.57804573      43.33142899      82.84540482
C      84.31692872      43.93425168      86.62863689
H      85.42430834      42.19948293      86.54926839
H      82.37240034      43.36544406      87.00469244
C      84.88384661      45.59343139      88.81316052
O      85.30147613      47.84976461      88.56371664
N      84.44165065      44.66746549      91.20177458
H      85.03124526      45.85610335      92.57371588
H      84.42653284      42.77584945      91.45877736
C      83.12829087      47.53229058      83.57294945
O      84.37173078      49.31430250      82.61107876
N      80.72455900      47.74016048      84.25514064
H      79.70032733      46.15090065      84.51403316
C      79.33183070      50.18168688      83.89609265
H      79.64930472      50.78073012      81.95156428
C      76.48779260      49.71681420      84.16632352
H      75.77536578      48.32408591      82.82839729
C      75.70733564      48.84187092      86.80060200
H      73.84217576      47.98393517      86.62485745
H      75.81316031      50.55396296      87.94010696
H      77.05093104      47.41134810      87.42799113
C      74.89853277      52.12432553      83.45767615
H      75.43521505      53.67201138      84.70678523
H      72.97668111      51.45347268      83.76192209
C      75.09695404      53.08619622      80.73269081
H      77.09817420      53.06540923      80.24136197
H      74.37885804      55.01371706      80.64009422
H      73.90075728      51.84464603      79.60452419
C      80.32015757      52.30951870      85.74046553
O      80.28803222      54.48459369      84.99780310
N      81.05904055      51.51583365      88.03081383
H      81.24990291      49.62043816      88.15553576
C      82.17775853      53.08619622      89.99990865
H      80.97967205      54.72080948      90.37218472
C      82.48956337      51.71803437      92.60962068
H      83.62150943      53.00871744      93.74534619
H      83.56481765      49.99460397      92.27702885
C      80.08016232      51.16434456      93.86817841
C      78.65530868      48.98926957      93.22189201
H      79.40930948      47.64189471      91.88396578
C      76.24401791      48.66801610      94.16297571
H      75.37852326      46.95403433      93.47133588
C      75.05349033      50.50294035      95.67097731
H      73.21667636      50.19302523      96.50434661
C      76.37818848      52.69124342      96.39285276
H      75.71111509      53.96491895      97.83849339
C      78.78947925      53.07107841      95.37051082
H      79.85150544      54.73970674      95.87695747
C      84.56826232      54.41845327      89.16842906
O      84.90652333      56.67100703      89.47456473
N      86.28035436      53.11454211      87.83050284
H      85.97988787      51.22859525      87.81349530
C      88.51023141      54.08208199      86.54170948
H      89.36438770      55.61842948      87.61696376
C      90.26578715      51.91456590      85.81416486
H      91.80591410      52.55140367      84.60662975
H      89.23777604      50.52561706      84.69355716
C      91.55458050      50.77506094      88.28214743
H      90.26767688      50.03617795      89.70889079
H      92.62227586      52.30762898      89.15142153
C      93.13439169      48.57164006      87.12752465
O      95.48332150      48.90612161      86.86863213
O      92.07047578      46.58175825      86.62107800
C      87.82237103      55.57874523      84.14742625
O      89.02612669      57.53461196      83.65042822
N      85.92697554      54.63955125      82.58462259
H      84.77802194      53.15233664      82.91343497
C      85.12762131      56.15322202      80.37364281
H      86.75656539      56.08708160      79.11508508
C      82.74845588      54.83608278      79.07351110
H      81.12329125      55.26694038      80.26214895
H      82.94876687      52.79895782      78.85241312
C      82.10594893      55.85653499      76.56584428
H      83.66119369      55.51827398      75.25815368
H      81.82248998      57.89365996      76.66033060
S      79.34694851      54.54884438      74.99548171
C      80.18787672      55.29528628      71.72247574
H      78.70633129      54.65844851      70.43935158
H      82.10972838      54.63577180      71.38799418
H      80.32582674      57.32107289      71.38421474
C      84.56259314      58.86875874      81.11252579
O      85.66808303      60.63943229      80.02404344
N      82.81648603      59.26560126      82.83028701
H      82.04358796      57.71980514      83.64097960
C      81.96232973      61.85452631      83.57294945
H      81.76012902      62.79749974      81.75503274
C      79.39419167      61.60319271      84.98268528
H      78.95766489      63.48347039      85.70078127
H      79.80426228      60.54872543      86.70422595
C      77.11707147      60.42778294      83.47846313
H      77.69721744      58.69679364      82.52793080
C      74.95333484      59.85519587      85.34362300
H      75.51269383      58.70246282      86.95744928
H      73.53037092      59.01804712      84.11341118
H      74.15020115      61.61264134      86.05982927
C      76.42354191      62.33451679      81.54716285
H      77.65186401      62.22680239      79.89554204
H      76.59739673      64.34518559      81.95156428
H      74.63019164      61.71279684      80.74402916
C      84.13551499      63.31528475      84.85040444
O      84.06181567      65.63586866      84.89197841
N      86.24822901      62.31184008      85.69322238
H      86.50523179      60.50904118      85.11874558
C      88.59715882      63.58551561      86.67965951
H      88.12283751      65.39020424      87.54893362
C      89.92941587      61.83751877      88.66954132
H      91.65095654      62.87119907      89.13063453
H      90.49633376      60.00070480      87.93254805
C      88.22299301      61.27438033      91.07327319
H      86.29358244      60.94934741      90.43643542
H      88.24189027      62.93922921      92.28836721
C      89.27368084      59.01237794      92.79481386
H      89.54391170      57.33997015      91.62507326
H      87.73922307      58.45112922      94.04959213
N      91.54702159      59.68134105      94.30281546
H      93.20620129      59.38276429      93.40897491
C      91.54135241      60.41644459      96.77268774
N      89.55902951      60.45990829      98.02368657
H      89.75745077      60.99848029      99.84538274
H      88.11716833      59.34685949      97.45865840
N      93.61438218      60.90210425      97.89896463
H      93.44241708      61.42555844      99.72632997
H      95.32647422      61.07784880      97.07504395
C      90.42074471      64.42833355      84.65765235
O      92.15740319      66.02704201      85.13953257
N      90.22043372      63.34552037      82.40320886
H      89.28312947      61.68634067      82.49202600
C      91.63394900      64.09196227      80.13553728
H      93.35548967      65.05761241      80.72324218
C      92.31802993      61.73925301      78.54060827
H      90.78924134      60.38620897      78.81083915
C      92.59204024      62.44223119      75.76082088
H      94.23988159      63.54583136      75.20146189
H      90.81002833      63.11875321      74.98414336
H      92.89250673      60.65832955      74.77816318
C      94.86727072      60.49581309      79.33996251
H      95.31513586      60.73958779      81.33551350
H      96.42062575      61.28760842      78.24203153
C      94.85026319      57.60642156      78.85619258
H      94.39294942      57.25115301      76.87764913
H      93.52934449      56.66911731      80.12797839
H      96.68140798      56.78250089      79.31728580
C      90.15429330      66.23869136      78.65966103
O      91.10104618      68.20400672      77.87353490
N      87.64851621      65.76059060      78.57273362
H      86.87939760      64.07873418      79.04894465
C      85.74934126      67.40843194      77.36141905
H      86.62617427      67.71834706      75.52460509
C      83.39663200      65.79460567      77.09685737
H      81.84516670      67.09284765      77.49181017
H      83.39474228      64.58518083      78.76548571
C      83.17364430      64.29416298      74.69690496
O      85.10116514      63.94456361      73.36653764
O      81.04203302      63.58740534      74.02038294
C      85.39596244      69.93121657      78.79005215
O      85.35438846      72.01558470      77.63731911
N      85.09738568      69.74413367      81.30905732
H      85.34493983      68.05282862      82.15565471
C      84.88006716      71.95700318      82.93611169
H      85.65863440      73.55760137      81.89865194
C      82.14563318      72.56927451      83.44633778
H      81.41430910      71.00836057      84.57450440
H      81.38785293      72.15731417      81.57739847
C      81.28391799      75.11662558      84.50647425
H      82.00201398      75.59094688      86.37730330
H      79.22789576      75.14119202      84.60474002
C      81.84894615      77.16697863      82.50714380
O      79.99134519      78.43876443      81.52259641
O      84.01268278      77.86428763      82.12163965
C      86.51090097      71.76992028      85.28504149
O      88.09449162      73.43287943      85.55338262
N      86.36728177      69.93121657      87.01225134
H      85.19943091      68.48179649      86.57950401
C      87.79213541      69.76303093      89.43488047
H      89.82737065      69.85562752      89.13252427
H      87.70898745      67.86763544      90.23612442
C      87.02679625      71.79448672      91.32460679
O      85.52068438      73.43665888      90.74257109
N      88.10960943      71.67165451      93.71700030
H      88.86738968      69.98034946      94.17809352
C      87.00411953      73.04170608      95.77680197
H      85.03124526      73.42721025      95.31381904
C      86.85861061      71.32205514      98.12762152
H      86.02146185      69.51736651      97.59093924
H      85.66241385      72.16109362      99.57893132
C      89.46454319      70.74946807      99.48633473
H      90.97443452      69.94255493      98.34305031
C      90.73821873      72.96233758     100.85638631
H      89.06014176      73.95066444     101.52723915
H      91.62827982      74.25680010      99.52412926
H      92.06858605      72.15542444     102.20565090
C      88.60093827      68.96556643     101.67085834
H      90.21854399      68.54604719     102.87650374
H      87.77512787      67.15709835     101.12661718
H      87.21009970      70.00680563     102.77823797
C      88.13039642      75.65708730      96.31159453
O      90.37539128      76.11818052      95.90341365
N      86.47310644      77.46177593      97.25456795
H      84.66652809      76.86651214      97.41897415
C      87.15907709      80.03369344      98.11061398
H      89.18486370      80.09983386      98.48666952
C      86.45042972      82.09349512      96.12262190
H      86.39940711      83.97377280      96.96166038
H      84.62684383      81.66641698      95.26468614
C      88.41574509      82.29947529      93.93998801
H      88.46298825      80.61572915      92.75512961
H      90.27145633      82.84938565      94.64863537
C      87.53135318      84.42919685      92.11640211
H      89.24722467      85.08871133      91.18476704
H      86.82081608      85.97499297      93.27858380
N      85.50934602      83.40118573      90.41375871
H      85.08793705      81.53980531      90.39486144
C      85.03124526      84.44620438      88.25947070
N      85.87217347      86.64773554      87.59806649
H      85.65674467      87.02946025      85.74046553
H      86.83215444      87.82692476      88.75268928
N      83.99945470      83.38606792      86.37163412
H      83.83882796      84.18542215      84.64631399
H      83.28135870      81.65696834      86.74579993
C      85.99311596      80.49856612     100.56158901
O      83.78024644      79.91464068     100.61261162
N      87.25734286      81.35272241     102.43619751
H      89.03557532      81.97255264     102.12628240
C      86.63373318      81.30358952     105.22165410
H      84.98400211      80.09227496     105.45975961
C      88.97510408      80.18298182     106.65784609
H      88.83715406      80.62328805     108.66284571
H      90.68152694      81.28091281     106.30257755
C      89.63083911      77.40319441     106.01911860
H      89.73855351      77.19721425     103.97443473
C      92.30291212      76.37518330     106.83548037
H      92.24055115      75.85739829     108.82725190
H      93.73532466      77.83783147     106.60115431
H      92.69219574      74.69521661     105.70731376
C      87.65040593      75.48512221     106.93752559
H      85.92130636      75.86495720     105.88494802
H      87.27435040      75.79125787     108.93874575
H      88.28535397      73.60484453     106.38761523
C      85.62839878      83.87361731     106.30635700
O      84.53046779      83.88684539     108.32836416
N      85.75123099      85.89940392     104.77945813
H      86.51845987      85.82003541     103.03146129
C      84.41330476      88.31447415     105.38228083
H      83.01301756      87.84393229     106.81847283
C      86.34838450      90.21931827     106.41974058
H      87.19309217      89.18374825     107.98632369
H      85.43186724      91.93330004     107.10571123
C      88.42330400      91.26433692     104.61127250
H      87.44253604      92.40006243     103.20153667
H      89.41352058      89.64673120     103.80624909
C      90.11460905      92.98398787     106.31013644
H      91.29757772      91.79346029     107.50255376
H      89.02612669      94.26333258     107.50255376
C      91.71709696      94.59592441     104.41663069
H      90.76278517      96.41573085     104.54891153
H      91.61316201      93.81357772     102.51367629
N      94.32680900      95.02867174     105.31236096
H      95.14695022      93.30902079     105.40684728
H      94.37594188      95.64094306     107.12082903
H      95.39261464      96.11148491     104.15773818
C      82.83160384      89.23477086     103.15996268
O      83.06781962      88.19353166     101.07370484
N      80.86628847      90.76733890     103.58515111
H      80.77369188      91.76322467     105.21220546
C      79.01813614      91.32291844     101.59904875
H      78.30192986      89.49177364     100.98488769
C      76.81660498      93.00288513     102.90484964
H      77.75390923      94.68852100     103.62483536
C      75.21600679      94.02144761     100.78457671
H      76.36307067      94.97197995      99.35972306
H      73.76091753      95.30457178     101.47432681
H      73.93666208      92.60793233     100.00411974
C      75.39175134      91.56669313     105.14039587
H      76.79959744      90.94875263     106.51233717
H      74.60373547      89.80924766     104.40718206
C      73.16376402      93.08603309     106.31202617
H      71.70867476      93.25421873     104.86260610
H      73.97823606      94.94930323     106.63327965
H      72.43243994      92.12038294     107.98065451
C      80.31448839      92.49076930      99.22555251
O      82.09461057      93.98554281      99.56948268
N      79.37718414      91.74432740      97.00134464
H      77.96177913      90.46498269      96.92953504
C      80.33527538      92.61171178      94.61651002
H      81.35194813      94.38994424      94.83193883
C      82.16830990      90.49521831      93.85117087
H      83.27757925      89.96042576      95.50468140
H      83.66308341      91.23599103      92.64363576
C      80.76046380      88.19353166      92.74001180
C      80.14441302      88.01967684      90.11896139
H      80.41086443      89.52200926      88.76402764
C      79.23923411      85.80869705      88.99268452
H      79.07671765      85.68397512      86.96311846
C      79.07482793      83.66196796      90.44588406
O      78.71389020      81.38862721      89.37062977
H      78.48901277      81.56059230      87.57727951
C      79.89496915      83.72243921      93.08583171
H      80.04047807      82.01223689      94.18754216
C      80.55070418      86.02790531      94.17809352
H      81.23667483      86.32270261      96.07726847
C      78.23012026      93.03501048      92.66442275
O      76.21756174      91.98999182      92.83638783
N      78.73278746      94.87182445      90.90697728
H      80.54125554      95.47086769      91.02036084
C      77.02636460      95.63149443      88.88685985
H      75.06860814      95.27433616      89.41220376
C      77.11329201      98.43395855      88.16498440
H      76.05315555      98.71363805      86.42076701
H      79.03892313      99.15205455      88.01191655
C      75.79615277     100.10636634      90.17187374
H      76.72589812      99.79267177      91.98223155
H      73.86674221      99.49409501      90.54981900
C      76.03803774     102.93339690      89.19866468
H      75.27647804     103.19039968      87.30515892
H      77.93532296     103.71763332      89.38007841
C      74.35996077     104.55856153      90.89752864
H      75.01002663     104.12014503      92.80237277
H      72.42866048     103.83668608      90.87485193
N      74.65664781     107.26653934      90.17376347
H      74.42232174     107.49897568      88.29537551
H      76.47267479     107.76353736      90.48556831
H      73.58895244     108.33612443      91.34350405
C      77.33061054      93.90050513      86.53415059
O      79.41686839      93.67940715      85.57416962
N      75.30293420      92.74399262      85.66298676
H      73.62674696      93.00288513      86.54359922
C      75.43710477      90.68041149      83.84695977
H      77.26258039      89.73743806      83.99246869
C      73.23179417      88.85871532      84.12097008
H      71.54237884      89.81302711      83.43121998
H      73.16187429      88.39762210      86.12596970
C      73.54737846      86.27545945      82.62808630
O      75.56182671      85.43642097      82.03660196
O      71.40064937      85.14162367      82.46368011
C      75.67332056      91.60637738      81.07473126
O      75.32372119      93.84381334      80.80261067
N      75.93788225      90.03601482      79.05083439
H      76.15520077      88.22187756      79.60452419
C      75.79615277      90.62938888      76.39576892
H      77.55737770      91.63661300      76.03294147
C      75.74513016      87.96487478      75.02949679
H      76.00402267      88.36927621      73.02638690
C      78.12996477      86.55324922      75.58885577
H      79.64174582      87.68708501      74.76871456
H      78.22256136      84.65218455      74.80272964
H      78.59105799      86.33026152      77.58251704
O      73.49635585      86.60805128      75.82696130
H      73.99524360      85.22099217      76.88520802
C      73.63997505      92.41140079      75.52271536
O      73.86296275      93.44130163      73.43267805
N      71.83717615      92.91406799      77.16677725
H      72.01103097      91.87471852      78.75792680
C      69.56761484      94.43718740      76.85119296
H      69.76414638      95.54267729      75.12587284
C      67.35096588      92.63627822      76.50915250
H      67.01648432      91.79912947      78.36108428
H      67.98591392      91.11504854      75.27516121
C      65.03038197      93.67751742      75.22791806
H      64.40110310      95.29512315      76.33529768
H      63.47324749      92.34148092      75.39232424
C      65.49147519      94.15561818      72.37632104
O      64.25559418      93.01611321      70.74926670
O      67.13175763      95.80534925      71.73948327
C      69.08195518      96.60659321      78.70312474
O      67.18089051      97.96152697      78.70690420
N      70.84318011      96.93351586      80.49836474
H      72.29826937      95.70141430      80.56072571
C      70.84318011      98.92339767      82.41265750
H      69.46745935     100.31045678      81.75692247
H      72.61763311      99.97030604      82.34462735
C      70.03815670      98.15805851      85.15654011
O      70.82995202      99.26732786      86.91020612
N      68.42622015      96.29478837      85.20945244
H      67.95945775      95.54834647      83.51814739
C      66.97868980      95.35559439      87.36940962
H      66.05461363      96.79556584      88.51458376
C      64.92266757      93.54334685      86.49824579
H      63.98725304      92.91217827      88.22356591
H      65.88075881      91.90306441      85.70645046
C      63.09152277      94.75655115      84.67654961
C      62.08240892      93.29201325      82.61485821
H      62.86475561      91.43252256      82.30683283
C      60.21913877      94.44285658      80.92355316
H      59.40844619      93.41484546      79.35697004
C      59.50293250      96.91650832      81.22212991
O      57.56029385      97.63649405      79.72924613
H      56.89699992      99.29378402      80.06750713
C      60.43456757      98.42639965      83.21579118
H      59.55017566     100.20652183      83.67877413
C      62.16555688      97.34736592      84.89575787
H      62.67389325      98.64182845      86.39053139
C      68.69456129      94.08758803      89.24779756
O      70.71656844      93.09548172      88.70166667
N      67.86875089      94.21608942      91.57405066
H      66.21335064      95.04189982      92.04837197
C      69.55060731      93.85704142      93.86061950
H      71.52726103      94.33703191      93.53936603
C      68.58306744      95.51244167      96.00545887
H      69.49391552      94.72253607      97.67597693
H      66.57428836      95.21575464      96.35127877
C      69.51281278      98.24498592      95.95443626
C      67.56450495     100.13660196      96.13773971
H      65.58029232      99.66039093      96.20954931
C      68.06150297     102.71040920      96.23411574
H      66.48736095     104.00865118      96.30025617
C      70.68066364     103.54944768      96.41741920
O      71.37419320     105.96451791      96.32671233
H      70.09295876     107.19284001      95.95821571
C      72.54015433     101.58224259      96.23978493
H      74.53192587     101.98475429      96.43064729
C      72.02047960      99.00276617      96.04514312
H      73.40753871      97.51177211      96.18876232
C      69.33328878      91.04890812      94.48422919
O      67.31695081      89.95853604      95.03224982
N      71.62741653      89.88105726      94.55981824
H      73.22423526      90.88639166      94.28391819
C      72.06961248      87.10315958      94.67509154
H      70.31405674      86.16207588      95.20043546
C      72.79904684      86.19609095      92.04270279
H      74.64153000      86.93875339      91.50224105
C      72.87841535      83.42764190      91.33405542
H      71.25136099      82.26923967      91.83105344
H      74.42421147      82.47521984      92.30915420
H      73.24313252      83.16119049      89.32338662
O      71.09829316      87.18819726      90.33439019
H      71.17766166      88.99288589      90.49879639
C      74.03303812      86.26223137      96.66119389
O      75.77158633      87.70976173      97.26023713
N      73.80627096      84.01723651      97.52668854
H      72.10740701      83.23300009      97.15252274
C      75.48623766      82.65474384      99.28980320
H      77.22667559      83.76023373      99.26145731
C      74.32972515      82.48277874     102.01289881
H      73.18266128      84.16463516     102.32848311
C      72.54960297      80.16975374     102.33604202
H      70.93766642      80.67053121     101.15685280
H      71.78237408      80.08849551     104.24466559
H      73.29226541      78.26679934     102.06959061
C      76.32338641      82.18987117     104.18041489
H      77.36273589      80.41163870     104.11616420
H      75.31049311      82.29947529     105.97187544
C      78.12996477      84.50856535     103.84404361
H      79.45466291      83.99644952     102.35304955
H      79.17687315      84.84682636     105.58448155
H      77.21344751      86.17530396     103.05413802
C      76.13441378      80.15085647      98.20699002
O      74.68310397      79.20599332      96.68387061
N      78.23767917      78.90741656      99.11783811
H      79.71166569      79.87495643      99.84916218
C      78.79514843      76.12762915      98.83437916
H      77.04904132      75.14119202      99.30492100
H      80.23323016      75.75913252     100.26490198
C      79.71355542      75.44543795      96.16419588
O      81.07037891      76.77391555      94.87540252
N      78.82916350      73.21934036      95.42153344
H      77.68965854      72.19510870      96.55914868
C      78.63074224      72.45967038      92.81371112
H      80.16331028      73.47634314      91.88774523
C      78.84617104      69.58161720      92.47733984
H      77.23612422      68.64809241      93.35606258
C      79.00301833      68.96367670      89.59550721
H      80.66030830      69.84428916      88.74890982
H      77.28147765      69.55327131      88.63174679
H      79.05404094      66.91143392      89.44243938
C      81.47667007      68.95800752      93.57527083
H      81.28391799      69.10540617      95.62184443
H      82.79002986      70.51892146      93.28803242
C      82.80325794      66.33128795      93.00457348
H      84.49456299      66.20278656      94.17620380
H      83.30781487      66.48057633      91.01469168
H      81.47100089      64.90643431      93.66408797
C      76.09095008      73.29681914      91.72333904
O      74.17476760      72.07038676      91.98601100
N      76.05315555      75.56827016      90.68587930
H      77.61595921      76.66053197      90.57816490
C      74.05193539      76.49045661      89.07016330
H      74.08972991      75.51535783      87.25413631
H      74.50735943      78.47844869      88.78103517
C      71.43844389      76.73045185      90.27391895
O      69.68288815      77.12729437      88.92276465
N      71.30616305      76.82871762      92.81938030
H      72.92187905      76.90430667      93.83227360
C      68.78715788      76.84761488      93.97967225
H      67.53993851      75.63063113      92.88552073
C      68.90810036      75.53803454      96.65174527
H      70.28760057      76.59250183      97.76101460
H      69.99847244      73.79948634      96.48355962
C      66.39665409      75.45866604      98.06148110
N      64.87731414      73.30626777      98.13707015
H      65.51226218      71.56960929      97.66274884
C      62.76271039      73.69744111      99.53546762
H      61.61186707      72.11762992     100.12506223
N      62.95357275      76.22589492     100.31025541
H      61.52682938      77.15941972     101.16630143
C      65.11730938      77.29548001      99.31436964
H      65.86942045      79.19276523      99.35405388
C      67.81961801      79.55370296      94.29336683
O      68.93077708      81.02579976      95.71822047
N      65.71068344      80.13384894      92.97244814
H      65.09463266      78.89418848      91.65908835
C      64.87353468      82.77001714      92.96866868
H      66.51381712      83.93597828      92.52836244
C      62.90255014      82.94765142      90.83327795
H      61.49848349      81.46421626      91.10728826
H      63.82284685      82.61316986      89.02103041
C      61.63832324      85.54791482      90.59895189
H      60.79739503      86.06758956      92.40741997
C      63.19923717      87.92896998      89.94510657
H      64.71668740      87.81180695      88.55615773
H      64.24236609      88.66407351      91.56271231
H      61.87075957      89.41996404      89.44810856
C      59.93756955      85.04902708      88.40875908
H      58.52594400      86.54191086      88.28025770
H      58.83585911      83.30858914      88.38230291
H      61.21313481      85.17563874      86.79682254
C      63.75670643      83.52023849      95.53491702
O      62.27894046      82.13317938      96.54403086
N      64.55984012      85.62161415      96.70465760
H      65.96201704      86.48521907      95.74278691
C      63.23514197      86.82725954      98.83626889
H      62.53783296      85.23799971      99.94742796
C      64.94912374      88.02345629     100.79969451
H      63.82662631      88.67352215     102.40218244
H      65.56328479      89.86971890     100.12317250
C      67.26025902      86.45687318     101.65763027
H      68.62464141      86.12239162     100.15151839
C      68.40543316      88.13872960     103.71743195
H      68.69078184      90.04735317     102.99744623
H      70.24980604      87.55480417     104.42418959
H      67.03538159      88.37116594     105.23866163
C      66.50058904      83.91519129     102.81225305
H      68.19756327      83.25756653     103.77979292
H      66.02626773      82.68120001     101.23433157
H      64.94534428      83.94920636     104.16340736
C      61.08274370      88.52234404      98.00856875
O      58.97569886      88.11227343      98.82304079
N      61.66855886      90.54246147      96.54214114
H      63.46001940      90.91095810      95.99601023
C      59.64844143      92.35092955      95.72199991
H      58.00060008      91.13394580      95.52168893
C      58.93979406      94.04034487      97.97077422