 %block lattice_cart
   137.614   0.000   0.000
   0.000 142.646   0.000
   0.000   0.000   160.855
 %endblock lattice_cart

 %block positions_abs
N      91.14545474      42.47254839      80.02215371
H      92.80652417      42.93931079      79.20768167
H      90.57475740      40.84171458      79.21335084
H      91.72182127      42.28168602      81.83251151
C      89.51651066      44.71754325      79.73869476
H      90.23271693      46.11027154      81.07284154
C      89.83965386      45.89862219      77.14221081
H      89.30675104      44.53423979      75.69279072
H      91.85788156      46.14617633      76.81339843
C      88.33543172      48.23999309      76.41088672
H      86.32476292      47.79968686      76.31451068
H      88.80786329      49.18485624      74.64210289
S      88.66991327      50.63427633      78.93556108
C      91.78040278      51.70008197      78.17211165
H      91.60465824      52.76588761      76.41844563
H      93.08431394      50.11082213      78.07006642
H      92.16023777      52.84525611      79.84262971
C      86.82365067      44.15440480      80.15443455
O      85.80508818      42.49711483      78.88075901
N      85.64068199      45.52067693      81.95912318
H      86.82554039      46.73577094      82.83028701
C      82.82310006      45.62461187      82.38053214
H      81.91036225      45.23532825      80.57395379
C      82.22405682      43.64228897      84.47056945
H      83.04230831      41.78657774      84.11908035
H      80.20960857      43.24733618      84.29104545
C      82.78530553      44.50400416      87.09539930
O      81.53241699      45.94019617      88.23490426
N      84.74684145      43.56858965      88.28025769
H      84.91691682      43.94653491      90.14352784
H      86.08665740      42.42341550      87.54893361
C      81.99539994      48.30613351      83.06650280
O      83.51096044      49.97854129      83.47846313
N      79.50852011      48.86549249      83.25736515
H      78.29909527      47.39150598      83.29893913
C      78.41058912      51.29757027      83.65231795
H      78.89624878      52.54856909      82.09140402
C      75.38135784      51.10859764      83.69011248
H      74.64625430      50.00499747      82.11408073
C      74.35523645      49.85948854      86.08817517
H      74.83522694      50.98387570      87.74546515
H      75.10167835      47.99432866      86.54170949
H      72.34078820      49.50610972      85.84251075
C      74.21161725      53.76177338      83.48224259
H      74.72184336      54.93907286      85.09228940
H      72.17260256      53.47075553      83.49169122
C      75.08845026      55.55134419      81.38653610
H      75.08656054      54.51955363      79.60452419
H      76.91581561      56.30534499      81.96479236
H      73.84878980      57.13115540      80.92922234
C      79.53686600      52.67518074      86.02959366
O      79.89591400      55.01088247      85.88408473
N      80.04331265      51.30323945      88.10073369
H      79.56521190      49.45508711      88.18955083
C      81.13368474      52.60148143      90.21533744
H      80.12646061      54.31924264      90.74635053
C      80.99384499      50.84403595      92.48678847
H      81.93114924      51.90228269      93.98345171
H      81.96516432      49.05068568      92.19955007
C      78.21594731      50.38105300      93.39007764
C      77.09156015      47.95842387      93.24834817
H      78.06665893      46.38806131      92.38096379
C      74.49885565      47.70709026      94.05148185
H      73.36879932      46.00822632      93.93242910
C      73.27431300      49.73665632      95.15508202
H      71.34679216      49.58547823      95.80325815
C      74.47617894      52.19141081      95.33271629
H      73.40848357      53.68807406      96.22088766
C      77.00652247      52.47109031      94.59761276
H      77.84745068      54.31546318      94.83382855
C      84.04386326      53.11359726      90.02447508
O      84.93014490      54.95797014      91.11484716
N      85.42336347      51.83803199      88.28781660
H      84.37645509      50.72120374      87.14831163
C      87.93292001      52.70919583      87.45255757
H      89.02896127      53.41217401      89.04748658
C      89.47871614      50.46609069      86.29037589
H      91.29285340      51.30890863      85.79904704
H      88.53574271      49.63650083      84.65765235
C      89.95492717      48.43841435      88.32372140
H      88.12567210      47.57480942      88.70355639
H      90.51806561      49.35682135      90.07927714
C      91.70670346      46.31247226      87.29382056
O      93.02006325      45.26556387      89.01158178
O      91.68780620      45.70209065      85.04315652
C      87.70237340      54.85592492      85.43244014
O      89.15935239      56.61526011      85.47212439
N      85.79186010      54.73687216      83.70523029
H      84.73361336      53.15328151      83.58806726
C      85.47627580      56.46219227      81.57928819
H      86.92569589      56.10314427      80.16010373
C      82.97427817      55.90283328      80.33584827
H      81.29620120      56.18818196      81.49425050
H      83.03852886      53.87515696      79.99002836
C      82.75695964      57.49398284      77.99447737
H      84.53897155      57.47697531      76.96457653
H      82.44326507      59.50276192      78.31384112
S      80.30976406      56.58691422      75.83829965
C      81.34155463      53.24020892      75.43956740
H      83.24261930      53.15328151      74.64966180
H      80.18126268      52.41817796      73.94857334
H      81.15069227      52.18763136      77.20079232
C      85.56509294      59.20040571      82.46745956
O      87.23939045      60.78210663      81.77015055
N      83.74150705      59.91094280      84.02648376
H      82.58121509      58.59569329      84.78237429
C      83.30309054      62.53388293      84.78426401
H      83.41080494      63.53543786      82.98713429
C      80.61778945      62.61892060      85.80282650
H      80.23984419      64.46707294      86.63430608
H      80.52330314      61.25831766      87.34484317
C      78.46161173      62.12759176      83.87908511
H      79.24395842      60.61014154      82.72446233
C      75.91804011      61.28666356      84.89008869
H      75.46828525      62.55278019      86.45100262
H      76.00118807      59.33457628      85.54015454
H      74.70483582      61.29044301      83.22712953
C      78.09878428      64.39148388      82.17644170
H      76.72873270      63.78488174      80.76481615
H      79.86756811      64.61636132      81.14465114
H      77.44871843      66.01286907      83.26870351
C      85.47060663      63.84346326      86.26580944
O      85.54241623      66.17349581      86.16376422
N      87.12222742      62.36002810      87.51302881
H      86.59688351      60.54778057      87.80215694
C      89.56375382      63.27087618      88.74135091
H      89.21793390      64.92060725      89.92242986
C      90.74294304      61.01454297      90.32305184
H      92.36810767      61.71752116      91.37373967
H      91.31741984      59.48764411      89.06449411
C      89.06297635      59.75976470      92.23356514
H      87.25261854      59.40071669      91.32271706
H      88.66424409      61.30178137      93.54125575
C      90.07775938      57.38437872      93.52802767
H      91.81819731      57.80011851      94.54659015
H      90.45570464      56.19196142      91.89152468
N      88.33354199      56.40739021      95.41964370
H      86.93325479      55.26410579      94.80548265
C      87.79685972      57.46752668      97.63062349
N      89.04596881      59.31189956      98.59627364
H      88.78896603      59.90905308     100.38962391
H      90.73160468      59.81834621      97.86117010
N      85.74650667      56.77210739      98.85894559
H      85.42714292      57.69618356     100.49922803
H      84.66369349      55.27166470      98.39029347
C      91.39678834      64.24597497      86.76280746
O      93.00872489      65.72563067      87.34106372
N      91.18891845      63.57512211      84.33828860
H      89.81508742      62.34113084      83.86018785
C      92.94447419      64.35368937      82.29927391
H      94.16145794      65.82578616      83.06839252
C      94.78695735      62.25987260      81.53204503
H      95.87921916      63.06300629      79.98057973
C      96.59542543      61.93861914      83.74113509
H      98.19413389      60.83690869      83.04949526
H      95.59953966      61.08257312      85.33039492
H      97.23037347      63.69417488      84.61229892
C      93.70792362      59.72197017      80.56828461
H      92.00150076      59.47441603      81.69645122
H      95.09498274      58.27821927      81.05205455
C      92.71581731      59.64071193      77.94723421
H      94.19358329      60.13393051      76.59796963
H      91.22104380      61.03532996      77.69590061
H      92.06575146      57.73775754      77.50125880
C      91.55552535      65.70484368      80.08262495
O      92.61944127      67.06355690      78.48580621
N      89.00250510      65.39303883      79.97869000
H      88.35621871      63.89826532      80.97646549
C      87.26017744      66.60624312      78.24203152
H      88.22204814      66.78954658      76.42789426
C      85.08888191      64.84312848      77.82062255
H      83.71316115      65.06233672      79.33618305
H      86.06398069      63.03088094      77.70345952
C      83.75284541      65.44595116      75.33185300
O      84.98305724      66.05444304      73.35141982
O      81.36990053      65.25130936      75.33752218
C      86.27940949      69.16871201      79.13776179
O      85.74272721      70.56710947      77.45023619
N      86.21893825      69.90003609      81.60574436
H      86.78207669      68.69439070      82.97390621
C      85.86366970      72.50596867      82.53926915
H      86.42302869      73.93271204      81.16165867
C      82.98183707      72.80832488      83.29515968
H      82.91380692      71.61968703      84.97512637
H      81.82343484      72.04676518      81.77393000
C      82.12768078      75.45772117      83.95656389
H      83.28041383      76.32132610      85.42866069
H      80.26063118      75.26874854      84.80694073
C      81.94437733      77.26052007      81.79282726
O      79.89213455      78.31876682      81.12386415
O      83.88890570      77.43626463      80.34718663
C      87.49828296      73.10312219      84.86741197
O      88.50550708      75.16103415      85.17543736
N      87.86866932      71.35701507      86.62485744
H      86.89546027      69.73374018      86.37730330
C      89.36722228      71.37213289      88.96622835
H      91.21726434      72.19983301      88.59773171
H      89.72249083      69.45217096      89.62385310
C      88.15212826      72.70061048      91.26224582
O      85.89579505      73.30532290      91.29815062
N      89.60721752      73.32799962      93.29559133
H      91.49883356      73.06910712      93.27669407
C      88.68692081      74.59411625      95.57460126
H      86.65546502      74.26152441      95.67853621
C      89.94547853      73.21272631      97.68731528
H      91.98638295      73.31666126      97.42842278
H      89.74894700      71.19827807      97.30559056
C      89.10266060      73.83066683     100.51623557
H      89.46737778      75.79031301     101.02835140
C      86.12445193      73.59445103     100.60127325
H      85.42336347      71.67070964     100.82993014
H      85.28352372      74.37490800      98.89107094
H      85.46871690      74.92103890     102.03557553
C      90.16846624      71.90125625     102.49099957
H      92.22448847      71.86913090     102.36816736
H      89.41257571      69.99452240     102.29446803
H      89.60721752      72.53809402     104.36749780
C      89.19903664      77.52130231      95.98467187
O      91.30986093      78.35845106      95.54814509
N      87.23183155      78.89324361      96.87851242
H      85.47816553      78.16002980      97.03724943
C      87.37356102      81.64468512      97.65518993
H      89.35021475      82.20971330      97.79502968
C      86.62522940      83.33976963      95.44232042
H      87.07498427      85.28618772      95.94876707
H      84.59377362      83.04497233      95.28169368
C      87.95181727      82.59143801      92.87229263
H      87.40757610      80.65635826      92.43576586
H      90.00972923      82.58765855      92.99512484
C      87.12978633      84.33187595      90.77847588
H      87.13356578      86.25183788      91.52491777
H      85.11722781      84.03329919      90.46478131
N      88.77195849      83.97093821      88.63363651
H      90.04185458      85.32965143      88.20088919
C      88.60188313      82.06042491      87.09350957
N      86.81231231      80.41636303      86.99713353
H      87.08632262      78.94237649      85.81794431
H      85.58021075      80.44659864      88.45600224
N      90.38200531      81.87334201      85.47968330
H      89.83398468      81.02107545      83.86018785
H      92.14889942      82.57632019      85.62330250
C      86.12634166      82.20026466     100.21009991
O      83.95315640      81.53886045     100.59371435
N      87.43781172      83.23205523     102.05258306
H      89.27840515      83.60055185     101.70487342
C      86.36255745      83.37567442     104.72087662
H      84.65991404      82.26262562     105.04968900
C      88.16724607      82.27018453     106.52745497
H      87.48694460      82.74450584     108.41151211
H      89.90201483      83.27740865     106.06069257
C      88.52251462      79.39591082     106.17596588
H      89.00817428      79.10300323     104.19553270
C      90.75806085      78.57010042     107.92585244
H      91.33253765      76.62557204     107.55546609
H      90.08153883      78.27908257     109.85148356
H      92.43613782      79.67748004     107.47987703
C      86.22082797      77.71216466     106.75800158
H      86.77451778      75.72984177     106.69564061
H      84.56731745      78.17514762     105.62227607
H      85.69548406      78.12412500     108.70441968
C      85.46304772      85.98727619     105.60148908
O      84.23472562      86.28396323     107.55546609
N      85.77296284      87.80897236     103.98577308
H      86.67814174      87.20614966     102.41730024
C      84.63912705      90.41112549     104.09726693
H      83.70560225      90.79285021     105.89250693
C      86.72538490      92.29707236     103.49633397
H      87.05230755      92.34809497     101.46298845
H      88.40535159      91.66779349     104.50922727
C      85.83910326      94.87087959     104.41663068
H      85.72571968      94.86143096     106.47265291
H      84.02496600      95.32819335     103.55113603
C      87.67024805      96.98548333     103.63239426
H      86.61200132      98.60119933     102.91429826
H      88.48472009      96.19179829     101.91652277
C      89.53918738      97.79050674     105.70731375
H      90.45948409      96.22014418     106.67485362
H      88.59999340      98.84497402     107.20586672
N      91.66890893      99.43267890     104.70575881
H      92.83864952      98.66167057     103.41129628
H      92.91045912      99.92211803     106.07014120
H      91.04529925     101.14099150     104.13128201
C      82.57176646      90.57742140     102.01856799
O      82.89679939      89.23949518     100.05892180
N      80.57054630      92.00605450     102.50233793
H      80.10945308      92.74682721     104.19931215
C      78.82065973      92.62399501     100.55025064
H      78.09689455      90.95725640      99.58649022
C      76.62668748      94.14522468     101.73510904
H      77.48840268      95.88755234     102.42674887
C      74.90136736      95.07874949      99.57137241
H      75.78009009      96.56596409      98.44887498
H      73.17226778      95.88755234     100.34616020
H      74.40058988      93.42145951      98.45832362
C      75.16025986      92.86021080     104.00278062
H      76.40369978      92.16101206     105.49188495
H      74.16626382      91.22748725     103.23744146
C      73.31399725      94.65923025     105.34070685
H      71.65292783      95.23370704     104.26167312
H      74.19083026      96.39210927     106.02289805
H      72.58078344      93.69546983     107.00744546
C      79.90347291      94.12443770      98.40541128
O      80.75951893      96.27683597      98.68320105
N      79.80898659      92.97548410      96.17364450
H      79.10789813      91.20481055      96.05459175
C      80.99384499      93.84475821      93.85306059
H      81.81587594      95.65511600      94.38785314
C      83.12356654      92.04762848      93.27858379
H      84.11000368      91.56385854      95.02280118
H      84.38590372      93.16067728      92.09372539
C      82.27885888      89.68547058      91.89719386
C      82.00673829      89.60043290      89.26480510
H      82.65680415      91.27662015      88.29726523
C      81.15825118      87.32331269      88.08183643
H      80.99195526      87.25528255      86.04849092
C      80.48361889      85.19926032      89.53125651
O      79.62001396      83.10922301      88.33128030
H      79.73150781      83.31520319      86.53415058
C      80.80676209      85.37500486      92.14474800
H      80.19260103      83.81031147      93.30126051
C      81.67036701      87.52362368      93.32015777
H      81.49462246      87.63889699      95.35161356
C      79.02475017      94.00160548      91.67798560
O      76.91392588      93.12099302      91.78570000
N      79.79953796      95.42834885      89.82038464
H      81.53241699      96.22581336      89.85817917
C      78.00807742      95.78172768      87.72278843
H      76.02386479      95.66078519      88.25947070
C      78.30287472      98.50293357      86.73257184
H      77.45438761      98.73159044      84.87119143
H      80.28708735      98.70891374      86.22234574
C      77.86256849     100.48525646      88.72245365
H      79.28931186     100.32651946      90.19832990
H      76.01063670     100.19234889      89.57472022
C      77.84178150     103.19323428      87.79081858
H      77.05565535     104.51415296      89.16464961
H      76.72873270     103.36708910      86.06738818
C      80.41558874     104.23258374      87.21634178
H      81.30376011     102.96268767      85.85951829
H      81.58154987     104.04550084      88.90386738
N      80.30787434     106.83473688      86.17321285
H      82.02374583     107.42055204      85.57794907
H      79.64647013     108.13675831      87.40531441
H      79.15703101     106.78560400      84.65198317
C      78.52964188      93.63688831      85.70834018
O      80.67448124      93.24193551      84.87497088
N      76.55109843      92.02873121      85.10740721
H      74.90892626      92.29140317      86.04660119
C      76.80810121      90.20136587      82.90209661
H      78.20271923      88.69714372      83.08162061
C      74.13035902      88.85777046      82.49769518
H      72.59401153      90.16735080      82.09518347
H      73.62958155      87.95826074      84.28159682
C      74.32878028      86.83576331      80.43222432
O      75.73662639      84.90446302      80.69111682
O      73.20439313      87.17024487      78.34596647
C      77.66981641      91.67346266      80.44923185
O      77.25218689      93.93168561      80.15254482
N      78.56932613      90.36577206      78.48580621
H      78.92270495      88.49305329      78.60107952
C      78.92081522      91.51850512      75.96680104
H      80.46094217      92.87154915      76.16522230
C      79.96961333      89.55885893      74.01093430
H      80.12835034      90.55285496      72.21380458
C      82.24673354      88.32675736      74.86509060
H      83.79441939      89.68547058      74.90288512
H      82.69270895      86.84332222      73.50826711
H      81.95949514      87.58598466      76.76615527
O      78.41814803      87.57275656      73.54228218
H      78.57877476      87.32709214      71.75082163
C      76.56432651      92.82808544      74.94067965
O      76.92715396      94.60064873      73.52338492
N      74.27397822      92.06274629      75.67956264
H      74.02264462      90.50939125      76.76237582
C      71.74930387      93.29862729      75.13154201
H      71.64914837      93.60476296      73.09819650
C      69.72729671      91.39189344      75.88365308
H      69.81233440      91.27095096      77.93967531
H      70.38303174      89.69113977      74.92367211
C      67.00987027      92.08164355      75.36586807
H      66.44862156      93.62554994      76.61119771
H      65.74564337      90.58498031      76.00459556
C      66.69239625      93.00382999      72.51805052
O      66.32578935      95.34331116      72.14199498
O      66.70562434      91.44291606      70.72470025
C      71.31088736      95.84597837      76.49214495
O      70.05799882      97.45224573      75.52460508
N      72.59590126      96.21069554      78.59918979
H      73.89414323      94.87276931      79.01492958
C      72.59590126      98.55395617      80.22435442
H      71.68316345     100.19801807      79.38342621
H      74.61034950      98.95079870      80.38309143
C      71.52253671      97.94168484      82.70556507
O      72.04977035      99.36653849      84.47245917
N      70.17516185      95.83275029      83.04760553
H      70.19216939      94.54395694      81.64164916
C      68.50275406      95.43779749      85.24535724
H      67.53332446      97.14799980      85.86518747
C      66.42216539      93.59153488      84.58206330
H      65.08234943      93.47626157      86.14297723
H      67.18939427      91.76227980      84.02648376
C      64.64204320      94.62710490      82.52415134
C      63.75198211      92.96414573      80.65332229
H      64.50031373      91.07630915      80.44923185
C      61.80745373      93.72948490      78.95256861
H      61.34447079      92.54462649      77.35952933
C      60.77566317      96.20502637      79.08673918
O      59.06168140      96.84564359      77.32173480
H      58.14894359      98.35742464      77.74125405
C      61.64682700      97.87554443      80.93111206
H      60.87203921      99.76338101      80.89331754
C      63.55356085      97.14988952      82.58273286
H      64.06000750      98.38010135      84.13041871
C      69.93705633      94.43435282      87.56405142
O      71.79465730      92.99249163      87.33539454
N      69.00164181      94.97103509      89.80526683
H      67.45017650      96.02928181      90.13974839
C      70.45106189      94.48159596      92.14852746
H      72.40503890      94.90867411      91.65341916
C      69.79154741      96.08030443      94.43131684
H      70.52854067      95.02394742      96.03758421
H      67.73552518      96.06518661      94.51635453
C      70.90648593      98.76560553      94.38407368
C      69.27754185     100.81028940      94.77146758
H      67.26120387     100.52305100      94.68265044
C      70.29799406     103.23858771      95.01713200
H      69.21896033     104.96390783      95.20232518
C      72.94928008     103.49370075      94.86784362
O      73.99618845     105.83696138      94.79603402
H      72.75841772     107.15032117      94.94343267
C      74.66326184     101.45090662      94.52391343
H      76.68715872     101.70790938      94.49367781
C      73.62202264      98.99048296      94.42564766
H      74.86357283      97.40878202      94.06848939
C      70.20161802      91.79062569      92.67765082
O      68.05677865      90.85899062      92.57182615
N      72.36346492      90.63222347      93.10283924
H      74.00185763      91.60732225      93.17464884
C      72.77542525      87.88456142      93.14063377
H      71.15781953      86.77718179      93.77180236
C      73.57666921      87.11922226      90.45155323
H      75.12246534      88.35699299      89.87707643
C      74.24374260      84.45092869      89.87518670
H      74.82577830      84.08432179      87.93443778
H      72.59023208      83.30764429      90.32116211
H      75.85000997      83.82542929      91.00713276
O      71.63214084      87.76361893      88.75457900
H      71.61135385      89.57964592      88.74513037
C      74.78042487      87.20425994      95.16453065
O      76.25630112      88.83698348      95.95821570
N      74.80499132      84.92336027      96.12451162
H      73.51430824      83.57220596      95.73144855
C      76.63991557      83.99550465      97.79880913
H      78.39736104      84.98950070      97.38873852
C      75.74040584      84.25817661     100.61072189
H      74.42893578      85.83609809     100.79591506
C      74.37035426      81.85255502     101.65007136
H      72.64125469      81.48972757     100.59371435
H      73.94894530      82.06420436     103.65507098
H      75.50041060      80.14991162     101.38361995
C      77.80776643      84.98761097     102.32281393
H      78.58255421      86.51450984     101.17575005
H      79.47072558      83.78385532     102.47966121
C      77.09911906      85.93625359     105.11016024
H      78.91136659      86.48427421     105.91707337
H      76.18638125      84.54730474     106.32903371
H      75.82355380      87.55574903     105.10827051
C      77.24840744      81.18359191      97.16008164
O      75.96339355      80.03463830      95.71066156
N      79.12868512      80.11022736      98.52446404
H      80.15102705      81.18359191      99.72632997
C      79.33844474      77.40791874      98.75123119
H      77.44115952      76.61801314      98.87217368
H      80.27574899      76.87879537     100.50678694
C      80.68770933      76.24573704      96.42686783
O      82.36578629      77.46461053      95.30248067
N      79.96205442      73.99696274      95.62940333
H      78.65625354      73.25241056      96.80292337
C      79.97150305      73.18627015      92.94410223
H      81.54564507      73.90814560      91.82916371
C      80.48172916      70.22695874      92.68709946
H      78.77152685      69.26697778      93.31637832
C      80.52708259      69.36146410      89.88463533
H      80.09055581      67.34701585      89.84873053
H      82.46594179      69.59012097      89.23645921
H      79.20238445      70.44427727      88.73946119
C      82.69459867      68.94005513      94.28013874
H      82.11634242      68.54132287      96.21899793
H      84.25173315      70.27798136      94.46155246
C      83.74339678      66.56655887      93.03480910
H      85.05108738      65.69350532      94.36706615
H      84.78841543      67.04465964      91.32649651
H      82.29208697      65.22485320      92.46411175
C      77.51674857      74.03475726      91.76680274
O      75.57977910      72.73084611      91.96711373
N      77.66414723      76.13046375      90.37974363
H      79.12301594      77.30020433      90.76335807
C      75.82544352      77.01296594      88.55993719
H      75.61946336      75.47283899      87.20878287
H      76.72495325      78.43781957      87.37696852
C      73.15903970      77.82176879      89.56716131
O      71.33734353      78.29042091      88.21600700
N      72.91148555      77.90113730      92.09561512
H      74.41003852      77.80854071      93.27291461
C      70.39814955      77.92381402      93.25590708
H      69.12825347      76.68037410      92.21277815
C      70.47184888      77.05642964      95.96577461
H      71.54143397      78.42081204      97.08071313
H      71.44127848      75.24040265      95.99034105
C      67.98874850      76.72761726      97.12417684
N      66.68294762      74.56766008      97.72322008
H      67.23852716      72.83856051      97.13929465
C      64.53999798      75.10056291      98.97988808
H      63.13026215      73.71917297      99.50334227
N      64.50220346      77.71216466      99.21232441
H      63.24553546      78.84977990     100.09293688
C      66.57901267      78.67214563      98.14462905
H      67.25931415      80.58265894      98.37139621
C      69.35880008      80.59210756      93.29748105
O      69.81044467      82.24939754      94.95477103
N      67.65237722      81.30264467      91.53625613
H      67.39348472      79.89668829      90.27202923
C      66.33712771      83.77440667      91.18287731
H      67.62592105      85.36744597      90.97878687
C      64.45873975      83.48527856      89.01725096
H      63.04711420      82.02829956      89.37062978
H      65.64926733      82.90891203      87.43743976
C      62.81089841      85.75106041      88.22167618
H      61.44273656      86.30852967      89.65597845
C      64.26220821      88.19447652      88.11585150
H      62.97152514      89.63066853      87.39586578
H      65.81178379      87.89967922      86.79493281
H      64.89526653      88.98249240      89.91109150
C      61.52210506      85.49027818      85.66298675
H      62.79200114      85.98916592      84.12097008
H      60.01788292      86.89623454      85.66865593
H      60.85314195      83.55330871      85.44377850
C      64.85747200      84.37722938      93.58849891
O      63.51387659      82.82576407      94.60328194
N      65.11069533      86.71860028      94.52202371
H      66.11414000      87.89401004      93.40330573
C      64.05055887      87.78062647      96.73678294
H      63.18506422      86.17813854      97.70243309
C      65.99319752      89.02784583      98.57737637
H      65.02376792      90.22026314      99.94931768
H      67.37647718      89.97459872      97.37928989
C      67.38025663      86.93591881      99.97955330
H      68.38370130      85.69814806      98.67375242
C      69.36446926      88.33431627     101.53668778
H      68.38937048      89.50783631     102.91996744
H      70.54365848      89.53996166     100.35749856
H      70.63247562      87.33276133     102.81603249
C      65.67950295      85.31453362     101.81258782
H      64.78566240      86.64112149     103.11082980
H      67.02309836      84.22227181     102.93130580
H      64.42094523      84.14857248     100.67308285
C      61.82446127      89.54752057      96.34749932
O      59.99520620      89.62121989      97.81770640
N      61.81690237      90.93080023      94.27257983
H      63.41939028      90.90245433      93.23512009
C      59.85158700      92.55596486      93.27858379
H      58.15083332      91.39756263      93.35228312
C      59.33947117      94.75371656      95.15886147