 %block lattice_cart
   137.614   0.000   0.000
   0.000 142.646   0.000
   0.000   0.000   160.855
 %endblock lattice_cart

 %block positions_abs
N      88.71337698      41.08359954      80.36797362
H      88.32409336      40.62628577      82.18022116
H      90.59554438      41.35572013      80.19600853
H      87.96882481      39.61717192      79.40232348
C      87.30931033      43.37772729      79.64987763
H      88.00850906      45.05769398      80.61741750
C      87.76662409      44.04480068      76.76426555
H      86.83687876      42.75222788      75.45846466
H      89.78107234      43.80291571      76.39954837
C      86.82365067      46.74332985      76.19734765
H      84.77140789      46.63750518      76.05750790
H      87.41702473      47.17229772      74.27171654
S      87.82709533      49.08848020      78.42533497
C      91.09443213      48.87116168      78.54816718
H      91.59709933      49.56091178      80.42277569
H      91.75583634      50.19963928      77.11953409
H      91.78418224      46.94364084      78.31384112
C      84.58243527      43.25867453      80.35096609
O      83.31253917      41.38973521      79.89554205
N      83.79252966      45.04068644      81.96290263
H      84.76951816      46.67718943      81.89109303
C      81.37745943      45.19564400      83.28193160
H      80.11323253      44.25645002      81.95345400
C      81.60989577      43.81425407      85.95967378
H      83.21994258      44.62872611      86.95366983
H      82.01618692      41.80547499      85.75369362
C      79.25529678      44.08826438      87.46767538
O      78.96616865      45.69831120      89.00024342
N      77.63958078      42.29113466      87.05760477
H      76.02764424      42.36294426      88.07994671
H      78.04587195      40.89462691      85.82361349
C      80.54031068      48.01700539      83.63153097
O      82.14657804      49.60059604      83.89042347
N      78.13090963      48.61226917      83.87341593
H      76.78353476      47.26111486      83.85829812
C      77.11612659      51.11237709      83.93010772
H      77.69816230      52.00432791      82.16510335
C      74.14169739      50.94797090      83.91498991
H      73.45005756      49.78767894      82.35785543
C      73.08911982      49.91807006      86.49446633
H      74.01886518      48.17196294      87.07272258
H      71.06900239      49.67051591      86.17510258
H      73.38769659      51.14450243      88.11963096
C      72.81699923      53.40083565      82.97579594
H      73.48596235      55.02222083      84.05671939
H      70.78176399      53.20241439      83.22901926
C      73.17226779      53.95074601      80.14120647
H      75.02797902      53.96019464      79.25114537
H      72.49196630      55.86503876      79.79916600
H      71.99685802      52.72053418      78.98091451
C      78.15925552      52.66573212      86.22801492
O      78.49373708      54.99576466      86.21856629
N      78.73373232      51.51299906      88.39553100
H      78.55798778      49.61571385      88.28214742
C      79.63891123      52.78478487      90.76146835
H      78.57688503      54.50443582      91.14697251
C      79.58977834      51.06891338      93.01024266
H      80.80109290      52.00810736      94.38785314
H      80.35700722      49.21131241      92.55670834
C      76.98762521      50.74388045      94.03258459
C      75.41348318      48.58959246      93.35228312
H      76.30543400      47.00600181      92.42064805
C      72.90203691      48.46109107      94.28958737
H      71.91182034      46.75088876      93.77747154
C      71.99118884      50.45853178      95.81837596
H      70.17705157      50.25822079      96.73111377
C      73.57288976      52.55801772      96.38907331
H      72.88880883      54.22097687      97.35283373
C      76.01630588      52.68651910      95.43476152
H      77.26163553      54.18885152      96.02813558
C      82.38279384      53.60681582      90.23801416
O      83.01585214      55.53244693      91.14697251
N      84.15157766      52.02511490      89.33283525
H      83.50907071      50.45475233      88.45600224
C      86.78963559      52.65439376      88.87552149
H      87.42269391      53.65216925      90.56115736
C      88.36755706      50.24877216      88.36529538
H      88.28062965      49.08470075      90.06037988
H      90.40657176      50.53034138      88.42198717
C      87.57765147      48.53668012      86.16187450
H      87.70048368      49.43996930      84.31561189
H      85.64824090      48.03212320      86.66643143
C      89.07053525      46.09893318      86.15053614
O      90.47460191      45.57925844      84.30049408
O      88.75495095      44.63817474      87.99679875
C      87.13545550      54.40994950      86.37541357
O      88.80030439      55.98787097      86.17510258
N      85.40446620      54.19263098      84.53293042
H      83.97205366      52.93785270      84.65009345
C      85.30809016      55.68929422      82.19155952
H      87.04285892      55.52488803      81.09362853
C      83.17647888      54.80679203      80.30183320
H      81.30753956      55.06379481      81.13142305
H      83.59788785      52.81691022      79.96168247
C      83.26151656      56.09558537      77.78849721
H      85.17958877      56.00487851      77.03827586
H      82.97805762      58.09302609      78.19856782
S      80.84266688      55.21308319      75.31673519
C      82.10500407      52.23676424      74.24526037
H      81.14313337      51.71708951      72.50104298
H      81.84989101      50.93474281      75.82318184
H      84.09866532      52.27833822      73.71802673
C      84.86400448      58.42183846      82.77926440
O      86.43436705      59.94495787      82.02904305
N      82.63223770      59.08135295      83.99813787
H      81.49840192      57.70752192      84.67843934
C      81.99539993      61.74964650      84.28915572
H      82.30153560      62.64159732      82.45612120
C      79.27419405      61.88759652      85.23401888
H      78.70727616      63.80755846      85.72534772
H      79.15892074      60.73486347      86.93666229
C      77.06132453      60.98808680      83.57672890
H      77.52430748      59.13804474      82.80005139
C      74.56499607      60.67817168      85.05449488
H      74.00941653      62.52065484      85.79148814
H      74.59334198      59.26654613      86.55493757
H      73.21195203      59.93550924      83.69011248
C      76.35456689      62.74931172      81.43944844
H      76.02008533      64.69384010      82.03093278
H      74.61412895      62.04066435      80.59474078
H      77.66414722      62.66427404      79.85396807
C      83.92103106      63.18016932      85.80471623
O      84.00795847      65.56689365      85.74424498
N      85.36856140      61.81389720      87.40531441
H      84.93581408      59.97330377      87.65286856
C      87.65513024      62.84946722      88.59395226
H      86.84821710      64.49541883      89.53503597
C      88.77573795      60.99375598      90.41186898
H      90.27618064      62.03499517      91.36996022
H      89.50517231      59.33835573      89.42921130
C      86.76884861      60.30778532      92.49434737
H      85.13612507      59.67283728      91.40964447
H      86.49105883      62.01231846      93.61873453
C      87.96126590      58.26688091      94.04203323
H      89.32753803      59.06245568      95.36295192
H      88.97037975      56.89304988      92.88741045
N      86.04130397      56.79667384      95.54247592
H      85.28919290      55.23009072      94.75068059
C      85.08132301      57.35981228      97.79502968
N      85.68981487      59.40638587      99.01957233
H      85.06242574      59.73330853     100.79213562
H      86.78963559      60.83879842      98.40163183
N      83.71694060      55.66472777      98.84949697
H      82.98750625      56.23920457     100.51434585
H      83.18592752      53.95452546      98.18620303
C      89.76784426      63.84535298      86.81005063
O      91.05474788      65.65571079      87.59617677
N      89.92658127      62.69450966      84.57261467
H      88.61511121      61.43028275      83.99813787
C      91.59898906      63.48252553      82.42588558
H      92.81975225      64.97918877      83.14209185
C      93.64556265      61.44540057      81.72857657
H      94.75483200      62.17672465      80.15632428
C      95.35387524      60.86147513      84.06805775
H      96.11543494      62.58490553      84.89575787
H      96.84297958      59.60291741      83.39909463
H      94.25972370      59.80133867      85.45511686
C      92.30952616      59.01332280      80.71757299
H      90.96404101      58.35002886      82.13108827
H      93.71926199      57.51854929      80.58529215
C      91.22104379      59.12292693      78.08707396
H      89.68091685      60.48919905      78.01904382
H      90.82231154      57.29367186      77.22913822
H      92.69314060      60.08857707      77.01370942
C      90.44625600      64.85824629      80.12797838
O      91.91835280      65.44784090      78.33651784
N      87.97449399      65.39492856      80.27915649
H      87.11277879      64.94895315      81.92132865
C      86.37389580      66.63080957      78.24770070
H      87.45859870      67.03899045      76.54505729
C      84.41235989      64.77131888      77.42755948
H      82.76262882      64.80344422      78.65966104
H      85.00573395      62.84001858      77.82251228
C      83.82087556      64.79021614      74.63076454
O      85.06242574      66.19617252      73.13599102
O      81.97083349      63.56189404      73.87865347
C      84.95093189      69.05154898      78.97524533
O      84.26685096      70.46695398      77.32173481
N      84.53897155      69.41059697      81.39598474
H      84.91124763      68.05755293      82.68855754
C      83.32954671      71.64803293      82.46934928
H      83.08388229      72.95005436      80.89331754
C      80.73306276      70.85245815      83.63342069
H      81.12423610      69.19516817      84.79371265
H      79.57466053      69.94727925      82.19155952
C      79.32521665      73.03131259      84.95622911
H      80.51196478      74.00641137      86.33006014
H      77.62068352      72.34156249      85.88408473
C      78.41436857      74.95316425      82.96067813
O      76.39992032      74.46561486      81.70589985
O      79.77686124      76.89013372      82.49391573
C      85.01329285      72.85934750      84.50647425
O      85.33454633      75.13079852      84.67843934
N      86.48538965      71.34756645      86.01069639
H      86.26996085      69.45217095      85.94077652
C      87.98772207      72.33400358      88.09317479
H      89.33887639      73.73807023      87.42232195
H      88.97226948      70.71639786      88.90386738
C      86.48349993      73.54342842      90.35517719
O      84.44259551      74.55254227      89.93187849
N      87.63245353      73.29965373      92.57560561
H      89.46170860      72.74785364      92.59828232
C      86.61011159      74.02908808      94.86973335
H      84.55975854      73.88357916      94.73745251
C      87.50773159      72.15258985      96.80670282
H      89.55997437      72.27542207      96.92008640
H      87.14112468      70.18349504      96.32860206
C      86.44948485      72.71194884      99.47310665
H      86.62711914      74.74529436      99.75467587
C      83.73772759      71.80676994      99.52790871
H      83.55820359      69.98129432      98.59627364
H      82.41680890      73.11635027      98.64351680
H      83.14246381      71.42126577     101.46109873
C      87.93292001      71.22662396     101.48377545
H      89.72249084      72.23195836     101.67463780
H      87.88000768      69.27075723     100.84126850
H      87.01640276      71.13402737     103.32625860
C      87.51340077      76.81454467      95.59916771
O      89.70170384      77.26618926      96.16230615
N      85.54052651      78.52096753      95.68798484
H      83.80953719      77.83877633      95.26468615
C      86.00917862      81.04942134      96.76134939
H      87.97638371      81.22894534      97.34905427
C      85.38745866      83.09032575      94.67698127
H      84.62211951      84.54919447      95.91097255
H      83.95126667      82.19648521      93.49968177
C      87.68158641      83.91991561      93.33716531
H      88.96849004      82.36845030      92.91575634
H      88.78140713      85.03107468      94.68076072
C      87.44537062      85.58476449      90.88808001
H      89.33698666      85.97593783      90.16998401
H      86.53263281      87.38567366      91.29248144
N      86.20571016      84.20148483      88.83961669
H      86.35499855      82.30797906      88.65631323
C      84.65613458      85.25784184      87.20311370
N      84.55030991      87.74094221      87.01036161
H      83.24450903      88.54029644      85.86896692
H      86.03185534      88.87099855      87.43177058
N      83.49584264      83.64779502      85.61952305
H      82.47350069      84.33565539      84.16254406
H      83.76229404      81.76373788      85.77070115
C      84.43881606      81.20059944      99.27657511
O      82.12012187      80.97950146      99.19342715
N      85.59532857      81.62578786     101.48566517
H      87.33954595      82.39112702     101.36850214
C      84.62589896      81.52752209     104.03112652
H      83.03096995      80.22928012     103.91207376
C      86.23783552      80.28975136     106.05691312
H      85.08321273      80.42770138     107.75577708
H      88.03685496      81.28752685     106.19297342
C      86.82365067      77.44193380     105.66951923
H      87.83087479      77.04131183     103.91963266
C      88.93258523      76.88257482     107.76144626
H      89.20092637      74.85678821     108.01089013
H      88.27685021      77.57988383     109.58503215
H      90.80719373      77.46083107     107.13405712
C      84.30464550      76.12101511     105.91140420
H      84.81865104      74.13680248     106.12683300
H      83.40702549      76.30620829     104.06703132
H      83.25773711      76.73706589     107.57436335
C      83.63568238      84.02763001     105.10071161
O      81.74406633      84.03518891     106.41785085
N      84.53519210      86.11199813     104.01789843
H      85.87311834      85.78696520     102.69886947
C      83.61867485      88.71415126     104.29001902
H      82.62278908      88.63478276     106.08903847
C      85.88067723      90.41679467     104.87016500
H      87.19781647      90.19380696     103.30358189
H      86.76506915      89.86310486     106.64461801
C      85.07754355      93.22870742     105.12527805
H      83.80764747      93.43090814     106.73532487
H      84.06465025      93.90900890     103.46798807
C      87.28663361      95.05985222     105.66951923
H      88.71148725      94.92190220     104.19175325
H      87.94047891      94.62332544     107.57247363
C      86.31909374      97.83019100     105.71298293
H      85.69548405      98.38199108     107.59704007
H      84.62967842      98.08719377     104.56591906
N      88.25228377      99.61598236     104.95331296
H      88.83620919      99.38732548     103.15051405
H      89.83020523      99.61787209     106.02856723
H      87.65135079     101.41122236     105.18763902
C      82.01429720      89.40201164     101.95242757
O      82.64735552      88.98816158      99.81892656
N      79.70694137      90.53017825     102.27368104
H      79.54253518      91.06497080     104.09915666
C      77.56588146      91.17268520     100.42552871
H      76.78164504      89.34531985      99.89073616
C      75.46072634      92.55029568     101.99400155
H      74.84089611      91.31441467     103.52090041
C      76.25063194      95.06363167     103.28846407
H      74.82955775      95.78550713     104.59426496
H      76.81566012      96.52627984     101.95431730
H      77.74729518      94.78017273     104.67363346
C      73.29510000      93.06619096     100.10805469
H      72.65637249      91.55063046      98.86650450
H      73.93949666      94.56474393      98.84949697
C      70.70239549      94.15089386     101.34015625
H      71.02364896      96.16912157     101.59337957
H      70.45295161      93.37799580     103.23366201
H      69.07723086      93.97514932     100.08915743
C      78.29720554      92.65234090      97.95376669
O      79.85245029      94.32663841      98.26935099
N      77.51107939      92.04195930      95.65208004
H      76.29976483      90.56986250      95.57838072
C      78.38791240      93.21169989      93.38251874
H      79.30065021      95.03339605      93.68298523
C      80.48172916      91.40323181      92.30348502
H      82.02563555      91.33331193      93.66597769
H      81.09777993      92.31596961      90.56493681
C      79.70127220      88.76517387      91.70633150
C      78.71294534      88.12266693      89.33472498
H      78.58066449      89.64011716      87.97790149
C      78.22917539      85.57909531      88.82260915
H      77.74540546      84.89690411      86.96311846
C      78.59578231      83.70070735      90.67076148
O      77.91737055      81.28563713      90.16242510
H      77.70383148      81.08154668      88.37096456
C      79.49907147      84.30919923      93.05748582
H      79.79008933      82.88056613      94.48800864
C      79.91481126      86.83954276      93.62440371
H      80.41180928      87.17969350      95.57460127
C      76.24685249      93.68224174      91.56460203
O      74.06232887      92.72604022      91.84239180
N      76.54542926      95.54740161      89.87329698
H      78.27263910      96.29951268      89.56149214
C      74.65003375      96.09164279      88.04971109
H      72.83589650      95.77227904      88.97000780
C      74.81255022      98.92056308      87.27303357
H      76.49251691      99.16055832      86.10707244
H      75.25663590      99.98636872      88.98134616
C      72.51086358     100.23392287      86.11085189
H      70.98396471     100.13187765      87.49035210
H      72.04977035      99.37031794      84.30049408
C      73.08911982     103.08363015      85.63653059
H      74.65948239     103.15355002      84.30238381
H      73.67115552     103.81117478      87.47523429
C      70.61546808     104.28360635      84.64064482
H      68.96951646     103.37086855      85.47212440
H      70.37169339     103.80928505      82.65076301
N      70.59279136     107.06339376      84.85796334
H      68.97707536     107.73235688      84.09640364
H      71.97607102     107.83062264      83.78648852
H      70.64003452     107.51314862      86.71178486
C      74.85034475      94.44569117      85.74046553
O      77.00085329      93.96381096      85.06394351
N      72.65637249      93.69735955      84.65576263
H      71.07278184      94.65167134      85.12819421
C      72.25575052      91.85865585      82.55816642
H      73.62202265      90.32986726      82.74902878
C      69.50808847      90.88922625      82.75469796
H      68.29299445      92.51628060      82.41643695
H      68.96951646      90.16546107      84.60851947
C      68.90337605      88.92202116      80.88764836
O      69.42871995      86.77529206      81.48102242
O      67.80166560      89.44547535      78.92989190
C      72.45984096      93.22114852      79.90688040
O      72.35023683      95.47559201      79.75381257
N      72.59401153      91.78495652      77.79038693
H      72.48818685      89.88578158      77.95290340
C      72.68849785      92.94524848      75.32240437
H      74.04532133      94.49482405      75.30728656
C      73.44060891      90.88166734      73.35141982
H      73.38580685      91.73771336      71.47870105
C      76.04276205      89.77806718      73.79361578
H      76.35834635      88.24549914      72.45379983
H      75.97473190      88.87477800      75.64743729
H      77.76052327      90.89300570      73.60464315
O      71.73607578      88.88233690      73.17945473
H      70.21862556      89.53996166      72.42923338
C      70.28665571      94.13955551      74.34352614
O      70.19594883      95.63432902      72.46702791
N      68.24764101      93.72759517      75.76649005
H      68.34401705      92.50494225      77.23102794
C      65.85335778      94.94268919      75.43767767
H      65.91949820      96.20313664      73.81062332
C      63.84079924      92.89800532      74.96524610
H      63.38537521      91.72637500      76.59796963
H      64.64960211      91.37110646      73.84652812
C      61.45029546      93.69924928      73.74448290
H      60.62637480      95.28472965      74.77060429
H      60.02166238      92.24793947      74.03928020
C      61.82824073      93.99026713      70.92123179
O      61.18195433      92.19124768      69.50771650
O      62.78444224      95.86298590      69.95369191
C      65.23919672      96.87209976      77.68834171
O      63.16616695      97.72814577      77.95101367
N      67.15915865      97.50326834      79.24169674
H      68.91849385      96.90989428      78.79572133
C      66.75286750      99.58574674      81.04449564
H      65.57934746     101.04650518      80.19033935
H      68.66338079     100.29817356      81.32984432
C      65.69084131      98.89977609      83.67688440
O      66.05177903     100.35486535      85.50991892
N      64.96329667      96.45635997      83.86207758
H      65.13715149      95.42834885      82.26525884
C      64.03544105      95.23748649      86.01258612
H      62.63137441      96.44124216      86.91965475
C      62.87136965      92.73737858      85.41732233
H      61.64493728      92.03817985      86.91776503
H      64.35291507      91.31063522      85.29071067
C      61.26132284      92.39344839      83.16665829
C      61.23486666      90.02751105      81.90621084
H      62.42350452      88.47037657      82.48446709
C      59.39238350      89.50027741      79.97680028
H      59.32624309      87.53307232      79.43066937
C      57.75588052      91.36921673      79.10185699
O      55.85670558      90.73993787      77.29527864
H      54.82869446      92.16857096      76.85308268
C      57.97697849      93.77861778      80.03916125
H      56.68629542      95.15622826      79.25870428
C      59.73442397      94.32474869      82.13864718
H      59.69851918      96.16534211      83.01925964
C      66.21618523      94.95591727      87.93443778
O      68.35724513      95.12410292      87.22012124
N      65.64737761      94.30963087      90.32683129
H      63.83890953      93.74271298      90.55737790
C      67.55600118      93.44413622      92.04648224
H      69.44383776      93.90522944      91.36240131
C      67.38781554      94.85198233      94.69776826
H      68.40259857      93.94113424      96.24356438
H      65.38848509      95.09575702      95.12862586
C      68.65204244      97.35775942      94.41241958
C      67.34057239      99.41945083      93.57527083
H      65.32045496      99.31551588      93.31070914
C      68.65204244     101.63043061      92.84583647
H      67.38403609     103.12142467      92.26758022
C      71.31466681     101.73436556      92.99134540
O      72.52031220     103.72046791      91.84995070
H      71.11624555     104.56895503      91.07894237
C      72.72629237      99.55551112      93.63763179
H      74.76530707      99.49315015      93.72833866
C      71.42805039      97.39555394      94.45210384
H      72.46362041      95.65889546      94.72611415
C      67.54844227      90.55474469      92.55859807
O      65.57556800      89.34720958      93.07260363
N      69.82745221      89.52862330      92.79292413
H      71.21829077      90.79473993      92.46411175
C      70.41326736      86.68836465      92.61906931
H      68.78054383      85.54130078      93.13118514
C      71.73985523      86.15735156      89.99234974
H      73.68627333      86.77529206      90.24179361
C      71.49230110      83.37378470      89.36118115
H      72.22551489      82.29664070      90.95611016
H      72.40503889      83.03174424      87.54704389
H      69.46273503      83.04308260      89.22701058
O      70.56066601      87.14189897      87.84184119
H      71.68316344      88.43636149      87.24846713
C      72.52409165      86.21971253      94.54470042
O      73.95083502      87.81275181      95.20232518
N      72.79243279      83.77818613      95.28169369
H      71.51686754      82.39679620      94.95099158
C      74.83711666      82.83710243      97.09772067
H      76.43204567      84.11644714      96.84827680
C      74.02075489      83.25095249      99.94175877
H      72.88691910      84.97249316      99.97955330
C      72.50141494      81.00784736     101.15307334
H      73.61257401      79.36756492     101.71810151
H      71.06522295      80.47494454      99.77735259
H      71.53765452      81.66169266     102.85193730
C      76.46984019      83.58732377     101.57637204
H      77.87201712      84.69092394     100.54836092
H      77.22384099      81.76373788     102.16596664
C      76.23740386      84.95359590     104.16718681
H      78.05910002      85.76239876     104.68875127
H      75.43427017      83.76873750     105.64684251
H      74.90325708      86.50506120     103.92719157
C      75.71205994      80.18203696      96.60261238
O      74.46295086      78.87056690      95.22122244
N      77.73028764      79.44504370      97.92353107
H      78.91514605      80.74517540      98.66430379
C      78.41625830      76.68415355      98.04069410
H      76.80621148      75.69771642      98.85894560
H      79.73528726      76.36101035      99.59026968
C      79.21561253      75.56354585      95.58027044
O      80.53653122      76.81076522      94.08360720
N      78.44838364      73.25052084      94.93398404
H      77.35234239      72.29053988      96.16986505
C      78.39547131      72.40770291      92.37529462
H      79.91292154      73.39225032      91.39263693
C      78.70916587      69.49185521      92.34883845
H      77.12179577      68.58478658      93.29937078
C      78.66381244      68.54321260      89.64275037
H      78.48050899      66.50986708      89.35551197
H      80.37023530      69.17627091      88.67898995
H      77.19549510      69.39358944      88.47867896
C      81.17714845      68.73218523      93.54314548
H      81.00140389      69.31044148      95.51413002
H      82.94782199      69.55799563      92.89118990
C      81.67603619      65.85791151      93.34283449
H      79.94882635      64.74675243      93.49779205
H      82.64168634      65.23619155      95.05303680
H      82.86656376      65.70673340      91.66664725
C      75.79709764      73.22028522      91.30004035
O      73.92437886      71.75385760      91.43232119
N      75.63080171      75.67881915      90.46289159
H      77.14447250      76.76163233      90.88619028
C      73.67871443      76.55565216      88.72623311
H      73.41982192      75.08922455      87.30326919
H      73.97729119      78.48884218      88.08561589
C      70.96317772      76.73895562      89.83928191
O      69.13014320      77.14524677      88.49190704
N      70.73074139      76.75029397      92.34694872
H      72.31433203      76.72572753      93.41086464
C      68.27787663      76.78619877      93.52802767
H      67.09301824      75.40102939      92.57182615
C      68.53676914      75.69204724      96.33805070
H      69.85390837      76.71060972      97.54936526
H      69.34746173      73.80232093      96.21332876
C      66.03855096      75.76007739      97.74778653
N      64.23008286      73.89869697      97.53424745
H      64.31512055      72.27731179      96.53269251
C      62.19295791      74.59033680      98.94209355
H      60.49409395      73.48673663      99.19909633
N      62.64649221      76.90903098      99.76412450
H      61.30856599      77.94460100     100.65229587
C      64.95951722      77.81043044      99.01579288
H      65.75509200      79.65480332      99.37106143
C      67.01742918      79.50362521      93.53369685
O      68.06811701      81.24028369      94.67131209
N      64.76109596      79.79275334      92.19955007
H      64.11480957      78.32821545      91.16209032
C      63.39482383      82.20215439      92.05593087
H      64.81400831      83.58165460      91.48712325
C      61.42005984      82.03018929      90.03581344
H      60.23898089      80.39179658      90.44777378
H      62.37248191      81.67681047      88.24435290
C      59.44151639      84.10321906      89.54637433
H      58.39460802      84.33376567      91.30570952
C      60.77188372      86.69025438      88.65064405
H      59.31490473      88.11510802      88.35395702
H      61.56745849      86.61088588      86.75335884
H      62.09280241      87.32709215      90.10006414
C      57.54234145      83.25473194      87.44877812
H      58.30201143      83.26418058      85.53637509
H      56.03056039      84.65501914      87.45066785
H      56.69196460      81.39146180      87.66231719
C      62.03989008      83.00717780      94.52580316
O      61.09313719      81.46894058      96.07726846
N      62.45374014      85.32209253      95.31759849
H      63.59891429      86.30475021      94.14974763
C      61.43706737      86.67324684      97.53613718
H      60.80211934      85.38634322      99.01579288
C      63.58190674      88.02251143      98.85516614
H      62.98664295      88.74627661     100.69009039
H      64.34913563      89.47193151      97.60983650
C      65.76832008      86.27640432      99.73577861
H      66.52987979      85.13123017      98.20132084
C      67.84512931      88.20392516     100.48411023
H      68.27220746      89.63444798      99.06681549
H      69.61391313      87.28740790     101.00756441
H      67.14404085      89.30563560     102.07714951
C      65.24108644      84.32053758     101.84093372
H      64.52299045      85.51484461     103.35838395
H      66.91160450      83.21315796     102.31147557
H      63.72363621      83.07709767     101.20787540
C      59.19774170      88.29652175      96.95599120
O      57.04912289      87.97337855      97.85172147
N      59.53978217      90.23727067      95.40074644
H      61.32746325      90.57553168      94.82815937
C      57.38927361      91.70180856      94.25935175
H      55.81135215      90.39033850      94.09683529
C      56.46141800      93.81452258      96.13962943