 %block lattice_cart
   137.614   0.000   0.000
   0.000 142.646   0.000
   0.000   0.000   160.855
 %endblock lattice_cart

 %block positions_abs
N      88.85699618      42.13334251      77.88959757
H      88.14078991      42.58309737      76.17939524
H      88.59810368      40.35133060      78.51887643
H      90.74672249      42.35444048      77.72519138
C      88.29385774      44.09109897      79.97396568
H      89.73382919      44.15157020      81.44228304
C      88.60566258      46.72537744      78.85524771
H      86.95404178      47.92157420      79.13303748
H      89.10266060      46.62711167      76.85969672
C      90.45570464      48.33920371      80.35946986
H      92.20181176      47.25072136      80.42750001
H      89.68091685      48.83431201      82.20384273
S      91.46670822      51.30607403      78.73808468
C      93.91579352      50.43113074      76.43450831
H      95.39355950      49.40878882      77.44551187
H      94.50349840      52.20936320      75.57846229
H      93.12021874      49.25572098      74.94162452
C      85.65391008      43.86622154      81.15504463
O      83.77930158      44.00984073      79.77743415
N      85.47816553      43.94181058      83.59468130
H      87.13356578      43.77551467      84.53009582
C      83.38812823      44.84132031      85.17449250
H      81.75540470      43.68480781      84.69261228
C      84.07976806      44.51439766      87.99396416
H      85.50462170      45.89389786      88.54765396
H      84.64668596      42.53585422      87.96939772
C      81.81587594      44.47849286      89.76652744
O      79.72205918      45.20981695      89.10134378
N      82.07476844      43.70559479      92.14380314
H      80.61589973      43.69803589      93.37212525
H      83.76607349      43.08198511      92.77308200
C      82.68703977      47.65323306      84.61891296
O      84.34621947      49.32564085      84.39970472
N      80.17370377      48.18235643      84.58111844
H      78.92837413      46.83687130      84.04821562
C      79.11356731      50.74293558      84.35624101
H      80.06220992      51.54228981      82.71028939
C      76.24685249      50.61632392      83.96128820
H      75.76497228      49.50327512      82.29454960
C      74.77286597      49.41256826      86.12880429
H      72.77731498      49.67712994      85.70172614
H      75.31521742      50.21570194      87.94672099
H      74.91459544      47.35843576      86.07022277
C      75.28687153      53.23170514      83.47562855
H      75.64402980      54.26349571      85.21984593
H      73.24974656      53.23359487      83.17705179
C      76.34133881      54.84931086      81.40637824
H      75.75930311      53.93468333      79.65460194
H      78.35200761      55.29906572      81.35913508
H      75.40970374      56.68423511      81.33078918
C      80.08677636      52.29251117      86.65036875
O      80.74818057      54.50727040      86.46328585
N      80.26630036      51.01316645      88.90103279
H      80.17559350      49.11966068      88.67804509
C      81.19037653      52.15456114      91.19705025
H      80.20015994      53.95547033      91.33877974
C      80.18126268      50.27050402      93.19071152
H      81.35289299      48.57919896      93.05465123
H      78.36334597      49.36532510      92.84867106
C      80.17748323      51.37221445      95.84955644
C      78.66948163      53.53595107      96.40513598
H      77.34856294      54.03105937      94.93114945
C      78.75640904      54.62632316      98.84288292
H      77.68871367      56.33274602      99.18303366
C      80.16425514      53.49626682     100.81764692
H      80.31354352      54.29751079     102.68847597
C      81.61745468      51.40056034     100.33576670
H      82.76451855      50.53884514     101.78707651
C      81.64769030      50.23270949      97.79786427
H      82.90813775      48.70392089      97.30653542
C      84.15157766      52.54384476      91.30476466
O      85.04730793      53.11643184      93.33433071
N      85.45170937      52.15645087      89.10512322
H      84.40102154      51.58386379      87.61790863
C      88.15968717      52.76494274      88.78198004
H      88.75495096      53.95924977      90.35234260
C      89.64879151      50.27995265      88.98607047
H      91.58765070      50.70514106      88.43238067
H      88.87589344      48.87399626      87.69349768
C      89.67146822      49.31241277      91.74696062
H      87.85733096      48.46392565      92.22695110
H      90.24972447      50.82230409      93.02441561
C      91.58198152      47.22237546      91.78097569
O      93.67012910      47.67024060      92.75796419
O      90.99427664      45.10210255      90.87579679
C      88.65290574      54.25593680      86.29698992
O      90.44625601      55.77527677      86.19116526
N      86.88412191      54.06318472      84.45072733
H      85.62178473      52.64588998      84.64536914
C      86.92569589      55.46347191      82.16415849
H      88.77195850      55.24804312      81.27787685
C      84.75440036      54.49215260      80.48608151
H      83.05931585      54.74537592      81.62558649
H      84.98872642      52.46069680      80.23285820
C      84.38212427      55.81685073      77.99731196
H      86.21326907      55.53339180      77.09591252
H      83.86433926      57.76515857      78.42250039
S      81.75162524      54.27483407      76.18884389
C      81.68359510      56.28361313      73.46385854
H      80.67826070      58.05239696      73.78700173
H      80.37401476      55.33874998      72.18451383
H      83.64513101      56.61809469      72.93095572
C      86.78396642      58.37365044      82.38903591
O      88.37133652      59.65299515      81.33834809
N      84.84321749      59.22969646      83.69861625
H      83.79630912      57.93901338      84.63403078
C      84.51629484      61.70145847      84.63403078
H      84.14023930      62.95434702      83.04477095
C      81.99162049      61.78838588      86.21951115
H      81.65713893      63.42677860      87.41948736
H      82.03319446      60.29550210      87.63869561
C      79.64835986      61.30839540      84.44883760
H      80.26063118      59.78149654      83.20728740
C      77.11234715      60.39187814      85.62802681
H      77.28242251      58.72513953      86.82800303
H      75.62324281      59.96479999      84.26931359
H      76.22039633      61.88098247      86.73918589
C      78.71294533      63.48724985      82.85201886
H      77.56021228      62.57829149      81.40448850
H      80.30409489      64.32439860      81.84857418
H      77.66414723      64.91966238      83.89514779
C      86.74239244      62.63309355      86.19305499
O      87.23183155      64.91021376      86.06266386
N      87.97827345      61.03060564      87.81255043
H      87.81575698      59.16733549      87.43271545
C      90.16468679      61.88098247      89.31866231
H      89.59587917      63.42110942      90.56210222
C      91.15679310      59.66433351      91.02319543
H      92.82542144      60.48636446      91.90947708
H      91.52151028      57.88421132      90.05754530
C      89.20848528      59.16733549      93.12268138
H      87.74016793      57.92767504      92.38190865
H      88.21448923      60.65077065      94.14691304
C      90.77128894      57.65177498      95.17492415
H      92.19047340      58.71380118      96.22372226
H      91.66135003      56.11164804      94.13746441
N      89.09132224      56.37998918      97.10622444
H      88.47905092      54.63577179      96.63379287
C      88.43180776      57.24548383      99.29830696
N      89.07053525      59.30717523     100.35088451
H      88.39023378      59.89676985     102.03274093
H      90.35932860      60.43912131      99.51373577
N      86.77829724      55.84519664     100.40757630
H      86.21893825      56.79761869     101.96282107
H      86.19248208      54.14444295      99.76884882
C      92.25094464      62.98836209      87.60845998
O      93.87232982      64.23558146      88.65158891
N      92.47771180      62.35719350      85.22551510
H      91.40812670      60.88698643      84.64347940
C      94.28995933      63.28693885      83.18650042
H      95.72426160      64.53982740      83.97073683
C      95.92457259      61.25926252      82.07345162
H      97.05840838      62.24380994      80.66371578
C      97.94091057      60.36164253      83.95183958
H      96.94124535      59.39410265      85.46928980
H      98.92734770      61.92822563      84.85512876
H      99.31285187      59.14654850      83.00886615
C      94.84931832      58.98214231      80.83946034
H      93.39989824      58.14499355      82.03754682
H      96.32330484      57.55728867      80.63159045
C      93.84398392      59.59063418      78.22218940
H      92.05252338      60.46746719      78.74375385
H      93.22793314      57.74059212      77.55700573
H      95.28962455      60.67533709      77.23764199
C      93.12777765      64.82895552      80.97174118
O      94.39389428      66.13097695      79.56578480
N      90.63144919      64.82706579      80.83379116
H      89.62800452      63.60630260      81.90337626
C      89.21982363      66.21979409      78.85902717
H      90.43680738      66.64498251      77.25275980
C      87.00884385      64.75147674      77.85747222
H      85.41958402      64.60218836      79.15949364
H      87.64190216      62.85041208      77.37559201
C      85.95437656      66.05727762      75.49720404
O      87.08821235      65.88153309      73.40905647
O      83.83032419      67.05316339      75.82790615
C      88.26173239      68.82383695      79.74908826
O      88.47149201      70.59262079      78.25809420
N      87.80630835      69.11296508      82.24541672
H      87.79119054      67.51803606      83.29610454
C      87.06553564      71.47134352      83.45673128
H      87.15057332      72.95666840      82.03187765
C      84.45771332      71.18221539      84.40348417
H      84.34432975      69.57783775      85.69038779
H      83.27474465      70.66254065      82.79910653
C      83.32009808      73.56704999      85.63747545
H      84.57865581      74.58183303      86.91493044
H      81.95004651      72.95855812      87.04910101
C      82.24862326      75.49457083      83.87058135
O      79.85245030      75.64952840      83.69861625
O      83.76607349      77.04225669      82.81611406
C      88.89857016      72.16487308      85.62235764
O      89.68658603      74.43632411      85.71495423
N      89.91524292      70.24491113      87.00752703
H      89.28785378      68.46478895      86.73540644
C      91.70481373      70.76647561      89.10890269
H      93.18257971      72.05337922      88.47206492
H      92.50227824      69.01658904      89.84400622
C      90.38956422      72.21778542      91.36334618
O      88.42802831      73.43287943      91.20082971
N      91.75772607      71.92109837      93.42503759
H      93.55485580      71.29559897      93.27763892
C      90.89601087      73.04548554      95.87790234
H      88.83809892      72.93777113      95.88357151
C      91.75205689      71.23512773      97.94715264
H      93.79674076      71.40331337      97.75251084
H      90.94325403      69.43610828      97.35944776
C      90.86955470      71.86440659     100.67024826
H      91.74449799      73.51224794     101.54519154
C      87.95937618      72.12707854     100.81386747
H      87.14868359      70.45845021      99.92002691
H      87.32253842      73.83539114      99.85577622
H      87.67402751      72.00424634     102.84910271
C      91.70670346      69.57783775     102.36722249
H      93.66257020      69.09784726     101.93825463
H      90.48405054      67.92432722     102.26706699
H      91.57253289      69.99168782     104.37978101
C      91.97693432      75.80448595      96.37490035
O      94.23893672      76.26935862      96.00262428
N      90.40468203      77.70744035      96.96638470
H      88.52440435      77.44854785      97.15913678
C      91.10010131      80.42486679      97.55219984
H      93.12021874      80.57226543      97.93203483
C      90.46515327      82.08782594      95.35066869
H      90.48971972      84.04369267      95.99884482
H      88.52440435      81.71177041      94.76296382
C      92.10732544      81.85161016      92.97528271
H      91.79930005      79.92975849      92.29498125
H      94.10854561      82.26923966      93.22094713
C      90.92624649      83.39362682      90.82855363
H      91.17002119      85.40996480      91.17248381
H      88.92313660      82.92119525      90.89091459
N      91.91457336      82.83237812      88.40592449
H      93.23171260      84.04558241      87.75018947
C      91.20781571      81.01635112      86.65603792
N      89.25005925      79.58393857      87.10390306
H      89.06297635      78.04570136      85.98707481
H      88.48849955      79.60850502      88.85378962
N      92.31519533      80.74989971      84.45639650
H      91.46292877      79.72944750      83.08634492
H      93.50194346      82.14829718      83.92916286
C      89.56753327      81.20532375      99.84632759
O      87.19592675      81.59649710      99.58554537
N      90.70892797      81.32059706     102.12344780
H      92.61377209      81.42642173     102.10644027
C      89.53729765      81.35461213     104.60276873
H      87.78552136      80.26990922     104.60276873
C      91.30608148      80.12817975     106.71737247
H      90.43113820      80.51935310     108.54095836
H      93.06919613      81.18264704     106.87233002
C      91.62166578      77.31248755     106.51328202
H      92.58164674      76.70210596     104.79552080
C      93.21659479      76.29203534     108.69402619
H      94.99104779      77.32949508     108.82819675
H      93.84209419      74.41364738     108.12332885
H      92.59865428      76.40730865     110.65556211
C      89.09321197      76.10873188     106.87988892
H      89.28407433      74.15664460     107.50727807
H      88.11433374      76.23534355     105.07331057
H      87.98016317      77.00446217     108.36143436
C      88.73794342      84.00211870     105.56085996
O      87.59843846      84.31770299     107.53373423
N      89.35777365      85.94097790     104.05474810
H      90.21381967      85.66885730     102.37100194
C      88.70203862      88.59793310     104.56875365
H      87.48316515      88.61872009     106.22793336
C      91.03396089      90.39317309     105.18480443
H      90.28184982      91.99566100     106.23549225
H      91.93536035      90.80513343     103.38011579
C      92.99927626      88.98532699     107.07264102
H      94.13122232      87.72487953     105.90101069
H      92.24716519      87.95542614     108.69024674
C      94.87010531      90.93363482     107.99860691
H      95.99449247      91.56858285     106.39233954
H      96.16834729      89.90184425     109.21937010
C      93.87799899      93.36193313     109.41023247
H      93.44714140      92.96131114     111.38310674
H      92.13000216      94.13105173     108.63166523
N      95.96992602      95.14961421     109.18346530
H      97.47792762      94.49387918     110.15100517
H      95.63922392      96.87871380     109.91856885
H      96.28551032      95.42362453     107.32208489
C      86.96915959      89.72232024     102.60532800
O      87.55497475      89.26878594     100.37356124
N      85.00195450      91.20386568     103.19114316
H      84.91124764      91.68385617     105.03551605
C      83.08199257      92.04290416     101.38834427
H      82.18815202      90.27412033     100.82709554
C      81.03352925      93.60381810     102.62989445
H      80.16614487      92.54746109     104.17002139
C      81.80642731      96.08124929     103.72215626
H      80.52519287      96.75966103     105.18480443
H      82.16925476      97.58736117     102.36722249
H      83.53930634      95.80912871     104.80118999
C      78.81121110      94.16884626     100.77607294
H      78.39736104      92.46998231      99.68570085
H      79.40836462      95.49732385      99.32098368
C      76.24118332      95.06646627     102.07620464
H      75.09978862      96.11526437     100.72127088
H      76.69282790      96.10392601     103.79774532
H      75.00908176      93.47720643     102.52029032
C      84.19504137      93.27311599      99.04697337
O      85.62367446      95.17607039      99.13201105
N      83.26151657      92.56068916      96.87189838
H      81.98217185      91.14528416      96.89268537
C      84.10244478      93.55279548      94.38690827
H      84.87345311      95.43496289      94.71005148
C      86.22082797      92.00321991      93.06598959
H      87.84977206      91.62338492      94.26785552
H      86.64034722      92.92918581      91.27452904
C      85.42336347      89.32925718      92.48017443
C      85.53296760      88.57336664      89.89691856
H      86.41546978      89.83381410      88.55521287
C      84.96982916      86.10916353      89.21094791
H      84.94904217      85.55925318      87.24563253
C      84.25929206      84.39707150      91.15925574
O      83.65457964      82.05948004      90.47328509
H      83.70749198      81.67019643      88.70450125
C      84.24417425      85.15674147      93.74251161
H      83.76607349      83.70732140      95.09933510
C      84.74117227      87.62661377      94.43037198
H      84.70337775      88.06880972      96.42214352
C      81.87256773      93.83058525      92.45749771
O      79.70883110      93.69830440      93.25685194
N      82.32799177      94.54679153      89.94038226
H      84.08165779      95.23276218      89.63046715
C      80.31921270      94.77733814      88.02608951
H      78.54098024      94.19908188      88.88969443
C      80.24173392      97.48153648      87.16059485
H      79.29687076      97.44374196      85.32945005
H      82.14090886      98.27522154      87.07744690
C      78.56176723      99.08402441      88.78198004
H      79.49151257      99.49787446      90.57155084
H      76.78542449      98.05034410      88.91804032
C      78.14224799     101.65216247      87.60657027
H      77.35990129     101.33846790      85.72629259
H      79.99229005     102.55545163      87.54609902
C      76.33189018     103.35669559      89.10134378
H      77.02730946     103.40393875      91.04020297
H      74.43838441     102.54600300      89.11079241
N      76.29976483     105.94940009      88.07711212
H      76.12402028     106.13837273      86.18549608
H      78.00240824     106.79788722      88.22640050
H      74.85601393     106.79599748      88.99551910
C      80.46661135      92.98776731      85.80377136
O      82.44137535      92.19975145      84.90993081
N      78.32744117      92.21108981      84.96473288
H      76.75896833      92.92162690      85.78865355
C      78.04020277      90.64828614      82.73674555
H      79.25718651      89.04012904      83.16382370
C      75.21884138      89.60515721      82.68572295
H      73.73351650      91.03001086      82.60446472
H      74.87491119      88.46943171      84.36946908
C      74.79365296      88.25211318      80.12514380
O      76.17504289      86.38128413      79.70184510
O      73.20250340      88.78501600      78.54344287
C      78.99262483      92.03534526      80.35002123
O      79.20049472      94.33136272      80.19695340
N      79.54253518      90.60293271      78.37525723
H      79.09278032      88.75289065      78.22596885
C      79.95827497      91.85960070      75.92050274
H      81.44737931      93.26744681      76.13782127
C      81.00707308      90.05869154      73.88715723
H      81.17903817      91.18307868      72.16750629
C      83.55442415      88.92863519      74.58446625
H      84.06653998      87.23921988      73.52244006
H      83.45426865      88.25400290      76.52710490
H      85.13612507      90.24577443      74.46352376
O      79.17970773      88.16329604      73.35992358
H      79.83544276      87.27134521      71.91995213
C      77.73595683      93.33547695      74.85847656
O      78.07421784      94.90583953      73.25787837
N      75.42293182      93.16540159      75.82034724
H      75.15270096      91.57236230      76.83513028
C      73.14770134      94.84725800      75.31201087
H      73.46328564      95.70519376      73.46574827
C      70.67027014      93.33358724      75.03233138
H      69.99563785      92.94997280      76.94095495
H      71.11624555      91.67251780      73.89849559
C      68.38181158      94.74332306      73.84936271
H      67.70717929      96.32691371      74.98130876
H      66.85491272      93.40350710      73.50921196
C      69.22651924      95.58236154      71.24531985
O      69.69706109      94.05357295      69.51622027
O      69.54966244      97.88971738      70.74832183
C      72.82455814      96.86170626      77.35858447
O      71.00853115      98.31868525      77.13370704
N      74.39114126      96.85414736      79.34846627
H      76.09000521      95.98487324      79.36925326
C      74.26830904      98.83080108      81.35913508
H      73.57477949     100.58635682      80.53710413
H      76.12213056      98.98764836      82.24163727
C      72.50519439      98.23742702      83.59468130
O      71.80410593      99.83802521      85.14992606
N      71.63025111      95.85070268      83.92727314
H      71.77009086      94.55057097      82.53832429
C      70.23185364      95.00977448      86.12691456
H      69.16037882      96.65194664      86.75430370
C      68.31000198      92.85170702      85.49763570
H      67.29143950      92.66462412      87.27775788
H      69.41360215      91.19252732      84.97985069
C      66.42405512      93.65673043      83.43594430
C      66.32389963      92.31691448      81.13992683
H      67.48419158      90.64639641      80.97174118
C      64.68550691      93.08036390      79.14059639
H      64.77432405      92.04101443      77.38882008
C      63.11136489      95.17796011      79.67160947
O      61.58257631      95.84503351      77.71574275
H      60.52055012      97.18484946      78.32801406
C      63.26254300      96.52344525      81.89203790
H      62.11736885      98.18829412      82.18116602
C      64.97652476      95.84692323      83.82711764
H      65.29966796      96.96186176      85.50708432
C      72.09701351      94.06680105      88.25096694
O      73.90170214      92.77800769      87.67082096
N      71.62080248      94.83780938      90.61501456
H      70.04477074      95.84881295      90.98918037
C      73.30832808      94.17640517      92.77308200
H      75.25285645      94.57702714      92.22128191
C      72.54487865      95.88282803      94.97272344
H      73.52753633      95.11748887      96.61489560
H      70.50397423      95.75054718      95.21082895
C      73.23273903      98.59269556      94.68359531
C      71.41671204     100.46541433      93.97494793
H      69.60257478      99.72275189      93.40425060
C      71.92882787     103.00331678      94.27163497
H      70.31878105     104.24108752      94.46060761
C      74.37980290     103.77054566      94.93492890
O      74.90136736     106.26498439      95.43948583
H      73.36313014     107.21173727      95.27696937
C      76.30732374     102.03010772      95.49617763
H      78.21783704     102.60458453      95.92514550
C      75.69694214      99.39393951      95.46972146
H      77.10856769      98.02766740      96.02152154
C      73.37824795      91.31158007      93.34377935
O      71.39214560      90.13428058      93.57621568
N      75.62135308      90.30435596      93.23984441
H      77.10478824      91.47976571      93.48550883
C      76.06354904      87.56236308      93.49495745
H      74.28720631      86.64206635      93.98439656
C      77.16148003      86.50411633      91.00996736
H      78.92081523      87.56614253      90.89280433
C      77.76052327      83.65062961      91.01941598
H      76.02386479      82.61316985      91.41247906
H      79.15136184      83.09505007      92.43482099
H      78.80176247      83.32181722      89.27330887
O      75.57788938      87.05402670      89.10134378
H      74.84278584      88.63761734      89.58889317
C      77.86634794      87.20142534      95.67192217
O      79.35545228      88.82281052      96.30309075
N      77.93437809      84.97154829      96.88512647
H      76.64747447      83.68653441      96.30309075
C      79.76741262      84.03235431      98.82020621
H      81.59666769      84.83170854      98.31753901
C      79.04931662      85.35327301     101.37889563
H      79.01341182      87.41307470     101.35054974
C      76.47361965      84.24778312     102.48249580
H      75.03931738      84.61250029     101.04819353
H      75.87646614      85.30980930     104.14356523
H      76.52086281      82.27301912     103.07209041
C      81.09589021      84.78257566     103.50105828
H      83.01585215      85.04713735     102.80563900
H      80.82187990      82.80970139     104.02829192
C      80.89557922      86.32270261     105.95203331
H      82.53775139      86.13372997     107.18035542
H      79.12679540      85.99766969     106.95547799
H      80.83699771      88.26345154     105.26039348
C      79.88646537      81.17697786      98.81831647
O      78.39358159      79.66708654      97.86778415
N      82.02185611      80.26046060      99.79152552
H      83.04230832      81.36028132     100.97449421
C      82.54153084      77.58838760      99.85010705
H      80.82565935      76.88729912     100.74772705
H      84.06842970      77.06682312     101.13134149
C      82.94782200      76.39597029      97.22149774
O      84.01929682      77.77547050      95.61334066
N      81.98406158      74.25113092      96.62056477
H      80.77463674      73.45177670      97.86211496
C      82.03130474      72.92454305      94.16203085
H      83.67158718      73.39508491      93.00740806
C      82.16358558      70.01436452      94.28675277
H      80.32866133      69.26414318      94.85367067
C      82.70971649      69.17532604      91.51452428
H      82.22216710      67.17410588      91.47484002
H      84.61078116      69.46256444      90.77942075
H      81.35289299      70.22034469      90.36935013
C      84.39157290      69.03359657      95.96860919
H      83.73583787      69.03359657      97.92069647
H      85.90902313      70.39608924      95.67570162
C      85.52351897      66.52026057      95.36389678
H      83.98150229      65.24658504      94.86689875
H      86.44759513      65.63208920      96.97583332
H      86.95593151      66.59962909      93.88613080
C      79.85056057      73.96578224      92.61245526
O      77.70383148      72.84517454      92.58977856
N      80.21905720      76.30148397      91.58633388
H      81.77241223      77.27658274      92.11923670
C      78.52775215      77.21044233      89.51897329
H      78.30854390      75.62685168      88.22451076
H      79.44237969      78.80915078      88.59867658
C      75.84245106      77.98145067      90.27297409
O      74.40247961      78.72600284      88.50419027
N      75.16781877      77.54681361      92.57088129
H      76.57377515      77.04036697      93.75762941
C      72.41070808      77.78491912      93.29842591
H      71.09167911      76.74745938      92.10222917
C      72.16315393      76.63218607      95.91380714
H      73.41415275      77.46366565      97.32165324
H      72.76597663      74.66876043      95.75884957
C      69.52131655      76.54147922      97.02496620
N      67.94150535      74.49679535      97.18181350
H      68.24764101      72.83194646      96.29931131
C      65.97052080      75.20544272      98.63690275
H      64.29244384      74.18310077      99.18492338
N      66.34846607      77.70555063      99.46838234
H      64.98786312      78.75056928     100.30742082
C      68.45362118      78.60695007      98.27785475
H      69.26809322      80.46455105      98.49328356
C      71.58867713      80.54769899      93.04520260
O      72.63369578      82.21632733      94.35856237
N      69.72540699      81.06359428      91.28775713
H      69.14715074      79.51023925      90.33911452
C      68.55944585      83.53157684      91.04209271
H      70.19216939      84.77879621      91.20838861
C      67.39348472      83.65818850      88.45694711
H      65.73997419      82.43175614      88.47773409
H      68.87691987      82.93253361      87.22484554
C      66.71129352      86.24522383      87.20594829
H      68.22685402      87.45842813      87.89191894
C      66.76420586      86.00711831      84.36946908
H      68.79566164      86.16018615      84.06144371
H      65.51131731      87.41874387      83.54176896
H      66.12358864      84.22321668      83.56444568
C      64.16583218      87.23921988      87.92404429
H      64.04866914      87.42441306      89.97061788
H      62.74286826      85.86916830      87.34389831
H      63.74064376      89.05524686      87.04910101
C      66.52043116      84.04558241      93.10567384
O      64.83857474      82.39396160      93.62723830
N      66.94561958      86.25845191      94.30753977
H      68.23630265      87.51511991      93.68015063
C      65.38659537      87.04646779      96.41080515
H      65.13337205      85.56681209      97.82243071
C      66.79444148      89.06469549      97.92825538
H      65.65493651      90.06058125      99.32476314
H      67.62970051      90.33648129      96.53930655
C      69.19439389      88.01967683      99.21515901
H      70.29610433      86.85749516      97.91880675
C      70.74963865      90.22876690     100.23372148
H      69.86713646      91.06402593     101.89668065
H      71.37513806      91.56291368      98.79375004
H      72.48818686      89.43886130     101.00472982
C      68.46118009      86.31136426     101.49416894
H      70.07122690      85.99955941     102.73949857
H      67.76198135      84.48210918     100.85733118
H      66.91538396      87.09560067     102.60532800
C      62.85625184      87.84393230      95.41113993
O      60.84936250      86.43986564      95.05587138
N      62.51043193      90.35159910      94.91792137
H      64.07323559      91.44575065      95.02185632
C      60.36370283      91.54401641      93.82188010
H      59.08813757      90.09270660      93.10756356
C      59.05034305      93.22209337      95.81176192