 %block lattice_cart
   137.614   0.000   0.000
   0.000 142.646   0.000
   0.000   0.000   160.855
 %endblock lattice_cart

 %block positions_abs
N      86.88317704      40.17558605      79.28988476
H      86.16130159      38.98694819      80.59379592
H      88.05291764      39.26095851      78.08990855
H      85.47344122      40.82943135      78.18061542
C      88.28724370      42.16924730      80.76576101
H      89.71587680      41.34532664      81.99975230
C      89.59871377      44.01739964      79.03855116
H      88.22866218      45.12855871      77.97652498
H      91.06892084      43.17269199      77.86881058
C      91.13695097      46.13389311      80.52009659
H      92.94541907      45.31942107      81.08512476
H      90.10327069      46.79907678      82.17171739
S      91.83237027      48.90045244      78.67383399
C      93.01911839      51.03584317      81.11347066
H      93.84870824      52.76116330      80.35569040
H      94.56302479      50.24215811      82.22274000
H      91.47143253      51.69157820      82.30210851
C      86.22177283      43.49016601      82.42116126
O      84.09961019      43.86622153      81.61046868
N      87.02112708      43.87000099      84.74363490
H      88.67652732      43.22371460      85.43905419
C      85.41485970      44.80352579      86.88469482
H      83.74434164      43.62811602      87.14169759
C      87.25356340      44.72226756      89.26574997
H      88.78991089      46.05830407      88.95016568
H      87.98677721      42.79852618      89.33944930
C      86.08382281      45.29674436      91.85089557
O      84.01268278      46.26995340      92.07766272
N      87.44442577      44.62022233      93.86723354
H      86.91341267      45.11155118      95.63223792
H      89.26234247      44.04763526      93.72739380
C      84.57771095      47.58520293      86.35935090
O      86.13484543      49.28406687      86.10801730
N      82.06437496      48.01795024      86.74485507
H      80.95510560      46.51372810      87.13035924
C      80.85495012      50.46703555      85.93416248
H      81.78658519      50.71269996      84.11246631
C      77.85595446      50.16845879      85.54109941
H      77.79737293      48.62833185      84.17482728
C      76.52747686      49.51650322      88.05821486
H      74.49224162      49.75460872      87.84089633
H      77.31738246      50.62010338      89.60968016
H      76.87329676      47.51150359      88.38891696
C      76.79014882      52.52683724      84.38080745
H      76.77692072      54.05940528      85.75652821
H      74.73601630      52.41534338      84.26553415
C      77.77469623      52.96147428      81.70306527
H      76.86573786      54.39199711      80.53143495
H      77.98634556      51.27394868      80.54277331
H      79.64930473      53.79862304      81.51031318
C      81.65619406      52.67990506      87.63113671
O      82.11917701      54.76616291      86.63525094
N      82.17586880      52.14322279      89.99707405
H      82.08705166      50.39522594      90.75863376
C      82.96388468      54.09908952      91.82443940
H      81.69209886      55.70157744      91.58633388
C      82.78058122      53.14099828      94.60800626
H      83.17553402      54.70380194      95.88924070
H      84.00890333      51.56496653      95.11445291
C      80.11228766      52.34731324      95.33555089
C      79.34694852      49.87366148      95.06720975
H      80.60739596      48.65100856      94.02975001
C      76.92242966      49.18769083      96.03852908
H      76.20811310      47.31119261      95.66814272
C      75.34450818      50.90167261      97.34810941
H      73.56060655      50.29129101      98.13234583
C      76.13630351      53.44146477      97.50684642
H      74.84373071      54.59986699      98.58210069
C      78.49468194      54.12932514      96.46560722
H      79.09372519      56.06440489      96.71316137
C      85.71343647      55.03828350      91.25185232
O      86.11783790      57.22091740      90.85123035
N      87.37261617      53.33752981      90.42037275
H      86.90585376      51.48748776      90.40714466
C      90.01256383      53.89121963      89.84967540
H      90.53412829      55.41055959      91.14035847
C      91.54513187      51.50071585      90.26730492
H      93.44619654      51.95047071      89.61156989
H      90.72877010      49.97570670      89.15047666
C      91.54513187      50.67112599      93.03575396
H      93.02478756      49.24249289      93.14724782
H      89.68942062      49.80752107      93.28141839
C      92.04212989      52.75171466      95.00106933
O      90.56814335      53.22225651      96.85867030
O      94.03957060      53.99515458      94.85178095
C      90.44531115      55.20646914      87.24752227
O      92.10638058      56.72202965      86.92059962
N      88.80691844      54.73403756      85.38803158
H      87.54836072      53.39233189      85.89447823
C      88.47054715      56.03416927      82.99752779
H      90.22799263      56.04928707      81.92605297
C      86.66018934      54.41656355      81.48196729
H      84.94242812      54.30884914      82.61202362
H      87.41419014      52.50038106      81.42149604
C      85.94398308      55.28205820      78.86847580
H      87.45954357      54.98726088      77.50598312
H      85.35438846      57.25115301      78.98185937
S      83.25112308      53.83641757      77.56078519
C      81.39919129      56.58218989      76.32679390
H      80.39007743      55.83952745      74.69218064
H      82.76735314      58.03160999      75.81467807
H      80.00835273      56.97336325      77.79511125
C      87.55025044      58.71569091      83.22429495
O      88.91652257      60.55817407      82.48163251
N      85.35816791      59.13143070      84.63592050
H      84.46621709      57.64799553      85.44094391
C      84.70054315      61.78649617      84.95717398
H      84.81581647      63.07528951      83.35468606
C      81.81493108      61.76381944      85.69605696
H      81.41430909      63.76126016      86.00786181
H      81.71855504      60.55817407      87.36279557
C      80.22189180      60.53171789      83.69672653
H      80.80770696      58.57963061      83.38870114
C      77.44588384      60.24070004      84.51875747
H      77.20210915      59.56606774      86.45005776
H      76.63330153      58.66655803      83.46429019
H      76.44810835      62.00948386      84.18238619
C      80.31070894      61.96035099      81.16638299
H      81.99256536      61.33296184      80.15915887
H      80.67542611      63.95023280      81.55566661
H      78.57216073      61.65421532      80.10624653
C      86.49578315      63.35307927      86.73162698
O      86.57326194      65.72279608      86.71272972
N      88.04913819      62.10397018      88.23395940
H      87.80347377      60.22558222      88.46639574
C      90.03146108      63.47402177      89.72306374
H      89.10738492      64.96312609      90.80209746
C      91.21631949      61.33485158      91.48806811
H      92.80746905      60.69423436      90.34856315
H      89.77823777      60.03094042      92.17781822
C      92.31047102      62.59907847      93.99195548
H      90.92719135      63.81228277      94.91981110
H      93.88461304      63.82362113      93.47417047
C      93.14384033      60.45234939      95.92514550
H      94.22476378      61.13076114      97.54275122
H      94.52145081      59.38654374      94.82154533
N      91.23332702      58.69679364      96.82465522
H      91.38261540      56.90911255      96.18025855
C      89.61761103      59.02560603      98.64635139
N      89.27935002      61.10052552      99.88979130
H      88.44031154      61.12698169     101.60377307
H      90.37917072      62.55750450      99.33043231
N      88.32314849      57.08674683      99.42113918
H      87.19120244      57.39666193     100.92536132
H      88.53479785      55.37654452      98.59532878
C      92.00055590      64.69289523      88.04120732
O      93.30446707      66.35396466      88.95205540
N      92.23299224      63.91432799      85.64692408
H      90.95553725      62.64443191      85.01386577
C      94.13027745      64.71368222      83.90837587
H      95.20931118      66.10452079      84.97607124
C      96.11826955      62.65388054      82.98052025
H      97.71319855      63.76881907      82.30966741
C      97.17084709      61.24792417      85.35779595
H      97.08391969      62.23625103      87.16248458
H      99.02844806      60.54872543      84.80788560
H      96.05023940      59.56795748      85.76975629
C      95.26978243      60.99848029      80.76576101
H      95.13372213      62.18522841      79.08579432
H      93.43296846      60.25203839      81.32323028
C      97.06880187      58.65899912      80.12325407
H      96.80235046      57.18123313      81.53298990
H      98.99443299      59.38843347      80.08734927
H      96.53211960      57.75570993      78.35258051
C      92.97376496      66.13286668      81.66338101
O      94.10949048      68.03204163      80.78654800
N      90.63617351      65.50547755      80.95662337
H      89.89351107      63.79338551      81.35535562
C      89.37194661      66.92844147      78.89115251
H      90.57192281      67.13064218      77.23008308
C      86.92097158      65.35807890      78.37147778
H      85.67942139      65.61130223      79.99664240
H      87.49733811      63.41732998      77.99353251
C      85.64162687      65.96846050      75.98286372
O      86.67341742      65.40721177      73.84180380
O      83.59316354      67.11174492      76.16427744
C      88.48944442      69.60807338      79.74530881
O      89.26234247      71.48457160      78.67572371
N      86.86050034      69.74224394      81.64826320
H      86.56570303      68.06983616      82.51942703
C      85.99878513      72.13085801      82.79910653
H      86.04980775      73.61240344      81.36669398
C      83.39285255      71.80204563      83.87814025
H      83.38529364      70.27514677      85.25953019
H      82.12484620      70.92710235      82.51186813
C      82.07193385      73.97334115      85.15370551
H      83.24545389      74.74434950      86.66170711
H      80.45243841      73.40831299      86.29698993
C      81.28202826      76.02747366      83.26397920
O      78.92931900      76.33360932      82.68950240
O      82.96388468      77.39752524      82.44572771
C      87.97732859      73.12485405      84.67749448
O      88.83148488      75.29048040      84.48474240
N      88.75211638      71.63197025      86.47840366
H      87.81859157      69.98223918      86.71650917
C      90.66829885      72.09306348      88.37946833
H      92.42196488      72.87352044      87.63113671
H      91.06514137      70.25624950      89.22228626
C      89.86138572      73.48579177      90.75107485
O      87.81103266      74.66498098      90.77186184
N      91.43363802      73.59350617      92.85245051
H      93.10226635      72.68265808      92.68048542
C      90.67963722      74.79726183      95.25807211
H      88.62739444      74.81615910      95.43759611
C      91.77756820      73.09461843      97.31787379
H      93.80713427      73.44232806      97.25929227
H      91.24277566      71.16331813      96.84166276
C      90.95175780      73.62752124     100.19592696
H      91.09159755      75.66464620     100.47182701
C      88.28913343      72.70911426     101.01606818
H      88.27023617      70.65687148     101.19937164
H      87.01545789      73.23823762      99.48727960
H      87.81103266      73.50468903     102.85666161
C      92.82825603      72.32738954     102.02707176
H      94.79357140      72.33872790     101.41669016
H      92.42385459      70.30916183     102.12911698
H      92.63550395      72.96044785     103.97726932
C      91.36371813      77.66397665      95.52641324
O      93.50099859      78.37262401      95.12201181
N      89.54769115      79.17386796      96.44482023
H      87.80347377      78.41419800      96.60733670
C      89.94831312      81.67208616      97.70148823
H      91.97221002      81.58893819      98.07943349
C      89.48344045      83.93219883      95.97805783
H      89.22832741      85.59326825      97.16669568
H      87.72977443      83.91708102      94.89524466
C      91.77378874      84.39329205      94.08833152
H      92.55046627      82.60939040      93.41180950
H      93.17218622      85.23799971      95.34310979
C      90.84404341      86.11483272      91.93971270
H      92.66384985      86.68741979      91.15925574
H      89.92941587      87.76834324      92.75985392
N      89.28312947      84.87328253      90.11234736
H      88.77290336      83.06292473      90.43171111
C      88.95620682      85.62161415      87.78231481
N      89.74611241      87.61716514      86.68438383
H      89.42674866      87.80613777      84.81355478
H      90.65885023      88.94186328      87.71617439
N      87.58615524      84.14762762      86.27809267
H      87.01545789      84.72966333      84.55277255
H      86.86427979      82.47899930      86.86390783
C      88.53857730      81.81003618     100.27718520
O      86.16886050      82.04436224     100.39434823
N      90.02012272      81.73255740     102.34454578
H      91.90795931      81.49445189     102.19336768
C      89.10927464      82.02168553     104.82386670
H      87.54458125      80.69320792     104.97882426
C      91.28812909      81.44531900     106.69847521
H      90.83837422      82.08026704     108.60331933
H      92.83581494      82.55269861     105.91045933
C      92.18574908      78.60317063     107.06886156
H      92.67140875      77.96066368     105.17157635
C      94.52523025      78.63340625     108.70914400
H      93.83170071      79.29292073     110.53272990
H      95.78945717      79.98645029     107.80963428
H      95.23954681      76.71344432     108.47859739
C      90.03713027      77.10461765     108.07608569
H      89.56847813      77.68476363     109.99604762
H      90.64751187      75.14308175     108.23104325
H      88.49133414      77.25957521     106.72493138
C      88.02268202      84.65218456     105.33787226
O      86.80191881      84.94131268     107.26350338
N      88.37228139      86.65718417     103.81853231
H      89.36060825      86.36805605     102.21037521
C      87.24600451      89.18563798     104.24750018
H      86.00823376      88.95887081     105.87644426
C      89.59115486      90.92040674     104.84843315
H      90.93664000      91.06024647     103.29318839
H      90.54546665      89.89239561     106.35832447
C      88.65951979      93.60192837     105.56085997
H      87.13829011      93.49610370     106.94791908
H      87.71843607      94.30868602     103.87144464
C      90.62861460      95.58236154     106.43958270
H      89.87650353      97.44563170     105.98226893
H      92.36905254      95.02678201     105.48716064
C      91.03868522      95.39338892     109.38566602
H      91.57536749      93.49421397     109.96770173
H      89.37383633      96.06802121     110.39855933
N      93.00778003      97.06390698     110.28139630
H      94.63861384      96.20597122     109.77872910
H      93.07581018      97.10737069     112.18813015
H      92.93974988      98.79489627     109.48015234
C      85.60761179      89.89617507     101.85510667
O      86.20476530      89.43319213      99.77262827
N      83.63284780      91.25677802     102.41824511
H      83.49300805      91.69330480     104.27017690
C      81.79036464      92.27911995     100.57954141
H      80.90597272      90.46309297     100.18080915
C      79.99512463      94.05357296     102.04785875
H      79.20899850      92.74966181     103.43491786
C      81.45777280      96.16250753     103.41035142
H      80.21811235      97.60436870     104.20025702
H      82.47822501      97.10359123     101.88723201
H      82.94120796      95.64472251     104.74449820
C      77.91453596      95.18929848     100.47371673
H      77.33627971      93.66239961      99.21704873
H      78.75924363      96.55935005      99.18492339
C      75.73946098      96.37604660     102.00061559
H      76.48968232      97.88404820     103.18736372
H      74.74357521      94.86426555     102.98516300
H      74.16909842      97.00910492     100.82709555
C      83.18498265      93.53011876      98.35911299
O      84.93864867      95.02678201      98.70115345
N      82.40641541      92.85926593      96.08577223
H      80.81148641      91.85960071      95.77207767
C      83.30592513      93.89861541      93.65747392
H      84.18086842      95.73920883      93.95227123
C      85.30525557      92.02022745      92.67859569
H      86.56759275      91.61393629      94.25273771
H      86.43153247      92.84603784      91.16492491
C      84.31881845      89.43319213      91.85656475
C      83.40797036      89.21209415      89.28653696
H      83.89740947      90.66340396      87.93916210
C      82.42720241      86.99922464      88.44182930
H      81.80359272      86.95387120      86.49919065
C      82.29114211      84.88084144      90.08211174
O      81.56926666      82.55647808      89.02575473
H      81.31604333      82.58104452      87.22862500
C      83.19443129      84.99611474      92.58977855
H      83.38151419      83.18953638      93.52141363
C      84.23189103      87.26378632      93.48550883
H      84.98778155      87.43197196      95.37334541
C      81.08171727      94.18207435      91.77152706
O      78.96522380      93.44697082      92.37623948
N      81.57115638      95.10615051      89.48117877
H      83.39663201      95.56913347      89.16937393
C      79.63985609      95.85448213      87.67649014
H      77.78603458      95.45763960      88.47962382
C      79.83827736      98.71930723      87.41570791
H      78.21311273      99.47519775      86.39903515
H      81.56170776      99.32024019      86.45950640
C      79.60584102     100.23297801      89.80810142
H      81.20265976      99.93062180      91.07421805
H      78.08650106      99.29756348      90.83422281
C      79.07293820     103.06756748      89.66259250
H      78.93498818     103.78188402      91.58822361
H      77.22478587     103.26787847      88.77442113
C      81.02691520     104.59068688      88.18482652
H      80.24267879     106.47852347      87.92026484
H      81.18187277     103.81022992      86.28565157
N      83.56481765     104.73997526      89.31299313
H      83.36450666     105.70562541      90.94571666
H      84.78369112     105.59980074      88.12435528
H      84.23756022     103.00520651      89.73818155
C      79.94410203      94.39561343      85.16126442
O      81.95477082      93.95530720      84.22018071
N      77.76902705      93.47153726      84.33356429
H      76.22323092      93.84948252      85.38803158
C      77.66887155      91.86715962      82.07156190
H      79.12018135      90.40829091      82.11313588
C      75.18577118      90.40262173      81.92227352
H      73.58328325      91.68952535      81.79377213
H      74.97790127      89.34626472      83.67782926
C      74.88530468      88.40140156      79.67160948
O      76.73534675      87.37716990      78.70784906
O      72.71967833      88.14628851      78.68328262
C      78.06193462      93.39216875      79.55255672
O      78.13185449      95.71464239      79.56389508
N      78.53247648      92.23754598      77.36047420
H      78.47011550      90.33459158      77.21496527
C      78.79325870      93.60759755      74.95863205
H      79.84961571      95.34047657      75.31012115
C      80.24645824      92.04479389      73.07079547
H      80.32393702      93.24099064      71.39460823
C      82.96199495      91.35315406      74.11959357
H      84.07126429      93.08225364      74.30100730
H      83.55347929      89.87160863      72.81946187
H      82.91286207      90.56135873      76.02254797
O      78.67987512      89.87916754      72.58891526
H      79.35828688      89.06280577      71.11681846
C      76.28937133      94.63749839      73.86825997
O      76.58983782      96.05857257      72.08813778
N      74.07461209      94.18774353      75.01154439
H      73.94800044      92.71564672      76.21907951
C      71.77292546      95.68818622      74.65816557
H      72.10551728      97.05634807      73.15394343
C      69.39753948      94.15183873      73.88904696
H      68.54527291      93.21642421      75.51232186
H      69.93989093      92.51911519      72.75521117
C      67.28860490      95.58803072      72.41317071
H      66.46846369      97.11870904      73.52244006
H      65.73147042      94.24065587      72.48309058
C      68.11252559      96.55935005      69.84314292
O      68.59251607      94.99654639      68.17829404
O      68.05583380      98.84402917      69.31401956
C      71.42899526      97.51177211      76.89371180
O      69.44856209      98.70985860      77.08268443
N      73.21856608      97.74798791      78.72863605
H      74.80782591      96.72186652      78.47163327
C      73.35462638      99.67739846      80.72040758
H      72.60818449     101.43673367      79.95128897
H      75.33883901     100.12904305      81.03977133
C      72.21134195      98.95741274      83.20728741
O      72.08095084     100.49753969      84.90048219
N      71.39875965      96.57257814      83.46240046
H      71.55371719      95.35937385      81.99786257
C      69.93422175      95.86204104      85.64314463
H      68.82684213      97.53255911      86.12691456
C      68.00481118      93.78334210      84.88158492
H      66.84073978      93.24477010      86.49352147
H      69.07439627      92.12416239      84.29010059
C      66.32862395      94.66584429      82.66682569
C      66.03004719      92.88572210      80.76198156
H      66.78215826      90.99221634      80.84701925
C      64.26693253      93.21453448      78.89115251
H      63.73969890      91.74999659      77.57212355
C      63.02727208      95.57102319      78.52643533
O      61.40777663      95.69952457      76.49686927
H      60.21157987      97.05067890      76.68206245
C      63.35230500      97.49854403      80.32923424
H      62.17878496      99.16528263      80.40671301
C      65.03794088      96.95997202      82.36824893
H      65.27037721      98.54167296      83.63625528
C      71.67276996      95.24032109      87.99018471
O      73.53415037      93.84570307      87.67649014
N      71.15120549      96.07746984      90.35612205
H      69.78682310      97.35492482      90.74351595
C      72.57983859      95.21953410      92.70316213
H      74.53948478      95.82991569      92.55387375
C      71.51970213      96.37037742      95.15035771
H      72.57794886      95.47086770      96.67158739
H      69.46179016      96.43084866      95.21460840
C      72.10929674      99.19362853      95.21838786
C      70.20634234     101.00209661      94.83477341
H      68.23913724     100.54478285      94.54942474
C      71.06427809     103.57212440      94.53619666
H      69.67721897     105.01209585      94.11856714
C      73.61540860     104.31100738      94.95193645
O      74.46389573     106.75631324      94.75729464
H      73.10329277     107.92983328      94.49651240
C      75.27647803     102.48742150      95.64168655
H      77.02636460     103.10725172      96.49017366
C      74.61696356      99.88148890      95.65302491
H      76.09283981      98.61537227      96.27285514
C      72.37196869      92.21864871      92.86000942
O      70.22712932      91.20575541      93.20771906
N      74.64153000      90.96764989      92.89969367
H      76.18543640      92.09014731      92.90536285
C      75.10451295      88.17463439      92.96772382
H      73.36218528      87.27512468      93.60078213
C      75.92843362      87.15040274      90.35801178
H      77.76713732      87.95164670      89.89313911
C      76.05504527      84.34982835      90.35234260
H      77.35328725      83.47488506      91.69026883
H      76.84495087      83.70732140      88.55899233
H      74.17287787      83.54480494      90.56210222
O      74.12374499      87.95353642      88.68182454
H      74.61885327      89.68452573      88.46261629
C      77.14352763      87.44331032      94.96327480
O      78.48334359      89.16107154      95.78719548
N      77.30415437      85.06414489      95.98372701
H      76.30448914      83.62417344      95.22594676
C      79.12962999      84.26479065      97.75440057
H      80.92298025      85.08493188      97.16102651
C      78.13185449      85.06036544     100.38300987
H      77.66320236      87.06536506     100.30553109
C      75.83394730      83.52212822     101.16157711
H      76.33094532      81.53224641     101.36377783
H      74.49602107      83.61661453      99.59877345
H      75.08183622      84.44053521     102.84343353
C      80.31826784      84.76745786     102.32186907
H      82.21177360      85.29469150     101.70770801
H      80.65652884      82.79269385     102.79619037
C      79.73623213      86.38884304     104.58009201
H      78.27547370      85.32870657     105.57219832
H      79.07482792      88.27478989     104.08498372
H      81.21399812      86.58348485     106.00305592
C      79.68709925      81.54358477      97.39724229
O      78.22067164      80.09605441      96.17269964
N      81.43131664      80.48533803      98.83154457
H      82.67097710      81.49823133      99.87089404
C      81.72611395      77.78869859      98.96004596
H      79.86851298      77.00635189      99.38145492
H      83.05648127      77.39941497     100.48694482
C      82.72388943      76.48289770      96.56954217
O      83.85016631      77.72444789      94.92359055
N      82.11161810      74.06593774      96.36923118
H      81.08360699      73.12296432      97.67314234
C      82.26090648      72.85084373      93.82754929
H      83.88607111      73.52169656      92.75418474
C      82.66341819      69.85562753      94.07132398
H      81.01746658      68.93533081      94.89713438
C      82.82593465      68.69155611      91.40303043
H      84.56637259      69.16209797      90.40525494
H      81.13085015      69.19233359      90.34667342
H      82.99412030      66.63931333      91.39547152
C      85.17864392      69.28115073      95.38468377
H      85.27124051      70.29971321      97.17425459
H      86.81136745      69.67232406      94.19037674
C      85.42052889      66.42388453      96.08199278
H      87.29891683      66.03649065      96.83221413
H      85.15974665      64.91399322      94.70627203
H      83.91441701      66.37853110      97.48605943
C      79.80237256      73.81271442      92.40080592
O      77.93532296      72.41998613      92.55198403
N      79.93087395      76.00857640      91.22728588
H      81.59761256      76.93454229      91.26697014
C      77.81438048      77.11217656      89.61912879
H      77.78414485      75.92542844      87.93538265
H      78.36618055      79.01513096      89.05788008
C      75.12907939      77.37295880      90.54320496
O      73.23179416      77.29736974      89.23173490
N      74.84939988      77.55815198      93.09811493
H      76.40653436      77.59594650      94.19982537
C      72.43243993      77.92097942      94.36612129
H      70.98301986      76.69832650      93.55920815
C      72.50235980      77.15753000      97.10433472
H      73.39431063      78.58427337      98.28919311
H      73.47367913      75.37740781      97.45960326
C      69.97957518      76.96477791      98.20226570
N      68.44322769      74.88607896      98.15313282
H      68.85329830      73.12485405      97.54464095
C      66.24358625      75.53236537      99.30586587
H      64.59763464      74.33049942      99.44381589
N      66.35696984      78.04948082      99.96727008
H      64.93589565      79.10583783     100.67969690
C      68.76826062      78.92064464      99.40035219
H      69.44100318      80.84249630      99.50806659
C      71.30049388      80.47777912      93.91258697
O      72.25480566      82.25790131      95.03508440
N      69.68477788      80.98989495      92.04742710
H      69.52982031      79.64063037      90.70383169
C      68.36763864      83.43709053      91.72428390
H      69.99091354      84.55580851      91.12335094
C      66.43633834      83.01379184      89.58322399
H      64.97746962      81.64185054      90.07266311
H      67.52482070      82.61505958      87.88247031
C      64.97180045      85.59893743      89.05599035
H      63.78883178      86.01089778      90.69249334
C      66.72168702      87.77590215      88.34734298
H      67.48324672      87.38850826      86.47273448
H      68.23535779      88.03290492      89.71928429
H      65.57462315      89.45775857      88.65536837
C      62.96113166      85.39106754      86.99807839
H      61.46257869      84.03613377      87.40436955
H      63.55450572      84.80147294      85.11591099
H      62.18634387      87.27134523      86.68249410
C      67.16577270      84.36872561      94.14502331
O      65.74847797      82.89662881      95.21460840
N      67.26592820      86.81025201      94.94059809
H      68.27315232      88.08014809      93.93337396
C      66.01681910      87.93274944      97.09866554
H      65.60485877      86.43041702      98.44981985
C      67.70623443      89.87916754      98.61989522
H      66.62720071      90.58403544     100.22616259
H      68.32228521      91.48543489      97.48605943
C      70.11752520      88.36360704      99.65735497
H      71.24002264      87.79668914      98.02652116
C      71.68599804      89.95853604     101.50550730
H      70.51436772      90.45364434     103.12689248
H      72.16787824      91.71787124     100.54741606
H      73.28659623      88.80391327     102.09321218
C      69.32195043      86.08459710     101.10677505
H      70.94144587      85.32114766     102.12344780
H      68.69834074      84.52368317      99.91624747
H      68.10685641      86.43608620     102.73004995
C      63.43167351      88.86438451      96.35600310
O      61.58541090      87.83070421      97.34055051
N      63.27482623      90.61238135      94.63068297
H      64.82440179      90.70308821      93.52141363
C      60.89566080      91.75377604      93.85967464
H      59.48214552      90.34215047      93.36078689
C      59.77694282      93.34681532      96.02719072