 %block lattice_cart
   137.614   0.000   0.000
   0.000 142.646   0.000
   0.000   0.000   160.855
 %endblock lattice_cart

 %block positions_abs
N      92.72148649      41.99066817      80.69773086
H      92.43046864      41.61461263      82.54588320
H      94.49782922      42.62939566      80.42183082
H      92.57030838      40.48077685      79.54121836
C      91.04718897      43.99377806      80.06089310
H      91.36088354      45.57358926      81.34401726
C      91.35332464      44.51345280      77.17717074
H      90.70136906      42.93364160      76.02443769
H      93.32430918      44.69486652      76.60836312
C      89.93602990      46.86238260      76.33813226
H      87.94047892      46.35593595      76.23419731
H      90.34232106      47.26867376      74.36147854
S      90.10421554      49.72909742      78.23352775
C      88.75306123      51.75110458      75.80900889
H      89.18202910      53.73153775      76.17561580
H      86.69325955      51.69630251      75.83168561
H      89.60154834      51.47142508      73.95329765
C      88.34110089      43.15284985      80.61458291
O      87.56820283      41.12517352      79.68861701
N      86.78774586      44.58904185      81.87692008
H      87.57765146      46.21798593      82.47785305
C      84.01173791      44.38684113      82.40415372
H      83.19159669      43.02056901      81.10024257
C      83.66213854      43.14151149      85.01575549
H      84.39724208      41.22154956      85.16126441
H      81.64958002      42.80136076      85.28787608
C      84.52952292      44.70053570      87.37980311
O      83.64135155      46.81702917      87.84089633
N      86.35877799      43.92007874      88.73662660
H      86.70837736      44.91596450      90.32588643
H      87.29419252      42.36294425      88.14892172
C      82.74373155      47.01734016      82.12825368
O      83.87945707      49.01289115      81.95628859
N      80.27385926      46.96253810      82.24352699
H      79.16647964      45.44130842      82.56289073
C      78.69404807      49.32658572      82.29077015
H      78.86034398      50.17885228      80.42183082
C      75.93315792      48.54990820      82.86902640
H      75.54198458      46.81702917      81.82967692
C      75.42293182      47.63717039      85.55999667
H      73.71650896      46.49577570      85.37669321
H      75.18293658      49.23776858      86.83367220
H      77.11234714      46.69419696      86.25919540
C      73.76375212      50.39428108      82.27376261
H      73.56155140      51.76055321      83.80255120
H      71.88158471      49.56091178      82.30399823
C      73.97918091      51.85881898      79.77743415
H      75.09411944      50.89316883      78.33746270
H      74.73696117      53.74665556      80.09490817
H      72.09701351      51.91929022      78.94028539
C      79.42159270      51.28245245      84.31277730
O      79.23262007      53.48398361      83.80066147
N      80.23228528      50.70419620      86.61257422
H      80.80298263      48.96564799      87.16059485
C      80.85967442      52.70163691      88.51174917
H      79.35923173      54.10381384      88.34923270
C      81.05242650      51.58858811      91.21972697
H      81.49273274      53.26477535      92.33277577
H      82.57176646      50.20152900      91.33877973
C      78.76207821      50.37160437      92.18159767
C      78.29720554      47.77134096      91.66003321
H      79.83355303      46.80191136      90.73028786
C      76.07110794      46.48254762      92.35545249
H      75.86701750      44.49077608      91.96427914
C      74.31933165      47.80346631      93.69715817
H      72.60157043      46.99655317      94.44548979
C      74.74452007      50.40939889      94.42470280
H      73.22329039      51.47520454      95.26941046
C      76.79298340      51.68874361      93.40047114
H      76.98762521      53.69941241      93.69526844
C      83.21049395      54.12838028      87.71050521
O      83.32954671      56.41683884      88.25285666
N      85.06242574      52.69029855      86.80721603
H      84.93203463      50.78734416      86.85634892
C      87.61922544      53.80145763      85.96250837
H      88.55841942      54.80301257      87.49885586
C      89.38989900      51.52811687      85.23685347
H      91.08498350      52.43140605      84.49230130
H      88.54330161      50.47553932      83.68160871
C      90.17413542      49.77823031      87.44972298
H      88.41480022      48.89572812      88.05632513
H      90.91301841      50.77600580      89.09000542
C      92.11488434      47.85826837      86.49919064
O      91.45348013      46.08003591      85.00441713
O      94.35043057      48.11527115      87.05665991
C      87.14112468      55.47575514      83.70617515
O      88.03874468      57.60358697      83.58334294
N      85.64824090      54.50254609      81.93361187
H      84.91313736      52.75643898      82.14148177
C      84.85077639      55.90472301      79.67349920
H      86.42302869      56.09558537      78.35447024
C      82.72483429      54.47608992      78.40927230
H      81.19226625      54.22475632      79.76420606
H      83.68103581      52.71864445      77.92172291
C      81.94059787      55.64772023      75.85814178
H      83.18970696      54.99009548      74.35958881
H      81.69493345      57.68862465      75.98286371
S      78.74129122      54.61970912      75.14949441
C      78.73373232      55.09025097      71.76310486
H      76.77219641      54.72553379      71.24531985
H      80.20771884      53.91106175      70.93918418
H      78.95672002      57.08958141      71.31901917
C      83.80197829      58.53144259      80.35569040
O      84.74306199      60.47219151      79.58090261
N      82.15602667      58.74120221      82.31533659
H      81.15825118      57.15761156      82.69328185
C      81.23384023      61.20918477      83.22429494
H      80.50818533      62.25231370      81.60290977
C      79.04553716      60.76698882      84.99118905
H      78.53342133      62.51498566      85.95117001
H      79.70694137      59.53677699      86.50297010
C      76.69093817      59.52732835      83.73830050
H      77.46761569      58.21207884      82.35691057
C      74.98640504      58.26877063      85.86046315
H      76.05221068      57.13682457      87.21161746
H      73.26108492      57.45618832      85.08189591
H      74.36657481      59.83913320      87.03965237
C      75.03931738      61.53232797      82.32856467
H      76.34700799      62.54144182      81.09646312
H      74.27775767      62.93450490      83.63436555
H      73.51808769      60.64793606      81.25708985
C      83.21427341      62.94206380      84.38458690
O      82.77396718      65.21918401      84.38458690
N      85.38367921      61.86114035      85.26330964
H      85.56509294      59.96196541      85.23874319
C      87.27151580      63.31245016      86.72406808
H      86.49105883      65.10580043      87.37035447
C      88.31086527      61.53043825      88.90859169
H      90.04374430      62.42994797      89.56810618
H      88.87967289      59.62937358      88.35679161
C      86.43247732      61.51343071      90.97973173
H      84.55030991      61.21107450      90.19738504
H      86.43058759      63.41827483      91.76207843
C      86.63656776      59.52921808      92.98851080
H      87.26962607      57.69807328      92.29309152
H      84.75251063      59.37615025      93.80865202
N      88.34110089      60.26243189      95.03697413
H      89.41068599      61.76287458      94.53430693
C      88.19937142      59.80511812      97.46527244
N      86.83498902      58.00987813      98.42147395
H      86.75562052      57.52988764     100.26773656
H      86.43058759      56.63982655      97.15535732
N      89.35399420      61.32256835      99.10366515
H      88.91557769      61.20540532     100.95748667
H      90.38200531      62.78143707      98.42147395
C      89.37856064      64.05322287      84.84568012
O      90.56530876      65.98830262      85.40692884
N      89.75839563      62.81356241      82.68005377
H      88.74172287      61.20351559      82.78965789
C      90.97159992      63.48819471      80.25931436
H      92.69503032      64.31211538      81.03221242
C      91.53473836      61.16194162      78.72674632
H      89.66390931      60.39093328      78.34313188
C      92.72526594      61.77610267      76.17750552
H      94.57530800      62.66805349      76.35513980
H      91.56875344      62.84379803      74.84713820
H      92.96337146      59.93550924      75.28555470
C      93.25249958      59.11158857      80.09112872
H      92.61566181      58.81301181      82.02620846
H      95.21214577      59.74275715      80.14215133
C      92.99927626      56.37904432      79.04988952
H      94.37310728      55.10725851      79.90971499
H      93.46603865      56.22408676      77.05244881
H      91.05474788      55.81968533      79.43161423
C      89.61477643      65.43839226      78.61336274
O      90.63144919      67.10513087      77.57212354
N      87.09766098      65.27965525      78.67950316
H      86.28885812      63.77732283      79.53365945
C      85.47249635      67.16749184      77.61558725
H      86.24539441      67.58512135      75.75042738
C      82.74751101      66.38514514      77.18661937
H      81.54186562      67.95172826      76.61214257
H      82.11445269      65.63303407      78.99697718
C      82.56609728      64.60124351      74.81312312
O      84.18181328      64.60880241      73.05378793
O      80.76896756      63.11591862      74.96430123
C      85.70493269      69.80177032      78.91571895
O      86.71782599      71.56488497      77.74408864
N      84.98116751      69.90948472      81.33267890
H      84.36700646      68.24085638      82.02620846
C      84.73361336      72.16392821      82.96729217
H      85.38934839      73.77397503      81.86369200
C      82.07098899      72.43793853      83.77609503
H      81.57399097      70.94316501      85.10646235
H      80.91636621      71.95605832      82.14148177
C      81.16958954      75.00607658      84.74174517
H      82.43948562      75.73740067      86.18927553
H      79.29309131      74.73395600      85.54676858
C      80.91258676      77.07532690      82.70839966
O      79.27041459      76.66903574      81.12858846
O      82.09744516      79.14835666      82.95406408
C      86.56853761      72.38502619      85.18016168
O      87.60221791      74.31065730      85.78109465
N      86.93892397      70.32711423      86.57855915
H      86.13012111      68.65092699      86.15337073
C      88.29763719      70.31388615      89.03898281
H      90.23082721      70.96773145      88.76497249
H      88.69447971      68.37502695      89.61156988
C      86.77640751      71.71228362      91.03075434
O      84.54842018      72.40014400      90.81343582
N      87.94614809      72.09778779      93.30787455
H      89.79996961      71.65937128      93.43070676
C      86.63845749      73.20705713      95.51885434
H      84.70526747      73.70405515      95.01051796
C      86.59877323      71.49874455      97.79975400
H      85.93358957      69.69216619      97.06654019
H      84.96227025      72.01275010      98.94114869
C      88.96660030      71.23796232      99.37011656
H      90.58420603      71.19071916      98.09833075
C      89.27840514      73.22595440     101.43369770
H      87.76851382      73.14280644     102.83398489
H      89.29730241      75.18938004     100.81386747
H      91.14167529      72.98217970     102.28029508
C      88.94770304      68.59801466     100.81008801
H      87.18836784      68.43738792     101.86644502
H      90.53129369      68.18038514     102.05730738
H      88.77762767      67.21851445      99.28885833
C      87.75150628      75.87157124      96.25962705
O      90.01350868      76.20605279      96.18781745
N      86.03185534      77.50429477      97.16858541
H      84.17803383      77.06776799      97.03819429
C      86.59121433      79.88534992      98.44226094
H      88.57542696      80.08377119      98.96193568
C      86.09988549      82.15302150      96.72261000
H      85.82965462      83.78952449      97.94337320
H      84.24606397      81.91869544      95.85522562
C      88.10110565      82.35711194      94.75729463
H      88.57353723      80.51840824      93.95605068
H      89.82264632      83.04875177      95.65113518
C      87.31308978      84.13345468      92.59544773
H      89.09699142      84.81942533      91.82632912
H      86.34743963      85.84554672      93.20771906
N      85.92792039      82.84466133      90.60367620
H      85.28541345      81.10989258      91.07043860
C      85.21360385      83.60055186      88.35679161
N      85.48950389      85.85688507      87.61601890
H      84.44070578      86.46537695      86.14014264
H      86.10555467      87.24205446      88.77442113
N      83.88134680      82.03585847      86.93193797
H      83.63757210      82.37034003      85.06866783
H      83.46749673      80.25384656      87.48562778
C      85.09266136      80.00818213     100.75906540
O      82.92703501      79.24095325     100.81764692
N      86.30397593      81.11178230     102.66013007
H      87.97638372      81.92247489     102.22549302
C      85.48761416      81.31587274     105.31897500
H      83.72260978      80.26140546     105.47582228
C      87.58143092      80.21038285     107.06508211
H      87.16002195      80.70927060     109.02094884
H      89.44848051      80.90013295     106.53217929
C      87.57576174      77.39091119     106.99516224
H      87.75906519      76.66903574     105.07331057
C      89.81130797      76.50085010     108.60709878
H      89.07809416      76.46872475     110.53272989
H      91.48938493      77.69326740     108.54284809
H      90.16090733      74.50907856     108.21781516
C      85.33265660      76.15125073     108.10254185
H      83.80008856      76.66903574     106.82886632
H      84.83565858      76.72383780     110.01872434
H      85.51784978      74.11223604     107.87955415
C      84.71660583      83.83109847     106.63800396
O      83.25584739      83.99550466     108.57686316
N      85.69926351      85.95893029     105.59298531
H      86.69514928      85.75295013     103.97726931
C      84.53519210      88.55730398     105.61377230
H      83.51662962      88.81619648     107.38444586
C      86.80664313      90.37711041     105.59109558
H      87.98772207      89.76483909     107.16523760
H      86.06398069      92.26872645     105.92746687
C      88.16535635      90.54718578     103.17980481
H      86.87467327      91.05552216     101.65668540
H      89.10077087      88.78596086     102.66579925
C      90.23649639      92.66178953     103.14012056
H      91.65757057      92.13833534     104.53851803
H      89.35021474      94.45513980     103.62011104
C      91.31930956      92.82052654     100.33387698
H      89.90579428      93.83908902      99.23594599
H      91.93913979      91.09142696      99.40035218
N      93.69847499      94.24349045     100.68347635
H      94.69058131      93.44980540     102.10832999
H      93.38289070      96.04250990     101.24094561
H      94.64333815      94.36443293      99.02807610
C      82.91947610      89.19603147     103.24216578
O      83.40324604      88.08298267     101.16535656
N      80.99384499      90.75505568     103.65034666
H      80.78219564      91.23693589     105.48338118
C      79.09467004      91.34654001     101.62644978
H      78.27263910      89.56452810     100.99906064
C      76.89124916      92.85643134     102.75083694
H      77.54509447      94.74993710     103.22326851
C      75.09411944      93.44035677     100.57009277
H      74.60657005      91.60543252      99.77073854
H      75.84056133      94.40033773      98.90713362
H      73.42360138      94.42490418     101.26173260
C      75.27931262      91.87188393     104.93914001
H      76.59645186      91.39378317     106.44903133
H      74.68782828      89.98026789     104.37222211
C      73.30454862      93.68035201     105.98226893
H      71.56033123      93.63499858     104.88811740
H      74.01697544      95.60976258     105.86510590
H      72.79999170      93.18902317     107.91734868
C      80.44204491      92.50305252      99.34366039
O      81.98973076      94.23782127      99.51940494
N      79.72205918      91.61677088      97.11567307
H      78.47483981      90.18435833      96.93803880
C      80.54786958      92.62777445      94.70438230
H      81.55509370      94.37010211      95.14090907
C      82.32232259      90.81174747      93.60267185
H      84.01740709      90.69269471      94.76674326
H      83.13490490      91.54874073      91.86034419
C      81.22817105      88.13400528      92.96583409
C      80.47605998      87.56708739      90.49596180
H      80.21716747      89.13744995      89.21850681
C      79.53119682      85.11611236      89.84211649
H      78.79798301      84.73249792      87.97506689
C      79.47450503      83.15646617      91.72428390
O      78.77152684      80.83966171      91.00051872
H      77.80398697      80.97950146      89.47361986
C      80.16992432      83.72338407      94.18470756
H      80.00551813      82.27018453      95.60956120
C      81.04864705      86.23294061      94.74217682
H      81.37745943      86.80174823      96.67536684
C      78.18949114      93.22681769      93.01496697
O      76.09567439      92.36132304      93.59889240
N      78.55609805      94.84442342      91.04776188
H      80.32488187      95.51905571      90.81532554
C      76.79109367      94.87843849      88.89914306
H      74.92593380      94.40222746      89.62668769
C      76.54164980      97.41634093      87.68404904
H      75.67615514      97.16122788      85.83211726
H      78.47106036      97.96625129      87.22295582
C      75.16592904      99.43645836      89.30354449
H      76.09567439     100.20935642      90.97028310
H      73.40470412      98.53694863      89.87991102
C      74.47239948     101.79483680      87.78420454
H      73.01919995     101.12398396      86.48974201
H      75.98984971     102.64899309      86.68249410
C      73.22140066     103.89432273      89.44527397
H      74.68971801     104.39698993      90.79642828
H      71.63403056     102.99103355      90.39769603
N      72.18394092     105.97680113      87.96750799
H      71.72851688     107.37141915      89.18638146
H      70.68916740     105.56673052      86.85445919
H      73.32533561     106.68355877      86.60879477
C      77.51863830      93.01327862      86.83556193
O      79.72205918      92.74304776      86.17037827
N      75.62891199      91.66968321      85.81321999
H      73.83367199      92.04762848      86.34612281
C      75.86512778      89.72515484      83.67404981
H      77.61501434      88.70470263      84.04443616
C      73.65981717      87.86188469      83.68727789
H      71.94961485      88.75383551      82.95973326
H      73.22140066      87.63889699      85.68849806
C      74.31177275      85.11611236      82.82367297
O      76.23551413      84.76273354      81.52165154
O      72.97195679      83.28685729      83.46429019
C      76.10890247      90.88544679      81.06433777
O      75.74040584      93.12288275      80.73363566
N      76.47928883      89.37177602      79.15760392
H      76.68715872      87.52740313      79.60168960
C      77.32210676      89.92546583      76.61214257
H      79.07199333      91.01394818      76.66127546
C      77.45438760      87.57653602      74.84524847
H      77.00274302      88.12077720      72.91016873
C      79.75607425      85.81909055      74.97941904
H      79.61434478      84.35077320      73.54322704
H      80.00740785      84.88934520      76.80111521
H      81.44171012      86.98883114      74.79989504
O      75.55710239      85.81342137      75.39515883
H      76.11079220      84.41124444      76.40238295
C      75.54387430      91.84164831      75.43106363
O      76.50574500      93.18524372      73.77566338
N      73.13069380      91.87566338      76.04333495
H      72.27842723      90.53017825      77.09591251
C      71.42049149      93.86365546      74.93217588
H      72.33322930      94.94079946      73.43362292
C      69.03565688      92.58431075      73.93062094
H      67.61836215      92.01739285      75.31390060
H      69.76131178      91.01394818      72.81568241
C      67.51253747      94.18679866      71.98987201
H      67.47285322      96.14455512      72.63426869
H      65.67005432      93.26839167      72.05034326
C      68.94117056      94.12443769      69.40094696
O      67.57489844      93.83719929      67.43941105
O      71.20317296      94.67056860      69.25354831
C      70.61546808      96.05384826      77.00142620
O      69.29643911      97.80373482      76.38537542
N      71.65103810      95.97636948      79.29744367
H      73.00030268      94.70269394      79.73774990
C      71.50174972      98.07018623      80.91126994
H      71.12380446      99.83141116      79.91160472
H      73.35557123      98.43112396      81.74085979
C      69.65548711      97.93601567      83.14303671
O      68.33456842      99.88810295      83.60224021
N      69.33612336      95.73637424      84.35624101
H      70.34712694      94.17546030      83.91782450
C      67.51442720      95.07874948      86.52564681
H      66.42027566      96.74548809      87.04532155
C      65.61525225      93.17012591      85.74707957
H      64.01087461      93.30051702      87.03209346
H      66.42405512      91.32953248      86.19683443
C      64.74030897      93.40445197      83.09957301
C      64.93873023      91.38811399      81.40637823
H      65.93650573      89.70247812      81.98652421
C      64.04299996      91.50527702      78.95162375
H      64.31701028      90.03506995      77.56645436
C      62.75420662      93.74082325      78.03132704
O      62.04933870      94.01483357      75.61058763
H      61.34447079      95.66456464      75.33279786
C      62.37815108      95.81196329      79.69050674
H      61.24620502      97.43712792      79.19728817
C      63.50631769      95.68157218      82.13203313
H      62.93373062      97.11587445      83.46617991
C      68.88447878      94.21892401      88.91804032
O      70.68349823      92.81674708      88.62702247
N      68.20417730      94.71025285      91.31988247
H      66.58090240      95.66834409      91.62790786
C      69.51753709      93.89956026      93.56298760
H      71.57355932      94.02995138      93.51385472
C      68.55377667      95.24315567      95.97238865
H      69.56855970      94.46458843      97.58621492
H      66.63003528      94.67812750      96.45048941
C      68.94872947      98.03428143      95.89302015
C      67.01931890      99.63487962      95.13523989
H      65.21840973      99.08685899      94.34155484
C      67.41238198     102.32396017      95.47161118
H      66.08768383     103.70157065      94.75351518
C      69.78965768     103.33496374      96.31820857
O      70.17516185     105.78404904      96.53552709
H      68.57456366     106.63064643      96.44670996
C      71.83623128     101.58696690      96.64324149
H      73.63903018     102.35986497      97.20260048
C      71.30521818      98.96402678      96.43726132
H      72.85479376      97.71113824      96.87378810
C      69.28699048      91.04418380      93.96171985
O      67.18939427      90.12955627      93.60456158
N      71.34301271      89.75728018      94.63635215
H      72.98140542      90.63411319      95.07098920
C      71.85323881      86.95292634      94.37368019
H      70.12791869      85.84932617      94.59288844
C      72.87936020      86.54663518      91.66381266
H      74.82388858      87.23071610      91.66570238
C      72.64692386      83.88967998      90.76619266
H      70.70239549      83.20181960      90.74351594
H      73.63147127      82.58198937      92.01908120
H      73.41226302      83.81409093      88.85756908
O      71.37891751      87.92235593      89.95361034
H      71.72095797      89.69680894      90.12746517
C      73.62202264      86.01184263      96.31064966
O      75.45127771      87.26851063      96.84733193
N      73.28187191      83.73283270      96.94559770
H      71.74174496      82.72560857      96.43915105
C      74.98829477      82.48939278      98.85422128
H      76.71361489      83.61000049      98.94303842
C      73.92815830      82.58576883     101.56219909
H      73.14770134      84.48683350     101.69825938
C      71.73985523      80.68092470     102.08565327
H      70.05988854      81.31776247     101.07842915
H      71.18238597      80.96627338     104.04718919
H      72.51842248      78.79686757     101.78896624
C      75.91615039      82.28908179     103.67491310
H      76.63424638      80.37100959     103.89034190
H      75.01853039      82.82198462     105.45125584
C      78.17248360      84.23738962     103.17224590
H      79.40080571      83.43614567     101.72471555
H      79.33088583      84.81375615     104.77662354
H      77.22006154      85.88145152     102.37478140
C      75.78953872      79.74173072      98.19848625
O      74.50452483      78.51907780      96.64135177
N      77.52808693      78.61545384      99.56853783
H      78.34633842      79.57354508     101.00284010
C      78.22161649      75.94338084      99.58932481
H      76.65503337      74.79442724     100.27151601
H      79.89024482      75.96038837     100.79685993
C      79.08522141      74.95694370      96.99473059
O      80.67637097      76.18526580      95.87412288
N      78.08555619      72.73084610      96.20293526
H      76.79487312      71.92960215      97.36133749
C      78.25563156      71.69716581      93.58944377
H      79.87890646      72.61557280      92.71827994
C      78.63924600      68.79832565      93.68393009
H      77.07077316      67.99141251      94.74973573
C      78.69215834      67.64937205      90.97406255
H      76.98951493      67.90070565      89.84211649
H      79.32521665      65.69350531      91.09122558
H      80.13779897      68.57155849      89.83455759
C      81.12423610      68.29565845      95.04642276
H      81.28297311      69.23863188      96.87189838
H      82.56042810      69.01375445      93.75573969
C      81.80831703      65.53854776      95.61900983
H      83.72449951      65.71429230      96.35789282
H      81.98973076      64.13259138      94.12423632
H      80.43259627      64.77698805      96.94937716
C      75.85000996      72.70061048      92.24395864
O      73.90548159      71.50630345      92.24584836
N      76.08244630      74.98339987      91.08555641
H      77.67359586      76.00385208      91.35200782
C      74.26641931      76.12290484      89.37157464
H      74.00185763      74.83978067      87.78231481
H      75.09033999      77.87657085      88.67615536
C      71.48474218      76.59344669      90.34667342
O      69.86335701      76.90714126      88.84056155
N      70.99530307      76.71249945      92.88079640
H      72.59212180      76.68604328      93.92959451
C      68.49897461      76.83911111      94.08455206
H      67.23096825      75.89424795      92.76552310
C      68.41582665      75.30465334      96.46938667
H      69.30210829      76.50840900      97.88668141
H      69.39470488      73.49429553      96.36923118
C      65.85902695      74.90025191      97.61267109
N      64.73652952      72.68927212      97.46716216
H      65.42061044      70.96395200      97.01929703
C      62.37248190      72.80832488      98.25706776
H      60.94384881      71.35134590      98.24194995
N      61.90194005      75.32544033      98.75028633
H      60.26543706      76.05865414      99.40224191
C      64.13370682      76.69549191      98.28919311
H      64.48141647      78.70427098      98.38178970
C      67.63536968      79.66425195      94.16014112
O      68.76353629      81.07398778      95.53586187
N      65.59446526      80.33321506      92.75229501
H      64.38693015      78.98961965      92.13813396
C      64.75542678      82.96371409      92.31765796
H      66.32389962      84.17124920      91.75074007
C      62.83546485      82.92969901      90.08211173
H      61.46352354      81.58988306      90.83422281
H      63.55167112      82.15680095      88.30954845
C      61.20085159      85.28618773      89.69093839
H      60.13126649      85.85310562      91.35578727
C      62.87325937      87.40457092      88.75363414
H      62.00020582      89.27162052      88.71961906
H      63.40994165      87.05119210      86.79587768
H      64.63637402      87.58787438      89.80432197
C      59.22041841      84.69092394      87.79554290
H      60.02166237      83.95393068      86.04565633
H      58.34358540      86.53907627      87.57255519
H      58.18106894      83.16969426      88.71017043
C      63.60836291      83.96148958      94.82721451
O      61.83202017      82.85410996      95.84199754
N      64.55889524      86.00050427      95.92703522
H      66.08579411      86.78096124      95.08610701
C      63.57434784      87.36866612      98.04352869
H      62.79578059      86.03640907      99.40980081
C      65.55856046      89.07886844      99.26996107
H      64.52676990      90.29774191     100.57009277
H      66.66027090      90.30341109      98.03408006
C      67.41427170      87.53685177     100.89701542
H      68.46118008      86.20648444      99.72727484
C      69.30210829      89.55507947     101.83054022
H      70.27153789      90.48860427     100.27340574
H      70.79499208      88.62155467     102.89823559
H      68.27031772      90.80229883     103.10421576
C      66.18405987      86.20081526     103.13823083
H      67.67694366      85.13123017     104.06608645
H      64.92739188      84.75328491     102.38611976
H      65.39982345      87.58409492     104.44970089
C      61.18951323      88.78785059      97.01551758
O      59.07679921      88.31730873      97.88101223
N      61.58257630      90.85143172      95.50373653
H      63.23608683      91.04607353      94.57399118
C      59.72686506      92.55596485      94.50974049
H      58.11114906      91.39945235      93.96738903
C      58.80089917      94.48348569      96.54497572