 %block lattice_cart
   137.614   0.000   0.000
   0.000 142.646   0.000
   0.000   0.000   160.855
 %endblock lattice_cart

 %block positions_abs
N      88.09071216      41.18847935      78.92044326
H      89.79335557      40.74817312      78.18156028
H      86.87561815      41.44926158      77.47102319
H      87.65796484      39.71449283      80.05049960
C      88.16441148      43.52229135      80.34718664
H      89.58359595      43.24261185      81.81172452
C      88.84660268      45.68980743      78.73147063
H      87.54269153      45.73138141      77.13654163
H      90.79868998      45.55752659      78.09085341
C      88.56692319      48.21259206      80.03727152
H      89.41541030      48.18613589      81.91565948
H      86.61483591      48.71714898      80.45112159
S      89.88595216      50.89978287      78.31762058
C      93.29501842      50.44057938      78.63131515
H      94.30602200      52.14133306      78.04927943
H      93.90540003      48.83053256      77.50125880
H      93.86004660      50.25727593      80.60418942
C      85.60005288      43.87378044      81.76259165
O      83.70087793      44.02873800      80.44167296
N      85.72288510      43.90212634      84.32695026
H      87.29891683      43.13300773      85.08095105
C      83.64040669      44.71281892      85.90298200
H      81.95288110      43.61866739      85.45511685
C      84.23567048      44.23849762      88.71489475
H      85.71721591      45.56508549      89.24968730
H      84.74967605      42.28452061      89.10795782
C      81.94721193      44.68825248      90.34572855
O      79.81182118      44.39534490      89.44999828
N      82.40452569      45.01139568      92.72867343
H      80.80392750      44.62400179      93.69054414
H      84.14496363      44.89990183      93.50535096
C      82.95821549      47.49827551      85.38897643
O      84.64574110      49.06674835      85.35496137
N      80.54692472      48.09164957      85.30204903
H      79.39419168      46.57041989      85.27937231
C      79.45088347      50.65978763      85.00914145
H      80.32393701      51.28528704      83.25169597
C      76.53125630      50.43113075      84.53293042
H      76.52180767      49.20280864      82.87941990
C      75.14041775      49.11210178      86.82894788
H      74.99301908      50.38199786      88.44466389
H      76.14953159      47.40000974      87.36751989
H      73.15242566      48.86643736      86.35462659
C      75.16309445      52.80651672      83.62208233
H      74.69066287      54.07641280      85.17354764
H      73.40186954      52.15834060      82.77170549
C      76.62196317      54.32585668      81.55094229
H      77.11518173      52.98037154      80.06939686
H      78.23578944      55.34252943      82.32384035
H      75.55804725      55.91889596      80.79316205
C      80.25779660      52.47959407      87.00280270
O      81.05904055      54.59041836      86.19966902
N      80.32015756      51.74071108      89.48023391
H      79.65875335      50.01917041      89.97723193
C      81.56170775      53.23548460      91.37184995
H      80.43165142      54.95702527      91.42287255
C      81.42186800      51.99582413      94.09683528
H      82.00012426      53.50193601      95.37995946
H      82.53491680      50.26294511      94.06659967
C      78.63830114      51.35142746      94.88107171
C      77.38919205      49.19713946      94.05715104
H      78.23200998      47.95369955      92.67387138
C      74.86829715      48.72281816      94.82437992
H      73.97256687      47.05607955      94.06093049
C      73.59840106      50.31963689      96.57993566
H      71.67465968      49.89633820      97.11661793
C      74.80782590      52.64777971      97.16008164
H      73.70989492      54.11420733      98.05959136
C      77.28525710      53.12965992      96.29647672
H      78.17720793      54.92867937      96.66119389
C      84.34716434      54.11420733      90.93154372
O      85.27690968      55.96235967      92.00301853
N      85.63028851      52.88777495      89.19866469
H      84.89707469      51.46670077      88.15553576
C      88.20409574      53.33941954      88.32750086
H      89.15651780      54.62065398      89.62952229
C      89.71209734      50.90923150      88.23490427
H      91.17096606      51.00371782      86.78359446
H      88.33070740      49.49949567      87.64341993
C      91.15773796      50.47270473      90.78603478
H      89.81981175      50.50294035      92.35072818
H      92.33692719      52.09031045      91.26791500
C      92.65818067      48.01983997      90.82760877
O      93.04746428      47.02017475      92.92331524
O      93.39328420      46.96726242      88.81693997
C      88.29291287      54.65466906      85.77070116
O      90.21287481      55.94913158      85.09606887
N      86.15563241      54.52049849      84.28159682
H      84.95565622      53.09375512      84.68599825
C      85.87784265      55.88677061      81.86085741
H      87.51245592      55.45402329      80.68355791
C      83.55536901      54.96647390      80.32639965
H      81.88296123      55.93401377      81.03882646
H      83.24545389      52.98982017      80.82717712
C      83.79158480      54.90411293      77.28394028
H      84.82526509      53.18446198      76.80961898
H      85.00100965      56.49337276      76.77749364
S      80.74534599      54.91734101      75.47925166
C      81.88863040      55.24237394      72.27616556
H      83.45710324      53.94980114      71.94546345
H      82.41964350      57.22469684      72.09664155
H      80.30503975      54.73781701      71.06107153
C      85.87595293      58.72702926      82.33895817
O      87.41041069      60.23503086      81.56228065
N      83.89174030      59.42622800      83.82617278
H      82.80703740      57.97491819      84.42710575
C      83.27568952      62.14365443      84.60285029
H      82.66152847      63.13765048      82.90587607
C      80.72077954      62.04160921      86.06360874
H      80.79447887      63.58551561      87.42232196
H      80.68487475      60.19912606      86.98201572
C      78.39830591      62.46490791      84.41954685
H      78.57971964      61.25548307      82.76414658
C      76.25913571      61.14398922      85.93510735
H      76.79014882      59.21646838      86.42643619
H      74.43743955      61.31595431      84.99402363
H      76.10795762      62.17389006      87.71333981
C      77.65375374      65.12186310      83.59373644
H      75.88685964      65.11052475      82.53548971
H      79.18065259      65.76437005      82.37108352
H      77.62729756      66.31050096      85.27559286
C      85.44320559      63.69134029      86.03715257
O      85.87028374      65.96090159      85.73668609
N      87.04569352      62.32317843      87.35618153
H      86.80191881      60.42778294      87.33350481
C      89.25667329      63.50992656      88.59395227
H      88.56692319      65.09351721      89.72211888
C      90.72499064      61.72224547      90.32305185
H      92.09693194      62.93544976      91.26980473
H      91.90984904      60.37487061      89.31015853
C      88.88628694      60.71691107      92.33750009
H      87.58237579      59.55094993      91.25279718
H      87.61639085      62.13420580      93.12740569
C      90.26011797      59.26938071      94.51635454
H      91.41285103      60.49014391      95.71066157
H      91.53001406      57.77460720      93.89085513
N      88.51401086      57.79161474      96.09238627
H      87.65040594      56.31384876      95.24389916
C      87.48977919      58.48892375      98.17486468
N      87.83937857      60.74336724      99.10838947
H      87.41985933      61.17611456     100.91874727
H      89.07148012      61.78649616      98.08982699
N      85.84382758      57.06407011      99.25389839
H      85.24856378      57.59319347     100.98866716
H      85.36572682      55.39166232      98.46399279
C      90.92719135      64.60029864      86.74768965
O      92.16685183      66.60529826      87.09161984
N      91.18797359      63.49102930      84.44789274
H      90.16563165      61.91310782      84.11908035
C      92.88872728      64.40187738      82.38620133
H      93.90728975      66.00436529      83.18555556
C      94.66129055      62.33451679      81.44133817
H      96.07102639      63.15276829      80.18278044
C      96.42818465      61.27815978      83.53893437
H      97.99098832      60.19723633      82.74524933
H      95.42662971      59.89676985      84.69166742
H      97.22186970      62.78238193      84.70489552
C      93.28556979      60.15755208      80.05805850
H      92.14795455      60.89454534      78.50659321
H      91.97409974      59.20890947      81.32984432
C      95.06758171      58.18467781      79.00170150
H      95.83670033      56.99415023      80.49647501
H      96.53778879      59.01804711      77.82251228
H      93.88650276      56.81273651      78.02093354
C      91.50922707      65.79082622      80.30561266
O      92.67896766      66.78293253      78.55950555
N      89.15273835      66.23869136      80.55505654
H      88.26078753      65.81350293      82.18778006
C      87.43119769      67.26670247      78.57462335
H      88.68408622      67.72023678      77.00237107
C      85.53202273      65.29382820      77.70912871
H      84.18842732      64.77793292      79.18311522
H      86.54491603      63.50803683      77.52960470
C      84.46243764      65.72657552      74.96146665
O      85.85705566      66.08940298      73.17000609
O      82.09272085      65.78704677      74.78950155
C      85.98933650      69.65342680      79.48169198
O      85.56225835      71.46756406      78.03605136
N      85.77390770      69.97845973      82.02337388
H      86.23878038      68.44211224      83.05516445
C      84.81770618      72.11007101      83.46145559
H      84.40574585      73.51791711      82.01392524
C      82.32326746      71.34662158      84.82961746
H      83.11506278      70.00680562      86.17888204
H      81.23478510      70.52648036      83.28382132
C      80.88329601      73.45366642      86.24502245
H      81.98311673      74.05837884      87.87774599
H      79.15986560      72.57305396      86.94611092
C      80.05748561      75.60984414      84.52726123
O      78.08839079      75.54748317      83.24602680
O      81.41430909      77.56571088      84.48001809
C      86.65074071      73.15886911      85.36063054
O      87.29891683      75.33961328      85.19244491
N      87.70331827      71.49024078      86.97256709
H      86.90018459      69.75925148      86.91209585
C      89.46076375      72.00991552      89.04937631
H      91.11994344      72.90564579      88.22167619
H      89.95776176      70.22601388      89.95644494
C      88.53290813      73.55949109      91.23956910
O      86.74711676      75.16575846      91.07894236
N      89.75745077      73.34028284      93.38251874
H      91.08781809      71.97590044      93.48267423
C      88.89006639      74.47033917      95.81270678
H      86.83026471      74.50246452      95.75223554
C      89.64217747      72.88485880      98.13140097
H      91.66229490      72.52581080      97.94431807
H      88.62172526      71.09528798      98.08793726
C      89.17541507      73.83728086     100.85449658
H      89.97665903      75.73078663     100.96788016
C      86.22366256      74.01113568     101.21543432
H      85.88729129      75.11662557     102.92185718
H      85.48288985      72.11762991     101.54424668
H      85.23533570      74.95410911      99.67341763
C      90.23933099      72.13085800     102.87839346
H      92.27834567      72.10251210     102.58359616
H      89.50233772      70.24869059     102.47966121
H      89.91051860      73.04737526     104.69253073
C      89.63083911      77.22367041      96.26624109
O      91.89662096      77.85483900      95.84294241
N      87.92630597      78.80348161      97.07882341
H      86.11216871      78.22522536      97.19409672
C      88.24566972      81.45098817      97.75345570
H      90.27145633      81.79869782      97.90463381
C      86.91719212      83.11961651      95.73900746
H      86.72821949      84.99800446      96.56292813
H      84.97077402      82.46577120      95.57649100
C      88.40818619      83.50701040      93.19543584
H      88.60093826      81.64185053      92.34127954
H      90.20909536      84.41218931      93.61117562
C      87.17230517      85.39295726      91.43610065
H      86.78302156      87.18819726      92.36962543
H      85.33549120      84.67675099      90.83705739
N      88.70487321      85.95420598      89.04937631
H      89.02423697      84.34226943      88.08372617
C      89.39840277      88.13683987      88.14041796
N      89.51178635      90.09081688      89.67298600
H      90.70231392      91.45519928      89.06827358
H      89.32281371      89.97743330      91.56838149
N      90.02768163      88.42785772      85.84629021
H      90.33003784      90.19097237      85.18488600
H      89.33793153      87.20331507      84.55371741
C      86.96821474      81.80058754     100.29891704
O      84.67030754      82.17664308     100.55969928
N      88.53668758      81.53980531     102.30013722
H      90.41318580      81.51712860     101.94864811
C      87.71843609      81.80814645     104.93819515
H      86.12728652      80.62139832     105.48621578
C      90.10893986      81.46610599     106.64461801
H      89.77634803      82.20498897     108.53812378
H      91.59048530      82.67742055     105.88305830
C      90.79302079      78.50112540     106.84870844
H      91.08970783      77.78302940     104.94197460
C      93.22887800      78.17798220     108.29056962
H      93.83548015      76.22400519     108.05813328
H      92.90006564      78.44443361     110.30690760
H      94.53845835      79.54425432     107.47987703
C      88.57637182      76.94210119     108.05435384
H      88.13984504      77.86239791     109.84581439
H      89.18486369      75.00324199     108.39828403
H      86.99656063      76.77013610     106.74288377
C      86.60727700      84.55769823     105.29724315
O      85.07848842      84.96209966     107.07358588
N      87.25167368      86.42474783     103.77412373
H      88.49322387      86.05436147     102.37383654
C      86.23689065      89.11571810     104.00844980
H      85.30525557      89.42185376     105.81880760
C      88.50267249      90.98654715     103.96687582
H      89.50233772      90.81269233     102.17352555
H      89.69131035      90.50277721     105.57692264
C      87.77701759      93.82869552     104.17096627
H      86.49956260      94.00255035     105.77912335
H      86.59593865      94.25577367     102.54013245
C      90.25066933      95.43118344     104.53190399
H      91.72843531      95.07591489     103.13917570
H      91.09159754      94.91528815     106.34037208
C      89.71398706      98.18262495     104.64339785
H      88.57448210      98.55679076     106.31580562
H      88.63306361      98.54923185     102.92941608
N      92.14417510      99.66606011     104.63583894
H      93.20809102      99.25032032     103.10516062
H      93.00589031      99.30512238     106.30068782
H      91.67552298     101.51421244     104.56024988
C      84.38495886      89.57681132     101.91274332
O      84.58338012      88.48454951      99.86239026
N      82.55381406      91.19441704     102.56091944
H      82.41586405      91.64039245     104.41096150
C      80.45243841      91.96164593     100.84882741
H      79.66253280      90.20609018     100.11939305
C      78.56271209      93.68885578     102.17163583
H      77.78603458      92.81391249     103.86861006
C      80.19354591      96.03022668     103.25633873
H      81.34816867      97.00154600     101.85605154
H      81.51824404      95.20252655     104.59615468
H      78.97089297      97.37004264     104.23521695
C      76.17598777      94.59781413     100.63339860
H      75.07616705      92.91595772     100.18175401
H      76.84684060      95.39149919      98.85516614
C      74.54893340      96.65005691     101.90896387
H      75.73568152      98.29411880     102.25856323
H      73.89130865      96.14549998     103.79491072
H      73.01825510      97.15650356     100.62772943
C      81.57682557      93.27689544      98.46021334
O      83.66308341      94.40884150      98.53013322
N      80.28992195      93.08603308      96.30025617
H      78.59105798      92.22053843      96.39663222
C      81.10250425      93.94018938      93.82471470
H      81.71288585      95.90550474      93.90597293
C      83.12829086      92.09392677      92.79481386
H      84.55125477      91.71787123      94.23289558
H      84.06370539      93.20319612      91.33405541
C      82.04358797      89.53712707      91.95955482
C      81.65052489      88.99666534      89.44621883
H      81.87540233      90.44230597      88.01947546
C      80.81526586      86.54758004      88.69221803
H      80.32393701      86.42852728      86.71745404
C      80.18976645      84.76745785      90.54414983
O      79.09372518      82.48466847      89.91865042
H      78.94821626      82.09160539      88.15175630
C      80.73400763      85.23799971      93.10094953
H      80.28425276      83.83204333      94.51068535
C      81.55603858      87.63417267      93.75668455
H      81.73745229      88.12928096      95.72955882
C      78.71011075      94.21230997      92.03892333
O      76.62763234      93.44886054      92.74190153
N      79.06159984      95.13260668      89.65786818
H      80.79069942      95.65606087      89.04370712
C      76.88841458      95.23843135      87.99868847
H      75.13852801      94.60159359      88.87741121
C      76.43110082      98.12215371      87.35618153
H      74.88908414      98.31112634      86.00313750
H      77.94477158      98.98197918      86.25258136
C      75.75457879      99.91739371      89.47645446
H      77.43076604     100.09691771      90.66131286
H      74.05382511      99.13126756      90.32872102
C      74.87585605     102.42317080      88.60340089
H      73.42643598     102.17372692      87.15964999
H      76.48212342     103.45118191      87.82483365
C      74.05004565     103.90093677      90.83138823
H      75.86418291     104.37336835      91.68743424
H      72.87652561     102.68584275      92.01246717
N      72.57605914     106.26120494      90.28903676
H      72.32661526     107.40448936      91.79514864
H      71.06427808     106.02120970      89.14764207
H      73.63619560     107.20228864      89.00969205
C      77.16431463      93.65862016      85.61952304
O      79.14285807      93.43752218      84.46301055
N      75.05915950      92.48132066      84.95244966
H      73.58139353      92.32636311      86.15053614
C      74.74546495      91.03568003      82.60163013
H      76.24590764      89.67318736      82.22935405
C      72.26992347      89.56547296      82.51848216
H      70.73924515      90.94308344      82.60918904
H      72.11118647      88.15573713      84.00947623
C      71.85040423      87.86093983      80.23191334
O      70.45956566      88.72643448      78.60107952
O      73.11652086      85.88050665      79.86341670
C      74.84184099      92.98776732      80.29994347
O      74.65475807      95.25921834      80.31317157
N      75.43521505      91.82369591      78.10408151
H      75.80938086      89.95853604      78.24959043
C      75.55804725      93.14461460      75.59263523
H      76.99612898      94.61860112      75.53594344
C      76.30259942      91.38527940      73.44212669
H      74.54515395      90.43852652      72.93001086
C      77.35517698      92.56068917      71.07996880
H      79.23356494      93.30335161      71.47870105
H      76.14953159      94.14805927      70.56218379
H      77.35517698      91.15284307      69.57574665
O      78.18098738      89.77523258      74.21691448
H      79.70032733      90.73143410      74.48336589
C      73.02959344      94.39939287      74.94256939
O      73.18077156      96.39116441      73.68023221
N      70.78459858      93.46586807      75.76082088
H      70.82428284      91.76511439      76.62631552
C      68.33929274      94.88694226      75.80806404
H      68.28449068      95.79023144      73.95802198
C      66.20390201      92.77422824      76.02160310
H      66.28893969      92.27156104      78.01715409
H      66.60074453      91.03001086      75.00304063
C      63.60174887      93.59625919      75.15610846
H      63.12931729      95.38583001      76.06128735
H      62.22413839      92.10904458      75.51704617
C      63.61308723      94.01955788      72.18545869
O      63.45057076      92.09203704      70.80028931
O      63.72269135      96.21353013      71.45602433
C      67.95945775      96.84469872      77.96613149
O      65.92800196      97.96152697      78.15699384
N      69.75091829      97.16028301      79.62909064
H      71.42332608      96.42706921      79.06973164
C      69.73391075      99.08213468      81.59251628
H      68.55850100     100.70351985      81.10496689
H      71.74646928      99.51677173      81.65676698
C      68.90621063      98.15427906      84.18333105
O      68.39598452      99.65661147      85.92376899
N      68.45267631      95.64283279      84.44222355
H      68.82684212      94.48632028      82.97012675
C      67.30939190      94.49387919      86.68910815
H      66.06217254      95.77889308      87.70389117
C      65.81272866      92.17518500      85.94455598
H      65.00014634      91.45708900      87.69633226
H      67.05427884      90.67474231      85.27370314
C      63.91733316      92.49076930      83.75625290
C      63.26348786      90.12861140      82.72446233
H      64.43889763      88.53368240      83.21579117
C      61.34919510      90.10593469      80.90465589
H      60.85597654      88.42596800      79.85585779
C      59.74292774      92.16573637      80.48135720
O      57.61509591      92.02967607      79.05461383
H      56.72692454      93.61326673      79.00926040
C      60.47614155      94.62993948      81.46590461
H      59.44057153      96.37415687      81.25236553
C      62.57373775      94.62993948      83.03815690
H      63.07829468      96.32502398      84.06238856
C      69.20100794      93.77956264      88.84528586
O      71.12474933      92.69674946      88.23112481
N      68.71156883      94.52789426      91.16586978
H      66.97302061      95.12315805      91.68365478
C      70.29515947      94.14427982      93.36929066
H      72.17354743      94.76033060      92.79103441
C      69.35218604      95.52378003      95.69176430
H      70.34807181      94.72253607      97.30559056
H      67.33206861      95.18929847      95.91097254
C      69.84351488      98.32435442      95.81837597
C      67.77615429      99.99865194      95.79758897
H      65.89587661      99.25221004      95.51979920
C      68.25047560     102.60458452      96.25679246
H      66.69901031     103.92361349      96.13396026
C      70.84129037     103.43417437      96.71032677
O      71.46678979     105.94184119      97.26212686
H      70.21768069     107.25709071      97.26023714
C      72.88408452     101.73720014      96.68009116
H      74.77192110     102.47230368      96.92008641
C      72.30204882      99.26165867      96.13584998
H      73.75335863      97.82924613      96.20199041
C      70.35185126      91.36071296      94.01368734
O      68.25047560      90.17963401      94.27446957
N      72.63275093      90.39884227      94.41241959
H      73.98201552      91.74432740      94.32549217
C      73.28092704      87.68141583      94.49178808
H      71.60851926      86.62694855      95.07193406
C      73.95177989      86.61372046      91.81782535
H      75.18388144      85.00556337      92.18443226
C      71.63875488      86.06003065      90.20966827
H      71.32506032      84.05503103      90.55359846
H      71.91843438      86.64962526      88.25569125
H      69.99658271      87.12394657      90.85595467
O      75.32750064      88.37305566      90.39486145
H      76.89597348      88.67541187      91.25090747
C      75.25569104      87.27890412      96.38151440
O      76.58038920      89.08548248      97.16008164
N      75.63552603      84.87895171      97.10150013
H      74.37318885      83.61094535      96.44009592
C      77.56682632      84.20809887      98.96854973
H      79.41686838      85.06603461      98.67753187
C      76.77692072      85.20209491     101.64062273
H      75.76969661      86.98410682     101.42141448
C      74.88152523      83.38795765     103.03335103
H      73.26769896      82.95143087     101.82770564
H      74.25602582      84.29691600     104.77189924
H      75.84150621      81.69665260     103.71743194
C      79.02947449      85.69342375     103.38106067
H      80.48456376      86.52490333     102.18108445
H      79.91575614      83.89251457     103.84404362
C      78.61940388      87.06347532     105.96242681
H      77.44588384      88.73210366     105.66007060
H      80.34850345      87.64551103     106.91673859
H      77.78981404      85.82381486     107.38161127
C      77.84461609      81.30358952      98.77768736
O      76.51424877      80.08849550      97.36795154
N      79.29592590      80.09605441     100.43497734
H      80.39007743      81.11461689     101.62172546
C      79.97811710      77.37862797     100.32915267
H      78.20177437      76.43376481     100.77323835
H      81.60139201      77.12918410     101.57259258
C      81.00990766      76.47344907      97.78747078
O      82.77680177      77.40130469      96.54781031
N      80.32582675      74.17176242      97.09394123
H      79.31293343      73.20422254      98.38840375
C      80.48078430      73.04170608      94.51257508
H      82.07382358      73.81460414      93.45810779
C      81.09872480      70.18255017      94.69398881
H      79.43198620      69.23768701      95.44798961
C      81.50690568      69.09406781      91.86128906
H      81.95099138      67.09095792      92.03514388
H      83.00356892      70.08239468      90.84650604
H      79.72867322      69.24713565      90.83327794
C      83.42875735      69.48146171      96.37584523
H      83.15852649      70.36585362      98.21454893
H      85.04636307      70.42632486      95.51979920
C      84.03913894      66.77348390      96.69331924
H      82.50279145      65.76437005      97.62117487
H      85.53769192      66.54671674      98.08793726
H      84.64952055      66.00436529      94.88485117
C      78.08083189      73.73712537      93.01402211
O      76.28181244      72.29904364      92.78725496
N      78.01091202      76.18054149      92.03514388
H      79.47167046      77.35973071      92.38096380
C      76.09095007      76.77769500      90.14730729
H      75.88685964      75.20166326      88.83772695
H      77.01502625      78.29703496      89.10984755
C      73.52470174      77.46933483      91.22823074
O      71.68410832      78.16664384      89.84873053
N      73.08439551      77.12918410      93.66975715
H      74.70200123      76.68131896      94.57682578
C      70.80349585      77.44098894      95.11917722
H      69.36163468      76.25424081      94.24423394
C      71.43277471      76.72478267      97.88384683
H      72.54582351      78.13451850      98.89296068
H      72.45889611      74.99190364      98.31281470
C      68.95345380      76.39030111      99.40318677
N      67.66088099      74.28325627      99.52790871
H      68.07851050      72.64297383      98.64729626
C      65.41966558      74.53458987     100.85260686
H      64.12331334      73.00391156     101.24000076
N      65.18911897      77.02902860     101.43842202
H      63.73591944      77.89452325     102.32092421
C      67.47757755      78.10239315     100.58804517
H      67.92733240      80.09227496     100.61450135
C      69.92477311      80.18298182      94.84705664
O      71.07183699      81.89318413      95.90341365
N      67.79694129      80.64029559      93.44110026
H      67.01837405      78.98678506      92.88930017
C      66.30405751      83.02324047      93.37684957
H      67.44734192      84.42163794      92.38663297
C      63.89087699      82.36939516      91.74223631
H      62.98002891      80.74612026      92.62662822
H      64.40299283      82.08404649      89.76747231
C      61.99926096      84.63895646      91.60995547
H      61.32840811      85.24555861      93.45810779
C      63.20301662      86.89151023      90.19455046
H      64.75826137      87.80235831      91.19043622
H      61.90666437      88.47699061      89.97723193
H      63.66222011      86.36805604      88.25758099
C      59.71458184      84.00967760      89.93187850
H      58.52972344      85.68775457      89.76558257
H      58.69790909      82.36939516      90.64997450
H      60.51015662      83.46543642      88.11207205
C      65.52549027      83.88684539      96.07159928
O      64.59574491      82.42797668      97.60983651
N      65.17400116      86.30380535      96.40041167
H      65.89020743      87.42630278      95.03224982
C      63.90788453      87.50189183      98.50934623
H      63.00459535      86.17152450      99.79813957
C      65.90154580      89.00422425     100.02490674
H      65.01337442      89.93396959     101.63306382
H      66.81995278      90.38183473      98.79847435
C      68.12953311      87.63039322     101.17952952
H      69.17833122      86.61561019      99.72632997
C      69.76981555      89.43697157     102.64973658
H      71.27970688      88.41651936     103.60782782
H      68.54527290      90.21931827     104.10860529
H      70.71845816      90.96576016     101.64629190
C      67.35663505      85.73688745     103.27523600
H      66.59129590      86.37561495     105.07803490
H      68.90999009      84.56147769     103.94419910
H      66.15287939      84.37250505     102.30958585
C      61.70635338      89.12327701      97.79125024
O      59.70513321      89.12705646      99.06681550
N      62.01815822      90.81836151      96.01490749
H      63.68678655      90.77867726      95.09272105
C      60.06040176      92.75155153      95.25523752
H      58.34641999      91.61015683      95.17964847
C      59.65411060      94.84725801      97.32637755