 %block lattice_cart
   137.614   0.000   0.000
   0.000 142.646   0.000
   0.000   0.000   160.855
 %endblock lattice_cart

 %block positions_abs
N      89.60532780      40.17086173      78.43950792
H      91.44403151      40.43353369      78.88170388
H      89.29541269      39.10127664      76.88993234
H      88.54519134      39.28269036      79.75286771
C      88.68881054      42.77301486      78.29777845
H      89.43714216      43.88606366      79.85869238
C      89.64690178      44.09960274      76.01876851
H      89.57131273      42.95442859      74.30667647
H      91.65190140      44.57392404      76.02254797
C      88.75873042      46.82080863      75.24398072
H      86.74239244      46.71687368      74.82824094
H      89.77162372      47.17796690      73.48653525
S      89.28785378      49.44941793      77.33968721
C      92.65723580      49.58169877      77.63826396
H      93.47737702      49.59492685      75.75042738
H      93.18446944      48.22676500      79.09902240
H      92.97282009      51.40528466      78.54533259
C      85.82398545      42.98466421      78.79666619
O      84.49739758      41.39351466      77.74597836
N      85.00573396      44.85171381      80.37458766
H      86.30019648      45.96476261      81.23252341
C      82.58688428      44.79313229      81.53110017
H      81.36423135      43.97110135      80.08923899
C      82.80609253      43.06025326      83.86680189
H      84.45771333      43.69709103      84.92315890
H      83.03474941      41.05525365      83.45862101
C      80.63290727      43.13584232      85.80755081
O      80.64613535      44.40573840      87.79932235
N      78.61656929      41.76390101      85.51464324
H      77.32588622      41.94720446      86.90926125
H      78.41625830      40.72644127      83.92727313
C      81.78375059      47.48599229      82.37958728
O      83.55442415      48.92785347      82.65548732
N      79.29498104      47.96409305      82.66871541
H      77.97217262      46.61293873      82.41549208
C      78.26130075      50.43585506      83.07878602
H      78.89246934      51.49977098      81.43094467
C      75.37379894      50.45664205      83.00508669
H      74.86735229      49.58358850      81.20984669
C      74.33067002      48.82769797      85.26897881
H      74.35523646      49.83303237      87.06799826
H      75.15081124      46.95119974      85.49385625
H      72.34456766      48.40061982      84.93260753
C      74.13035903      53.00210340      83.19594905
H      74.29476522      54.01121725      84.98363014
H      72.11213132      52.72431363      82.89170311
C      74.78420433      55.05623590      81.21551587
H      76.68715873      55.75165518      81.59913032
H      73.17793697      56.34691897      81.21929533
H      74.82388858      54.31735291      79.29366421
C      79.34789338      51.97787173      85.44472336
O      79.41781325      54.34191935      85.35212677
N      79.94126744      50.62860715      87.48373805
H      79.42348243      48.79368290      87.58767300
C      80.83888744      51.83047308      89.81755005
H      79.76363317      53.54256512      90.20116449
C      80.40047093      50.12593995      92.20805384
H      81.60044714      50.69663729      93.78219586
H      81.09211076      48.22298555      91.82632912
C      77.69060340      49.78767894      92.97528272
C      76.19016071      47.83370193      91.78286542
H      76.88369027      46.78301410      90.17470832
C      73.76942130      47.33103473      92.92803956
H      72.48629713      45.92885781      92.17970794
C      72.81510951      48.91840483      94.83477341
H      70.84223524      48.78045481      95.33933034
C      74.33255974      50.83647704      95.93081467
H      73.45950619      52.00243818      97.36133749
C      76.88935944      51.20875313      95.02752550
H      78.06476921      52.57880470      95.97994756
C      83.60355703      52.50510538      89.90258773
O      84.39724209      54.02633506      91.45027358
N      85.23628057      51.38827712      88.28876146
H      84.58810444      50.13916803      86.99807839
C      87.78552136      52.38983207      87.83522715
H      88.58487560      53.24020891      89.53409110
C      89.50517231      50.08247624      87.47806887
H      89.93602991      48.97887608      89.16181502
H      91.30986094      50.77411607      86.76753178
C      88.42802831      48.04346155      85.57133503
H      88.23905568      48.95997881      83.73641078
H      86.72727463      47.19308471      86.36502008
C      90.13256145      45.69264202      85.01764522
O      89.28974351      43.90874038      83.80822038
O      92.44558645      45.85515848      85.42393637
C      87.96504536      54.02822478      85.48251789
O      89.52595930      55.73653737      85.50330488
N      86.22649716      53.69185350      83.65704227
H      85.29108263      52.02889434      83.71373406
C      86.16035674      55.49654213      81.47062893
H      87.91213303      55.52866748      80.38592602
C      83.84922145      54.58758377      79.62058687
H      81.90847253      54.71419544      80.30088834
H      84.07598861      52.57880470      79.21807516
C      83.94559750      56.17495388      77.15071457
H      85.95815602      56.17684360      76.70851862
H      83.33710562      58.10436444      77.53432902
S      82.01618693      54.62915775      74.72619571
C      83.86244954      51.72086896      74.21407988
H      83.84166255      51.08025174      72.25632342
H      83.31442891      50.17318311      75.45751980
H      85.72005050      52.35581700      74.83579984
C      85.82587518      58.21774802      82.20762219
O      87.44159118      59.72008044      81.62369676
N      83.79819884      59.02088170      83.45862101
H      82.50562605      57.66594794      83.83278682
C      83.34277480      61.57390195      84.25419578
H      83.33521590      62.66049458      82.50430922
C      80.76518811      61.43028275      85.42015692
H      80.42881683      63.21040494      86.39903515
H      81.03919843      59.94306814      86.81855439
C      78.54475969      60.76131964      83.73263132
H      78.83955700      58.82812962      83.08634492
C      76.06165932      60.83123951      85.11402126
H      75.99551890      62.67561239      86.02675907
H      76.24307304      59.52732835      86.69950163
H      74.46484058      60.30967505      83.92160395
C      78.46350146      62.65671513      81.56511524
H      78.41436858      64.55777980      82.35313111
H      76.64747448      62.41860961      80.62214181
H      79.96772361      62.26554178      80.21207120
C      85.14368398      62.71718637      86.24407759
O      85.15124288      65.02265247      86.60123587
N      86.67625202      61.14115463      87.53098121
H      86.80664313      59.33268654      86.93760715
C      88.54708107      62.06712052      89.33944929
H      87.76095492      63.56378376      90.51674879
C      89.74705728      59.84480238      90.93626803
H      91.28340477      60.53644221      92.11923670
H      90.63711837      58.39727202      89.77030689
C      87.78930082      58.68640015      92.58977855
H      86.44381568      57.79822878      91.30854411
H      86.94270343      60.16983530      93.74062188
C      89.11588869      56.80612246      94.28864251
H      90.48971972      57.66405821      95.56042832
H      89.97571416      55.34725375      93.11512247
N      87.38489939      55.38126882      95.93270440
H      87.18080894      53.55957266      95.40736048
C      86.16980537      56.01621687      97.96416019
N      86.12634166      58.29522680      98.94681787
H      85.55942377      58.42183846     100.76473458
H      87.01451303      59.82779484      98.24006023
N      85.18147851      54.25499194      99.28696860
H      84.01173792      54.70474680     100.72694006
H      85.56131349      52.41250879      98.96949458
C      90.65601563      63.46173854      87.80688125
O      91.93725007      65.04532919      88.98607047
N      90.70892797      63.11780835      85.33511924
H      89.68280658      61.70996225      84.55466227
C      92.51739605      64.57856679      83.61168884
H      93.29407357      66.24719512      84.53576501
C      94.67924295      63.04599875      82.66115650
H      95.86977053      64.25542359      81.49330564
C      96.39322472      62.58301580      84.89292328
H      97.20391731      64.39904279      85.42960555
H      97.93713112      61.40193686      84.21640126
H      95.32552935      61.46996700      86.25919540
C      94.00272093      60.62147989      81.26653848
H      92.00528022      60.18495311      81.50275427
H      95.11199028      59.07568377      82.05455436
C      94.57341828      60.84635732      78.33746270
H      93.87232982      59.07379404      77.55700573
H      96.61243297      60.59124427      78.18250514
H      93.72871062      62.53199319      77.50976257
C      91.18135955      65.67460805      81.23819259
O      92.20370148      67.36591310      80.02498830
N      89.10077088      64.58423597      80.30277806
H      88.55086052      62.95529189      81.13047819
C      87.72505012      65.47051761      78.11069554
H      89.09132225      66.04688413      76.68017272
C      85.97516356      63.44284128      77.09213306
H      84.32921194      63.54866595      78.32990379
H      86.78963560      61.57012250      76.83702001
C      85.01329286      64.11747357      74.46919294
O      86.68192120      64.76942915      72.94418380
O      82.77963636      63.78488174      73.60369828
C      86.19248208      67.97251525      78.69084152
O      86.03563480      69.62413605      77.17150156
N      85.07376411      68.15392897      80.93016720
H      84.97360861      66.67427327      82.13014341
C      84.17047493      70.67482388      81.92416324
H      83.85111118      71.96739667      80.35002122
C      81.61934441      70.46317453      83.06177848
H      81.47194575      69.03832089      84.54143418
H      80.34755860      69.70350455      81.63125566
C      80.56109767      72.91225983      84.41860197
H      81.82343485      73.50185444      85.93605220
H      78.79798302      72.18093575      85.19338976
C      79.80898660      75.10434235      82.68950240
O      78.12335073      74.68293339      81.14559600
O      81.07888268      77.07721662      82.47218387
C      86.24728415      72.01086038      83.71562379
O      86.42680815      74.33711347      83.71373406
N      87.62867408      70.54254303      85.18583086
H      87.12033770      68.70572906      85.28598635
C      89.31808940      71.25685958      87.22106610
H      90.66735399      72.66659541      86.55966189
H      90.51995534      69.66571002      87.73885111
C      88.06142141      72.25652480      89.63802605
O      86.05642179      73.36579414      89.55865755
N      89.19903665      71.97306585      91.88869009
H      90.90734923      71.12646846      91.94727161
C      88.27118103      72.85367831      94.34722402
H      86.21137935      72.80076598      94.35856238
C      89.21226473      71.02631297      96.50340175
H      91.26450751      71.09623284      96.35411337
H      88.49983791      69.11202021      96.23317088
C      88.70959753      71.70850417      99.40224191
H      89.69981412      73.44705238      99.89357075
C      85.80130874      71.78598295      99.79341526
H      85.06053602      69.89625663      99.44003644
H      84.84132777      73.14847562      98.58399042
H      85.24950865      72.53620429     101.63022923
C      89.70737303      69.44461205     100.87811816
H      91.76528498      69.42760451     100.81764692
H      88.90990852      67.91582346      99.75373100
H      88.93258524      69.44839150     102.78674174
C      89.21037500      75.53519995      94.86311931
O      91.37789109      76.17203772      94.64958023
N      87.52851859      77.19626938      95.74184204
H      85.66902789      76.77486041      95.67003244
C      88.03685496      79.45827178      97.16291623
H      90.02106759      79.63779578      97.68637042
C      87.25261854      81.80153241      95.61712010
H      87.22805210      83.33410045      96.99473059
H      85.34210524      81.44626386      94.93870836
C      89.41824490      82.66135788      93.89179998
H      89.96626553      81.01729599      92.77686146
H      91.00372528      83.15079699      95.10878373
C      88.80786330      84.98383152      92.23828946
H      90.48782999      85.90979741      91.48428866
H      87.93858920      86.46537695      93.37590470
N      87.42647337      84.12589577      89.93093363
H      86.99372604      82.28530234      89.66637195
C      86.72916436      85.64334600      88.09789911
N      86.85955547      88.11699774      88.08278130
H      85.86744916      89.24327463      86.90359208
H      87.83087480      88.93335951      89.50763494
N      85.91280259      84.51895884      86.01731043
H      85.30242099      85.70381724      84.65292804
H      86.01484781      82.65190925      85.63558572
C      86.55530953      79.51307384      99.70837757
O      84.41235990      78.70238125      99.70459812
N      87.64379189      80.53541578     101.78140734
H      89.37289147      81.33665973     101.71148746
C      86.63278831      80.40691439     104.43269336
H      85.00951341      79.14079776     104.52906940
C      88.64156738      79.51118411     106.34131693
H      87.91402275      79.89101910     108.23104324
H      90.25728338      80.75840348     106.06919634
C      89.62233534      76.73706589     106.19769773
H      90.79018620      76.78808850     104.50072350
C      91.29285340      76.17014799     108.37655217
H      91.95803706      74.25774496     107.99482746
H      90.37255669      76.22117060     110.21903533
H      92.83109062      77.53642012     108.40678779
C      87.69103505      74.77175052     105.91801824
H      88.40346187      72.97273107     105.20937087
H      86.24917387      75.30465334     104.54607693
H      86.46838212      74.45427650     107.54507259
C      85.45737855      82.98639080     105.17157634
O      84.00039956      83.09788466     107.05185402
N      85.85611080      84.89690411     103.50672746
H      86.52318419      84.38289855     101.79463542
C      84.82243051      87.47071135     103.71459736
H      83.55820360      87.24961337     105.32464417
C      87.16947059      89.07319926     104.34576594
H      88.62267012      88.81619648     102.90768422
H      87.85733096      88.81808621     106.27139706
C      86.52318419      91.93613462     104.31930978
H      84.70148802      92.30085180     105.20559142
H      86.16980537      92.69769433     102.43714237
C      88.85132701      93.28728894     105.40779213
H      89.77729290      92.16668123     106.86477112
H      87.98772208      94.98615289     106.18824910
C      91.03585062      94.13955550     103.42168978
H      90.20248132      95.41134131     102.03085121
H      91.40812671      92.43691210     102.32186906
N      93.15801327      95.31307554     104.74827765
H      92.99360708      97.18390459     105.08842839
H      94.71325803      94.84820287     103.74105352
H      93.51706127      94.61198708     106.48682586
C      83.27096520      88.16991008     101.51684565
O      83.76607350      87.30252570      99.41924945
N      81.22628133      89.59287399     102.00061559
H      80.78786483      90.12010764     103.78073778
C      79.15514129      90.32608780     100.25639820
H      78.44460420      88.57620124      99.43436726
C      76.84022656      91.51850511     101.65479568
H      76.42448677      90.46214810     103.37444662
C      77.36746020      94.02050275     102.75272666
H      75.90670176      94.90111521     103.90923917
H      77.83233287      95.49448927     101.39212372
H      79.16458992      94.10743016     103.75428161
C      74.44216387      91.45614414     100.03341050
H      73.92626859      89.55696919      99.42302890
H      74.51964265      92.41423538      98.21171433
C      71.99874775      92.47848607     101.39401344
H      70.46240025      92.24604974     100.04285913
H      72.17071284      94.44947062     101.96093134
H      71.68316345      91.50527702     103.18358426
C      80.23228529      91.76983871      98.04730814
O      82.01240748      93.19658207      98.42336368
N      79.26096597      91.14622902      95.71727560
H      77.73973628      89.99160625      95.71727560
C      80.06976883      92.33864633      93.31543346
H      80.78030592      94.19435757      93.85589518
C      82.30153560      90.77962212      92.20049493
H      83.66213855      90.77395294      93.75007051
H      83.15569190      91.90589900      90.70383169
C      81.56076289      88.24171968      91.31043384
C      80.56298740      87.86944360      88.96906294
H      80.18315241      89.52484385      87.83711687
C      79.91670100      85.51862406      88.01475115
H      79.05309607      85.11422263      86.21006252
C      80.20960858      83.37189497      89.64369523
O      79.52552765      81.07776723      88.77631085
H      79.32521666      80.98139119      86.97540168
C      81.28486285      83.67803063      92.03041956
H      81.98406158      82.09066053      93.10567384
C      81.97461295      86.09688032      92.77686146
H      83.13490491      86.35010364      94.43604116
C      78.02886441      92.72604022      91.23484479
O      76.04654151      91.60543252      91.38602289
N      78.53720079      93.97892877      89.17693283
H      80.23606474      94.83308506      89.00118828
C      76.70605599      94.33608704      87.16248458
H      74.89002900      94.11309934      88.11112719
C      76.90258753      97.12910253      86.04187688
H      75.77064147      97.03650594      84.32222593
H      78.84900563      97.70168960      85.68282888
C      75.79520791      99.10953571      87.78231481
H      77.15014168      99.31740560      89.32055203
H      74.03209326      98.32718901      88.50230054
C      75.08278109     101.42634017      86.21006252
H      73.87524597     100.93690105      84.61513351
H      76.76463751     102.47891772      85.65070353
C      73.36879932     103.03827671      87.83900660
H      74.38736181     103.87920492      89.41881780
H      72.26141970     101.74192446      88.99551910
N      71.71339907     105.00926126      86.61824340
H      70.19594884     104.30061389      85.69983641
H      72.76219718     106.05239018      85.41259801
H      70.88758867     106.10341279      87.94672100
C      76.86857245      92.42179429      84.91937945
O      78.86412344      92.00605450      83.84412517
N      74.63491595      91.40323180      84.30521840
H      73.12124518      91.97959833      85.31433225
C      74.13224875      90.48671454      81.67093992
H      75.30765852      88.79540949      81.70873444
C      71.37135861      90.04829804      81.43661385
H      70.48507697      91.86243530      81.02276379
H      70.55499684      89.14878831      83.09957301
C      70.93672156      88.16424090      79.32201011
O      70.97640581      85.82475973      79.63003550
O      70.27342762      89.21870818      77.28110569
C      74.85979338      92.56730321      79.66971975
O      75.04498656      94.88599740      80.34246232
N      75.18293658      91.93613462      77.21874472
H      74.77475570      90.23916039      76.44584666
C      75.30009961      93.90333971      75.31579032
H      76.63991557      95.40189268      75.76365546
C      76.55109843      93.00194026      72.85347694
H      76.83077793      94.76127546      71.81979665
C      79.09089060      91.61677088      72.92339681
H      78.91703578      89.69302949      73.64149281
H      80.43070655      92.61832582      74.12715247
H      79.83922222      91.44291606      71.01099378
O      74.90136736      91.28039959      71.61948566
H      74.30232412      92.17235041      70.15683749
C      72.74329991      95.05040359      74.52021555
O      72.54298892      97.01382923      73.14827424
N      70.56444547      93.99215685      75.29500333
H      70.72129276      92.27439563      76.11325483
C      68.05677866      95.23181731      75.18539921
H      68.02843276      96.47147777      73.53944759
C      65.98563862      93.25705332      75.11736906
H      65.43761799      92.48037580      76.94473441
H      66.85680245      91.60165307      74.25376414
C      63.46285399      93.84664793      73.66227980
H      62.56523399      95.50960708      74.47864157
H      62.20240654      92.32163879      74.23486687
C      63.79544582      94.08664317      70.84091842
O      63.07923955      92.26872645      69.48787438
O      64.46629866      96.09353251      69.89605526
C      67.68072312      96.90044565      77.58724135
O      65.78343790      98.15711365      77.91038455
N      69.68005356      96.94957853      79.17650118
H      71.12947364      95.81763247      78.66816480
C      70.11280089      98.78639251      81.36291453
H      69.57233916     100.71391335      80.87914459
H      72.14047722      98.56529453      81.65204265
C      68.66149108      98.05317870      83.91404505
O      68.95628838      99.34953095      85.79810218
N      67.48608131      95.86865508      84.00097246
H      67.12514358      95.03717550      82.32289549
C      66.43350375      94.60442818      86.15526046
H      65.09935698      95.76283041      87.21728664
C      65.04833437      92.38588949      85.07433700
H      64.10158148      91.31441467      86.55777216
H      66.33523799      91.14244957      84.05388480
C      63.14915942      92.71092241      82.95784353
C      62.79956005      90.89489542      81.17772135
H      63.68395197      89.06753008      81.39881933
C      60.79078098      91.25016397      79.48074712
H      60.38071037      89.94436309      77.96707634
C      59.31490473      93.44980540      79.32767929
O      57.30045648      93.51216637      77.84046468
H      56.33291661      94.97859399      78.29399899
C      59.79678494      95.34520089      81.15882408
H      58.72908958      97.08563883      81.19661861
C      61.74887222      95.01260906      82.92193873
H      62.09469214      96.56029491      84.20506290
C      68.38181158      93.71436708      88.07711212
O      70.42838518      92.97737382      87.34389831
N      67.60324434      93.46870266      90.37501931
H      65.73241529      93.68791091      90.68115498
C      69.24163706      92.60887719      92.42348264
H      71.16537844      93.10965466      91.88680036
C      68.83156645      94.18679866      94.66847750
H      69.22273979      92.99816081      96.30498048
H      66.85869217      94.77261382      94.71572065
C      70.51720232      96.49037504      94.86689876
C      69.59501588      98.92245280      94.69304394
H      67.57111899      99.17378640      94.65902886
C      71.11435583     101.06540244      94.72705901
H      70.54932766     103.02504863      94.74028710
C      73.79776720     100.76115650      94.59099872
O      75.16403932     102.80017120      94.26974524
H      74.42893578     104.45557145      94.18281783
C      74.79176324      98.23459242      94.61556516
H      76.78353477      97.81885264      94.50407131
C      73.18738560      96.13132704      94.98217206
H      73.99996791      94.25860826      94.98028234
C      69.32100556      89.74027265      92.63513198
O      67.38592582      88.48360465      92.59544773
N      71.55466206      88.78974031      92.78819981
H      73.03431777      89.99538570      92.83733270
C      72.27842724      86.12900566      92.83544297
H      70.61168863      84.96682398      93.17370398
C      73.36124042      85.37122541      90.25974601
H      75.35301195      85.87389261      90.41470357
C      73.33100480      82.67458596      89.56810618
H      74.05288025      81.37634399      90.99484954
H      74.16248437      82.39112702      87.70672576
H      71.34112299      82.21538247      89.30165477
O      71.92315869      86.62222423      88.30576900
H      72.54298892      88.32675736      88.26230529
C      74.32689056      85.68491998      94.84422204
O      75.77442092      87.49149833      95.37901459
N      74.44405359      83.43236621      96.01018318
H      73.21384177      82.08688108      95.43948583
C      76.60779022      82.50262087      97.47283134
H      78.29342609      83.54763952      96.92292099
C      76.01441616      82.75017502     100.31686945
H      75.06010437      84.57565063     100.35844342
C      74.15492547      80.82265418     101.44881551
H      75.16781877      79.08788542     101.90990873
H      72.44661288      80.46549590     100.35655370
H      73.51619798      81.60122142     103.24594523
C      78.42948639      83.16402508     101.94392380
H      79.70316192      84.35266293     100.84788254
H      79.30253995      81.37823371     102.48627525
C      77.76619245      84.63612188     104.43647281
H      77.40147527      83.24528331     105.91234906
H      76.40181006      86.14790293     104.13789605
H      79.45749750      85.66224326     105.01094961
C      77.14636222      79.73984100      96.81520659
O      75.85756888      78.51340862      95.39035295
N      79.02097073      78.58521822      98.04163896
H      80.16236542      79.70393620      99.08476789
C      79.61056533      75.98306509      97.85833551
H      77.98351098      74.83411149      98.39123833
H      81.00518335      75.54086913      99.30964532
C      80.57810521      75.14213688      95.33555088
O      81.77619169      76.55376243      93.92581505
N      80.02063594      72.78753789      94.72516929
H      79.35167283      71.63480484      96.09333114
C      79.89591401      71.82944665      92.20616411
H      81.48706356      72.77053036      91.29909548
C      80.25685173      68.98729828      92.45371826
H      78.66003300      68.15203925      93.45338348
C      80.23039557      68.08211937      89.74007127
H      81.85933965      68.94950375      88.82166428
H      78.49184736      68.64714754      88.79142866
H      80.20015994      66.04310468      90.02730967
C      82.79664390      68.12747281      93.78786503
H      82.58877400      68.50730779      95.80231328
H      84.44637497      69.03076198      92.94504710
C      83.37112070      65.33067786      93.80109312
H      81.84233211      64.26109277      94.67225695
H      85.14935316      64.89415108      94.74784600
H      83.49017346      64.69384009      91.84711611
C      77.26730471      72.68171322      91.11012285
O      75.36624004      71.41937604      91.48239893
N      77.40336500      74.83789094      89.76841717
H      78.84900563      76.07755140      89.88558020
C      75.34356332      75.76385684      88.24718748
H      75.30198934      74.35034155      86.74863452
H      76.04843123      77.54586875      87.48940723
C      72.72629238      76.11534593      89.34133902
O      70.97262636      76.25329595      87.89569839
N      72.29921423      76.35534117      91.82254967
H      73.88280488      76.45738639      92.88079640
C      69.76131179      76.51974736      92.92803956
H      68.36480405      75.37079376      91.94160243
C      69.91437962      75.46716980      95.56231804
H      70.90459621      76.58399806      96.98150250
H      70.68349823      73.55854623      95.46216255
C      67.35191074      75.11946016      96.90213400
N      66.22752359      72.78375844      97.18559294
H      66.97963466      71.11513011      96.64324149
C      63.90693967      73.24107221      98.09266158
H      62.39704835      71.87291036      98.22305269
N      63.53277386      75.76763629      98.47627602
H      61.86981471      76.59344669      98.91847197
C      65.64737761      76.98462003      97.71093686
H      65.91382902      79.00851692      97.69203960
C      68.74274931      79.22205599      93.01118752
O      69.66682548      80.76029321      94.47572541
N      66.75286750      79.70393620      91.48428866
H      66.29555373      78.33199490      90.23895902
C      65.23163782      82.06042491      91.37468453
H      66.50531335      83.64590529      91.04020297
C      63.17183614      81.67303102      89.25819106
H      61.66383454      80.49573152      90.01975077
H      63.91449858      80.92847885      87.48562778
C      61.89438115      84.13723413      88.28498201
H      61.21596940      84.93091918      90.06132474
C      63.79166637      85.82664945      86.86768728
H      65.44895635      86.30097076      87.99207443
H      62.73341963      87.43102709      86.12502483
H      64.43228359      84.73060819      85.24630210
C      59.54734107      83.62511830      86.45194749
H      58.11303880      82.73694693      87.63491616
H      59.96119113      82.35900167      84.88158492
H      58.48342516      85.26351101      85.79999191
C      63.71607732      82.47994415      93.86156436
O      62.30256203      80.93981721      94.83288369
N      64.26220822      84.69848284      94.94248781
H      65.63414952      85.73972204      94.11856714
C      63.02821694      85.71893505      97.32543269
H      62.24398052      84.05975535      98.25895749
C      65.07101108      87.09654554      98.99973021
H      64.26787740      88.48171492     100.29608246
H      66.36925306      88.09999021      97.75629029
C      66.37681196      84.94792672     100.34899479
H      66.59790994      83.20748878      99.26618162
C      69.00731099      85.91735632     100.79119075
H      69.97674059      84.59265817     102.03463066
H      68.96762674      87.78062646     101.66802376
H      69.81989331      86.03262962      98.90146444
C      65.13526178      84.38667800     102.82453626
H      64.87070009      86.10443922     103.92624670
H      66.24642085      83.08654630     103.97160013
H      63.44962591      83.23772440     102.54674649
C      60.67928713      87.25906200      96.60544697
O      58.70074368      86.68458520      97.61645054
N      61.00620978      89.29807669      95.14846798
H      62.79956005      89.79885416      94.73650764
C      58.99365126      91.00638928      94.34344457
H      57.20785989      89.98215762      94.41336444
C      58.92751084      93.16823618      96.19159690