 %block lattice_cart
   137.614   0.000   0.000
   0.000 142.646   0.000
   0.000   0.000   160.855
 %endblock lattice_cart

 %block positions_abs
N      92.76872965      44.50494903      80.12325407
H      94.29373878      44.99438815      79.08390460
H      92.23204738      42.82498234      79.39004026
H      93.11077012      44.42935998      81.99786257
C      91.08309378      46.65734730      79.62436632
H      91.78607196      48.38455715      80.49930960
C      91.12277804      47.19591930      76.73497479
H      89.17447021      47.58709265      76.18884388
H      91.67268839      45.44603274      75.79767054
C      92.68369197      49.48815732      76.02443769
H      92.87833377      49.73949092      73.99109218
H      94.63955871      49.13855795      76.56678915
S      91.95236789      52.48904270      77.52488039
C      88.64534683      52.79895782      76.42505967
H      87.87244878      54.70758140      76.45907475
H      87.34710487      51.76905698      77.64582287
H      88.55275024      52.19235567      74.45785458
C      88.45070502      46.13389311      80.64859798
O      87.55308503      43.97582566      80.58056784
N      87.00506440      47.92157421      81.43472413
H      87.62489462      49.71114502      81.19094943
C      84.45582361      47.64378444      82.60824417
H      83.27096521      46.35877054      81.51976181
C      84.85833530      46.48349248      85.36913431
H      85.69359434      44.62400179      85.05921920
H      83.02152133      46.37199863      86.29321048
C      86.52129447      48.21259206      87.12091060
O      85.60666693      49.97570671      88.26986420
N      88.65857493      47.27528781      87.62735726
H      89.93414018      48.18991534      88.71394989
H      89.16691130      45.56130604      86.95461469
C      83.03474941      50.26672456      82.57422910
O      84.22716672      52.23203993      81.95061941
N      80.59700248      50.45191774      83.36035524
H      79.90914209      49.12155041      84.54332391
C      79.15325157      52.86320851      83.43594429
H      79.27419406      53.75893879      81.58590223
C      76.19016071      52.47581462      83.81199983
H      75.71394968      51.12655003      82.33045440
C      75.42482155      51.35709664      86.32344610
H      73.68060417      50.27050401      86.16092964
H      75.42482155      52.80651672      87.78609427
H      76.92526424      50.00594233      86.72406808
C      74.65759267      54.88899512      83.33767853
H      75.48340307      56.34975356      84.53198556
H      72.70928484      54.71514030      83.98774438
C      74.66704130      55.88110144      80.56922948
H      73.36313015      57.36264687      79.97774514
H      74.14358712      54.31829778      79.33523820
H      76.40369978      56.73714746      79.86814102
C      80.42314765      54.77750127      85.14614661
O      80.30031543      57.03761394      84.60568488
N      81.54942453      53.93090388      87.17949212
H      81.76107387      52.11676662      87.73507166
C      82.90624802      55.71291579      89.00874719
H      81.67036702      57.33241124      89.31488285
C      83.21049397      54.52616767      91.54287018
H      83.07254395      56.04172817      92.93181902
H      85.15502234      53.86287373      91.42192769
C      81.39446698      52.54195504      92.30442988
C      82.30531505      50.08909029      92.87701695
H      84.27818932      49.56941555      92.91103203
C      80.67637097      48.09542903      93.24173413
H      81.40202587      46.20570271      93.49306773
C      78.07043838      48.62644212      93.47983965
H      76.92337452      47.03907202      94.05053699
C      77.10478825      51.21158772      93.33999990
H      75.15459068      51.56307681      93.83132874
C      78.83010837      53.11454211      92.69182378
H      78.04020277      54.97403281      92.41781346
C      85.29486209      56.78817007      88.06577376
O      85.79186011      59.09741562      88.24340803
N      86.66680339      55.08363693      86.78831877
H      86.16035673      53.24682296      86.72784753
C      88.87022426      55.71480552      85.35401650
H      90.08153884      56.69368375      86.70517082
C      90.39334368      53.39611133      84.53198556
H      91.30797122      53.74004152      82.71973802
H      89.04029963      51.87488165      84.23151907
C      92.34165150      52.53628586      86.38958652
H      91.46859794      51.61598915      88.01286142
H      93.70036472      53.99704430      86.89981263
C      94.06697163      50.53128624      85.00630686
O      96.24204661      51.15489593      84.14837111
O      93.46225921      48.24093795      84.91182055
C      88.22015841      57.36075714      83.18839015
O      89.63934288      59.11064371      82.68950240
N      85.95059711      57.09619546      81.96195777
H      84.86967366      55.55228906      82.26620371
C      85.03596957      58.53238745      79.78877251
H      86.37578554      58.54561554      78.22218940
C      82.76073909      57.51949415      78.72296687
H      81.13368475      57.88043188      79.93428144
H      82.94404256      55.46914110      78.65871618
C      82.19382121      58.25081823      76.00176098
H      83.49395290      57.15666670      74.83957930
H      82.59822264      60.20479524      75.49909378
S      78.97750701      57.31918316      75.24776018
C      79.00018374      56.67667621      71.87081926
H      77.23139990      55.72425415      71.41350549
H      80.44960381      55.34441916      71.26988629
H      79.01530154      58.43412168      70.79745471
C      84.77140790      61.32162349      80.57867811
O      85.75784504      62.94111894      79.25964914
N      83.37301042      61.79783452      82.53643457
H      82.55475893      60.42589322      83.57956349
C      82.90246858      64.34518559      83.36980387
H      82.42814727      65.59996386      81.80511049
C      80.47039080      64.42266437      84.93071781
H      80.35889696      66.25569889      85.86424261
H      80.64802509      63.03182580      86.43871941
C      78.07421784      63.64031768      83.53609979
H      78.47672955      61.94145372      82.44572771
C      75.99740862      62.68978534      85.31244252
H      76.47361965      60.92478097      86.26108513
H      74.23807343      62.54616614      84.25230606
H      75.64402981      64.29983216      86.54832353
C      76.97061767      65.63586866      81.85991255
H      75.32844550      65.06328159      80.75820211
H      78.44649392      66.32939822      80.59946510
H      76.37535389      67.25536411      82.98807916
C      85.19281686      65.56594879      84.71906846
O      85.42903265      67.87708407      84.64347941
N      86.91624727      63.93889443      85.70550560
H      86.63089859      62.05105785      85.62046791
C      89.41446544      64.83462471      86.79209823
H      88.77384822      66.37475165      87.99774361
C      90.58798548      62.88253743      88.69505262
H      92.60432346      63.19245254      88.97851157
H      90.48405053      60.91155288      88.10923747
C      89.66579904      63.15087856      91.40869961
H      87.60788709      63.08284841      91.37279481
H      89.76973399      65.16721654      91.82443940
C      91.27395613      61.44445570      93.19638070
H      92.68747143      62.69356479      94.02408083
H      92.21126039      59.89676985      92.20994357
N      89.67524768      60.47502610      95.19949059
H      88.57542696      58.98025259      94.75351518
C      88.65479547      61.54272147      97.27818954
N      88.80975302      63.87842319      97.89424032
H      88.62833930      64.50581233      99.68759059
H      90.08531828      65.06706104      97.11945253
N      87.32820760      60.06495549      98.63690276
H      86.27563004      60.88320699     100.00317488
H      87.26017745      58.22058261      98.15124309
C      91.22293353      65.94389405      84.80410615
O      92.40779192      67.82795119      85.41259802
N      91.11143967      65.01981789      82.46084552
H      90.09476692      63.42866833      82.19061465
C      92.45692482      66.15176395      80.32923424
H      94.20303193      67.17221616      80.71662813
C      93.00872490      64.17888968      78.21274077
H      91.41001643      62.91844223      77.89148729
C      93.49438456      65.29004875      75.53499858
H      93.44525168      63.73291427      74.18762372
H      95.30285263      66.27459616      75.54633694
H      92.10165627      66.70923321      75.00020603
C      95.13277726      62.30428117      78.78910729
H      95.27261702      62.25892774      80.84512952
H      96.95447344      62.84285317      77.99731197
C      94.76239091      59.54150130      77.98975306
H      95.51828144      59.14465878      76.11703428
H      92.80652417      58.90844299      78.12959281
H      95.81874792      58.40388606      79.34468683
C      90.95270267      68.41754580      79.03666144
O      92.10732544      70.39042007      78.58690658
N      88.52440436      68.17944028      78.89115251
H      87.67402752      66.49569414      79.18972927
C      87.09577126      69.95767274      77.37181256
H      88.29385774      70.18821935      75.71074313
C      84.52952293      68.76525544      76.41939049
H      83.10277956      70.23924196      76.23230759
H      83.83032420      67.30260727      77.69117630
C      84.53897155      67.73346487      73.62259555
O      86.07531905      68.57628281      72.06924052
O      83.26151658      65.73980361      73.14071534
C      86.55153008      72.39730941      78.62470110
O      86.93325480      74.35884532      77.50598312
N      86.17925400      72.41431695      81.06055832
H      85.80319847      70.78726259      81.98652421
C      85.75028613      74.71033442      82.50430922
H      85.68225598      76.43754427      81.38370152
C      83.06876449      74.83883581      83.67216008
H      82.79664389      73.13619240      84.80221642
H      81.67603619      74.86340225      82.15470985
C      82.46216234      77.00635189      85.46551035
H      83.89079544      77.52602663      86.85823865
H      80.92770458      76.27880726      86.63147149
C      81.45493821      79.37795841      84.09167933
O      82.56609729      80.15085647      82.14337150
O      79.63513177      80.71966409      84.98551987
C      87.83087479      75.13741257      84.50552939
O      88.48849956      77.35028208      84.70773010
N      88.94203387      73.23067872      85.78298438
H      88.23338650      71.52047640      85.31811170
C      90.46515328      73.78058907      88.11490665
H      91.94102953      75.18276600      87.80310180
H      91.41190615      72.04204086      88.67615536
C      88.98549758      74.57805358      90.41092412
O      86.73861299      75.20922217      90.28053300
N      90.44625601      74.79915156      92.42537237
H      92.20559121      74.07538638      92.27230453
C      89.55052574      75.65330785      94.97650289
H      87.49072406      75.64385922      94.96705426
C      90.51617588      73.70688975      97.01551758
H      92.55330086      73.94499526      97.17992377
H      90.29507790      71.72267712      96.50718120
C      89.27273597      74.23790284      99.60444263
H      89.18580857      76.22967437     100.11844819
C      86.69514929      72.93210196      99.24917408
H      85.71249159      72.92265333     101.05764216
H      86.95026233      71.02158866      98.52162945
H      85.49139363      74.06782747      98.02085198
C      90.64845672      72.81115947     101.72849500
H      92.47582207      73.73145619     101.96660052
H      91.03963007      70.89497699     101.08220861
H      89.54296683      72.90186634     103.46515349
C      90.38011560      78.41230827      95.67003244
O      92.54385222      79.01513096      95.91758659
N      88.55841943      80.08849551      96.17458937
H      86.78018697      79.59149749      95.69459889
C      88.97226948      82.52624245      97.35188886
H      90.93191567      82.67364110      97.96982937
C      88.29385774      84.60305167      95.44704474
H      87.88000769      86.42285811      96.31253939
H      86.50428693      84.17408379      94.52107885
C      90.48782999      85.04902708      93.43637594
H      91.26261779      83.21599255      92.90914230
H      91.97126514      86.14884779      94.35100348
C      89.43147298      86.50978552      91.11390230
H      90.89979032      87.30347057      89.90447746
H      88.56219888      88.22376728      91.85845447
N      87.78930081      84.91107706      89.52086302
H      87.31308978      83.13284460      90.03486858
C      86.68570066      85.54413537      87.32878050
N      86.80664314      87.86093983      86.59556669
H      85.99217110      88.17841385      84.90048219
H      87.61733573      89.13461537      87.76341755
N      85.32509770      83.94353718      86.12313511
H      84.40669071      84.40840986      84.51686775
H      85.30620045      82.08026704      86.53698517
C      87.52284940      82.65474384      99.88601185
O      85.54619568      81.48122380     100.11844819
N      88.38267487      83.88684539     101.73416418
H      90.04374430      84.75422977     101.37322646
C      87.40001720      83.69976249     104.30041252
H      86.13201084      82.08215677     104.44214199
C      89.62233535      83.25756653     106.11266005
H      88.87400372      83.41441382     108.02506308
H      90.79396565      84.95076131     106.03896072
C      91.27395613      80.84060658     105.31330582
H      91.83520486      80.89540864     103.33287264
C      93.61154759      80.56092708     107.11421500
H      94.50916759      78.73923092     106.77973344
H      93.08809339      80.45699214     109.10409680
H      94.72081693      82.28624721     106.91390401
C      89.76217508      78.50112540     105.32653390
H      90.99616638      76.85328406     105.37188734
H      88.56030915      78.40096991     103.65412612
H      88.65479547      78.69954667     107.05185403
C      85.85800052      86.03168476     105.10921538
O      84.41802907      85.91074228     107.01405950
N      86.14145948      88.09904535     103.66924393
H      87.36033295      88.10093507     102.19903686
C      84.86589421      90.53868202     103.91868780
H      83.91725160      90.58025600     105.74794287
C      86.92380617      92.46431313     104.45537007
H      88.29007830      92.55313027     102.91902258
H      88.03685497      91.94463839     106.10699087
C      85.61233610      95.18362929     104.69725504
H      84.27629960      95.05512790     106.26005870
H      84.55030992      95.79968007     103.04374452
C      87.35277404      97.32657893     105.25472430
H      88.16157691      96.99587683     107.11988418
H      86.37956499      99.14260592     105.23393732
C      89.76028536      97.63460432     103.64089803
H      91.13600611      96.11526437     103.84309875
H      90.90356979      99.25787922     104.19269812
N      89.32564830      97.90672491     100.76851404
H      88.35810843      99.50354365     100.36978179
H      88.24472485      96.48754045     100.09388174
H      90.90168005      98.14294070      99.71404675
C      83.23695012      91.10937936     101.61511143
O      84.09488587      90.54435120      99.52507412
N      81.01463198      92.36793709     101.81731214
H      80.53086204      92.80257414     103.61255214
C      79.26474541      92.62116041      99.63467825
H      78.58444395      90.73710328      99.15468777
C      76.93660260      94.25766340     100.46426810
H      77.74540547      95.95841708     101.29952713
C      75.18860577      95.13449641      98.27407530
H      74.11146177      93.49610370      97.64290672
H      75.98984971      95.99243216      96.58088053
H      73.76753157      96.43651784      98.99973021
C      75.46072635      92.81013304     102.44470128
H      76.50574500      92.03723498     104.04340974
H      74.44594333      91.31346980     101.46015387
C      73.43682947      94.34270108     103.92813643
H      74.50641457      95.93196091     104.68024751
H      72.73952046      93.20886530     105.50227845
H      72.08189570      94.91717788     102.49005471
C      80.61212029      93.79090100      97.32543270
O      81.96138487      95.64661224      97.58432520
N      79.87323729      92.92540635      94.98028234
H      79.10978786      91.20575541      94.66658777
C      80.80487236      93.92885102      92.48017443
H      81.83666293      95.67117868      92.85622996
C      82.66058360      92.07880896      91.19138108
H      84.31409412      92.08447814      92.41970319
H      83.21994259      92.85926593      89.37157464
C      81.73650743      89.33681608      90.80587692
C      80.52519287      88.59226391      88.51552862
H      80.22094694      90.06247099      87.13224896
C      79.98851060      86.13372998      88.14325254
H      79.24584816      85.60838607      86.31588720
C      80.45338327      84.31014409      90.09345010
O      79.84111194      81.84972043      89.64369523
H      79.54442492      81.54547449      87.88058058
C      81.61178551      85.09627024      92.39324702
H      82.12768078      83.64307070      93.73117325
C      82.29964588      87.55102472      92.67670597
H      83.33521590      88.12739124      94.33966512
C      78.50696516      94.63560866      90.75674403
O      76.36023607      94.14239010      91.45972222
N      78.96238920      95.84125405      88.55521288
H      80.69148878      96.57257813      88.21506214
C      77.13691360      95.93196091      86.56344134
H      75.30954825      95.45952934      87.39492092
C      77.01786083      98.57379830      85.42204665
H      76.43015596      98.36403868      83.45673128
H      78.92648440      99.33346828      85.55999667
C      75.06766328     100.26321362      86.76375233
H      75.71394968     100.85280823      88.63080193
H      73.38769658      99.10670112      87.05099073
C      74.37035427     102.53466465      85.07244728
H      73.32344589     102.12648377      83.34712716
H      76.22984497     103.13370789      84.41482252
C      73.12880409     104.71540882      86.62202286
H      74.56121662     105.38626166      87.94105182
H      71.67560454     103.80456073      87.76152783
N      72.35590601     106.90560161      85.19338977
H      71.42805040     108.13203399      86.32533583
H      71.11435583     106.35947071      83.84979436
H      73.87524598     107.84101614      84.51686775
C      77.81721506      94.10648530      84.60001570
O      79.86945783      94.15372845      83.60979912
N      75.83678188      92.74021317      83.84223545
H      74.15681520      93.11248925      84.67371503
C      75.96150382      90.73332383      81.94872969
H      77.60745544      89.52011953      82.20762219
C      73.49163154      89.22154278      82.09990779
H      71.84190047      90.39695254      81.72763171
H      73.11368627      88.61494063      84.03120808
C      73.55588223      87.02190135      80.12892325
O      72.12724913      87.17874863      78.26376338
O      75.27931262      85.42886207      80.27065272
C      76.02575451      91.94652812      79.34090737
O      75.43993936      94.19341271      78.94784430
N      76.85912383      90.57269709      77.43984270
H      77.54509448      88.86060505      77.92550237
C      76.92715398      91.53834724      74.76587997
H      78.24240349      93.11815843      74.90571972
C      77.72272875      89.50122227      72.82324132
H      78.39925077      90.55946901      71.19051779
C      79.84111194      87.81936585      73.71141269
H      79.20427417      86.37750468      75.03800056
H      81.39257725      88.87761259      74.55801008
H      80.59889219      86.87450270      72.04467408
O      75.82355380      87.71921036      71.93695968
H      75.09411944      86.87639242      73.36748250
C      74.40058988      92.57391726      73.78322229
O      74.69727693      94.20664079      72.16372684
N      72.16504367      91.97298429      74.76776970
H      72.42582590      90.84292795      76.28333020
C      69.66682547      93.23721119      74.42383951
H      69.64792822      93.91373321      72.47742141
C      67.66938476      91.12071772      74.76021079
H      67.15726893      90.79568480      76.72930561
H      68.42716501      89.35949280      74.00620999
C      65.05778299      91.71598151      73.50165307
H      64.25464931      93.10870980      74.78855669
H      63.78032802      90.10593469      73.63204418
C      65.32045496      92.90650909      70.80123417
O      66.60168939      91.64606164      69.14961337
O      64.44740139      94.96064159      70.21352928
C      69.04699525      95.31213068      76.47986174
O      67.06845180      96.78233775      76.40805214
N      70.50586395      95.65606087      78.58879630
H      72.08000598      94.58836551      78.73619495
C      70.53798930      97.76499544      80.25553491
H      69.56478025      99.37693198      79.42216561
H      72.52220193      98.14672015      80.65615689
C      69.26809323      97.25098988      82.80855516
O      68.86936098      98.79867573      84.49230130
N      68.47062872      94.94741350      83.37358333
H      68.49897462      93.57925165      82.04321600
C      66.97207575      94.45419494      85.72629259
H      65.94973382      96.09825683      86.42738105
C      65.19573302      92.28856858      85.04599111
H      64.45496031      91.65928972      86.86201810
H      66.45429075      90.75411082      84.48663212
C      63.06034228      92.71564673      83.32256072
C      62.17028120      90.65584505      81.83912556
H      62.77877307      88.76233928      82.30021878
C      60.19173774      90.82025124      80.26687327
H      59.92528634      89.25744758      78.98185937
C      59.09191703      93.18618858      79.87192047
O      57.27211059      93.41484546      78.01998868
H      56.49165362      95.05323818      78.03888594
C      60.09536171      95.38394028      81.06433777
H      59.16750608      97.18295973      80.81300417
C      61.83768937      95.10048134      83.07500657
H      62.18917845      96.69352062      84.30143895
C      68.91471441      93.60192837      87.78231481
O      70.79688182      92.32825283      87.27208871
N      68.35724515      94.43907713      90.07833228
H      66.74341886      95.40472727      90.40336521
C      69.84445974      93.94774829      92.25907645
H      71.69828126      94.73387443      91.83010858
C      68.81833836      95.50299304      94.39446718
H      69.73674535      95.05890736      96.18403800
H      66.79822093      95.09292243      94.40202609
C      69.13581239      98.28278045      94.08644179
C      67.11380522      99.95329851      94.61178571
H      65.41494127      99.23709224      95.49239817
C      67.43694842     102.45340642      94.15258222
H      65.88548313     103.76487648      94.34155485
C      69.78398850     103.48708671      93.15480672
O      70.08445499     105.96262818      92.56899157
H      68.57078422     106.96040368      92.49529224
C      71.67938399     101.77688440      92.57844020
H      73.41037331     102.67828385      91.97750723
C      71.43182985      99.22953333      93.08866630
H      72.99463352      97.95963725      92.75040529
C      70.01831458      91.10937936      92.89780394
O      68.25519992      89.69208463      92.88646559
N      72.30110396      90.29112787      93.33244100
H      73.79776720      91.42685338      92.99984916
C      72.84534514      87.47921512      93.31354373
H      71.26175449      86.40396084      94.07132398
C      73.37446851      86.53624169      90.67359607
H      75.11679617      87.40362606      90.00274323
C      73.49541099      83.73944674      90.31643780
H      74.78609406      83.01946102      91.75074007
H      74.05288025      83.15552131      88.42104231
H      71.58678740      83.00623293      90.56399195
O      71.57355932      87.33559592      88.94449650
H      71.83623128      89.09871057      88.61001494
C      75.12624479      86.81403145      95.00295906
O      76.85156492      88.35226867      95.26941047
N      75.01475095      84.64651537      96.36734145
H      73.31588698      83.77346182      96.29742158
C      77.19927455      83.87361731      98.14746364
H      78.78853438      85.10382914      97.68826015
C      76.37346417      84.60683112     100.90646406
H      75.28309208      86.34915878     100.76473458
C      74.64625431      82.36372599     101.71526692
H      73.46328564      82.84182674     103.33287264
H      75.52686678      80.58927298     102.27840536
H      73.19683423      82.03302388     100.29230301
C      78.48050900      85.00367365     102.89634587
H      79.96205442      86.20742931     102.12155808
H      79.35923174      83.17252885     103.23082742
C      77.65658833      86.20553958     105.38511542
H      79.32710639      86.89906914     106.36777310
H      76.64369502      84.94131268     106.65879096
H      76.51708336      87.91007272     105.19992224
C      77.94760618      81.15052169      97.79597455
O      76.55109844      79.54803378      96.87189838
N      80.07543800      80.34360856      98.77485278
H      81.11478747      81.43587037      99.94648309
C      81.03919842      77.77736022      98.61989522
H      79.69938247      76.44510317      99.44003644
H      82.59822264      77.76602187      99.96349063
C      81.74217662      76.92131421      96.02719072
O      82.60011237      78.28758633      94.38690828
N      81.19604571      74.61962756      95.30153581
H      80.76518812      73.23445817      96.54119628
C      80.90124840      73.78058907      92.64458062
H      82.19571093      74.74812895      91.36901536
C      81.55320399      71.00080167      92.51229978
H      79.94693661      70.05404878      93.38913279
C      81.73083826      70.28081594      89.70794593
H      81.42281286      68.25880879      89.47173014
H      83.55631388      70.74001944      88.87268690
H      80.52519287      71.42787981      88.49663136
C      84.03441463      70.32238992      93.95605068
H      83.53174743      70.47167830      95.94971194
H      85.46682717      71.61496272      93.23417523
C      85.19848605      67.65031691      93.61023076
H      83.90213379      66.18388929      94.25084798
H      87.07876372      67.47079291      94.43415144
H      85.33832578      67.31772508      91.58255443
C      78.21594731      74.54214878      91.76963733
O      76.44527376      73.17776638      92.10978807
N      77.91548084      76.64541416      90.36746041
H      79.28175296      77.93231778      90.01975077
C      75.40592428      77.24823686      89.11646159
H      75.20183385      76.23345383      87.33633940
H      75.69316269      79.23622894      88.64780947
C      72.85857322      76.98934435      90.63013237
O      70.86491195      76.99312380      89.52653220
N      72.89636774      77.15564027      93.12646083
H      74.58956252      77.23311905      94.00707329
C      70.61735781      77.34083345      94.64580078
H      69.23407815      76.03125311      93.86156436
C      71.07089213      76.69076759      97.42180874
H      72.15559504      78.05703972      98.51596027
H      72.06677790      74.88796869      97.39157312
C      68.63314518      76.14274696      98.60288768
N      67.45773542      73.81838360      98.67658701
H      67.99630741      72.35384571      97.57676629
C      65.28643988      74.06215829      99.98994680
H      63.91638830      72.66754027     100.57954141
N      65.19762274      76.54525867     100.65135101
H      63.62537046      77.19910397     101.51117648
C      67.13837166      77.98523012      99.68003168
H      67.52954501      79.98834001      99.64223715
C      69.30777747      79.94676603      94.34722403
O      69.94839469      81.82137453      95.52830297
N      67.36135938      80.01479618      92.69938268
H      67.17805592      78.35183702      91.78286542
C      65.94595437      82.27679858      91.89246955
H      67.06845180      83.86038923      91.20649889
C      64.22252396      81.57004094      89.60401098
H      63.21529984      79.84283108      90.09345010
H      65.31289606      81.12028607      87.91648538
C      62.24209080      83.50323095      88.90859170
H      60.90038510      83.59204809      90.46950563
C      63.10947516      86.32459234      88.60056631
H      64.02410270      86.86127461      90.36746041
H      61.40872149      87.46787676      88.38135806
H      64.45685004      86.53057251      87.05665991
C      60.81534742      82.73222262      86.56155162
H      59.31301500      84.01534678      85.97951591
H      60.33157748      80.73100245      86.59556669
H      62.21563462      82.87773154      85.05732947
C      64.32267946      83.05725554      94.16203085
O      62.76932444      81.56437176      95.07098920
N      64.71763226      85.42319289      95.05020221
H      65.86847558      86.66663280      94.17714866
C      63.44395672      86.33215124      97.29708680
H      62.99798131      84.65407428      98.40824587
C      65.24864536      88.18408303      98.67658701
H      64.42094524      89.16863044     100.28663383
H      65.77587899      89.74121751      97.43692655
C      67.72607655      86.87639242      99.53074330
H      68.76542603      86.05625120      97.95471156
C      69.68383302      88.89273040     100.58710031
H      71.43749904      88.06314055     101.27685042
H      68.70495479      90.11160387     101.93069572
H      70.14870569      90.16829566      99.03752473
C      67.29143950      84.86383390     101.61889088
H      66.59979967      85.85027103     103.28940894
H      69.08478977      83.90763238     101.95148271
H      65.98374889      83.42008300     100.94803804
C      60.98164335      87.61905486      96.77552234
O      59.16183691      87.13717465      98.04541842
N      60.84747277      89.10626947      94.75540491
H      62.36870245      89.42752294      93.64802529
C      58.42484364      90.32514294      93.90691779
H      56.82613517      89.03445987      93.76518832
C      57.58958460      92.55501999      95.63790710