 %block lattice_cart
   137.614   0.000   0.000
   0.000 142.646   0.000
   0.000   0.000   160.855
 %endblock lattice_cart

 %block positions_abs
N      92.78479233      42.21460074      81.60857895
H      94.60459877      42.63034053      82.00164202
H      92.48810529      41.36422390      79.92483281
H      92.22354361      41.12422866      83.07122712
C      91.15395852      44.57864836      81.48952619
H      91.39584349      45.76350676      83.15626480
C      91.87016479      45.90901568      78.92516759
H      91.07647974      44.60132507      77.54377765
H      93.91862811      46.06208351      78.76832030
C      90.92152218      48.63967021      78.80233538
H      88.94297873      48.75116406      79.36358409
H      91.08592837      49.37477374      76.88615289
S      92.55046626      50.46703555      81.21740560
C      94.41373641      52.46825572      79.30689230
H      95.54001329      53.67579083      80.53899386
H      93.09659717      53.66067302      78.26187365
H      95.43985780      51.40056035      77.87636948
C      88.43275263      43.92480305      81.71062417
O      87.36316753      42.32987405      80.54466304
N      87.12695174      45.40634848      83.52665116
H      88.19653684      46.75372335      84.35435128
C      84.40763558      45.36855396      83.67027036
H      83.56103819      44.36321956      82.08290025
C      83.44387516      44.07976061      86.09289949
H      84.40952531      42.26751308      86.26675431
H      81.41430910      43.77551468      85.92282412
C      83.91819647      45.52162179      88.55143342
O      85.26935078      47.26772890      88.60245603
N      82.79380931      44.80919497      90.50918988
H      83.15474703      45.58209303      92.21561275
H      81.81682081      43.17458171      90.38824740
C      83.31915322      48.15967972      83.21862577
O      84.76479385      50.03239850      83.11847027
N      80.78880969      48.59620650      83.29232510
H      79.65119445      47.06930764      83.41137785
C      79.46789100      51.07741715      82.88414421
H      80.27858359      51.90322755      81.17961108
C      76.65597824      50.70892052      82.41171263
H      76.52558713      49.50705458      80.74308430
C      75.42576641      49.26139016      84.68316366
H      75.81693976      47.25639054      84.42616088
H      73.44344351      49.59020254      85.13858770
H      76.34606313      49.81885942      86.44060913
C      75.21033761      53.22792569      82.05455436
H      75.28970612      54.47514506      83.69294707
H      73.24313252      52.81407563      81.60668922
C      76.00402267      54.77750127      79.78877251
H      76.64841934      53.42256750      78.37903668
H      77.68587908      55.78094594      80.42561028
H      74.41287311      55.89432952      79.10469159
C      79.95355066      52.91045167      85.11024181
O      79.66064308      55.20457942      84.81355478
N      80.79258914      51.90511727      87.25319145
H      81.69776805      50.22515058      87.24752227
C      81.53714131      53.46603121      89.42259725
H      80.20677399      55.03828350      89.44527397
C      81.19321112      52.09975908      91.95483051
H      81.76579819      53.40933942      93.43637594
H      82.42153323      50.44813829      91.85467502
C      78.38885727      51.41000898      92.64080117
C      77.25880094      49.24816208      91.53153182
H      78.30759904      48.36943934      90.01597132
C      74.79648755      48.43746949      92.19671548
H      73.94044153      46.70270073      91.54287018
C      73.58706271      49.73004229      94.09778015
H      71.72379257      49.17068330      94.71572066
C      74.69444233      51.85220494      95.32043308
H      73.54170928      52.81785508      96.69993329
C      77.06793858      52.70447150      94.47005624
H      78.00902228      54.24270872      95.42814748
C      84.19409651      54.57341083      89.06921843
O      84.41141503      56.89021529      88.91426088
N      86.08949200      53.11454211      88.51930808
H      85.87406320      51.24182334      88.22640050
C      88.62928416      54.20302447      88.29821010
H      88.94675818      55.36331643      89.97061789
C      90.43775224      51.93346317      88.10923747
H      92.31802993      52.36621049      87.38736202
H      89.62139048      50.74671504      86.63903040
C      90.66073995      50.25538620      90.56021249
H      91.98165864      48.74171543      90.10100900
H      88.85605132      49.48626759      91.18382218
C      91.87205452      51.73315218      92.68426487
O      94.05279868      52.26038582      92.43671072
O      90.75522627      52.01472140      94.73839737
C      88.85794105      56.01527201      86.00597208
O      90.36783237      57.73681268      86.13069402
N      87.50678673      55.57874523      83.79121284
H      86.09705090      54.29373133      83.77798476
C      87.78646623      57.08485710      81.54810771
H      89.78957612      57.36453659      81.15315491
C      86.35027423      55.93779323      79.22563407
H      87.00222981      54.02539020      78.81745319
H      87.14017983      56.98092215      77.63259479
C      83.48922859      56.25904670      79.36547382
H      83.14151895      58.28294358      79.54877727
H      82.75601478      55.20079996      80.97363091
S      81.68831942      55.25749175      76.71418780
C      82.72388944      57.53461196      74.52966418
H      80.99478986      58.24136960      73.66416953
H      83.95032181      56.78628034      73.05189820
H      83.80103343      59.06529027      75.39137938
C      87.09293667      59.85519587      81.86180228
O      88.46865743      61.54272147      80.99252817
N      85.28446859      60.26526648      83.60601966
H      84.89329524      58.77994160      84.73985545
C      84.39251777      62.76348467      84.18049646
H      84.03346977      63.77826770      82.42305099
C      81.89429958      62.55183532      85.56944530
H      81.54847967      64.49069452      86.17604745
H      81.97933727      61.24414471      87.15870513
C      79.60395129      61.84507768      83.86680189
H      80.00646300      60.02905069      82.98052025
C      77.16431462      61.10619469      85.40881857
H      76.73723648      62.69356480      86.65036875
H      77.55359824      59.43189718      86.54643381
H      75.54670890      60.52982817      84.26931360
C      78.79514843      63.86708484      81.91660434
H      76.98101117      63.41355052      81.05299941
H      80.26346578      63.84251839      80.47285344
H      78.75168473      65.70389881      82.84634969
C      86.33704615      64.27526572      85.76597684
O      86.40318657      66.58451127      85.55810694
N      87.93575461      62.90899360      87.06988799
H      88.02646147      61.02304673      86.79587768
C      90.06169671      63.81984168      88.58544850
H      89.54391170      65.50925700      89.64369523
C      91.22765784      62.03027086      90.41092412
H      92.76022588      63.05072307      91.33500028
H      91.98732782      60.41455486      89.38669245
C      89.29446783      60.84541246      92.37057030
H      87.62206004      60.02338152      91.48995784
H      88.41952454      62.35152433      93.46661156
C      90.68152694      58.94812724      93.87479245
H      92.30480184      59.90243903      94.70816175
H      91.53001405      57.49303798      92.69371350
N      88.95242736      57.82751954      95.66814272
H      88.35338412      56.05495626      95.29208718
C      88.24378000      59.00103958      97.77329783
N      88.84282324      61.27060088      98.44415067
H      88.03402037      61.93011536     100.04285913
H      89.80091448      62.35908324      97.20260049
N      86.73010922      57.71980514      99.21326928
H      86.24633928      58.23003124     100.98772229
H      86.24255983      55.98503638      98.58210069
C      92.10827031      64.90832403      86.83367221
O      93.73343493      66.26325780      87.74263056
N      91.95331275      64.58140138      84.25986497
H      90.46420841      63.59685397      83.59090185
C      93.61249245      65.85129746      82.39281537
H      94.85782209      67.13820108      83.40759840
C      95.55891055      64.13353625      81.04733024
H      96.57558331      65.29760765      79.68294784
C      97.51099783      62.91088332      82.70273049
H      98.44641236      64.50203288      83.61546829
H      99.06057341      61.96224071      81.73141116
H      96.53778878      61.63720779      83.99719301
C      94.13783637      61.99436606      79.37303272
H      92.66573957      62.72380042      78.12959281
H      93.65595616      60.50526172      80.71095895
C      95.96709144      60.87186863      77.50598312
H      97.27100259      59.41488964      78.15415925
H      97.02155872      62.28538391      76.44206721
H      94.96931594      60.23314114      75.82034725
C      92.31047102      67.54638197      80.58056784
O      93.31202597      69.43043910      79.69050674
N      90.04657890      66.76403527      79.84168485
H      89.28501919      65.17288572      80.57300893
C      88.34582522      67.98290875      78.06156266
H      89.68753090      68.53281910      76.60080422
C      86.67152770      65.72090635      77.16583239
H      85.61139124      64.87241923      78.71351824
H      88.01890256      64.26014791      76.62915012
C      84.96510484      66.25002972      74.83768957
O      86.04035911      66.52026058      72.71363719
O      82.67853600      66.43900235      75.18728894
C      86.73766812      70.37530226      79.06878679
O      86.01957213      72.06282786      77.47574750
N      86.77357292      70.76836533      81.56700497
H      87.16285654      69.31894525      82.74619419
C      86.07626391      73.16642802      82.85579832
H      85.81926114      74.68576798      81.48952619
C      83.52702312      72.64108411      84.22584989
H      83.80481289      71.19733320      85.67149052
H      82.28925238      71.93810592      82.73863529
C      82.29870101      74.72356250      85.82455835
H      83.73489301      75.34906191      87.16437431
H      80.76046380      73.77869935      86.81288522
C      81.07604809      76.87218132      84.30143895
O      82.23067087      78.97355698      84.12002522
O      78.89908338      76.54903812      83.53232034
C      88.23244164      73.95444389      84.63025132
O      88.99211162      76.17676204      84.58867735
N      89.19242260      72.15920390      86.09478922
H      88.25322863      70.50002419      86.06644332
C      90.69475502      72.66754028      88.47395465
H      91.69442024      74.44010356      88.16781898
H      92.40873679      71.53748394      88.64025056
C      89.05069313      72.99635265      90.96650365
O      86.75467566      73.09461842      90.83800226
N      90.40373717      72.97556566      93.11323274
H      92.30480184      72.99824238      92.93181902
C      89.47588155      73.58783699      95.73239341
H      87.42363878      73.73334592      95.61334066
C      90.05413780      71.22189965      97.53330259
H      92.06102715      70.76836533      97.45771354
H      88.79746981      69.71767750      96.89457510
C      89.50233772      71.78503809     100.37923042
H      90.96309616      73.06438280     101.06709080
C      86.89640513      72.84517455     100.89323597
H      86.86805924      73.46878423     102.85477189
H      85.60950152      71.25213527     100.68725581
H      86.31058998      74.52514124      99.85388650
C      89.97854875      69.41343156     101.86077585
H      91.52056542      68.34762592     101.00472983
H      88.21921355      68.34195674     101.83998886
H      90.29602277      69.87263506     103.84309875
C      90.40751662      76.16164423      96.86811893
O      92.46164913      76.34305795      97.94526293
N      88.80313898      78.12318014      96.82087577
H      87.14017983      77.84728010      95.92514550
C      89.21509932      80.72533327      98.09833076
H      91.23899620      80.95776961      98.39312806
C      88.49700332      82.89095963      96.26151678
H      88.72943966      84.70131744      97.21771830
H      86.59215920      82.52435272      95.57743586
C      90.31114058      82.87017264      93.95605068
H      90.49066458      80.87462165      93.47983965
H      92.25377923      83.27457407      94.51163022
C      89.35115962      84.43864548      91.68459965
H      89.20187124      86.39262249      92.31576824
H      87.41230042      83.96621390      91.17059409
N      91.15017907      84.56336742      89.57755481
H      92.19519772      86.15262724      89.41125890
C      91.31647498      82.93253361      87.63680589
N      89.91618778      80.88973946      87.46862025
H      90.39428854      79.36662006      86.42171187
H      88.68030677      80.68564902      88.91048142
N      93.34037186      83.19709529      86.20817280
H      93.58981574      82.07081841      84.68694311
H      94.65184192      84.41029958      86.87524618
C      87.74300252      80.76690725     100.57387223
O      85.42241861      80.59872161     100.54174688
N      88.99778079      81.13918334     102.75272667
H      90.89884547      81.29603062     102.71682187
C      87.74489225      81.24122856     105.30385719
H      86.25578791      79.82204410     105.20370169
C      89.60249321      80.75556890     107.48082190
H      88.53668757      81.10138881     109.20992148
H      91.10482563      82.15396637     107.32586434
C      90.85727149      78.17042330     107.33153352
H      92.02701207      77.83972119     105.66857437
C      92.68085738      78.04003218     109.65778661
H      94.23043296      79.35339197     109.31385643
H      93.35359995      76.09739353     109.79195718
H      91.71142778      78.45766170     111.42846017
C      88.90518421      75.99156886     107.47326300
H      89.65729528      74.07538638     107.58286712
H      87.57103743      76.04259147     105.90479016
H      87.63906758      76.30715315     109.06441255
C      86.27657490      83.83015361     105.49094009
O      84.17519924      83.63362207     106.56241491
N      87.09482640      85.89373474     104.51962077
H      88.42141427      85.56681209     103.18736372
C      85.67186248      88.27101044     104.59709955
H      84.43220202      88.32770223     106.23927171
C      87.42363878      90.67096286     104.88244822
H      88.16819094      91.01678277     102.99272191
H      89.04313423      89.73365861     105.74605315
C      86.47499617      92.94052416     106.34509639
H      86.78869073      92.41518025     108.31230148
H      84.44731983      93.12193789     106.02573264
C      88.01890256      95.29323342     105.88211344
H      87.43686686      96.88438298     107.05185403
H      87.74678198      95.92629174     103.94136452
C      90.87049957      95.05890736     106.39989845
H      91.43552774      93.14272488     105.90290043
H      91.10671536      95.18173957     108.44269259
N      92.40117788      96.89950079     104.93347083
H      94.17941034      96.98831792     105.62133121
H      91.66607435      98.59080584     104.44214199
H      92.46920803      96.29856782     103.12500275
C      84.19409651      88.44108581     102.16313206
O      84.90841305      87.24488905     100.23939067
N      82.50468118      90.20420046     102.18013959
H      82.34027499      90.92040673     103.94136452
C      80.94943643      91.31535953     100.11655846
H      79.99890409      89.69775381      99.26240217
C      79.03703340      93.22776256     101.25795315
H      78.22634081      92.26022269     102.88689723
C      80.18220754      95.67117868     102.41446566
H      82.11161811      95.22898273     102.97949382
H      79.05971011      96.41951030     103.96971041
H      80.37118018      97.10170150     100.94236886
C      77.18888106      94.11215448      99.25295353
H      76.38007820      92.41518025      98.41013560
H      78.18854628      95.25732862      97.86400469
C      75.06860814      95.87715885     100.02396187
H      73.88374974      94.92284706     101.41291071
H      73.69666684      96.11526437      98.50651164
H      75.90764662      97.67239885     100.58521059
C      82.36862089      92.26211241      97.82621017
O      84.35661297      93.51311123      98.09266158
N      81.53903104      91.34748488      95.61900983
H      80.11795685      90.08703743      95.79853383
C      82.49145310      92.06180143      93.15480672
H      83.65174506      93.73231949      93.48172937
C      84.42275339      90.13617031      92.03230929
H      85.74934126      90.04168400      93.60456159
H      85.38462408      91.15095334      90.52052824
C      83.40986009      87.57748088      91.14224820
C      83.35694775      86.76111912      88.62135330
H      83.72922383      87.97243368      87.02264484
C      82.55192434      84.25912148      88.07522239
H      82.53113735      83.60905563      86.14014265
C      82.02658043      82.50734519      89.93471309
O      81.35761731      80.09605441      89.24496298
H      81.74123175      79.63496119      87.53287094
C      82.18153798      83.30669942      92.50474087
H      81.82626944      81.95554510      93.99195548
C      82.86372918      85.79546897      93.04331287
H      83.24167445      86.24900329      94.99540015
C      80.25779660      92.54179191      91.47861948
O      78.11106751      92.47943094      92.20805384
N      80.77747133      93.01422349      89.05788008
H      82.62562367      93.29012353      88.67426563
C      78.95199571      93.59247974      86.99051949
H      77.03392351      93.24288037      87.65381343
C      79.34505879      96.43462811      86.38769680
H      78.54192510      96.85603708      84.53954446
H      81.35572758      96.85603708      86.25730568
C      78.17909765      98.19396331      88.36057107
H      79.28080809      98.38482567      90.09156037
H      76.27803298      97.57980226      88.86512799
C      78.00335311     100.76210137      87.18327157
H      76.95266528     100.65060752      85.41637747
H      79.85339517     101.60302958      86.84123111
C      76.78825909     102.63104069      89.03142391
H      77.84650582     102.34002284      90.77564129
H      74.83806153     102.16994747      89.51141439
N      76.59739673     105.13870751      88.04120732
H      78.24712780     106.08923985      88.17159844
H      75.25758077     106.05900423      89.03898281
H      75.71111509     105.10469244      86.35179200
C      79.12207108      91.93707949      84.61702324
O      81.29336662      91.60826711      83.78743339
N      77.03203378      91.34181570      83.48129773
H      75.47867875      91.94274867      84.41293280
C      76.83928170      90.47443132      80.87914459
H      78.10917778      88.87950231      80.58056784
C      74.07650183      89.90940316      80.42938973
H      72.91998932      91.59692875      80.19506367
H      73.31116267      89.12138728      82.17171739
C      73.74579972      87.95542615      78.32612434
O      74.22390048      85.68586485      78.78154839
O      73.37541336      88.72454476      76.08679866
C      77.57438523      92.39250353      78.88548333
O      77.66131264      94.68474155      79.38059163
N      78.04492708      91.53645751      76.51009736
H      77.88430035      89.68641545      76.07923976
C      78.19043601      93.21075502      74.24998469
H      79.89685887      94.36159835      74.31045593
C      78.29248123      91.61204656      71.74042814
H      76.43488027      90.85426631      71.27177602
C      78.90286283      93.38649957      69.55779425
H      80.38629799      94.60537304      70.30612587
H      77.22667559      94.51844563      69.17040036
H      79.62473828      92.45675423      67.86648920
O      79.96488902      89.50500172      71.77255349
H      79.75134994      88.63194817      70.19652175
C      75.82449867      94.73198471      74.15171892
O      75.98890486      97.00154601      73.64149281
N      73.59273189      93.73420921      74.89627109
H      73.61540861      91.83314454      74.72241627
C      71.38364183      95.31779986      74.88304300
H      71.20789728      96.37793632      73.12748726
C      69.09329354      93.32791806      74.88682245
H      68.78715788      92.46431313      76.73119534
H      69.44100318      91.88605688      73.46007909
C      66.61019316      94.56568879      73.85692161
H      66.04327527      96.24943494      74.90194027
H      65.15888336      93.10493035      73.90605450
C      67.12419872      95.26677725      71.07902393
O      67.25270011      97.54578719      70.45919370
O      66.94656445      93.61515646      69.45007985
C      71.27025825      97.34736592      77.02599264
O      69.15565451      98.16183796      77.57023382
N      73.16565374      97.81790778      78.56800931
H      74.61696355      96.59714458      78.36958805
C      72.94266604      99.54133817      80.76387129
H      71.77859463     101.12681855      80.15348969
H      74.76814166     100.44084790      81.07567613
C      71.68599804      98.43584828      83.03154286
O      71.84662478      99.52811009      85.17071305
N      70.34807181      96.27778083      82.82556270
H      70.42744032      95.45386016      81.10591175
C      69.09518327      94.80001485      84.67749448
H      67.88764815      96.03967531      85.79621246
C      67.69489607      92.59848370      83.29043537
H      66.68767194      91.60637738      84.78898834
H      69.08384491      91.20197595      82.68383322
C      65.74847797      93.17862968      81.14748573
C      64.56550929      91.21898349      79.80578005
H      65.08140458      89.25366812      79.99475268
C      62.56050968      91.88038770      78.07101129
H      61.69690475      90.36860665      77.00898510
C      61.72147119      94.39372370      77.82345715
O      59.96402572      95.05512791      76.16049799
H      60.13032164      96.82391173      75.79578081
C      62.76271039      96.38738496      79.30689230
H      62.15043907      98.33191333      79.43539369
C      65.00392580      95.79779035      80.64670826
H      66.06595199      97.23965152      81.62558649
C      70.74302461      93.58492083      86.69761191
O      72.91432014      92.66840357      86.16470909
N      69.93611148      93.80223936      89.11646159
H      68.20890163      94.54301207      89.44905342
C      71.44411307      93.25232900      91.25941123
H      73.31116267      94.04601405      90.90792214
C      70.53137526      94.74710252      93.56676706
H      71.37797265      93.93829965      95.26185156
H      68.50936811      94.51844563      93.89179998
C      71.12285960      97.58169199      93.59322323
C      69.17644150      99.38071144      93.32677182
H      67.26025902      98.70418942      93.13590946
C      69.60351964     101.91483442      93.97872740
H      67.95000912     103.07890583      94.23950963
C      72.04504604     102.80489552      94.49462268
O      72.48157282     105.19728903      95.27507965
H      70.97546095     106.20451315      95.32421253
C      74.08406073     101.00965552      94.36234184
H      76.00780212     101.58980150      94.72894874
C      73.55871682      98.45474554      94.08077262
H      75.07805677      97.09414260      94.15825139
C      71.58584255      90.48576968      92.06821409
O      69.66777034      89.36138252      92.62379363
N      73.88374974      89.33870581      92.29498125
H      75.49757601      90.27223061      91.88302091
C      74.28626145      86.56269785      92.64080117
H      72.47023446      85.72176965      93.12646083
C      75.22545543      85.20965381      90.23328984
H      76.31771723      83.56748165      90.82855363
C      73.00313728      84.48399891      88.46450601
H      73.89886755      83.36339121      86.98674004
H      72.46078583      86.26979028      87.59145246
H      71.34584730      83.69598304      89.39992054
O      77.02825433      86.57214649      88.70072180
H      78.66853677      85.80302788      88.80465675
C      76.21189256      86.02601558      94.84800150
O      77.45722220      87.80235832      95.69648861
N      76.30448915      83.75456455      95.95916057
H      74.81916427      82.76812742      95.27696937
C      77.78414485      82.92308498      98.13612528
H      79.62851773      83.83960224      98.15313282
C      76.65975770      83.95865500     100.71371197
H      76.14575214      85.95042653     100.61922566
C      74.16342924      82.62072877     101.30708604
H      73.38108254      83.10260898     103.14956919
H      74.55649231      80.61194970     101.53385319
H      72.89731261      83.10071925      99.75373101
C      78.54759428      83.62417344     103.07398014
H      80.43165142      84.18920161     102.46926772
H      78.39641618      81.59082793     103.37444662
C      77.77469622      85.25689697     105.31897500
H      77.61406948      87.15796164     104.54040776
H      79.22600603      85.15296203     106.77784371
H      75.99646376      84.79391403     106.25249980
C      78.34728329      80.08282633      98.07565404
O      76.97912144      78.53703020      96.84922166
N      80.34472401      79.35150224      99.34177067
H      81.45777281      80.59305243     100.26962629
C      80.87195765      76.67376006      99.82176115
H      79.25435192      75.85172911     100.79119075
H      82.57271133      76.57360456     100.98016338
C      81.58627419      75.39063589      97.21771830
O      82.59160859      76.70966486      95.58121531
N      80.53180691      73.09839787      96.71694082
H      79.52080333      72.44077312      98.19659653
C      80.49023293      72.19510870      94.06376508
H      81.90374822      73.32138558      93.07732794
C      81.35005841      69.38697540      93.84077737
H      79.83071845      68.34573620      94.76107409
C      81.58060502      68.58573144      91.10823313
H      82.06815440      66.58451127      91.03264407
H      83.05837099      69.67799325      90.18037751
H      79.78347529      68.84462394      90.13691380
C      83.90307865      68.90131573      95.21271868
H      83.88229167      69.75925148      97.08543745
H      85.36383709      69.66098571      93.97305822
C      84.20921432      66.10641052      95.88924070
H      82.92986960      65.62264058      97.43125737
H      86.06303583      65.93822487      96.77363261
H      84.37928969      64.62675481      94.46627678
C      77.95422022      72.85084373      92.77119228
O      76.13441378      71.39386474      92.73339775
N      78.01091201      75.14686120      91.69593801
H      79.59072321      76.16920313      92.02097093
C      76.11173707      75.99534831      89.80810142
H      75.92465416      74.58561248      88.31899709
H      76.86195841      77.65830747      88.85189991
C      73.61351888      76.65108334      90.78697965
O      72.12441455      77.40697387      89.15047667
N      73.05415989      76.49990524      93.18693207
H      74.56783067      76.18432094      94.30565005
C      70.51058827      77.03280806      94.22817127
H      69.12730861      75.65330785      93.57810542
C      70.77703968      76.70210595      97.17803404
H      72.10173783      77.99845820      98.08132322
H      71.50647404      74.78592347      97.37267585
C      68.10874613      76.95343955      98.38745888
N      66.32295476      74.96544747      98.51029109
H      66.68578222      73.13052322      98.13045610
C      64.12898252      75.90842090      99.21326928
H      62.37153704      74.87474061      99.14334941
N      64.42755927      78.45010279      99.69137004
H      63.01215426      79.49890090     100.42458385
C      66.91632883      79.12851454      99.30019669
H      67.71001388      81.00690249      99.25484326
C      69.69422651      79.78047012      93.62912803
O      71.28915552      81.45665736      93.91069725
N      67.29427409      80.30014485      92.92614984
H      66.02815746      78.90741656      92.61245527
C      66.50058904      82.73033289      92.00774285
H      68.23724752      83.81125634      91.75262980
C      65.04549978      82.39585133      89.44905342
H      63.48458584      81.13540388      89.91770555
H      66.29838832      81.52090805      88.06766349
C      63.86631056      84.76556813      88.18104707
H      62.65877544      85.85405049      89.44338424
C      65.85997182      86.74222185      87.30799351
H      66.95034390      86.03735394      85.70739532
H      67.19033914      86.95765065      88.86323827
H      64.95479291      88.52801322      86.82422357
C      62.17122606      84.10794337      86.04943579
H      63.28805431      83.24244872      84.54899309
H      61.43045334      85.79924842      85.13291852
H      60.40433195      83.23677954      86.64658930
C      65.05683814      84.07014885      94.04675754
O      63.34474610      82.87017264      95.22972621
N      65.73713961      86.42474783      94.69682339
H      66.98435897      87.30913975      93.55164925
C      64.73369494      87.83448366      96.98717169
H      63.89843591      86.37750468      98.17958899
C      66.82940142      89.14595372      98.54808562
H      65.88831771      89.96798467     100.18458861
H      67.76292622      90.56324846      97.38023476
C      68.64542840      87.37716990      99.74995156
H      69.59596074      86.12806080      98.41769450
C      70.76003215      88.95131191     100.99906065
H      72.33039471      87.76078434     101.59621416
H      70.14587110      90.12105250     102.58076157
H      71.69355695      90.38183473      99.84821732
C      67.35285561      85.58570935     101.58298608
H      68.74936335      84.16841462     102.11588890
H      65.76548550      84.55580851     100.77040376
H      66.71601784      86.74033213     103.16657673
C      62.53027405      89.63350311      96.21994280
O      60.43456757      89.35382362      97.15724705
N      62.98569810      91.14906362      94.27352470
H      64.66188534      91.01300332      93.37401497
C      61.18856837      92.67974193      92.85056079
H      59.36876193      91.74999658      92.59355801
C      60.61409157      95.13071696      94.46627678