 %block lattice_cart
   137.614   0.000   0.000
   0.000 142.646   0.000
   0.000   0.000   160.855
 %endblock lattice_cart

 %block positions_abs
N      88.11905806      39.71165824      79.79255195
H      87.48222029      38.27924569      80.88103431
H      89.43052812      39.20332186      78.50186888
H      86.55814412      40.39762889      78.93461622
C      89.26423220      41.58815647      81.42149604
H      90.70042420      40.76612552      82.64792841
C      90.46042896      43.46465470      79.48830602
H      88.99967052      44.02212396      78.14849007
H      92.01756344      42.67096964      78.39982366
C      91.36749759      45.86460711      80.65804662
H      92.81691767      45.29957895      82.00731119
H      89.96343094      47.02867852      81.61235840
S      92.90384508      47.99810812      78.43572846
C      94.95797759      49.81791456      80.32356506
H      96.44897165      48.65006370      81.13047819
H      94.04712950      50.49254685      82.04321599
H      95.67607358      51.42607165      79.25397996
C      87.36883671      42.84104501      83.19972850
O      85.09171651      42.96387722      82.52131676
N      88.01890256      43.38717592      85.51275350
H      89.77067886      43.02245874      86.17793717
C      86.31814888      44.28857537      87.52342230
H      84.99723019      42.80514021      88.06577375
C      87.82615048      44.87439053      89.91959527
H      89.23021713      46.32381061      89.50952467
H      88.76723418      43.15851903      90.56210221
C      86.26334682      45.95909343      92.19671548
O      83.99000607      46.28601608      92.14191342
N      87.36694699      45.98932905      94.38312883
H      86.57137221      46.95497920      95.82310028
H      89.22643768      45.55847145      94.35856238
C      85.20698981      46.86427233      86.67115573
O      86.65640989      48.54612875      85.82455835
N      82.66719765      46.99277372      86.67304547
H      81.66753243      45.59815570      87.51019422
C      81.49556733      49.30201928      85.68849805
H      82.27980375      49.66673645      83.82144845
C      78.59294772      48.93541237      85.52031241
H      78.21689218      47.19119498      84.49230130
C      77.10195365      49.07525212      87.96750798
H      77.16620435      50.96119898      88.79142866
H      77.68776881      47.81858412      89.49062740
H      75.10451294      48.66518151      87.68971822
C      77.23423450      50.94041199      83.76664639
H      77.15108654      52.79423350      84.66048695
H      75.20277871      50.65695304      83.57956350
C      78.21311273      51.41851275      81.08134530
H      78.61940388      49.67807481      80.05522391
H      79.68709925      52.85470474      81.18150080
H      76.86195841      52.26322041      79.77932388
C      82.23822977      51.66039772      87.23429418
O      82.77113259      53.58980828      86.03431797
N      82.89585453      51.44307919      89.61534934
H      82.36106198      49.88216525      90.57344057
C      83.75756973      53.64461034      91.06287968
H      82.24011950      55.03544891      90.97973174
C      83.92386564      52.98509586      93.87479244
H      85.25801242      54.19074125      94.87823712
H      84.82337537      51.15773052      94.17336921
C      81.29147689      52.96052942      95.13146045
C      79.79103420      50.73065237      95.27507965
H      80.21622262      48.84659524      94.60989598
C      77.40997904      50.86671266      96.30498049
H      76.24968709      49.22454050      96.65646958
C      76.31393778      53.25532672      96.68670520
H      74.43554983      53.62760281      97.39346283
C      77.83894692      55.40772499      96.66024902
H      77.10951256      57.23886979      97.18370321
C      80.29559112      55.36237156      95.84766672
H      81.35383786      57.09903004      95.67381190
C      86.20476530      54.71041598      90.05565556
O      86.53546741      56.97241838      89.88369047
N      87.93197515      53.09847944      89.08811569
H      87.62206004      51.22198121      88.92559922
C      90.50767212      53.97531245      88.50607998
H      90.91207355      55.69496339      89.56621644
C      92.31236075      51.91362104      89.21094790
H      94.28712474      52.47298003      89.03331363
H      91.90984904      50.38105300      87.89758812
C      91.99677645      51.05379557      91.92270516
H      93.55580066      49.77634058      92.34033467
H      90.26767688      49.97854130      92.23639973
C      92.07425523      53.19485548      93.95038150
O      90.37917073      53.36115140      95.55475913
O      94.02445279      54.51199472      94.12612604
C      90.64184269      54.74065161      85.78676382
O      91.81914218      56.55478887      85.10646236
N      89.12061300      53.32335687      84.21073207
H      87.76756896      52.10826285      84.78898833
C      88.66896842      54.05468095      81.70684472
H      90.50389267      53.83925215      80.79410690
C      87.00034008      52.31613275      80.32167533
H      85.13140076      52.47675948      81.17205216
H      87.67308265      50.37160437      80.42750000
C      86.68286606      53.10036917      77.47952695
H      88.15118341      52.30857384      76.26821238
H      86.64696126      55.14127358      77.21307554
S      83.84827659      51.79834774      76.03955550
C      83.23411554      54.35136798      73.88904695
H      83.29647651      56.08991619      74.99264713
H      81.40675020      54.03956314      72.98764750
H      84.40385613      54.58380432      72.20908026
C      87.64851621      56.83824781      81.44417275
O      88.41952454      58.30656516      79.83223621
N      86.18775777      57.72641918      83.35468606
H      85.79280497      56.36770596      84.63781022
C      85.39785217      60.41738945      83.58334294
H      85.13895966      61.19406696      81.69550635
C      82.72577916      60.67061278      84.81355478
H      82.54058598      62.53199319      85.67904943
H      82.80136821      59.61614549      86.57855914
C      80.52802746      59.76921332      83.08823465
H      80.80203778      57.86625893      82.34557220
C      78.09972915      59.42339341      84.60190542
H      77.62351812      61.18650806      85.55243776
H      78.32649631      58.06090074      86.12880429
H      76.40275492      58.95663101      83.53043060
C      79.88174106      61.70240334      81.01331516
H      79.45466291      63.47307690      81.97329613
H      78.15264148      61.24508957      79.99097323
H      81.36706594      61.88948625      79.59602042
C      87.28001958      62.07656915      84.74552463
O      87.40285179      64.34802018      84.11435604
N      88.68030677      61.28099437      86.67304547
H      88.08126353      59.61803522      87.39114147
C      90.65318104      62.75876035      87.97884634
H      89.68375145      64.27054140      88.98607048
C      91.82103191      61.11091901      90.12179599
H      93.49721915      60.23030654      89.31299313
H      90.49444403      59.72197017      90.86634815
C      93.02289784      62.70206856      92.30631960
H      91.43930719      63.86425024      92.92614984
H      94.47042820      63.97196464      91.57688524
C      94.11326992      60.96541008      94.32076785
H      95.06569199      61.99342119      95.83065917
H      95.62316125      59.90905307      93.40425059
N      92.18952854      59.39126806      95.33933033
H      92.44464159      57.52421846      95.02941522
C      90.33192757      59.85047156      96.94748743
N      89.98232820      61.95940612      97.94337319
H      88.88439722      61.94239858      99.50617685
H      91.19553250      63.42961319      97.89990950
N      88.90707393      58.05334183      97.76762865
H      87.69575936      58.35380832      99.20948983
H      89.36249797      56.30156554      97.15535732
C      92.60715805      64.39904279      86.52375708
O      93.25911363      66.41160131      87.28153733
N      93.25155473      63.42394401      84.31277730
H      92.40495734      61.77232322      83.86680189
C      94.93530087      64.45951403      82.44950715
H      96.36582369      65.61602654      83.37736277
C      96.35070588      62.38270482      81.09835284
H      97.36737863      63.22930220      79.52043136
C      98.57302402      61.53043825      82.81422434
H      99.32324537      63.14048507      83.85924298
H      99.98464958      60.43628671      81.78810295
H      98.12515889      60.10558461      84.23151907
C      94.67262891      60.04889282      80.28577053
H      93.12872251      60.85391623      79.18406008
H      93.85815687      59.05489678      81.89581734
C      96.10504146      57.97964251      78.56045040
H      98.03067257      57.61681505      79.19161899
H      96.04457022      58.78655564      76.66505491
H      95.12805295      56.17306415      78.73619496
C      93.41218146      66.12247319      80.57300892
O      94.47420765      67.81566796      79.44862177
N      90.94230917      65.63870325      80.21018147
H      90.27712551      63.99275163      80.91126993
C      89.50611717      66.75175205      78.02376813
H      90.82325641      67.19583773      76.50442818
C      87.58426551      64.63336885      76.95229332
H      85.88729128      64.71462709      78.11825445
H      88.58393073      62.84568776      77.18850910
C      87.05703187      65.15115386      74.04022507
O      88.87683831      65.63681353      72.60592279
O      84.76857331      64.76564970      73.47897634
C      88.13984505      69.19705790      78.77209975
O      87.86205528      70.91670884      77.19795774
N      87.16852572      69.25752914      81.09457339
H      87.41607987      67.63614397      82.06778243
C      86.29925162      71.50819318      82.50052976
H      85.47533095      72.86123722      81.18528025
C      84.20921432      70.87702459      84.28254168
H      85.07092952      70.23640737      86.03998714
H      82.99601002      69.37658190      83.56255595
C      82.56704215      73.06721739      85.29921443
H      83.88985057      74.33711347      86.24029814
H      81.38785293      72.53998375      86.90170235
C      80.99478986      74.20672236      83.27909700
O      79.28458755      73.01619478      82.23974753
O      81.40108102      76.47628366      82.70084076
C      88.47432661      72.99162834      83.84790462
O      88.74077802      75.32733006      83.50208471
N      89.86327545      71.64236375      85.35023705
H      89.44753566      69.80554977      85.66582134
C      91.91173877      72.87068585      86.90548180
H      93.06069237      74.07822097      85.69416723
H      93.25911363      71.41559659      87.45917162
C      90.75144681      74.28042168      89.15614584
O      88.50834168      74.67348475      89.52653220
N      92.48054639      74.66592585      90.98162145
H      94.28901447      74.64702859      90.36935014
C      91.98921755      75.57866366      93.49117800
H      89.99744601      75.21583621      93.85589518
C      93.31769515      73.85901271      95.55097969
H      95.23387763      73.79287229      94.79697889
H      92.59770942      71.92960215      95.54720024
C      93.20620129      75.07788619      98.25139859
H      93.70508904      77.07343717      98.16447118
C      90.60026871      74.81899368      99.41546999
H      89.18108425      75.30087389      98.00384444
H      90.36027347      76.20227334     100.92536132
H      90.33192757      72.96706189     100.27529546
C      94.92207279      73.54909760     100.15246326
H      94.42696449      71.55165689     100.05230776
H      94.87860908      74.47695322     101.98927724
H      96.87793952      73.78342366      99.54397138
C      92.74888753      78.26774420      93.67826091
O      94.95230841      78.98017102      93.36078688
N      90.97254479      79.79275334      94.53052747
H      89.20565069      79.13512858      94.83099395
C      91.47710172      82.47427497      95.35255842
H      93.49721915      82.86733805      95.42814748
C      90.39239881      84.21093346      93.18882179
H      90.39806799      86.10443922      93.99573492
H      88.52912867      83.41724841      92.81654570
C      92.04779906      84.31675813      90.55832276
H      92.42763405      82.33821468      90.13124461
H      93.95075346      85.00272878      90.94571665
C      90.60404816      85.82475973      88.53064643
H      91.82103191      86.72426945      87.13224895
H      89.89162134      87.49338806      89.50574520
N      88.41952454      84.53596638      87.40625927
H      87.96410050      82.91647093      88.30954845
C      87.28190930      85.02351577      85.29543498
N      87.79780459      86.91513181      83.95750875
H      87.10238530      87.06442019      82.18494547
H      89.13573082      88.12644638      84.57355954
N      85.83626867      83.35866689      84.16348892
H      85.12573158      83.93881287      82.48919140
H      85.28635832      81.78830432      85.09890345
C      90.12594740      82.81253598      97.90557866
O      87.81670185      82.46293662      98.23439104
N      91.49221953      83.56275733      99.83120978
H      93.39517393      83.65913337      99.70648784
C      90.58137144      83.59110323     102.52784924
H      89.06959039      82.20593384     102.72627049
C      92.57314298      82.71993940     104.40245773
H      92.08748332      83.15268672     106.35643475
H      94.29657338      83.81409093     104.11899879
C      93.54635203      79.87590129     104.27584608
H      93.66351506      79.22394572     102.32375878
C      96.15039489      79.36378546     105.34165171
H      97.51666701      80.35589178     104.16057276
H      96.61904701      77.36445502     105.20748115
H      96.22976339      80.14424243     107.24649584
C      91.66040517      78.24695721     105.59298531
H      89.74989187      78.88757443     105.16968662
H      92.20653607      78.33955380     107.57719794
H      92.03835043      76.34211309     104.90512494
C      89.55147060      86.08932141     103.25917331
O      88.20031629      86.23672006     105.19803251
N      89.65351583      88.04329842     101.67747239
H      90.24688989      87.77873674      99.88223240
C      88.53101840      90.51695016     102.14045533
H      87.70709772      90.28829328     104.01317411
C      90.69097557      92.46714772     101.95148271
H      91.00844959      92.68257652      99.92758582
H      92.39550871      91.77928734     102.87744860
C      89.74044324      94.94835837     103.19870207
H      89.26423220      94.89355630     105.20559142
H      88.11527861      95.59275504     102.11210945
C      91.76245039      97.03839567     102.78107255
H      91.41285102      97.67712316     100.85166200
H      93.60871300      96.12565786     102.81886708
C      91.28245991      99.14355078     104.70670366
H      91.53946269      98.44057259     106.62666560
H      89.35871852      99.88432350     104.68969614
N      93.13628142     101.17500657     104.36088376
H      92.81124849     102.78694311     105.32842362
H      93.38194584     101.63987924     102.52595951
H      94.74443851     100.52494072     105.15645853
C      86.54113659      90.96481530     100.08632284
O      86.77357292      90.12577682      97.87912250
N      84.57204177      92.38399976     100.88567706
H      84.37928969      92.80729845     102.73760886
C      82.38184897      92.78651146      99.22838708
H      81.56170775      91.03473517      98.51596027
C      80.35606237      94.04884864     100.77418321
H      79.91008696      92.66745871     102.23683137
C      81.17053441      96.55084628     101.98738751
H      81.41241937      98.16089310     100.72505032
H      82.85617028      96.19935719     103.11933357
H      79.76457803      97.47303272     103.17980481
C      77.79359348      94.63466380      99.37011657
H      77.22856532      92.96414574      98.30809037
H      78.06382435      96.03873045      97.88857113
C      75.56938561      95.15622826     101.17102574
H      73.92721345      95.64944683     100.02774132
H      76.22512065      96.88532784     102.08187383
H      75.26891913      93.81452258     102.70359378
C      83.02246619      94.36254321      96.74906617
O      84.28291364      96.29006405      97.01740730
N      82.03224960      93.48004102      94.57399118
H      80.82093504      92.04762848      94.92548027
C      82.54436544      94.19624729      92.03230928
H      83.68953958      95.91022906      92.03797846
C      84.36606160      92.27250591      90.75863376
H      86.13862488      92.32163879      91.81121131
H      84.62495411      93.10209576      88.89158416
C      83.65363478      89.45870343      90.50541042
C      82.18909689      88.77273278      88.31521763
H      81.55792830      90.19947614      86.99996812
C      81.58249474      86.14790293      87.95050045
H      80.52991719      85.32965143      86.40659405
C      82.72766889      84.41691362      89.57188562
O      82.55381407      81.87523173      89.18071228
H      81.56737693      81.61067005      87.68215931
C      83.99756497      85.16902470      91.77908596
H      84.59849794      83.77062723      93.13779919
C      84.54558560      87.70125796      92.22506137
H      85.73044400      88.19825598      93.81243147
C      80.01780136      94.63466380      90.69816251
O      78.20555382      93.37421635      91.28208795
N      79.87418216      96.27305651      88.82355401
H      81.31793306      97.46358409      88.44749848
C      78.02602982      96.31085104      86.81288521
H      76.26480490      95.86676536      87.78420454
C      77.65375374      99.07174118      85.77920491
H      76.00024321      99.15488914      84.55277254
H      79.29781563      99.43456863      84.59056707
C      77.15675572     101.03138737      87.82010933
H      78.72522856     100.75170787      89.12591022
H      75.35773627     100.52683044      88.68560399
C      77.12463037     103.80361587      86.99807839
H      78.88963475     104.12864880      85.98707481
H      77.14730709     104.92611330      88.72339851
C      74.70200124     104.27226800      85.55243776
H      73.11463113     103.95479397      86.82800303
H      74.48090326     102.99859246      83.94806012
N      74.83428208     106.89898757      84.54521363
H      73.26014006     107.39598559      83.58712239
H      76.37251930     107.23346913      83.46240045
H      74.77570056     108.14809666      85.98518508
C      78.74223609      94.54773639      84.59623625
O      80.85495011      94.30207197      83.81199983
N      76.95266528      93.02839643      83.91404504
H      75.48245820      93.17957454      85.11969043
C      77.05093104      91.17079547      81.94306051
H      78.44554906      89.86499459      82.71406883
C      74.68688343      89.58342536      82.22462972
H      72.92376878      90.64356183      82.14904067
H      74.92687867      88.75572524      84.09545877
C      74.50924915      87.41968874      80.35380068
O      76.07016309      85.66413299      80.32356506
O      72.69700162      87.51984423      78.90249087
C      77.43832494      92.04951820      79.22374433
O      77.21722696      94.26238772      78.73808467
N      77.86162363      90.40734604      77.31323104
H      77.70288662      88.53084781      77.61558725
C      77.73879142      91.28039959      74.72241626
H      79.26946974      92.64289227      74.53155390
C      78.19232574      89.24327463      72.82891050
H      78.07327298      90.07475421      70.94863281
C      80.95510561      88.07731349      73.03867012
H      82.16453045      89.31508423      71.92373159
H      81.25557209      86.29908103      72.04089462
H      81.80548245      88.27762448      74.90382999
O      76.49535151      87.15890650      73.02544203
H      77.41186877      85.82853918      73.85503189
C      75.32183147      92.65612035      73.95140792
O      75.54292945      94.50616241      72.55490018
N      73.04849071      92.17046069      75.07579508
H      72.69511189      90.73237896      76.28521992
C      70.72979653      93.77861778      74.59580460
H      71.10207261      94.73859875      72.81190295
C      68.35819000      92.06841547      74.40305251
H      68.00670091      91.30118658      76.28144047
H      68.89109282      90.44892002      73.24465029
C      65.85997182      93.08319850      73.58291130
H      64.99069771      94.41545555      74.89249163
H      64.43322845      91.59598389      73.62448527
C      66.00170129      93.99971576      70.75777045
O      65.63320466      92.53139841      68.89639003
O      66.69523085      96.19746746      70.15116831
C      70.45011703      95.99904620      76.54600215
O      68.67755375      97.56373958      76.64237819
N      72.32094608      96.18423938      78.29210926
H      73.75335863      94.95591727      77.99920169
C      72.38897623      98.05128897      80.28199107
H      71.34206785      99.76716047      79.82845676
H      74.35240187      98.63899386      80.50686850
C      71.25325072      97.10831554      82.72162774
O      71.18333084      98.39332944      84.57355954
N      70.01547998      94.83497479      82.82367297
H      69.99091354      93.76349997      81.24386177
C      68.91754899      94.00538494      85.23874319
H      67.45868028      95.26772211      85.95872891
C      67.33584807      91.69613938      84.94016643
H      66.38531573      91.62621951      86.76564206
H      68.55850099      90.08609256      84.55088281
C      65.26848748      91.61110170      82.90682093
C      64.62409081      89.31508423      82.00731119
H      65.26281830      87.58031547      82.86713667
C      62.73625422      88.99949993      80.12136433
H      62.29594799      87.17024486      79.32767929
C      61.55706500      91.12733176      79.19917790
O      59.88465722      90.95158722      77.24898034
H      59.06073654      92.55785458      77.07890498
C      61.95390753      93.51405610      80.33301368
H      61.26037797      95.29795773      79.63003550
C      63.83229548      93.82586094      82.17927629
H      64.09874689      95.64755710      83.05799903
C      70.71845817      93.71436708      87.53476066
O      72.78014958      92.62021555      87.32878050
N      69.94178065      94.60631790      89.78542470
H      68.16543792      95.29417828      89.89124938
C      71.39309046      93.96381096      92.07388326
H      73.34139829      94.60631790      91.90380789
C      70.42177114      95.75338178      94.12045686
H      71.21545619      95.29984746      95.96671948
H      68.36574891      95.62110093      94.16958974
C      71.04349109      98.40655752      93.66314309
C      69.04416066     100.18856943      93.55920814
H      67.11852954      99.55173167      93.78786503
C      69.58462238     102.68489789      93.09433547
H      68.10307695     104.04928029      92.74662584
C      72.14520154     103.44645760      92.68615460
O      72.81416465     105.74247507      92.05120655
H      71.57072474     107.04638622      91.85089557
C      74.14642170     101.78160871      93.18126288
H      76.02103020     102.53371979      92.88268612
C      73.57194490      99.17756586      93.34944852
H      75.14797665      97.88877251      93.47983964
C      71.67276996      91.30496604      92.93370873
O      69.88697859      89.95192200      93.54598006
N      73.99713332      90.24860903      92.92048066
H      75.49568629      91.39945235      92.64647034
C      74.74735467      87.58220520      92.83355325
H      73.06738798      86.46348722      93.24173412
C      75.47111985      86.80552768      90.16903914
H      77.26824957      87.69180933      89.69093838
C      75.85662401      83.94448205      89.84400621
H      76.24779736      83.67803064      87.84089633
H      74.02169976      83.20181961      90.41281383
H      77.11329201      83.09599493      91.24051397
O      73.57005518      87.38567366      88.23395939
H      73.40942844      89.19036229      88.13191418
C      76.85817896      86.87733728      94.74784600
O      78.15453121      88.75761497      95.44326528
N      77.33250026      84.56431228      95.68137079
H      76.37251930      82.97316272      95.24862348
C      79.22600603      84.16180057      97.55597930
H      80.82282476      85.38634322      97.10811417
C      78.34917302      84.74383628     100.20726532
H      77.65942292      86.68458520     100.20537559
C      75.97378705      83.15079699     100.84977226
H      75.36907463      83.70637653     102.73949857
H      76.49535151      81.16280491     100.96126612
H      74.53003614      83.65157447      99.46649260
C      80.26913495      84.53218693     102.32753824
H      81.15352687      82.68214487     102.52784924
H      79.32616152      85.42602748     103.92624670
C      82.58593941      86.32175775     102.20281630
H      83.65552451      85.94759194     100.48316537
H      83.77646699      85.97593783     103.84687820
H      81.90941739      88.25683749     101.98171833
C      80.30126030      81.43303578      97.36133750
O      78.82727378      79.59244235      97.16858541
N      82.77113259      81.15146656      97.93581430
H      83.81804097      82.67080651      98.41580477
C      83.85394577      78.74962441      98.46304794
H      82.31948800      77.62712698      99.25673298
H      85.42241861      78.84789018      99.79530499
C      84.44354038      77.29453515      96.00640372
O      85.76634880      78.14302227      94.32265757
N      83.26624089      75.04387111      95.84955645
H      82.33838527      74.45427650      97.41047038
C      82.94876687      73.44894210      93.61401021
H      84.45298901      73.99507301      92.31576823
C      83.46466215      70.65214716      94.39824663
H      81.65997352      69.87546965      95.01051795
C      84.25834720      69.37469217      91.95672023
H      86.31247970      69.33122847      91.82821884
H      83.37962447      70.15514914      90.26541518
H      83.89551975      67.35268502      91.80743186
C      85.48288985      70.37813685      96.47694558
H      84.64385137      71.03387188      98.24194995
H      87.15151819      71.49685482      96.02152154
C      86.17641941      67.56811382      96.81709632
H      87.45387440      67.07489525      95.27696936
H      84.49645272      66.39648350      96.60166752
H      87.10049558      67.02387264      98.57832124
C      80.35984182      74.05365452      92.37057029
O      78.65152923      72.50785840      91.88491063
N      80.18220754      76.42148159      91.59767224
H      81.75823929      77.47594888      91.81877022
C      78.06004490      77.28697625      90.06888364
H      77.47045029      76.09266922      88.49285190
H      78.65341896      79.12379022      89.35645682
C      75.45600204      77.68759822      91.27641877
O      73.54359901      77.89357839      89.99896377
N      75.16120473      77.53830985      93.68015064
H      76.68621387      77.90680648      94.76863298
C      72.62897147      77.62901671      94.82154533
H      71.63875488      76.10400757      93.85211573
C      72.55149269      77.22272555      97.67125260
H      73.45289214      78.69104290      98.80319866
H      73.43966406      75.42181637      98.13612527
C      69.93233202      76.96950223      98.90146443
N      68.19756327      75.04954029      98.44981984
H      68.57172908      73.41492703      97.53708203
C      65.87508963      75.64669381      99.30964531
H      64.21024075      74.47128404      99.41735972
N      66.11697460      77.98050580     100.24883929
H      64.86030660      78.93481759     101.32598330
C      68.50180920      78.84411073      99.91624746
H      69.18966958      80.67525552     100.50206262
C      71.51592267      80.26707464      94.24139935
O      72.48157282      82.20971329      95.07665837
N      69.32761960      80.22550066      93.01685670
H      68.56039072      78.61356412      92.34411413
C      68.00670091      82.51773868      92.44993881
H      69.28793535      84.09377043      92.11167780
C      66.24547599      82.19648521      90.13313435
H      65.17967035      80.45226782      90.37501932
H      67.56450495      82.19837493      88.55143342
C      64.21968938      84.47738487      89.71739455
H      62.71357751      84.33376567      91.11390230
C      65.20234706      87.09087636      89.47173014
H      66.44956643      86.99072086      87.83333742
H      66.22846845      87.79385455      91.11201257
H      63.71513245      88.47226629      89.12402049
C      62.80239464      84.00495329      87.19649965
H      61.60808761      82.33632495      87.36846474
H      64.20835102      83.50039636      85.77731519
H      61.92367191      85.73594259      86.50674955
C      66.44578698      83.42102786      94.75540490
O      64.89999085      81.99239477      95.66058381
N      67.02593295      85.66224326      95.64924545
H      68.50180920      86.61466533      94.89902410
C      65.57651287      86.88489619      97.66747315
H      65.21179569      85.48082954      99.13390078
C      67.47001864      88.76139442      98.67658701
H      66.36263902      89.77617745     100.08632284
H      67.67599881      90.24860903      97.26685117
C      69.81138954      87.55952848      99.96915981
H      70.57294924      85.96459947      98.91091307
C      71.94300082      89.56263837     100.40190712
H      73.79115315      88.67824646     100.60977702
H      71.32506032      90.67379745     102.02329230
H      72.20567278      90.45458919      98.56320342
C      69.40698811      86.58065025     102.57509239
H      68.46023522      84.76084381     102.38800948
H      68.26937287      87.95448128     103.60499323
H      71.19277947      86.13278512     103.50105828
C      62.98380837      87.98093745      96.79630932
O      61.19045810      87.60677164      98.20037598
N      62.74570285      89.53051303      94.80264806
H      64.33874214      90.17868915      93.97305821
C      60.40055250      90.73993787      94.04675753
H      58.78672623      89.47949042      93.81243147
C      59.58608046      92.66934843      96.06876469