 %block lattice_cart
   137.614   0.000   0.000
   0.000 142.646   0.000
   0.000   0.000   160.855
 %endblock lattice_cart

 %block positions_abs
N      91.83898430      40.70848888      81.62747622
H      91.08498351      39.63323459      83.01453532
H      93.72871062      40.74439367      81.90715570
H      91.45914932      39.63323459      80.09868762
C      90.99616637      43.30119337      81.69361663
H      91.87866856      44.46715451      83.14114698
C      91.58387125      44.28007161      79.10091214
H      90.92624649      43.01395497      77.61369752
H      93.60965786      44.54463329      78.84390935
C      90.48782999      46.60254525      78.36202914
H      88.44125639      46.41168288      78.26376337
H      91.16435201      46.76695144      76.42316994
S      91.18891845      49.42957580      80.03065747
C      94.49216005      49.64500460      79.83979512
H      94.90034093      51.58575353      80.39915410
H      95.06096767      49.18391139      77.91416400
H      95.54095815      48.47148456      81.16638299
C      88.18047416      43.42969477      82.19250437
O      86.84254793      41.68925683      81.48007755
N      87.21293429      45.36666424      83.62491692
H      88.15401799      47.02584393      83.53232033
C      84.67314213      45.62177729      84.66615613
H      83.53552688      44.58998672      83.29421481
C      84.36700646      44.20259283      87.11902087
H      84.45582360      42.19759320      86.66170710
H      82.46405207      44.62211207      87.79176345
C      86.33043210      45.15879434      89.17693284
O      86.86522465      47.50016523      89.33566984
N      87.24505964      43.57142424      90.85312007
H      88.65290574      44.28007161      91.93026407
H      87.52662886      41.71760272      90.50163097
C      83.42781248      48.20125370      84.74741435
O      84.85833530      50.09098001      84.73418627
N      81.02408061      48.35810099      85.09134454
H      80.08677636      46.70459047      84.90237191
C      79.53875573      50.69380271      85.38803157
H      79.62568314      51.67646039      83.57956350
C      76.69471763      50.14389235      85.63936517
H      76.28086757      48.58108869      84.36379992
C      75.85756888      49.19524974      88.10923746
H      76.40558951      50.48404309      89.61912879
H      76.58511351      47.32442070      88.56655123
H      73.79965692      49.16690385      88.18860598
C      74.87680092      52.26605500      84.81166504
H      74.92215435      53.88932991      86.07967140
H      72.98518488      51.46481104      84.95717397
C      75.28876125      53.22225651      82.10179752
H      73.92815831      54.75671429      81.88636871
H      74.94672079      51.64622478      80.82245280
H      77.13691359      54.08208199      81.80511049
C      80.54975931      52.48148381      87.34956748
O      80.38346339      54.77561155      86.88658454
N      81.59666769      51.52339257      89.56054727
H      81.59666769      49.64122516      89.87802129
C      82.85900486      53.32052229      91.27074958
H      81.47194575      54.77561155      91.72428390
C      83.25962684      51.85031522      93.75196023
H      83.70938171      53.15611610      95.27885910
H      84.91880655      50.63900065      93.58188486
C      80.94471211      50.34420334      94.54564528
C      80.60267165      47.79496254      93.80865203
H      82.24106436      47.10521244      92.80898680
C      78.53720079      46.33042466      94.45493842
H      78.39925077      44.39723464      93.81999038
C      76.47172993      47.59843101      95.73995231
H      74.87680092      46.40790344      96.19915581
C      76.57188542      50.22137113      96.31253940
H      74.97128723      51.20591854      97.10811416
C      78.82821864      51.46103160      95.71160642
H      78.87546180      53.49626684      95.85522563
C      85.22683193      54.64522042      90.20683367
O      85.43659156      56.90155364      90.58288921
N      86.77829724      53.32241201      88.76308276
H      86.54964035      51.46481104      88.38324778
C      88.98360785      54.58852864      87.65570315
H      89.48816477      56.02850009      89.04087253
C      91.11521913      52.57785984      87.27208871
H      90.60688275      51.07552742      85.95872893
H      91.51017193      51.77094671      89.12591022
C      93.52650990      53.82696894      86.14203237
H      93.62477567      55.66000346      87.07555718
H      93.09376258      53.93090388      84.12947386
C      95.92646232      52.31140843      86.13636320
O      98.07886059      53.28272776      85.74141040
O      95.89055752      50.05885466      86.64658929
C      88.44125639      55.81118156      85.05732946
O      89.52029012      57.74248186      84.42427115
N      86.64790612      54.98915061      83.46240047
H      85.70871214      53.36398598      83.81199983
C      85.89390532      56.26471588      81.05488913
H      87.58898983      56.11164805      79.89459718
C      83.62245430      54.72269920      79.89648690
H      82.01051775      54.70947113      81.17772134
H      84.26307152      52.77250165      79.72641154
C      82.60578154      55.51638425      77.35480501
H      83.86433926      54.56585192      76.03010688
H      82.91947611      57.54972978      77.25087007
S      79.43293106      54.49782177      76.65182683
C      79.64080095      54.59041836      73.34480578
H      81.34155464      53.52083328      72.89694065
H      80.03764348      56.48959332      72.65505567
H      77.92681919      54.01216212      72.35836864
C      85.19470659      59.15599713      81.50275428
O      86.19248208      60.79061040      80.29332943
N      83.68859472      59.62653899      83.52854088
H      83.03663914      57.99570518      84.27876222
C      82.92892474      62.09452156      84.38647663
H      82.57554592      63.40977107      82.83879077
C      80.36834558      61.69200986      85.86613233
H      79.76552289      63.44189642      86.77131123
H      80.56298739      60.28227402      87.35712639
C      78.15925552      61.03627481      84.08223069
H      78.87924125      59.58496502      82.81044488
C      75.86890723      60.10086029      85.64881380
H      76.20338879      58.16578055      86.26297485
H      74.13791793      60.00637398      84.53576501
H      75.52686677      61.45201461      87.16626403
C      77.18415675      63.29071831      82.56100102
H      76.67204092      64.78549183      83.88191971
H      75.40781401      62.86175043      81.60857894
H      78.45594256      63.92755607      81.07189667
C      84.89801956      63.36441764      86.02486934
O      85.08132301      65.62830976      86.06266386
N      86.72349517      62.01704278      87.27775788
H      86.57987598      60.11975755      87.09823388
C      89.00817429      63.20946008      88.54387451
H      88.21826869      64.79116100      89.60401097
C      90.22326831      61.56539818      90.58477894
H      91.19080818      60.00070480      89.65503358
H      88.73605370      60.60730694      91.64113595
C      92.12622270      63.00347991      92.34411413
H      90.95459239      64.29794244      93.43637594
H      93.51706127      64.15054378      91.34822836
C      93.42257495      61.00414947      94.16581029
H      94.62633062      62.03216058      95.48483926
H      94.57152855      59.62086981      93.16236562
N      91.49505412      59.56795748      95.67192216
H      90.75428140      57.91633668      95.06909948
C      90.37444641      60.24070004      97.83754853
N      91.20781572      62.17389007      99.10366516
H      90.63711837      62.11152910     100.92347159
H      92.85754679      63.06773061      98.75595551
N      88.48849955      59.05773137      98.59532877
H      88.24850431      59.29583688     100.47371673
H      88.17858444      57.37587496      97.74684166
C      90.77128894      64.34707532      86.39903515
O      91.66512948      66.49191468      86.83556194
N      91.04718898      63.19245255      84.21262180
H      89.96815525      61.62020026      84.21451153
C      92.50038851      63.98235814      82.02998791
H      94.36365866      64.44345137      82.78020926
C      92.83487007      61.59752354      80.12892324
H      91.01317391      60.66021929      79.92483280
C      93.78351268      62.46868737      77.49275504
H      94.20303192      60.75281588      76.43261857
H      95.39544923      63.70456838      77.84046469
H      92.24716519      63.58173617      76.69151109
C      94.91734847      59.87220342      81.27598711
H      94.75483201      59.88543149      83.33011962
H      96.79951588      60.70935216      81.22685423
C      94.95703272      57.17934341      80.23474791
H      93.04840914      56.48392414      79.89459718
H      95.86410135      56.29117205      81.85802282
H      96.21559045      57.00926804      78.61336274
C      91.23616161      66.29160369      80.80355554
O      92.46070426      68.25691907      80.49364042
N      88.84565782      66.04027010      80.00231159
H      88.15590772      64.26014790      79.97585541
C      87.27529526      67.87519434      78.61903193
H      88.24283513      68.35329511      76.86536590
C      84.74117227      66.70356403      77.77432425
H      83.87567762      68.08873342      76.51954598
H      83.45993783      66.04027010      79.24453133
C      84.93014490      64.51715068      76.08112948
O      86.80853286      64.48124588      74.58635596
O      83.13301518      62.91277305      75.94317947
C      86.50239720      70.25435977      79.93806088
O      87.00128494      72.18943952      78.78910729
N      85.62367446      70.14097619      82.22274000
H      85.33643606      68.34951566      82.81800379
C      84.81487160      72.48234709      83.58901212
H      84.15724684      74.01680486      82.38147702
C      82.43948562      71.37496748      84.93638698
H      83.07254394      69.88208370      86.20439334
H      81.14313337      70.62285641      83.52287171
C      80.52141342      73.14564103      86.25352623
H      81.62879304      73.95255416      87.79176345
H      78.96427893      72.01558470      86.99051948
C      79.45182832      75.15253037      84.49419102
O      80.72928331      77.08761012      84.24096771
O      77.25218689      74.89741733      83.64759365
C      86.81798149      73.56893973      85.52031241
O      86.77262806      75.78747841      86.09289948
N      88.53007353      71.93621620      86.41982214
H      88.39968241      70.13341730      85.80755081
C      90.29885736      72.35195599      88.47773410
H      91.80496923      73.68610276      88.02419978
H      91.16813146      70.52081118      88.84812046
C      89.09699142      73.20989173      91.04209271
O      86.89735000      73.85050895      91.19327080
N      90.64278755      73.07761088      93.06976903
H      92.25850355      72.06849704      92.96583408
C      89.82642578      73.65964659      95.57554613
H      87.76662410      73.71255892      95.61523038
C      90.78829647      71.52803531      97.29141762
H      92.83675980      71.41465174      97.11189362
H      90.13256144      69.70255970      96.59788806
C      90.41224094      72.02314361     100.19592696
H      91.65946030      73.53870410     100.82142638
C      87.77796246      72.73746015     101.18803327
H      88.08220839      72.78659303     103.22515824
H      86.31153484      71.37874693     100.69481470
H      87.40190692      74.68765771     100.63623320
C      91.00183555      69.61563229     101.72282583
H      92.74794266      68.76714517     101.03496544
H      89.38045037      68.37975128     101.42424906
H      91.38356026      69.96334192     103.71837681
C      90.74294304      76.42620591      96.47316612
O      93.03518106      76.88351968      96.64513123
N      88.96093113      77.92853833      97.62967863
H      87.14301442      77.34650262      97.59188410
C      89.35588393      80.24534279      99.08665761
H      91.33442738      80.28313732      99.65357551
C      88.69447972      82.61316987      97.50495669
H      89.00061538      84.03046459      98.96760485
H      86.69892873      82.48088902      97.01362785
C      90.40468203      82.91552608      95.22216730
H      90.63333892      81.07871210      94.31509868
H      92.37755630      83.37850902      95.58688448
C      89.47304696      84.63139757      93.05465123
H      91.11143967      85.32870657      92.02286066
H      88.75495096      86.26790055      94.07888288
N      87.69859395      83.42575217      91.40680989
H      86.80475341      81.97066292      92.26285590
C      87.31875896      83.68086523      89.06165952
N      88.43180776      85.40429563      87.64058533
H      88.21826869      85.30414013      85.74707958
H      89.49383395      86.69686843      88.56277178
N      85.98272246      81.95554510      88.12057582
H      85.58021076      82.29758557      86.28565158
H      85.48383471      80.41352844      89.12779994
C      87.89701522      80.27935786     101.63967786
O      85.75973476      79.26079538     101.54141209
N      88.88345235      81.48689298     103.51050691
H      90.26484229      82.74167125     103.11933356
C      87.85166178      81.50956969     106.12777785
H      86.60822187      79.90897150     106.49060531
C      90.30452654      81.06926347     107.63388973
H      89.70359357      81.12973471     109.60487428
H      91.61977605      82.61316987     107.27673145
C      91.64623222      78.52191240     107.25216502
H      92.48716043      78.49923567     105.37188733
C      93.80618940      78.23467399     109.29873861
H      95.16112316      76.74556965     108.85654265
H      93.12210847      78.01357601     111.22814917
H      95.03640123      79.87684617     109.13622215
C      89.87177921      76.33360932     107.25405474
H      88.73227425      76.18810040     108.96425705
H      90.90168005      74.57238440     106.96681634
H      88.41102077      76.41864700     105.80463466
C      86.29452730      83.73377756     106.95736771
O      85.49328335      83.97377280     109.10598652
N      85.95626629      85.56870181     105.33220308
H      86.35688827      85.07170380     103.53318364
C      85.11911754      88.20487003     105.81219357
H      83.85111118      87.99322068     107.42224038
C      87.41135555      89.83192437     106.59642999
H      88.39023378      88.95509137     108.18191036
H      86.72349517      91.64606163     107.29184926
C      89.36911201      90.60482244     104.59520981
H      88.54519134      92.05424253     103.38389525
H      90.04941349      89.12138728     103.33476236
C      91.63489386      91.75377604     105.91045933
H      92.84431870      90.24577444     106.62288615
H      91.02073281      93.04634884     107.39200476
C      92.94636392      93.50177288     103.98860767
H      91.99772131      95.24599027     103.44247676
H      93.30919138      92.56068918     102.19336767
N      95.35387525      94.34648053     104.84087424
H      96.24960552      95.51811086     103.62766994
H      96.47826240      92.82525086     105.09031812
H      95.08742384      95.05323818     106.59454025
C      83.56387278      89.27445511     103.52373500
O      84.08543724      88.53746186     101.43369769
N      81.71383072      90.94497318     103.92246726
H      81.21305325      91.45141983     105.69503054
C      79.94693662      91.72543015     101.96471080
H      79.08333169      89.97176413     101.31842439
C      77.74162601      93.53767767     102.85855134
H      78.58444394      95.25543889     103.62578022
C      76.02008534      94.44852576     100.84977226
H      74.90514681      96.05668286     101.48661003
H      74.77286597      92.91028855     100.28285437
H      76.96872795      95.18173957      99.17358502
C      76.24496277      92.33203228     104.98449344
H      77.67170614      91.65173081     106.30730185
H      75.29632016      90.61049162     104.37222211
C      74.49318648      94.18396408     106.33753748
H      72.78865334      94.59214495     105.25850375
H      75.60812500      95.86015131     106.76839508
H      73.83367199      93.37516122     108.11199048
C      81.33210600      92.80446387      99.77073855
O      82.71727539      94.61671141     100.01640296
N      80.70093742      91.81424727      97.57676629
H      79.54442491      90.29868678      97.47661079
C      81.76107388      92.70619810      95.20893922
H      82.67948087      94.50710727      95.59822284
C      83.75851459      90.89584029      94.20360482
H      85.27029564      90.49521832      95.54531050
H      84.89424010      91.93707948      92.83733270
C      83.07821312      88.33715086      93.29842592
C      82.60578154      88.03101521      90.69816251
H      82.48483905      89.68074628      89.50574521
C      81.51163000      85.83137378      89.74951990
H      80.92392512      85.74066690      87.79743262
C      81.48895329      83.69598303      91.39169207
O      80.52519287      81.45854709      90.66036798
H      79.78442015      81.40752448      89.00496773
C      82.14657804      83.93975774      93.94471231
H      81.95760541      82.47710957      95.35255842
C      82.87601240      86.29057726      94.89524465
H      83.24261931      86.54002114      96.88701618
C      79.60867561      93.39405847      93.44015539
O      77.64713969      92.21864872      93.53086226
N      79.96205443      95.36315330      91.79042432
H      81.47005602      96.52911443      91.85845448
C      78.26130075      95.77322390      89.75707881
H      76.33377991      95.16095257      90.14258297
C      78.11390209      98.53033459      89.13346912
H      77.37123965      98.70040997      87.21728665
H      80.04142293      99.25221004      89.11268214
C      76.79109367     100.34447185      90.97406255
H      77.64524997     100.30856705      92.85056078
H      74.78609406      99.89093754      91.12335093
C      77.01030193     102.99764760      89.98951514
H      77.01219165     103.09591337      87.93160319
H      78.88491043     103.66472099      90.51674878
C      74.91081599     104.51698756      91.35578727
H      75.24340782     104.50186974      93.39102251
H      73.11746572     103.50598398      91.41058933
N      74.74640980     107.01898519      90.11612680
H      76.37913334     108.00353261      90.12179598
H      73.80721583     108.20573332      91.28397768
H      73.83934117     106.67694474      88.47395464
C      78.89057961      94.18585380      87.50452504
O      80.96171965      94.45986412      86.44438858
N      77.21439237      92.62871933      86.66359683
H      75.61946336      92.39439325      87.68782849
C      77.57910955      91.02623141      84.39025608
H      79.25718651      89.85838055      84.63403077
C      75.16970850      89.42374349      84.20695262
H      73.48029317      90.51222585      83.74963886
H      74.91081599      88.69052969      86.11179676
C      75.15459069      87.25811714      82.31722631
O      76.63235666      85.42886207      82.71217911
O      73.72784732      87.40740551      80.43127945
C      77.87768630      92.51344601      81.90337625
O      77.49596159      94.89828062      81.92227352
N      78.25752129      91.20953486      79.69239647
H      78.59956176      89.33492636      79.79444168
C      78.31232336      92.39817272      77.19039883
H      79.71261055      93.90428458      77.06189743
C      78.85845426      90.26656143      75.34980539
H      77.42226226      88.81336189      75.62381571
C      79.05687552      90.94497318      72.55867963
H      77.18793620      91.02623141      71.69696443
H      80.25118255      89.60137776      71.55145552
H      80.00551813      92.74588236      72.23742617
O      81.10533885      88.88328177      76.14726991
H      82.32988150      90.14750867      76.58757613
C      75.73662639      93.56035440      76.64426792
O      75.68749351      95.51244168      75.42161499
N      73.64658909      92.52478437      77.50598313
H      73.80154665      91.04323894      78.69651070
C      71.06900240      93.62082564      77.42472489
H      70.43027490      94.57891688      75.71830203
C      69.33423364      91.41929448      78.22407912
H      69.63470013      91.06780538      80.23096846
H      69.95595360      89.73932779      77.20740636
C      66.46373937      91.59503903      77.67605849
H      65.65304678      93.25799819      78.58123740
H      65.55667074      89.94719769      78.51509697
C      65.84390914      91.73109933      74.78099777
O      63.79544582      90.85993550      74.09691685
O      67.34246211      92.77233852      73.23520165
C      70.64003452      95.87526913      79.36736354
O      68.55755613      96.85603708      79.48263685
N      72.48818686      96.69918979      80.89993158
H      74.30799330      96.14927945      80.75442265
C      72.19527928      98.59836474      82.81233461
H      71.10868665     100.14605060      81.99597284
H      74.06988778      99.38638062      83.13736753
C      71.40915313      97.72531118      85.45039254
O      72.04788063      98.90261068      87.33255995
N      69.87091592      95.67495813      85.56377612
H      69.17738636      95.07780462      83.89136833
C      68.44606228      94.87371418      87.80499152
H      67.38781554      96.46486373      88.57033069
C      66.45429074      92.84981729      87.02075510
H      65.46974333      92.28289940      88.73851632
H      67.44072788      91.12638691      86.47084476
C      64.80266994      93.41484546      84.71339928
C      63.74253348      91.31724926      83.35846551
H      64.52110072      89.46531748      83.71940324
C      61.74509277      91.82936509      81.68227828
H      60.99109197      90.31191487      80.54466303
C      60.86070086      94.26711203      81.25520013
O      58.86703959      94.76977924      79.69050674
H      58.61570600      96.46675346      79.10091214
C      61.92461677      96.30423699      82.60446471
H      61.19140296      98.18829414      82.31722631
C      63.76143075      95.82802596      84.39781498
H      64.29244384      97.41161661      85.56944531
C      70.27909680      93.86460032      89.95361035
O      72.33889848      92.86493511      89.49251712
N      69.29832884      94.10270585      92.26852508
H      67.83001150      95.24221082      92.70883131
C      70.74207975      93.21642420      94.48895349
H      72.73196155      93.71342223      94.29242197
C      69.68950219      94.46364358      97.04953265
H      70.85168387      93.72854003      98.58399042
H      67.73741491      93.88160787      97.35377859
C      69.63092067      97.25098988      96.88701618
C      67.40104362      98.63615927      96.54308600
H      65.73997420      97.46074950      96.69426411
C      67.43316897     101.23642268      96.25773732
H      65.73808447     102.16805774      95.61145092
C      69.83312139     102.47041395      96.15947155
O      69.67249465     104.98941914      95.68137081
H      67.93205672     105.50531442      95.71916532
C      72.10457242     101.15138500      96.47505585
H      73.85634871     102.14538103      96.14813320
C      71.98174021      98.49065035      96.85111138
H      73.71650896      97.43996252      97.09677580
C      70.88191949      90.35537856      94.64769050
O      68.83345617      89.23477087      95.03886386
N      73.11935545      89.11949755      94.73272819
H      74.67648993      90.18719293      94.44548980
C      73.55021305      86.38695331      94.59855762
H      71.83434155      85.40051618      95.16925498
C      74.45728168      85.63295251      91.94538188
H      76.44149431      86.18853205      91.94538188
C      74.21350698      82.76245825      91.37846398
H      75.29254071      81.71932931      92.79197926
H      74.92971326      82.47899929      89.46606095
H      72.22173545      82.24467323      91.30665439
O      72.97384652      86.95198147      90.02541994
H      73.26675410      88.72454475      90.25785629
C      75.67993460      85.92019090      96.49017367
O      77.06510399      87.61716513      97.27629980
N      75.93315793      83.51078987      97.21582856
H      74.48751730      82.38451298      96.67725656
C      77.83233287      82.56025752      98.78241168
H      79.62757287      83.52968712      98.50273218
C      77.13880332      83.26512544     101.60755251
H      76.20905797      85.10193942     101.56219908
C      75.20750302      81.33382515     102.73193967
H      73.74107540      81.14485251     101.29952713
H      74.29854467      82.02735470     104.44403171
H      76.14102782      79.51968788     103.01917807
C      79.41970298      83.62228371     103.50105828
H      80.69337851      85.10949833     102.86044106
H      80.64046617      81.97066292     103.65223638
C      78.72617342      84.20053997     106.23738198
H      77.74162601      82.58293425     107.04996430
H      77.66981641      85.96932379     106.20525663
H      80.48739834      84.63517701     107.21437048
C      78.34066925      79.76157285      98.50084246
O      77.12179578      78.52002266      96.98906141
N      80.35322777      78.77135626      99.79530499
H      81.36045190      80.02235509     100.82331609
C      80.98439636      76.14085723      99.78207690
H      79.42537215      75.17709681     100.72316060
H      82.65491442      75.96511270     100.97449420
C      81.52485809      75.08827969      97.11945252
O      82.57365619      76.33360932      95.49995707
N      80.89935868      72.73179097      96.67158738
H      80.06409965      71.59984490      97.96227046
C      81.00140390      71.63385999      94.12045686
H      82.39224247      72.57305396      92.92803956
C      82.08988626      68.97123561      94.14313359
H      80.66881207      67.80338475      95.06909948
C      82.77585691      67.85818681      91.46728112
H      82.91380693      65.80594404      91.37657427
H      84.49172840      68.63864378      90.63580154
H      81.20738407      68.39864854      90.24462819
C      84.39535236      68.78793216      95.84766672
H      83.85111118      68.90509518      97.83187934
H      85.74839640      70.26191868      95.35822760
C      85.87689779      66.33128794      95.69459888
H      86.81420204      66.18199956      93.86534382
H      84.62778869      64.79494046      96.26151677
H      87.45292953      66.31428041      97.02118676
C      78.48050900      72.15542444      92.73906693
O      76.93471287      70.45467077      92.24206891
N      77.95327536      74.53270015      92.00396339
H      79.22506116      75.92731817      92.29498125
C      75.82544353      75.23378861      90.48462344
H      75.52686677      73.97523089      88.88213552
H      76.28275730      76.88729914      89.34700820
C      73.34423288      75.43409960      91.74885034
O      71.38269697      75.03158790      90.58666866
N      73.34045343      76.52447168      94.07699316
H      74.91459544      76.96288818      95.06154057
C      71.07845103      76.81359980      95.42625775
H      69.69517137      75.47189413      94.69682339
C      71.28443120      76.01424558      98.15502254
H      72.29354505      77.18965535      99.51184603
H      72.40314917      74.28325627      98.12667665
C      68.72763150      75.40575370      99.28318916
N      67.37080800      73.14564103      99.33610149
H      67.92638754      71.40331337      98.79941922
C      64.92928161      73.66153632     100.21860367
H      63.37592658      72.35006626     100.40001740
N      64.76676514      76.05770929     100.77418321
H      63.22663820      76.72856212     101.67747239
C      67.01553946      77.19910397     100.15813243
H      67.45962514      79.18898578     100.15435299
C      70.07311663      79.56126187      95.27885910
O      70.93672156      81.22044157      96.68292574
N      68.08134510      79.75590367      93.77652667
H      67.79032724      78.15152604      92.78253064
C      66.56011542      82.13317937      93.46283211
H      67.82812177      83.72810838      93.17181426
C      64.66849938      81.81570536      91.19516053
H      63.46285399      80.17731265      91.53342154
H      65.68706186      81.25067719      89.49629658
C      62.97152515      84.09093583      90.44115973
H      61.74698250      84.43486603      92.06254491
C      64.55889525      86.44364509      89.83455758
H      63.19262313      87.94030833      89.46039177
H      65.74186392      86.22254711      88.16214980
H      65.55100156      87.02001162      91.54287017
C      61.43517765      83.32181723      88.07522239
H      60.55078574      81.54358477      88.61757384
H      62.54255727      83.49189259      86.34612282
H      59.95930140      84.74856060      87.91459565
C      65.11825424      82.73033290      95.88924069
O      63.64993689      81.06926347      96.83221412
N      65.61714198      84.86383391      96.91536208
H      66.68483735      86.04491284      95.86089481
C      64.32645891      85.62161416      99.31531450
H      63.80678418      83.98889062     100.45859892
C      66.21996468      87.01812190     100.82898527
H      65.43383853      88.11794262     102.38234030
H      67.07223125      88.42029883      99.58365563
C      68.51409242      85.43642098     101.80786351
H      69.41360215      84.30447492     100.34143588
C      70.49830505      87.27890412     102.82453626
H      71.41860177      88.35226868     101.32598330
H      71.95150459      86.25467246     103.86577546
H      69.79343714      88.64328652     104.19647756
C      67.77331971      83.75267482     104.01884329
H      66.63570447      82.18609172     103.31397537
H      66.73585996      84.85060581     105.41724077
H      69.48541175      83.12528570     104.97693453
C      61.94918321      87.12583629      98.89390554
O      60.10103088      86.73088350     100.18458861
N      62.17217092      89.10815919      97.31220460
H      63.83135062      89.24799895      96.38434899
C      60.03489046      90.48387996      96.25017843
H      58.61948545      88.98910645      96.18025855
C      58.89538549      92.55690972      98.01896225