 %block lattice_cart
   137.614   0.000   0.000
   0.000 142.646   0.000
   0.000   0.000   160.855
 %endblock lattice_cart

 %block positions_abs
N      89.84815764      39.87795415      80.70906922
H      90.00311519      39.79480619      82.61202362
H      91.47899144      39.38095613      79.85113348
H      88.41763482      38.72522110      80.19506367
C      89.09982601      42.36483398      80.05522392
H      90.23555154      43.87472530      80.87536514
C      89.32281373      42.66530046      77.17150157
H      87.99433612      41.46532425      76.15104936
H      91.15962770      41.83760033      76.74631314
C      89.06959040      45.53012555      76.43639803
H      87.17419491      46.26333936      76.77843849
H      89.36816716      45.69642147      74.40494224
S      91.10482563      47.87527590      77.62692561
C      89.03368560      50.28845641      79.12736830
H      88.11905806      49.36815969      80.72607676
H      87.49544837      51.14072297      78.05400375
H      90.21665427      51.87204706      79.70940400
C      86.44098110      42.88072926      81.13614737
O      84.54747532      42.04924968      80.13270270
N      86.38617903      44.08826437      83.36413469
H      88.05102791      44.65329254      84.10301768
C      84.07504375      44.70809460      84.73229654
H      82.83727301      43.07726080      84.51308829
C      84.90274387      44.95186930      87.63113671
H      85.72855427      46.80002163      88.00908197
H      86.37862012      43.58937663      88.08845048
C      82.75601478      44.70998433      89.50763494
O      80.56015281      44.72699187      88.95772458
N      83.33427104      44.47565827      91.89057982
H      81.90563794      44.28857536      93.14157864
H      85.14651857      44.66841035      92.45182853
C      82.50279145      47.16662854      83.83278682
O      83.71410603      49.09603910      83.60790939
N      79.94032258      46.98332509      83.83845600
H      79.27324918      45.39028580      84.65292804
C      78.49468194      49.35493161      83.81388956
H      79.05782039      50.18263173      82.01298038
C      75.70355618      48.47998833      83.35846551
H      75.65820275      47.09292921      81.83723583
C      74.60373546      47.00222235      85.62613709
H      72.70267080      46.38050239      85.13291852
H      74.59995602      48.28723624      87.23429418
H      75.75079934      45.36005018      86.10234812
C      73.91587509      50.58703316      82.56478046
H      73.83839632      52.00999708      84.05199507
H      72.02992823      49.80279674      82.30588796
C      74.75302385      51.81724499      80.01553967
H      76.40275492      52.96997804      80.44828699
H      73.24313252      52.93029379      79.16705255
H      75.24624242      50.34325847      78.66060590
C      78.81404570      51.27111409      86.01731044
O      79.28269783      53.41973291      85.47306926
N      78.97845188      50.32058175      88.33033544
H      78.26980452      48.59904108      88.74607523
C      79.58694375      51.87771624      90.56210222
H      78.08083189      53.25343699      90.83989199
C      79.26946974      50.21097763      93.00929779
H      79.94221230      51.32213670      94.60422680
H      80.38629798      48.49321641      92.79953817
C      76.44621863      49.64972891      93.43448621
C      75.47489930      47.48977174      92.06443464
H      76.65030907      46.34270787      90.85123034
C      72.89920234      46.95119974      92.08711135
H      72.11685565      45.46776458      90.92115022
C      71.27592743      48.40817873      93.51385472
H      69.27470727      48.02456428      93.65369447
C      72.23212894      50.47175986      94.85178095
H      70.90932052      51.55457304      95.96860920
C      74.75491358      51.15395106      94.60422680
H      75.21600679      52.83202802      95.67381190
C      82.23822978      53.08525135      90.46950563
O      82.99412030      54.33813990      92.25151754
N      83.57993545      52.72998280      88.31332791
H      82.56515243      52.12338066      86.81477494
C      85.91563718      54.13215973      87.96750799
H      86.25011874      55.52488802      89.44716369
C      88.12283752      52.24999232      88.39269641
H      89.98043847      53.10792807      88.15081144
H      87.98488750      50.92718390      86.82044412
C      88.00378475      50.93096335      90.99673927
H      86.19153722      50.04279199      91.40680988
H      88.29291288      52.50132592      92.29687097
C      90.14106521      49.24721721      91.34255919
O      92.37283200      50.09948378      91.08555641
O      89.84815764      47.05702441      92.23262028
C      86.31058997      55.30756949      85.39181103
O      87.43875658      57.29934103      85.11402126
N      85.04636308      54.28522756      83.53043061
H      84.45109928      52.49754647      83.82711764
C      84.68920481      55.50977021      81.02276379
H      86.58460030      55.88960520      80.31789588
C      82.94120796      53.95452545      79.46373958
H      81.16486522      53.77122200      80.49175070
H      83.79725398      52.08180668      79.48641630
C      82.40641541      54.79356394      76.78032822
H      84.15063281      54.78789476      75.68239723
H      81.91319685      56.78722520      76.92772687
S      79.61717938      53.38949729      75.20807593
C      79.98945546      54.48553855      71.94640831
H      80.57716035      56.45652309      71.81412747
H      78.15075176      54.31546318      71.03556023
H      81.26691045      53.17595821      71.00154515
C      83.68764985      58.19129185      81.27409739
O      84.81203702      59.96385513      80.38781575
N      81.75823930      58.39349256      82.99185861
H      81.12329124      56.72486423      83.67027036
C      80.48456376      60.84446759      83.44917238
H      80.13307467      61.88192734      81.70495499
C      77.88241063      60.23030654      84.64725886
H      76.79014882      61.95562666      84.92126917
H      78.15831067      59.17583926      86.39336597
C      76.28370216      58.59002410      82.92193874
H      77.36651534      57.06501497      82.05455436
C      74.20122377      57.54500545      84.66237667
H      72.92187906      56.45652309      83.46995937
H      73.41320789      59.06245568      85.81133027
H      75.05915952      56.31668335      86.07778168
C      75.23868351      60.14148940      80.65237743
H      76.78070019      60.87281349      79.49775466
H      74.14642170      61.74964650      81.33078918
H      73.90453673      58.85836524      79.75097798
C      82.18720716      62.58112607      85.15559524
O      81.67887079      64.75053188      85.58645284
N      84.26023693      61.57957113      86.16659881
H      84.68731508      59.72197016      86.09100976
C      86.06303583      63.18394877      87.65948260
H      85.15596720      64.86391546      88.43616012
C      87.37828534      61.74775677      89.88558020
H      88.72188076      63.14426451      90.58099948
H      88.31747932      60.25298326      88.82544374
C      85.66619331      60.73297374      91.91514626
H      84.43787120      59.19851597      91.30098521
H      84.34149516      62.08790751      92.72205939
C      87.53324291      59.75031606      93.91825615
H      88.38739920      61.21485395      95.08799674
H      88.89951502      58.47853025      93.04709232
N      86.09327146      58.06090073      95.60767147
H      85.56036864      56.35447787      94.93303918
C      85.45832341      58.59569328      97.96604991
N      85.69642892      60.84446759      98.99784048
H      85.57359672      60.98997652     100.89512570
H      86.44098110      62.26176233      97.95849101
N      84.77046304      56.95352111      99.51373576
H      84.34905406      57.63382259     101.24661479
H      85.30714531      55.14127358      99.24539463
C      88.00567449      64.42549895      85.92282412
O      88.38739920      66.64970682      86.06077414
N      89.10360547      62.87403365      84.21073208
H      88.33448685      61.13926490      84.00097246
C      91.30702634      63.54677622      82.57233937
H      92.69597519      64.69572982      83.56255596
C      92.82258685      61.17705942      81.61613785
H      94.35326517      61.88003761      80.43127946
C      94.09815212      59.83913319      83.90837587
H      92.82447658      58.44451517      84.73229654
H      95.01088993      61.09958064      85.25953018
H      95.50788794      58.57301656      83.10146274
C      91.08403864      59.34591462      80.15537941
H      90.13161659      60.29833669      78.59635521
H      89.51367608      58.75254056      81.35157617
C      92.40684706      57.00832318      79.15949365
H      93.28745953      55.78567025      80.56545002
H      93.87516440      57.52799791      77.81400851
H      91.05947220      55.83102368      78.13715171
C      90.15996248      65.28721415      80.62781099
O      91.48088118      67.07489525      79.68483756
N      87.77134842      65.02076274      79.96829651
H      86.83215445      63.60535773      80.83568089
C      86.65263044      66.56844859      78.00298114
H      87.76945869      66.64592737      76.27199184
C      84.33015681      65.15871276      77.04488990
H      83.02813538      65.30422169      78.63792918
H      84.61928493      63.14804397      76.70473917
C      83.28135869      66.42860885      74.73186490
O      84.71755069      66.78009794      72.85914612
O      81.11573234      67.31489049      74.87170464
C      85.94398308      69.20461680      78.97807992
O      86.55814413      71.14347600      77.79322152
N      84.68920481      69.44272232      81.09079394
H      84.12795608      67.85724194      81.99408312
C      83.64418615      71.71984252      82.37580783
H      82.89963399      72.93682627      80.88859322
C      81.52580296      70.93182665      84.10868686
H      82.30248047      70.14192105      85.84723507
H      80.29748086      69.68460728      83.02776341
C      80.11039795      73.27886673      85.01197604
H      81.51824405      74.57521898      85.76975629
H      78.69310322      72.86501667      86.45005776
C      78.69688267      74.48073267      82.71217911
O      76.86006869      73.49618526      81.77109541
O      79.28836699      76.65580765      81.97707558
C      85.71532619      73.25807974      83.82711764
O      85.98366732      75.50685405      83.51531280
N      87.33860110      72.04676517      85.22929456
H      87.34804973      70.14003132      85.31622197
C      89.01100888      73.19193932      86.88280509
H      89.56469868      74.96261288      85.98707482
H      90.75144682      72.15636930      87.26452980
C      87.66741347      73.92137368      89.29598559
O      85.33549121      74.18404563      89.39992054
N      89.13006164      74.26530387      91.27641877
H      90.99711124      73.93838121      91.07043860
C      88.33637659      75.31410197      93.77841640
H      86.28224409      75.31977115      93.90691779
C      89.52501444      73.37713250      95.71727560
H      91.49221952      73.16170370      95.14090908
H      88.60660745      71.53464934      95.75129067
C      89.99933574      74.16514837      98.44415067
H      90.70042420      76.10211784      98.41769450
C      87.50678673      74.24073742      99.87089404
H      87.74678198      74.72072791     101.86077584
H      86.61294618      72.38880564      99.77451799
H      86.25389818      75.67692942      99.08854734
C      91.73788394      72.21873027      99.77640772
H      91.01222904      70.31766560     100.08821256
H      92.04968880      73.19382905     101.56408881
H      93.44241709      72.06944189      98.62934385
C      89.10738492      78.11089691      94.25840689
O      91.34104143      78.66269700      93.82188011
N      87.37828534      79.72094373      95.14468853
H      85.59816316      79.03119363      95.20893922
C      87.52757372      82.41758318      95.78152630
H      89.52312471      82.89946339      95.94593248
C      86.42586328      84.01818137      93.50062664
H      86.01957212      85.93058440      94.15069249
H      84.70621234      83.22827577      92.68426487
C      88.17386013      84.15802111      91.09311531
H      88.37984030      82.31742769      90.18604668
H      90.00500493      84.77974107      91.80365241
C      87.22332779      86.11955703      89.06732871
H      88.92597120      86.96615442      88.27364365
H      86.20476530      87.63511753      90.02164049
N      85.78713579      84.93091918      87.02264483
H      85.52635356      83.04119286      86.97540168
C      84.64385137      86.19703581      85.15181578
N      85.06715006      88.61399576      84.79465751
H      83.88418140      89.63822742      83.70050598
H      86.57515166      89.45303424      85.60723983
N      83.29836624      84.92525000      83.57389431
H      82.64641066      85.83420835      82.02809819
H      83.13962922      83.02418533      83.65137309
C      86.24067010      82.95426545      98.35722326
O      83.92575537      82.56687156      98.45359930
N      87.63906758      83.67992036     100.24505985
H      89.49855827      83.87078271      99.85766595
C      86.94364830      83.87267244     102.91146367
H      85.87406319      82.17947766     103.39145416
C      89.36816716      83.69503817     104.57442283
H      88.90140476      84.14857248     106.53028956
H      90.50578240      85.27484937     103.89979054
C      90.79113107      81.13445901     104.77284409
H      92.41251625      81.42925632     106.01061483
C      89.31336509      79.02363472     106.00683538
H      87.83748884      78.49073190     104.67646805
H      88.62739444      79.62456769     107.85498771
H      90.78168243      77.61389889     106.33753748
C      91.85882643      80.21983148     102.33509715
H      90.35082483      79.79464306     100.99906065
H      92.67329847      78.36600997     102.70548351
H      93.02478756      81.72972280     101.56030936
C      85.46966177      86.23105088     103.70136927
O      84.23567049      86.37655981     105.69503053
N      85.84760704      88.13400528     102.14801424
H      86.89073595      87.51795450     100.67402772
C      84.81203702      90.70025361     102.12722725
H      84.00512388      91.27473041     103.93380561
C      86.95120719      92.55596485     101.57353744
H      86.10838926      94.16412194     100.60032839
H      88.19275738      91.69047020     100.17702970
C      88.51968003      92.94902792     104.00939466
H      89.25289385      91.12733176     104.63111462
H      87.23088670      93.82964038     105.35487980
C      90.79868998      94.56852337     103.48405075
H      91.90040042      93.49893828     102.10832999
H      91.75678121      94.70836312     105.30196746
C      90.02768163      97.17067651     102.66957871
H      88.63684306      97.77349920     104.06608645
H      89.40407196      97.11020526     100.70804279
N      92.43708269      98.82418703     102.78107256
H      93.80146508      98.09286295     101.66424431
H      93.10982526      98.90733499     104.56497420
H      91.87205452     100.55139688     102.19903685
C      82.75979424      91.03662489     100.16569134
O      83.08671689      89.80830279      98.12478692
N      80.91920081      92.62966418     100.60599757
H      81.02502549      93.37799580     102.35777386
C      78.75924363      92.99627108      98.89579526
H      77.91264624      91.12733176      98.70871235
C      76.66542688      94.56852337     100.29230300
H      76.29504052      93.80885340     102.17258069
C      77.45344274      97.38610531     100.58899004
H      76.12874461      98.33663764     101.84754776
H      77.12840983      98.16656227      98.71060208
H      79.42253756      97.67523343     101.11811340
C      73.94611072      94.45513979      98.79186031
H      73.48123803      92.55974430      98.13423556
H      73.76847643      95.48504063      97.01551758
C      71.67654942      94.98993234     100.59465921
H      69.96634710      95.01260906      99.44759534
H      71.81638915      96.82485659     101.52062511
H      71.61418844      93.44602594     101.95526216
C      79.46411155      94.09798152      96.29931131
O      81.21777757      95.58330640      96.08766196
N      78.24712780      93.12855192      94.33966512
H      76.78825908      91.96259079      94.73272819
C      78.59672717      93.80318422      91.63546676
H      79.26380056      95.74771259      91.49940647
C      80.70188229      92.07786409      90.58288921
H      82.36295172      92.33486687      91.77530651
H      81.09683509      92.73359912      88.67048618
C      80.16897947      89.12611159      90.34100424
C      79.71166569      88.09054157      87.99207443
H      79.61528965      89.27351024      86.33289473
C      79.31671289      85.45815282      87.90136757
H      78.80648679      84.48872322      86.17793717
C      79.70788624      83.94826149      90.05376584
O      79.51891360      81.37445426      89.74574045
H      79.38096358      80.84533089      88.01475115
C      80.25023770      84.95170617      92.33277577
H      80.39763634      83.81220120      94.01841165
C      80.64896995      87.59732300      92.54820457
H      81.40863993      88.37777997      94.27352470
C      76.02103021      93.77483832      90.37690904
O      73.91965455      93.82586093      91.53153182
N      76.12307542      93.71625681      87.77853536
H      77.75012979      93.84664792      86.79020850
C      73.88563948      93.55563007      86.29698993
H      72.32094609      92.70525323      87.33067022
C      73.03904209      96.20313663      85.37102404
H      71.41765691      96.05573798      84.10868686
H      74.70767041      96.89855592      84.38458690
C      72.19622415      98.15522391      87.28342707
H      73.66454150      98.66356029      88.63458138
H      70.69956090      97.40122312      88.48340327
C      71.49513569     100.60430922      85.82266863
H      69.73957993     100.39832905      84.76631162
H      72.88408452     101.02949764      84.36379991
C      71.45545144     102.80395064      87.70294631
H      73.27525787     103.28583085      88.54198479
H      70.29704921     102.21246631      89.29976504
N      70.07973068     104.86942151      86.35179199
H      68.29582903     104.36486458      85.88691932
H      71.04727055     105.35319144      84.77953970
H      69.83973543     106.38309228      87.48751751
C      74.31271761      91.67157294      84.13892248
O      76.40842410      91.34654001      83.12036000
N      72.29826937      90.50372207      83.22240522
H      70.83373148      90.62655428      84.43749924
C      72.12441455      89.18280338      80.82434253
H      73.48879694      87.63889698      80.90371103
C      69.34084768      88.31163955      80.65237743
H      68.07095161      89.93113500      80.61269318
H      68.93077708      87.15890650      82.30777768
C      68.96857160      86.56742216      78.33935243
O      67.76103649      87.41590928      76.51576653
O      70.01547999      84.42636225      78.30911681
C      72.58361805      91.09520641      78.57934767
O      72.09795837      93.35720881      78.74186413
N      73.16565375      90.04829803      76.35513980
H      73.65320314      88.20770460      76.46663365
C      73.66076204      91.73204418      74.10447576
H      75.00813691      93.20036152      74.62792995
C      74.88152523      90.15412271      71.95396721
H      73.56438600      88.79163003      71.14327463
C      75.84906510      91.72259555      69.80534840
H      77.16431463      90.51128098      68.78300646
H      76.69566249      93.39689306      70.65005606
H      74.13697307      92.28762371      68.80568318
O      77.06982831      88.82186566      72.76277008
H      76.56338166      87.95637100      74.27644085
C      71.22679454      92.96981491      73.27299618
O      71.27214797      94.98993234      72.06735079
N      68.98935859      92.14022506      74.01187917
H      68.99502778      90.51317071      75.00965466
C      66.49114041      93.48193074      73.62448528
H      66.55350137      94.45136034      71.80845829
C      64.37842639      91.54307155      73.34291605
H      63.97402496      90.74560704      75.19862729
H      64.86975524      90.18813778      71.87270898
C      61.85564177      92.31974906      72.15427820
H      60.81629229      93.50082801      73.48275580
H      60.60275322      90.68513580      72.14671930
C      62.13154181      93.59909377      69.56913261
O      62.18823360      95.96125167      69.47842574
O      62.42444939      92.17235041      67.66617821
C      65.88642799      95.35464952      75.79389108
O      64.07607018      96.84375385      75.55200611
N      67.40765767      95.35087007      77.86692085
H      68.87786475      94.13577605      77.88203866
C      67.36419396      97.17256623      79.94561979
H      66.81617334      99.03772610      79.26720805
H      69.30683262      97.37098750      80.59757537
C      65.70123481      96.24660034      82.23596808
O      65.53115945      97.83019099      83.94050122
N      64.97935936      93.84664792      82.52320648
H      65.65588138      92.65234089      81.19661861
C      63.85875166      92.76194502      84.82678286
H      62.42066993      94.13766577      85.35779595
C      62.45657473      90.24293984      84.18238619
H      61.23959099      89.64200687      85.73385149
H      64.11764415      89.02973555      84.06522315
C      60.79172585      90.24105012      81.91093516
C      60.62165048      87.92046620      80.64670825
H      61.84430341      86.30663993      80.89993158
C      59.09286190      87.78818536      78.39415449
H      59.19301739      86.18758717      77.13181731
C      57.54706577      89.89145075      77.81589824
O      55.86331963      89.75350073      75.97152536
H      54.82208043      91.18591327      75.57090338
C      57.69635415      92.16668123      79.20106763
H      56.63432796      93.85231710      78.75509222
C      59.29317289      92.31596961      81.22874396
H      59.56529348      94.19435756      81.97707558
C      65.98280403      92.50116279      86.63714067
O      68.09929750      91.79251542      85.92660357
N      65.43289368      92.70525323      89.11646159
H      63.67166875      93.22492796      89.63046715
C      67.32261999      92.72792994      91.13279957
H      68.99502778      93.73893352      90.48462344
C      66.25870407      94.17357057      93.41180950
H      67.26970765      93.64444721      95.12579126
H      64.23858664      93.76538969      93.41180950
C      66.58751645      97.03461621      93.24551358
C      64.52960450      98.56718425      92.57655047
H      62.76460012      97.60531356      92.22506137
C      64.91132921     101.20902164      92.53875594
H      63.27671595     102.27482728      91.94160243
C      67.24514121     102.32962934      93.24362386
O      67.50781317     104.93556193      93.36078689
H      65.96957595     105.69334218      92.76741283
C      69.30305316     100.77816404      93.72550407
H      71.12096988     101.70224020      93.67259173
C      69.02715312      98.14577528      93.60456158
H      70.64853830      96.92690181      93.83132874
C      68.08984886      89.82342060      91.69215855
O      66.61208290      88.06597513      92.12490588
N      70.46334512      89.46815205      92.09089081
H      71.46678979      91.07630915      91.88302091
C      71.78237409      86.91702153      92.50852032
H      70.48224239      85.49027817      93.22661632
C      72.64219955      86.00995290      89.94605144
H      73.98957441      84.47927459      90.23328984
C      70.58806706      84.68903421      88.36812997
H      69.77737447      82.94292710      89.10323351
H      71.09262398      84.41502389      86.38958652
H      68.93833599      85.91924604      88.28687174
O      74.05760456      87.82975934      88.52497725
H      75.73946098      88.03762924      89.17504311
C      73.76091754      87.02662566      94.60422680
O      74.96089374      88.88422662      95.02563577
N      74.19933403      84.81375615      95.73995232
H      73.00313729      83.33787989      95.56987695
C      76.28370216      84.26384579      97.44448545
H      77.96177912      85.31075417      96.87000865
C      75.46923012      85.17091442     100.13167627
H      74.66420672      87.06253046     100.00695433
C      73.39620035      83.44370457     101.31842439
H      74.12374499      81.63334676     101.97604915
H      72.06772276      83.06386958      99.79341526
H      72.45700637      84.30353004     102.93791984
C      77.81815993      85.28618772     101.96660052
H      79.54159033      85.56019804     100.87055926
H      78.11862641      83.49472718     102.93791984
C      77.72556334      87.31197433     103.86010628
H      76.77503101      89.05997117     103.32909319
H      79.58883349      87.54441067     104.70481395
H      76.54070495      86.67135711     105.41913049
C      76.88085567      81.35744672      97.33866078
O      75.31616228      79.83621704      96.53363737
N      79.07860737      80.51084933      98.37801025
H      80.24267879      81.72405362      99.28129943
C      79.40175057      77.86334277      98.64068221
H      77.61595922      76.93926660      99.08287816
H      80.77936107      77.78208453     100.16947079
C      80.47700485      76.70871999      96.19726608
O      81.78847491      77.90491674      94.74028710
N      79.54914924      74.34467237      95.70026806
H      78.86695804      73.36768387      97.19126213
C      79.91953559      72.86123722      93.11512247
H      81.45588309      73.80987982      92.12868533
C      80.70755146      70.08522926      93.59322323
H      79.09183547      69.26508804      94.57210146
C      81.04770219      68.81344345      91.06665914
H      80.69054393      66.80088493      91.33122083
H      82.95065659      68.94383457      90.28809190
H      79.72300405      69.62224631      89.70983565
C      83.09049634      70.02097857      95.22594676
H      82.80325795      70.98284926      97.02496621
H      84.51534999      71.12457873      94.23006099
C      83.96921908      67.36213364      95.89868933
H      84.68542534      66.36813760      94.24328908
H      82.50657091      66.26231293      96.83977303
H      85.51123574      67.39614872      97.26496145
C      77.32872081      73.15036534      91.76207843
O      75.84906510      71.46283974      91.41436879
N      76.76936183      75.61456845      90.93248858
H      78.13941340      76.82399329      91.47106058
C      74.52436697      76.52163708      89.52086302
H      74.25980528      75.36323485      87.83900660
H      74.81916427      78.40758394      88.74796496
C      72.04693577      76.84100083      91.08744613
O      70.20634234      77.66681123      89.82699868
N      72.02236932      76.40825350      93.52330335
H      73.69099766      76.44982748      94.45115897
C      69.54871759      76.74462479      94.77052272
H      68.20323244      75.31032252      94.16014112
C      70.05516424      76.30431856      97.58432520
H      71.37419321      77.70838521      98.30809038
H      71.17388221      74.62246214      97.97927800
C      67.77237485      76.29864938      99.34932957
N      65.68611700      74.77741970      99.01862747
H      65.79383140      73.15792425      98.01329307
C      63.70379410      75.82810753     100.09955092
H      61.77438354      75.21016702      99.86522486
N      64.40866202      78.00696197     101.38834427
H      63.24648033      79.20504845     102.31053071
C      66.90876993      78.38868668     100.77040376
H      67.98969338      80.11967598     100.73449896
C      68.17299683      79.24662243      94.48139459
O      69.03660176      81.24028369      95.23350566
N      65.84485401      79.22394571      93.58755405
H      65.28171557      77.46838997      93.09244575
C      64.32362432      81.61067004      92.87701695
H      65.66721974      83.12812027      92.51607923
C      63.01593372      80.84155144      90.39013712
H      62.28271991      78.92536895      90.57344058
H      64.47291270      80.42392192      88.99362938
C      60.95046286      82.38923729      89.14291776
H      59.45568935      82.49884141      90.55643304
C      62.02193768      84.95926507      88.56277178
H      60.33063263      85.94192275      87.92026483
H      63.46946804      84.77029244      87.10768252
H      62.79672547      85.86255425      90.24462820
C      59.81284762      81.45193303      86.61635368
H      59.09286190      82.98639080      85.44661309
H      58.06863024      80.47116508      87.10579279
H      61.02227246      80.33888424      85.37669322
C      62.74948231      82.59521745      95.06532002
O      61.86320067      81.39524124      96.81898604
N      62.79294602      85.15390688      95.09933510
H      63.79072151      86.09310086      93.76896777
C      61.64588215      86.55041463      97.28574844
H      61.11864850      85.11800208      98.66902810
C      63.74158863      88.39478751      98.49139383
H      63.02916181      89.23571572     100.23183176
H      64.29149897      89.90089938      97.19882103
C      66.41366163      87.13434006      99.06020145
H      67.15821379      86.42758242      97.27441008
C      68.34496193      88.78974031     100.44537084
H      67.64576319      89.45114452     102.26706700
H      68.79849624      90.36199260      99.19626174
H      70.04571560      87.69369905     100.82709555
C      66.16043831      85.00650823     100.79874966
H      65.42344504      85.74539122     102.57509239
H      68.00292146      84.11455741     101.02740654
H      64.95857237      83.58354432      99.92002692
C      59.31207015      88.07353404      96.56576272
O      57.34297533      87.80141345      97.72983412
N      59.50482223      89.86499458      94.63824188
H      61.29439305      90.18057887      94.05998562
C      57.25982737      91.08953723      93.48172937
H      55.72725933      89.71381647      93.54598007
C      56.26016215      93.21547933      95.16358579