 %block lattice_cart
   137.614   0.000   0.000
   0.000 142.646   0.000
   0.000   0.000   160.855
 %endblock lattice_cart

 %block positions_abs
N      89.80185934      41.42847459      82.82650756
H      88.84943727      40.04708466      81.91754920
H      89.63934287      41.13556701      84.70678524
H      91.65946030      41.16580263      82.48068764
C      89.02896128      43.99472292      82.10841156
H      90.17791487      45.40634848      83.07406170
C      89.48060587      44.48227231      79.40421320
H      88.21259951      43.46748928      78.13620685
H      91.40245753      43.87567017      78.97146588
C      89.21982363      47.26772890      78.58029253
H      87.22427264      47.77606528      78.59352062
H      89.80374907      47.49638578      76.61875662
S      91.07364515      49.30485386      80.56639489
C      91.05285815      52.21314266      78.79761106
H      89.20281610      52.52116805      77.94534449
H      92.47582207      51.82385904      77.36141906
H      91.57820207      53.89877853      79.85774752
C      86.32854237      44.24605652      82.90965552
O      84.88101203      42.37144802      82.69989589
N      85.60855666      46.33987328      84.10018309
H      86.92947535      47.68157896      84.41198793
C      83.10466928      46.77262061      85.13575311
H      81.77052251      45.86744170      83.85451867
C      82.72861375      45.53484987      87.65097883
H      83.08010284      43.50906326      87.53570553
H      80.74251139      45.77862456      88.13285904
C      84.31220441      46.64978839      89.73345723
O      83.74339679      48.61321403      90.81627041
N      86.08287796      45.25894983      90.72556355
H      86.98805687      45.84476499      92.29970556
H      86.59688352      43.61866739      89.89408397
C      82.51318495      49.66201214      85.01292090
O      84.23283589      51.30040485      84.62174756
N      80.12457090      50.20058414      85.30582848
H      78.96238920      48.72470789      85.64786894
C      78.97372757      52.75360439      85.54015454
H      79.15514129      53.71358535      83.72601728
C      76.10134358      52.49093243      86.18266149
H      75.45316745      51.27016923      84.65576263
C      75.76308257      51.07741715      88.68276940
H      76.94983068      49.40878881      88.89063930
H      73.76753157      50.65600818      88.97756671
H      76.24496278      52.23392965      90.31927239
C      74.45161250      54.86820813      85.95211488
H      74.94672080      56.45557823      87.16909862
H      72.57133482      54.29940051      86.56627593
C      74.55932689      56.07574324      83.27059324
H      76.41692787      56.75037554      82.69044726
H      73.38391714      57.74248185      83.55027274
H      73.70139115      54.99670952      81.73802520
C      80.16047570      54.40900464      87.57538978
O      80.40047094      56.57274126      86.86863214
N      81.43604095      53.49626683      89.42732157
H      81.59099851      51.63677613      89.82794355
C      82.72294457      55.18379242      91.29248144
H      81.48706356      56.82785432      91.41531365
C      83.15947135      53.72681344      93.73967702
H      84.42180853      54.87954649      94.89052034
H      84.52196403      52.22259129      93.38062902
C      80.85400524      52.93501811      95.22878135
C      80.13401952      50.34987252      95.55759373
H      81.29431148      48.90612161      94.69965798
C      77.88524521      49.79240325      96.91252749
H      77.55832256      47.80063172      97.21488370
C      76.22228605      51.60276106      97.84605229
H      74.65570295      51.18891100      99.08949221
C      76.93093342      54.21625255      97.49456320
H      75.57222020      55.64488564      98.03124547
C      79.22695090      54.80206771      96.26435137
H      79.90914209      56.72769882      96.25679246
C      85.31942852      56.21180354      90.54226009
O      85.79563955      58.51537991      90.54226009
N      86.85199656      54.50160123      89.38952704
H      86.06776014      52.78572973      89.10228864
C      88.99683593      55.34063971      87.85128982
H      90.34987997      56.36865082      89.00969205
C      90.48216082      52.87832632      86.88186023
H      92.32275424      53.40367024      86.11841079
H      89.40501681      51.85220493      85.45889631
C      90.76561976      50.77317121      88.79804271
H      89.06486607      50.16278961      89.79014902
H      92.10543571      51.35331719      90.25124224
C      91.76150553      48.34865235      87.26925412
O      90.18358405      46.52884591      87.05760477
O      93.98193394      48.27117357      86.31305261
C      88.29385774      57.12832080      85.69133265
O      89.40690654      59.16733549      85.43621960
N      86.22271770      56.53872619      84.36474478
H      85.29297236      54.97403280      84.94300103
C      85.22116275      57.91066749      82.10085265
H      86.61200132      57.88988050      80.58151270
C      83.00640352      56.55762345      81.10874634
H      81.28486284      57.09619545      82.10274238
H      83.32576726      54.53183685      81.29016007
C      82.38090410      57.11698244      78.27415687
H      83.49773237      56.05684598      76.90599502
H      82.46027261      59.17111494      78.15321439
S      79.10411869      56.20802409      77.54850197
C      78.52775216      57.11320299      74.26793709
H      76.88369026      56.10030969      73.55173081
H      80.13212979      56.55951318      73.10197595
H      78.31043363      59.13521014      73.94479389
C      84.65235513      60.73958778      82.81138975
O      85.81264710      62.41199557      81.76448137
N      83.33710562      61.31217486      84.95244966
H      82.49806714      59.90243903      85.92754844
C      82.77585690      63.94078416      85.61574360
H      82.42814726      65.13320146      83.97546116
C      80.28330791      63.87842319      87.10106848
H      79.94882635      65.79649540      87.77570077
H      80.57054630      62.53293806      88.63174679
C      78.07610757      63.21512925      85.51747783
H      78.58633368      61.69012012      84.23435366
C      75.84434079      62.44979010      87.13886300
H      76.29409565      60.87564808      88.38986182
H      74.62546733      61.77893726      85.61952305
H      75.04498657      64.10708007      88.06482890
C      77.19549510      65.40721178      84.00191732
H      78.62412819      65.79838512      82.56950478
H      77.19549510      67.07206066      85.21701134
H      75.46261607      65.23335696      82.90209661
C      85.20604495      65.11997338      86.70611568
O      85.65957927      67.39331413      86.37919303
N      86.85010684      63.75559098      87.98735012
H      86.79719450      61.85074686      88.11207206
C      89.19903664      64.84785279      89.00591260
H      88.84754756      66.72057157      89.79203875
C      90.28562928      63.05828197      91.02414030
H      92.23582683      63.71590673      91.08272182
H      90.01161896      61.13643031      90.33627993
C      89.02329210      63.51370601      93.52235849
H      87.06931509      62.86364016      93.47511533
H      88.84754756      65.49980837      94.03636405
C      90.59932385      61.97546879      95.47633550
H      90.00217032      62.43467229      97.39251798
H      92.56274948      62.53104833      95.19287655
N      90.55586014      59.15221768      95.04169844
H      88.85510645      58.42845250      95.50657112
C      92.60054401      57.77082775      94.45966274
N      94.86632585      58.64766076      94.11762228
H      96.14000139      57.33619069      93.57905028
H      95.09309301      60.50715145      93.74723592
N      92.15267887      55.32174245      94.11762228
H      93.61154758      54.24270872      93.52235849
H      90.43680738      54.55640329      94.44832438
C      91.01317391      65.38075561      86.89130886
O      92.51172687      67.08717847      87.40153496
N      90.68436152      64.44723081      84.61229892
H      89.46359834      63.05072307      84.16065433
C      91.94102953      65.51870563      82.36163488
H      93.72304144      66.49002495      82.71879316
C      92.55330086      63.50992656      80.26403868
H      91.02640200      62.15121334      80.01648453
C      92.84620843      64.84218361      77.77715885
H      94.07453053      63.78204715      76.50915249
H      93.81563802      66.62986470      78.10219178
H      90.99427664      65.15965763      76.92867173
C      94.85120804      61.95846126      81.02370866
H      94.68491214      61.49169886      83.02303909
H      96.47637267      63.22079843      80.98591413
C      95.22915332      59.34874922      79.68767215
H      95.09120329      59.60764172      77.64676773
H      93.60020923      58.23759015      80.28671539
H      96.91478919      58.64388130      80.63631476
C      90.40279231      67.79960529      81.33740322
O      91.42135479      69.72334668      80.67221956
N      87.87811795      67.45945455      81.19567375
H      87.22049320      65.68500155      81.43566899
C      86.24917387      69.33406306      79.80483518
H      87.14679388      70.06160769      78.10219178
C      83.75851459      68.14353548      79.13398234
H      82.51885413      69.71200832      78.63509460
H      83.16514052      66.97379489      80.71946272
C      84.08732697      66.51648112      76.85308268
O      85.41580457      67.24024630      75.05784268
O      82.69459867      64.63242399      76.85119296
C      85.77863202      71.89653194      81.13520251
O      85.43092237      73.75224318      79.83885026
N      85.85422107      72.12518882      83.59751589
H      86.21137934      70.58317215      84.66710099
C      85.40257648      74.36262477      85.07906132
H      85.45359910      75.95188460      83.76759126
C      82.74373157      74.29837408      86.26580945
H      82.55664866      75.38685644      88.00435766
H      82.36011713      72.31794090      86.68154924
C      80.78408538      75.45677631      84.68032907
H      78.94538167      75.04859543      85.51180865
H      80.88613059      74.61395837      82.80383084
C      80.92203539      78.32160140      84.83906608
O      79.72583864      79.31748717      86.58328347
O      82.07476845      79.63307146      83.19500419
C      87.33576650      74.64041454      87.24657740
O      88.12945156      76.75123883      87.69255281
N      88.09165703      72.61651766      88.56938582
H      87.42458364      70.92521261      87.99112957
C      90.05130322      72.61651766      90.55170873
H      91.73126991      73.57460890      89.84117163
H      90.69947933      70.67765846      90.79737315
C      89.17824966      73.67098494      93.23134064
O      86.95971096      74.15475488      93.67164687
N      90.85443689      74.00735623      95.05492653
H      92.69880978      73.71444865      94.66186346
C      90.20059160      74.99946254      97.60983650
H      88.20504060      74.72356250      98.04069410
C      91.65946030      73.43476916      99.55625461
H      93.70792362      73.64074932      99.47688610
H      91.23238215      71.46000516      99.15752235
C      90.90923897      73.95633362     102.34171119
H      91.15868283      75.96133324     102.74800235
C      88.21637897      73.01524991     102.88784210
H      86.95026234      74.25302065     101.83337481
H      87.68158641      73.37051846     104.84559856
H      87.86677959      70.99702221     102.67997220
C      92.54007277      72.57872314     104.17474572
H      92.11488434      73.46878423     105.98321380
H      94.52617512      72.73746015     103.65318125
H      92.04307474      70.58128242     104.10860529
C      90.42546902      77.81515475      97.87061874
O      92.60432346      78.68631858      97.76290434
N      88.39023378      79.02646932      98.67564214
H      86.83687876      77.97956094      98.30714551
C      88.27118103      81.74389575      99.12161755
H      90.13823063      82.47333011      99.59215941
C      87.53985694      83.14796240      96.66497335
H      87.06931509      85.10949832      97.07504396
H      85.85800052      82.22388624      95.91286228
C      89.66390931      83.05725554      94.66375318
H      89.77918263      81.06548401      94.15352708
H      91.39867807      83.61661453      95.62751360
C      89.03085101      84.70320716      92.24679323
H      90.76561976      85.35516274      91.34728350
H      88.14456936      86.45498345      92.87607209
N      87.21671374      83.41441381      90.51958338
H      86.83687876      81.57382039      90.86351357
C      86.21515879      84.38762287      88.53159130
N      86.11500331      86.72521431      87.97412203
H      84.80731269      87.16174109      86.65320334
H      86.68192120      88.02534602      89.25157702
N      85.31564907      82.61694931      87.07650204
H      84.17425438      83.10260897      85.62519223
H      85.07943328      80.82926822      87.70200145
C      86.62711914      82.26923967     101.28913364
O      84.28007906      82.45254312     101.14362471
N      87.55875420      81.80058754     103.61727645
H      89.40312708      81.32248679     103.49066479
C      86.34932937      81.94987592     106.12683300
H      84.87912230      80.51179420     106.22131931
C      88.31653445      81.44909845     108.12994289
H      87.44159117      81.66641697     109.98187468
H      89.83776414      82.81915003     107.90128600
C      89.40312708      78.84316586     108.00900040
H      90.23271694      78.33482948     106.19297342
C      91.48749521      78.85450422     110.03100756
H      92.60999265      77.13107382     109.96675687
H      90.78829647      78.84505559     111.96986676
H      92.87266460      80.37762363     109.99888221
C      87.50962132      76.64730389     108.59859501
H      86.79719450      77.04414641     110.48832133
H      88.75684069      75.02780844     108.84614916
H      86.10744440      76.30715315     107.12649822
C      84.97738806      84.54258042     106.36871797
O      83.08766175      84.72777360     107.62160651
N      85.95059711      86.70064787     105.42385481
H      87.70237341      86.71765541     104.66796428
C      84.66180377      89.10815920     105.27645616
H      83.38812823      89.13839482     106.89595161
C      86.67625202      91.17174033     105.83770487
H      88.16346662      91.47220681     104.44308685
H      87.54930558      90.49521831     107.57625308
C      85.56509295      93.78712155     106.37060769
H      84.47094141      93.70586331     108.11482508
H      84.28952768      94.00444007     104.76811978
C      87.38489938      95.89605611     106.81091392
H      88.69447972      95.29323342     108.27923127
H      86.30964511      97.59869952     107.24744070
C      89.05163799      96.67651308     104.51678618
H      87.68914532      96.97508984     103.00122568
H      90.33854161      95.10048133     104.18041489
N      90.64278755      98.93284630     104.96087186
H      91.86544047      99.52244091     103.61916618
H      91.66701921      98.81568327     106.56713923
H      89.41257572     100.31612596     105.42574453
C      83.08766175      89.35571334     102.91429826
O      83.95882558      88.50911595     100.96221098
N      80.72172441      90.30624568     103.18074968
H      80.23984420      90.74844163     104.97409995
C      78.98317619      90.99599578     101.12283772
H      78.39736104      89.17807907     100.35560884
C      76.59456214      92.52478437     102.09793650
H      75.47962361      93.08225363     100.45954378
C      74.95238998      90.71253683     103.71365250
H      73.16659861      91.61393629     104.21254024
H      75.96150382      90.38939364     105.48054660
H      74.45917140      89.06658522     102.57414753
C      77.41281363      94.98331830     103.41318601
H      78.34444871      96.31179590     102.14517966
H      78.77719604      94.44285658     104.85882664
C      75.17159822      96.42140003     104.68308209
H      75.85567916      98.36025922     104.80780403
H      74.78987351      95.45952933     106.46509401
H      73.50108017      96.49698908     103.47932643
C      80.25874145      92.46053367      98.94965246
O      81.74028689      94.12916201      99.38617924
N      79.63513178      91.44764037      96.73678295
H      78.31610281      90.06814016      96.75756994
C      80.60456138      92.36226791      94.35194834
H      81.60233686      94.13483119      94.66942236
C      82.62467881      90.49332858      93.27102489
H      84.25551262      90.43285734      94.52769289
H      83.29553164      91.36071296      91.52491778
C      81.61556495      87.87605764      92.80804194
C      80.85022580      87.16930000      90.27958814
H      80.80676209      88.69052968      88.91520574
C      80.42125792      84.57848522      89.75991340
H      80.07543800      83.99833924      87.83239256
C      80.62534836      82.75489933      91.85750961
O      80.15669623      80.18298182      91.44932872
H      79.75229481      79.85605917      89.71078052
C      81.23006078      83.56748165      94.28769765
H      81.61934440      82.14829718      95.70121293
C      81.73272798      86.09593545      94.71288607
H      82.18815202      86.57592594      96.64418636
C      78.33311034      92.84603784      92.65875356
O      76.15614564      92.26589186      93.42787217
N      78.72050425      93.49232424      90.30982376
H      80.42692711      94.11782365      89.72400860
C      76.63991558      93.82302635      88.43332553
H      74.86357283      93.19752694      89.27236401
C      76.41503814      96.65572609      87.89286380
H      75.23017975      96.94296449      86.23368410
H      78.34633843      97.32846866      87.64530966
C      75.23017975      98.02766739      90.17754292
H      76.37535388      97.76499544      91.86884797
H      73.24785683      97.47775704      90.29281622
C      75.31332769     101.03044250      89.81471546
H      74.80499133     101.89782688      91.61184519
H      73.97540147     101.42161585      88.29915496
C      77.78886916     102.20207282      89.02858932
H      78.20082951     101.47830764      87.14453218
H      79.22695090     101.69751589      90.41186898
N      77.82099451     104.97241159      89.08906056
H      78.46161174     105.59035210      90.77658616
H      76.14858673     105.83790624      88.77914544
H      79.13435431     105.61869799      87.86262818
C      77.02730947      92.36604736      85.89353336
O      79.24017897      92.16762610      85.09039968
N      74.96939751      91.55535477      84.71812360
H      73.26675411      91.57047258      85.58361825
C      75.02797902      91.12827662      81.90810057
H      76.47172993      89.73365860      81.44700735
C      72.49385603      89.92452096      81.05772373
H      71.15781954      91.46842736      81.32606487
H      71.90237170      88.34659949      82.24258213
C      72.38425191      89.01178315      78.25903906
O      72.22929435      90.58781490      76.51104222
O      72.86802185      86.79702391      77.92266778
C      75.45316745      93.67940715      80.43978322
O      75.24151810      95.78456226      81.40921282
N      76.28275729      93.38838929      78.15888356
H      76.45850185      91.60259793      77.50503826
C      76.63802585      95.28567451      76.21246546
H      78.34255898      96.36848769      76.62064635
C      76.98573548      94.18396407      73.54228218
H      75.82355381      95.21008546      72.18545869
C      79.68804411      94.61671140      72.57852176
H      79.97150306      93.39405847      70.94390850
H      81.01274225      94.00821952      74.03550075
H      79.94315717      96.60848293      72.12120799
O      76.22417578      91.61015683      73.28149995
H      74.88624955      91.35882323      74.47958643
C      74.36846454      97.09414259      75.85152774
O      74.59523169      99.35992444      75.42822904
N      71.99685802      96.08313902      76.14443531
H      72.10835187      94.17829489      76.19167847
C      69.53454464      97.35681455      76.00459557
H      69.68950220      99.12559838      74.96146664
C      67.65804640      95.70330403      74.49470424
H      66.65838118      94.58836550      75.90821953
H      68.80133082      94.62993948      73.16244719
C      65.73619475      97.45508032      72.96591566
H      65.29588852      99.21252579      73.94101443
H      63.97308010      96.41573085      72.73725877
C      66.58279214      98.09569754      70.27872484
O      68.25331019      99.66983956      69.87999259
O      65.36580839      97.16595219      68.48348484
C      68.72574178      98.30545716      78.62942542
O      66.64326338      99.22764360      78.65777131
N      70.29043515      98.27900099      80.65332230
H      72.07433679      97.61381733      80.53426954
C      69.66493574      99.51110255      83.10051787
H      68.28732526     101.00020688      82.74524933
H      71.37135860     100.47675269      83.72979674
C      68.78243357      97.75365708      85.25480587
O      68.22685402      98.68529215      87.29004111
N      68.22496429      95.33291767      84.78426402
H      68.31000198      95.01166420      82.90398634
C      67.01553945      93.52444959      86.53037113
H      65.33935221      94.42962849      87.32027673
C      66.07823520      91.09804100      85.12252503
H      64.74786789      90.22120799      86.43021564
H      67.62781079      89.76956340      84.85229417
C      64.88581790      91.68385616      82.53171025
C      65.07101109      89.93774905      80.58529215
H      66.04799958      88.20487002      81.04638537
C      63.71418758      90.24766416      78.25148015
H      64.06756642      88.97587835      76.69623540
C      62.35736410      92.48887957      77.85274790
O      61.14415981      92.71753645      75.59452496
H      60.17473020      94.24821477      75.50192837
C      62.15327365      94.35214971      79.74814339
H      60.88337757      95.88660748      79.30783716
C      63.27199163      93.74743729      82.02904305
H      63.08301900      94.83780938      83.74491455
C      68.69361643      92.96131115      88.63930570
O      70.86302224      92.17329527      88.15931521
N      67.73741492      93.19374748      90.88996974
H      65.84579887      93.44508108      90.91831563
C      69.09234867      92.60793233      93.37118038
H      70.94617018      93.50744205      93.32771668
C      67.48608132      93.94585856      95.45743823
H      67.96229234      93.03123102      97.23945015
H      65.46785361      93.56602357      95.32137794
C      67.70528957      96.79556584      95.52357865
C      65.43005908      98.09947699      95.47822522
H      63.65938552      97.09225287      95.58027044
C      65.31100632     100.70351985      95.26468615
H      63.56489921     101.75609741      95.24767861
C      67.55978063     102.19073446      95.01335255
O      67.40860253     104.73808553      94.62784838
H      65.66816460     105.17461231      94.36517642
C      69.91060017     100.87170549      95.09650051
H      71.64725866     101.90160633      94.79225457
C      69.95784332      98.26955236      95.46499714
H      71.75686278      97.31146112      95.52735811
C      69.62903094      89.74499696      93.55070438
O      67.83757040      88.26912071      93.49023314
N      72.01386555      89.07414412      93.98345171
H      73.35557123      90.33270185      94.49178809
C      72.76030746      86.41340947      93.97778253
H      71.09356884      85.21154354      94.12707091
C      73.85634871      85.66318813      91.42287256
H      75.85756887      86.14506834      91.35673213
C      73.89981241      82.80781167      90.96366906
H      71.93638678      82.29947529      90.59517243
H      74.59334198      81.60027655      92.48300902
H      75.08467081      82.61128013      89.29126127
O      72.48440740      86.70442733      89.37440923
H      72.50708413      88.48832896      89.69755243
C      74.56121663      85.75767444      96.12640135
O      75.96717300      87.44142059      96.91441722
N      74.59523169      83.37661929      97.10527958
H      73.47651373      81.93286838      96.54781032
C      76.29031620      82.67175137      99.14051482
H      77.92870892      83.86227895      98.76067983
C      75.30198934      83.09316034     101.90896387
H      74.28153713      84.87139280     101.71432206
C      73.07778147      81.23933883     102.37950572
H      72.01764501      81.87050742     104.02923679
H      73.72973704      79.36095087     102.91618799
H      71.79087786      81.09571963     100.77701780
C      77.32966568      83.43709053     103.88372786
H      78.65625354      84.75800922     103.02579212
H      78.36334596      81.65507862     103.89128677
C      76.53598062      84.17408379     106.56902895
H      75.90859149      86.13372998     106.46887346
H      78.18760142      83.81125634     107.74254899
H      75.08278108      82.91930552     107.31736057
C      77.62446298      80.05259070      99.03091069
O      76.41881759      78.27246852      98.09738589
N      79.90725237      79.73889614     100.14206976
H      80.92203539      81.23555938     100.75056164
C      80.98817582      77.22178069     100.79024589
H      79.55954273      75.95188460     101.55558505
H      82.43948563      77.20855260     102.25100433
C      81.98217186      75.82527294      98.53958185
O      83.80575774      76.67564978      97.34716455
N      80.49873670      74.12829871      97.70810227
H      78.76396795      74.19821859      98.49800787
C      80.82943880      72.74123960      95.33460602
H      82.15413695      73.81838360      94.18376270
C      81.75918415      69.93310630      95.98656160
H      80.40047094      69.14698015      97.32070838
C      82.29208698      68.42321497      93.42976190
H      82.88924049      66.55805510      94.07226885
H      83.63568238      69.49657952      92.29592611
H      80.50062642      68.27014714      92.42253778
C      84.16669547      69.96901110      97.51723991
H      84.23094616      71.15575922      99.20287579
H      85.78808066      70.63986394      96.44198564
C      84.97549833      67.28182028      98.50745650
H      86.40413143      66.37664138      97.33393646
H      83.35600288      66.07806462      98.93075520
H      86.05453207      67.65220664     100.22332800
C      78.44082475      72.83383619      93.83983251
O      76.76652723      71.15009004      94.11384283
N      78.18193224      74.74245976      92.18443226
H      79.65969822      75.93865652      92.03703361
C      76.10134358      74.74623922      90.21155799
H      76.14291755      72.93966086      89.22323113
H      76.46795047      76.15975450      88.75835845
C      73.39525550      75.11095639      91.19043622
O      71.73229634      74.67631934      89.67676544
N      72.99652323      76.01046612      93.53180712
H      74.59334198      76.39219083      94.50312645
C      70.55688656      76.43187509      94.78469567
H      69.16415828      75.07694132      94.10250447
C      70.61546809      75.91786953      97.64007213
H      71.82111348      77.18587589      98.72666476
H      71.57922851      74.10751172      97.82904476
C      68.20984648      75.84794966      98.97988808
N      67.24230661      73.74657400     100.28001978
H      67.78276834      71.96078263      99.87939781
C      65.03510628      74.59884056     101.15496307
H      63.71040814      73.46689450     102.21509953
N      64.64015348      77.17075808     100.79402534
H      62.93751007      77.97956094     101.08693292
C      66.63948393      77.89263353      99.28035457
H      66.99097302      79.74267559      98.49233869
C      69.39470488      78.99623369      94.14785790
O      70.39625983      80.86517302      95.26090670
N      67.59190598      79.20410359      92.41497887
H      66.57334350      77.65074856      91.97278291
C      66.32767908      81.66452725      91.68554451
H      67.81111424      83.08560144      91.85184043
C      65.22974809      81.39429639      88.98512561
H      63.55167112      80.21888662      89.20433386
H      66.34090717      80.37951336      87.57727951
C      64.37370207      83.71677002      87.41665277
H      66.26342838      84.45943247      87.07083286
C      63.16994641      82.77379659      84.91276541
H      61.49375918      81.65129916      85.33039492
H      64.45873975      81.53224641      83.89042347
H      62.46696823      84.33848998      83.77137071
C      62.44429150      85.45153878      88.85851395
H      63.34569096      86.35860741      90.47422995
H      60.73030974      84.32337217      89.04181740
H      61.90005033      86.85371570      87.45066785
C      64.45307057      82.16908417      93.78692017
O      62.50476275      80.94454152      93.78692017
N      64.88203845      84.11928173      95.41019508
H      66.54499760      85.03201954      95.19098682
C      62.95262788      85.10571886      97.14874328
H      62.27421613      83.43520080      98.14273932
C      64.16205272      86.97276846      99.04791823
H      62.90916419      87.29969111     100.65040614
H      64.82912612      88.65840433      98.06904000
C      66.49397500      85.92963954     100.48788968
H      67.04388536      84.27612901      99.38995869
C      68.78621302      87.76645351     100.69386985
H      70.42271600      86.64395608     101.24378020
H      68.39126022      89.11004892     102.20187144
H      69.08856923      88.50533650      98.79280518
C      66.08012494      84.61816948     103.05035856
H      64.41716578      83.40496518     102.94264416
H      65.70595912      85.97688269     104.55269098
H      67.72796627      83.51078986     103.60215864
C      60.62637479      86.29813617      95.90719310
O      58.57602174      85.30980931      96.16419587
N      61.02510704      88.22565701      94.24801339
H      62.85436212      88.61683035      93.86439895
C      58.96719510      89.62594420      92.90441798
H      57.73698326      88.11416315      92.24112405
C      57.61604078      91.25866774      94.71288607