 %block lattice_cart
   137.614   0.000   0.000
   0.000 142.646   0.000
   0.000   0.000   160.855
 %endblock lattice_cart

 %block positions_abs
N      87.67213779      38.51546148      82.36257975
H      89.53918739      38.29247378      82.03376737
H      86.52885337      37.45910447      81.25708986
H      87.19781647      38.16586211      84.17671701
C      87.00884385      41.29524889      81.82022830
H      88.04441386      42.47821756      83.15059562
C      87.82709535      41.83571061      78.95729293
H      86.45704376      40.77746388      77.84046468
H      89.70170384      40.99289268      78.78910729
C      88.04063441      44.75344804      78.47352300
H      86.33421155      45.58114817      79.28043613
H      88.14456936      45.03501726      76.43639803
S      90.87522388      46.03468248      79.91727390
C      90.39712312      49.28879119      78.95540321
H      90.91112868      50.61915852      80.44072809
H      88.37700569      49.68374399      78.85713744
H      91.46481850      49.72153852      77.24709062
C      84.11756259      41.63917908      82.22274000
O      82.77018772      39.94598430      81.46307002
N      83.18025834      43.54213347      83.53043061
H      84.35377838      44.84982408      84.27687250
C      80.54031068      44.02023423      84.02931836
H      79.34978311      43.36071975      82.48352223
C      79.69560302      42.97710531      86.70139136
H      80.04331265      40.95887761      86.90737153
H      77.67359586      43.33804303      86.53887490
C      81.00329362      44.08637465      88.91237115
O      82.68137060      45.70964956      88.92937869
N      80.07543800      43.33993276      91.03075435
H      81.11289776      43.91063011      92.52741759
H      78.71672478      42.00389626      91.15736601
C      80.10567362      46.92285385      83.82144846
O      81.73083825      48.47431915      83.37736278
N      77.68871368      47.71842863      84.25041634
H      76.27708811      46.43908391      84.36946909
C      77.18604647      50.51522357      84.14270194
H      77.70005203      51.24276820      82.28510097
C      74.27397822      50.95364007      84.43183006
H      73.45194727      49.83870155      82.90871065
C      73.21762121      50.29223586      87.08500580
H      73.65603771      48.29290543      87.32689077
H      71.17293734      50.51522357      86.96595305
H      74.01508571      51.74354567      88.31143818
C      73.46895482      53.83358298      84.01986973
H      74.36090563      55.02033110      85.44661309
H      71.46584492      54.10381384      84.40726362
C      73.94705557      54.90505779      81.37236316
H      72.51842247      56.35447788      81.06244805
H      73.84690007      53.31201851      80.07223146
H      75.76308255      55.88015657      81.35157617
C      78.54475969      52.17251355      86.00408235
O      79.52552764      54.16995426      85.31433225
N      79.17403855      51.22387094      88.27553338
H      78.50507543      49.49288163      88.72339852
C      80.87857168      52.31235329      90.10856791
H      80.03008458      54.13404946      90.55832277
C      80.76896756      50.62671742      92.37623948
H      81.99539993      51.38827713      93.84455683
H      81.65524921      48.79935208      92.03419902
C      78.19705004      50.01444610      93.78219586
C      76.64747447      47.96598277      93.08866630
H      77.22384100      46.86238261      91.46917085
C      74.37413371      47.56158134      94.36612129
H      73.19872396      46.02145440      93.72739380
C      73.48407262      49.20564323      96.27285514
H      71.77198058      48.98832471      97.36511695
C      75.10356807      51.24276820      96.89079564
H      74.54231936      52.55045881      98.35722326
C      77.35234239      51.70953060      95.51318516
H      78.51074461      53.24776782      96.18781745
C      83.69426390      52.54289990      89.22606572
O      84.79786406      54.61403994      89.15425612
N      84.78652571      50.58325372      88.16403953
H      83.79819885      48.95619936      88.25663612
C      87.28096444      50.70986538      87.07933663
H      88.58487559      51.46764563      88.48340328
C      88.22015842      48.08125608      86.38580707
H      89.95492717      48.15495540      85.28031718
H      86.78585614      47.10804703      85.27275827
C      88.81731192      46.40506884      88.58355877
H      87.18080894      46.20853730      89.82321923
H      90.31964435      47.40284433      89.57944454
C      89.93036072      43.90496093      87.82199907
O      88.80408384      41.76201129      88.13191418
O      92.05252337      43.92007874      86.78642905
C      87.37356103      52.31235329      84.66615612
O      89.44659080      53.39705620      84.13136358
N      85.26462647      52.64305540      83.22807440
H      83.86244953      51.46953536      83.78743339
C      85.01518259      54.37593443      81.05110969
H      86.69136982      54.09247548      79.88892801
C      82.74940073      53.70130213      79.41649643
H      81.03919842      54.18885152      80.45395617
H      82.75695964      51.72653814      78.82501209
C      82.90813775      55.30379005      77.02221319
H      84.24606397      54.33058100      75.79578081
H      83.59599812      57.18595745      77.49653449
S      79.72016946      55.38693800      75.55200612
C      79.36490091      52.62604786      73.57346267
H      79.13057484      50.97820652      74.78666696
H      81.00707307      52.20652862      72.40183235
H      77.52997666      52.83013830      72.65883513
C      84.86778394      57.24453897      81.80888994
O      86.31531429      58.79033509      80.82245280
N      83.29175218      57.94751716      83.61735802
H      81.87823690      56.69084916      83.87247107
C      82.88357131      60.66305387      84.14270194
H      82.43003699      61.79122048      82.48163251
C      80.54409014      60.90493884      85.92849330
H      80.47983944      62.77387816      86.79209823
H      80.47794971      59.39315779      87.32500105
C      78.01563633      60.76887854      84.73418627
H      78.05910002      58.83757825      84.02364918
C      76.02386479      60.73297374      86.79020850
H      75.88024558      62.63592814      87.56877574
H      76.23362441      59.16072145      88.10356829
H      74.19649945      60.41738945      85.89258850
C      77.39769582      62.80600351      82.76698118
H      75.36812975      62.85324667      82.40604345
H      78.43515557      62.31089522      81.05866859
H      78.04020277      64.64092776      83.44350320
C      85.09455109      61.84413282      85.56755558
O      85.49895252      64.13448111      85.30299389
N      86.56475817      60.38715383      87.05477018
H      86.11122384      58.55789876      87.34956749
C      88.86455508      61.26209711      88.18104707
H      88.31842418      62.83623913      89.39425136
C      89.84910249      59.20607488      89.79865279
H      91.63300413      59.87881745      90.57910976
H      90.15712788      57.51665956      88.65725810
C      88.09543647      58.67695152      92.04553738
H      86.14523893      58.27443981      91.52019346
H      88.02740633      60.38337438      93.19638070
C      89.05163799      56.51510461      93.73684243
H      90.82798073      57.14060402      94.56832200
H      89.21793390      54.81813038      92.58221965
N      87.31875897      55.80456752      95.79664411
H      86.48161020      54.09247548      95.89679960
C      87.19781647      57.08391223      97.99439581
N      88.23905568      59.23631050      98.69737400
H      87.74205765      59.92795033     100.40568659
H      89.40879626      60.09613598      97.46149299
N      85.83532381      55.89338466      99.77451800
H      85.91280258      56.58502449     101.55086073
H      84.79408460      54.29656592      99.67814195
C      90.79774511      62.40160208      86.23462896
O      92.11866380      64.25731332      86.76564206
N      90.86010608      61.33957589      83.97262657
H      89.82831551      59.74464688      83.79310257
C      92.42479946      62.30522604      81.83912556
H      93.80052022      63.55811458      82.72729693
C      94.08586888      60.25298326      80.69773087
H      94.67357377      60.85769568      78.81745319
C      96.47448295      59.80700785      82.19250438
H      96.05118425      59.30623038      84.14459166
H      97.84642426      61.34146562      82.11502560
H      97.33808787      58.22152747      81.20039807
C      92.51361660      57.83980276      80.08734927
H      90.70892797      58.41994874      79.27854641
H      92.25283436      56.81557110      81.85613310
C      93.79296131      56.05023194      78.22407912
H      92.56085975      54.49876664      77.66094068
H      95.40489786      55.27922360      79.25020051
H      94.19925247      57.16706019      76.54033298
C      91.03774035      64.09479686      80.01176022
O      92.20559121      65.72563066      78.75698194
N      88.53763244      63.64504199      79.64137386
H      87.76851382      62.16349656      80.57111920
C      86.99183632      65.09068262      77.86125167
H      88.12000292      65.23808127      76.14349045
C      84.51818456      63.53921732      77.33023858
H      83.32009808      63.76220502      78.99130801
H      85.00195451      61.59468894      76.84646864
C      82.91380693      64.77698805      75.26476772
O      84.19126191      65.35713403      73.37693113
O      80.50251615      64.81856203      75.24020128
C      86.28696840      67.86669058      78.82501209
O      86.24161496      69.69972510      77.29622350
N      86.08098822      68.34290161      81.32889946
H      85.73138886      66.91615824      82.54777293
C      85.97138410      70.86757596      82.47974278
H      86.43625678      72.39258510      81.17394190
C      83.35033370      71.42504522      83.56444568
H      82.95349117      70.29309916      85.24063292
H      81.98784104      71.13780682      82.04888518
C      83.11033846      74.14058193      84.59812598
H      84.04008380      74.53553473      86.39147625
H      81.20549433      74.75852244      85.08756509
C      83.82843447      76.16825827      82.69706131
O      83.59410839      75.76385684      80.28766026
O      84.81487159      78.13168391      83.64570392
C      87.88189741      71.18882943      84.70395065
O      89.23116199      72.96517217      84.90615137
N      88.19937142      69.27075723      86.30454884
H      87.43592200      67.64937205      85.64881381
C      89.42958325      69.50130384      88.78009031
H      91.39867807      69.95294843      88.38324778
H      89.44281134      67.60023917      89.56810618
C      88.21070979      71.28709520      90.71894950
O      86.30397593      72.38691592      90.04431721
N      89.18958801      71.48740619      93.08488685
H      90.57664712      70.26097381      93.54975952
C      87.90835357      72.29053987      95.46783173
H      85.93358957      72.26975289      94.88012685
C      88.42613859      70.11168544      97.32354297
H      90.48027108      70.11168544      97.47283135
H      87.36978158      68.53754342      96.52229901
C      87.60032818      70.71639786     100.02963105
H      88.54708107      72.47573305     100.53418797
C      84.77329762      71.12079929     100.31875917
H      84.18181329      71.57433360     102.23872111
H      83.67347691      69.49563466      99.69703922
H      84.45771333      72.82533242      99.20571038
C      88.21826868      68.44872628     101.71526692
H      87.81575698      68.73029550     103.71459736
H      90.24972447      68.11991390     101.61700115
H      87.10521988      66.89915070     100.94047913
C      88.87211399      74.93804644      96.26151678
O      91.11899858      75.34244787      96.13868457
N      87.21104456      76.56510079      97.01551758
H      85.47249636      76.06999250      96.40324625
C      87.59654873      78.85355936      98.46682739
H      89.60154834      79.08410597      98.87878772
C      86.85199656      81.12878984      96.85111139
H      87.08821235      82.78985927      98.04352869
H      84.87156339      80.98328091      96.30687021
C      88.48094065      81.40468988      94.40958499
H      88.88345234      79.58488344      93.53086226
H      90.20437105      82.32309687      95.06154057
C      86.99372603      83.21315796      92.67670597
H      86.51373555      84.83076369      93.85778491
H      85.17014015      82.32309687      92.32521687
N      88.38456460      83.97093822      90.46383645
H      89.22360308      85.67547135      90.64902963
C      87.98016318      83.27740866      88.11490665
N      86.75184106      81.16091519      87.77853536
H      86.21704852      80.41825275      86.10234812
H      86.46838213      80.08755064      89.33000066
N      88.62833930      84.69092394      86.24218787
H      88.43180777      84.02763000      84.46395541
H      89.42769352      86.38411872      86.61068450
C      86.31909375      78.77797031     101.02929627
O      84.12512150      78.09766883     101.15590793
N      87.65513024      79.48472795     103.07398014
H      89.54485655      79.73228210     102.98327328
C      86.43247732      79.91558555     105.48527091
H      84.71471610      78.78174976     105.57219833
C      87.98205289      78.90269224     107.72270687
H      86.82743012      78.95938403     109.42724000
H      89.67902713      80.04786639     107.94191512
C      88.92880578      76.13802265     107.54696232
H      90.25917311      75.86590206     105.99927647
C      90.09476691      75.34055814     110.11510038
H      89.07998389      75.88101987     111.82719242
H      91.85221239      76.40258433     110.28517575
H      90.58987521      73.34122770     110.14533600
C      86.74050272      74.42782033     106.68902658
H      87.47560624      72.50218922     106.66068068
H      85.79941901      75.06465810     104.97315508
H      85.28919290      74.50151966     108.14789529
C      85.41958401      82.56687156     106.02762237
O      84.14023930      82.88056613     107.87199525
N      86.02807590      84.38100883     104.44214199
H      87.25261855      83.91424643     103.05508288
C      85.12856616      87.11544280     104.36466321
H      84.04764271      87.51417505     106.07486552
C      87.30364115      88.89745471     104.49127487
H      88.18047416      88.82375539     102.62800473
H      88.74361260      88.30219092     105.83676001
C      86.47405131      91.59598389     104.76906464
H      84.94904216      91.64133732     106.15423403
H      85.59910801      92.20258603     103.00594999
C      88.79841466      93.24760469     105.42102022
H      90.23082722      92.88666696     103.98482822
H      89.60154834      92.70714296     107.23893693
C      88.04441386      96.10109142     105.44936611
H      86.47216158      96.14833458     106.77973344
H      87.26395689      96.63588396     103.61822132
N      90.14578952      97.63176973     106.28462515
H      91.72371100      97.32752380     105.25661403
H      90.59176494      97.18579432     108.08553432
H      89.60532781      99.44968644     106.48682586
C      83.49206317      87.33087160     102.15935260
O      84.27252015      86.55797354     100.15435299
N      81.37179025      88.86721909     102.39556839
H      80.75007030      89.30374587     104.14734469
C      79.73150782      89.75161101     100.34521534
H      78.66948163      88.12644638      99.65924469
C      77.65280888      91.48449004     101.19937164
H      78.53909051      93.11154439     102.09888136
C      76.20527852      92.57297239      98.95248705
H      77.23706909      93.93168561      97.79786427
H      74.49507621      93.51783555      99.60633235
H      75.63269145      90.92135159      97.86022524
C      75.81032572      90.07853366     103.22137879
H      76.82699847      89.54374111     104.92969138
H      75.12624480      88.49683273     102.08943273
C      73.35935068      91.33709138     104.00183576
H      72.13102858      90.00483433     104.97882426
H      72.25197106      91.92101681     102.36344305
H      73.93571721      92.96603547     105.12244346
C      81.25462722      90.92135159      98.19281707
O      82.98750625      92.37455113      98.32320819
N      80.50251615      90.08042339      95.93837358
H      79.03230908      88.86343964      95.96294002
C      81.13935392      90.92513105      93.43826567
H      82.12390133      92.72792995      93.29653620
C      83.24828849      89.18847257      92.55009430
H      84.76762844      88.97871294      93.92392533
H      84.12512150      89.79885416      90.78886938
C      82.21082873      86.69025438      91.90191818
C      82.02563555      85.89278988      89.38102328
H      82.73617266      87.15701678      87.94294155
C      81.13746419      83.46071211      88.67993481
H      81.14313338      82.81631544      86.74296534
C      80.32677161      81.80531186      90.64336045
O      79.35545228      79.51307384      89.95738980
H      79.15703102      79.46394096      88.15648062
C      80.55164903      82.54797430      93.15858617
H      80.09811473      81.23461451      94.65335969
C      81.51729918      84.95737535      93.82565956
H      81.81776566      85.53185215      95.75884958
C      78.77341657      91.02339682      91.68082020
O      76.62857720      91.06686052      92.55387375
N      79.03230908      91.64700650      89.25441161
H      80.77841620      91.99849559      88.57222041
C      76.93660259      91.67913185      87.37224420
H      75.21695166      91.20481054      88.40403477
C      76.70983544      94.20947538      85.98329536
H      75.12813451      94.00538494      84.67938421
H      78.45783228      94.63844325      84.98551987
C      76.02953396      96.43746270      87.74829974
H      77.61879380      96.69446548      89.03331363
H      74.42137687      95.96692085      88.94638622
C      75.73473666      99.09441790      86.40470433
H      74.96183860     100.21124615      87.95427991
H      74.31177274      99.17000695      84.91560000
C      78.37468433     100.37943179      85.72062341
H      78.79231384      99.67834333      83.82900737
H      79.92803935      99.91455912      86.99240922
N      78.10634319     103.23669798      85.69227751
H      79.68426465     104.24581183      85.33700897
H      77.49785132     103.84141040      87.39870037
H      76.84589573     103.85463848      84.39781499
C      77.13880332      89.60043290      85.36157541
O      79.13813375      88.84265265      84.42994034
N      74.87302146      88.97493349      84.56033145
H      73.43682947      89.99727543      85.29354526
C      74.25697068      87.98093745      82.12447423
H      75.46450581      86.37844954      81.65771183
C      71.50552917      87.08898663      81.92605297
H      70.51153313      88.89178553      82.01298038
H      70.76853592      85.94003303      83.46995937
C      71.11057637      85.52618297      79.54310809
O      71.94016622      83.26229085      79.56011563
O      69.83312138      86.54096600      77.80644961
C      74.57822416      89.92735555      80.00798076
O      73.81666445      92.06652574      80.40860274
N      75.78009010      89.25839244      77.87825921
H      76.30921346      87.45370381      77.54944683
C      75.88402505      91.00827900      75.74853765
H      77.09722933      92.59564911      76.25309458
C      76.82132929      89.78562608      73.39771812
H      76.63424638      91.18024410      71.89160625
C      79.71450028      89.06186090      73.61692637
H      79.85434002      87.79385455      75.23453210
H      80.85967442      90.73048924      74.00809972
H      80.32488188      88.11321829      71.89349597
O      75.61946335      87.41024010      72.81190296
H      76.17882235      87.00961813      71.13571572
C      73.48029317      92.29329290      74.94918342
O      73.67493498      94.43813226      74.21030043
N      71.10112774      91.30118658      75.44051226
H      71.12191474      89.56830755      76.23797677
C      68.63881435      92.60131829      75.04555946
H      68.81077946      93.28728894      73.11047972
C      66.65838118      90.53773715      75.04555946
H      66.13114755      89.99538570      76.96174195
H      67.40860252      88.78407113      74.26321277
C      64.17339108      91.34654001      73.78889147
H      63.51198687      92.89233614      74.97941904
H      62.84491348      89.77617745      73.75865585
C      64.52488017      92.25927782      71.13382600
O      65.22596864      90.63222347      69.52188945
O      64.65527130      94.48915487      70.56879783
C      68.28921500      94.89544603      76.76521041
O      66.62814556      96.42612434      76.22285896
N      69.80288576      95.09764675      78.77965866
H      71.12002501      93.73515407      78.98563883
C      70.02398374      97.24626556      80.60324455
H      68.79566164      98.80717950      80.06089310
H      71.97418131      97.85286771      80.86591651
C      68.96384728      96.44880106      83.23752303
O      68.95061920      98.10231158      84.84001095
N      67.87914438      94.18301921      83.68916762
H      67.66749504      93.04162452      82.17360712
C      66.53932843      93.38555471      86.02486934
H      65.32612414      94.85198233      86.81666467
C      64.87070009      91.04985298      85.37102404
H      63.71607731      90.51317071      86.99240922
H      66.19161879      89.57397673      84.81166505
C      63.22852793      91.37299618      83.03532232
C      62.69373537      89.37933492      81.45173167
H      63.52899440      87.55385930      81.82022830
C      61.28588928      89.73271374      79.20862653
H      61.06668103      88.24738886      77.82345714
C      60.07079526      92.06274629      78.70784906
O      58.49476352      92.46336827      76.65938574
H      57.18140373      93.59720405      77.19228856
C      60.44685079      93.99782603      80.39348493
H      59.72686506      95.88188317      80.07979036
C      62.06067707      93.73326435      82.54966265
H      62.49153466      95.19024334      83.91215533
C      68.52165132      92.54084704      88.03553814
O      70.53043039      91.54118183      87.37602366
N      67.91504919      92.76383475      90.38068849
H      66.04610985      92.99816081      90.68871388
C      69.73863508      91.90022982      92.33277578
H      71.61702302      92.58809020      91.84144693
C      69.08101032      93.32697319      94.75162546
H      69.82367276      92.47281690      96.47505585
H      67.02498808      93.42712869      94.73650765
C      69.84445974      95.99148729      94.63824188
C      68.02465331      97.82641154      93.87668217
H      66.10658109      97.14799980      93.71605544
C      68.89392742     100.15833381      93.02819506
H      67.46529431     101.45657579      92.36490112
C      71.40915313     100.99926202      93.33433072
O      71.95339431     103.53527473      93.15291700
H      70.74774892     104.25148101      92.00207367
C      73.17604723      99.27961108      94.38123910
H      75.14325233      99.77471937      94.60611653
C      72.35023684      96.79651070      94.86311931
H      73.72973704      95.29795774      95.00862824
C      69.80288576      89.02973556      92.61245527
O      67.72418683      87.96204019      92.57277102
N      71.99874775      88.05085732      93.15858617
H      73.60501510      89.07886844      93.24173413
C      72.59590126      85.32776171      93.32110264
H      70.84034551      84.30164032      93.64802529
C      73.41982194      84.34132457      90.70005224
H      75.40970373      84.81375615      90.44871864
C      73.15148079      81.44248441      90.31832753
H      73.58989730      80.79808774      88.41348340
H      71.15592980      80.97572201      90.53753578
H      74.43838442      80.33321506      91.48050921
O      72.16126420      85.31831308      88.53253616
H      72.25575052      87.12678116      88.63269166
C      74.50074539      84.67580613      95.50751598
O      76.04276205      86.29152213      96.02719072
N      74.39114125      82.42514209      96.52985792
H      73.06644311      81.18737136      95.93648386
C      76.20149906      81.50295565      98.44793013
H      77.98729042      82.40435510      97.94904238
C      75.43993935      82.18703658     101.11433395
H      74.67271048      84.09754988     101.04252435
C      73.60501510      80.34266369     102.20848549
H      74.75774816      78.79875730     102.93414039
H      72.23118408      79.79086361     100.77607294
H      72.50141494      81.04375216     103.79963504
C      77.88524521      82.47427498     102.73004995
H      79.41025434      83.42669704     101.72282583
H      78.65814326      80.63368155     103.23649660
C      77.40903418      83.85188546     105.16401744
H      76.30165455      82.63490171     106.40367790
H      76.05599014      85.38823295     104.92591193
H      79.02663990      84.63612188     106.17124157
C      76.83455738      78.59844631      98.13801501
O      75.27175372      77.12257006      97.21393884
N      79.02286045      77.80098180      99.01106857
H      80.23795447      78.99339911      99.87467349
C      79.60111670      75.05709920      99.06020145
H      77.91548083      74.08389015      99.74050292
H      81.15447172      74.55821145     100.31686945
C      80.33433050      74.18593537      96.32765720
O      82.08988625      75.18371086      95.22594676
N      79.22506116      72.11101587      95.40736049
H      78.13846854      71.04898969      96.56009354
C      79.29876049      71.35512535      92.74473611
H      80.75762921      72.49085086      91.83577776
C      79.91859073      68.41471121      92.45560799
H      78.55798778      67.18827883      93.39858142
C      79.84678112      67.63425424      89.61156989
H      78.46728092      68.80210510      88.62702248
H      79.32710638      65.65760052      89.35834656
H      81.63824166      68.17093651      88.74229578
C      82.53019249      67.78921180      93.56487733
H      82.77396717      68.80210510      95.34122007
H      83.91914132      68.51108725      92.22695110
C      83.11411791      64.95462233      94.13935413
H      82.78152608      63.85669134      92.42915182
H      81.91603143      64.14770919      95.60767148
H      85.10966890      64.67494283      94.57021173
C      76.66637173      71.97117613      91.70349691
O      74.83900639      70.47262316      91.92459489
N      76.42637649      74.26530387      90.60556593
H      78.02697468      75.30465334      90.66603717
C      74.34956727      75.03442248      88.95205540
H      73.82989254      73.42248594      87.78042509
H      75.10923725      76.52541654      87.74829974
C      71.93638678      75.79220273      90.25029738
O      70.33200913      76.53108572      88.84056155
N      71.57733878      75.43315473      92.76930255
H      73.05888420      75.07599646      93.92014588
C      69.13581238      75.81110000      94.17714866
H      67.79221698      74.39947444      93.51196500
C      69.59123643      75.10056290      96.96827442
H      71.00286198      76.31565692      97.84888688
H      70.40948791      73.20894686      96.99851004
C      67.22907853      75.05709920      98.50651164
N      65.81745298      72.90092147      98.98461240
H      66.35035579      71.16426299      98.39879724
C      63.57056839      73.33933798     100.06175640
H      62.10792023      71.99196312     100.52095989
N      63.55167112      75.96038837     100.28096465
H      61.96997020      77.00540703     100.49639345
C      65.67194405      76.98462004      99.16602612
H      66.00075642      78.97828130      98.88634663
C      68.21740540      78.50773944      93.77085750
O      69.32856446      80.20660340      94.91414192
N      66.14248589      78.93292786      92.37246003
H      65.14848986      77.40980846      91.79609350
C      65.13526178      81.37823371      91.90380790
H      66.65271200      82.74072639      91.59578251
C      63.48364098      81.44437413      89.59834180
H      61.54289205      81.34043919      90.28053300
H      63.40427247      79.75306908      88.42860121
C      63.56489920      83.86322382      88.00152307
H      63.89938076      85.46193228      89.25441161
C      65.87036531      83.65913337      86.07022277
H      67.59001625      82.99583944      86.98485031
H      66.27854619      85.26540074      84.84379040
H      65.33935221      82.14168314      84.78142943
C      61.06101184      84.34510403      86.61635368
H      61.24431529      86.12333649      85.58834257
H      59.69473971      84.83643287      88.07900185
H      60.44685079      82.66135788      85.60723983
C      63.97496982      82.28530234      94.41525417
O      62.59169016      80.91147131      95.57932558
N      64.62692540      84.55108419      95.16547552
H      65.87603448      85.60366175      94.17714866
C      63.58757592      85.63956655      97.48983888
H      62.60113878      84.31486840      98.72194044
C      65.65493652      86.93402907      99.11500351
H      64.72141172      88.29463202     100.34710507
H      66.71129351      88.27951421      97.96793964
C      67.18561483      84.98761097     100.74205787
H      68.00197660      83.51740390      99.54964057
C      69.46840420      86.40868516     101.96471079
H      70.72507221      85.19170141     103.05130342
H      68.81266917      87.87700250     103.24972469
H      70.63814480      87.20425994     100.46615783
C      65.67572349      83.97660739     102.80185955
H      66.81711820      83.29630592     104.37600157
H      64.40582742      82.51395923     102.09699164
H      64.37748153      85.45626310     103.40657197
C      61.18006460      87.35543804      96.92103126
O      59.09758620      87.14945787      98.20226570
N      61.52399478      89.20925955      95.26752074
H      63.00554021      88.94091842      94.09400070
C      59.63048902      91.19914136      94.81587615
H      57.89572027      90.14089463      94.48328432
C      59.50954654      92.99627109      97.02496621