 %block lattice_cart
   137.614   0.000   0.000
   0.000 142.646   0.000
   0.000   0.000   160.855
 %endblock lattice_cart

 %block positions_abs
N      89.60438294      40.67636352      82.51848216
H      88.85794105      40.32298470      84.23813311
H      91.51111680      40.66880461      82.43533421
H      88.85983078      39.25906878      81.47913270
C      88.50834167      43.01206525      81.53015531
H      89.13006164      44.66935522      82.58840204
C      89.60627267      43.54118861      78.86564121
H      88.78802117      42.06720208      77.68456226
H      91.64339763      43.24828103      78.97524533
C      89.15273835      46.15845956      77.75637185
H      87.27624013      46.17924654      76.90788475
H      90.70987283      46.54018428      76.46190934
S      89.25289385      48.58486815      80.16388319
C      89.13573082      51.16245483      78.28549523
H      89.93130559      52.74793520      79.33429333
H      87.25356340      51.58953297      77.56928896
H      90.34326592      50.98671029      76.62442580
C      85.57170699      43.02529332      81.72857656
O      84.41708422      41.39068006      80.69300655
N      84.64574110      44.78273881      83.28382133
H      85.81359196      45.78429374      84.41765711
C      81.93965302      44.94336553      83.94711525
H      80.98345151      43.96259758      82.41076777
C      81.45021390      43.67346945      86.56249648
H      82.46877638      41.96137742      87.09161984
H      79.44521429      43.21615568      86.69477731
C      82.07949276      45.53296014      88.64308515
O      80.39385689      46.44191850      89.99612919
N      84.25078830      46.27184313      89.15520097
H      84.28102392      47.52284195      90.59328271
H      85.82682005      45.52540124      88.37663373
C      80.72077954      47.62299744      83.84318031
O      82.25145785      49.35398676      83.42744052
N      78.44932852      48.09920847      84.60285029
H      77.26824957      46.71592881      85.18299626
C      77.29281601      50.59175749      84.56883522
H      77.78414485      51.48937748      82.77926439
C      74.42232175      50.20436359      84.79560238
H      74.03492784      48.65478802      83.49358095
C      73.47745858      49.28595660      87.37885825
H      73.82327851      50.84876026      88.67710023
H      74.24090802      47.49827551      88.05538026
H      71.45356170      48.95336477      87.20878287
C      72.65731736      52.46825571      83.87719539
H      72.50991871      54.03483883      85.20945244
H      70.78270887      51.61409942      83.81861387
C      73.31872157      53.59831206      81.29016006
H      73.41320789      52.06952346      79.91254959
H      75.11396158      54.60742590      81.26937308
H      71.74457956      54.82285470      80.77426478
C      78.33972438      52.51549887      86.49446633
O      78.28303259      54.72647866      85.91621007
N      79.18254233      51.60276106      88.62229815
H      79.05971012      49.75271900      89.07583247
C      80.48078431      53.12777019      90.58761352
H      79.39986086      54.84931086      90.92965399
C      80.25023769      51.80874123      93.19165639
H      81.36328649      52.78006055      94.62406893
H      81.08549672      49.94736081      92.91953580
C      77.55170852      51.80874123      94.25746202
C      75.89819800      49.73949091      93.69243386
H      76.55960221      48.20125370      92.52080355
C      73.43966405      49.81696969      94.60706140
H      72.27370292      48.26928384      93.96644418
C      72.68188380      51.70102684      96.16230615
H      70.82050338      51.57819463      96.99000627
C      74.38074776      53.70224699      96.83882816
H      73.93288263      55.12521091      98.23155646
C      76.80715634      53.81752031      95.85050130
H      78.10350859      55.34441916      96.23978492
C      83.23033609      53.86476346      89.93754768
O      84.01268278      55.63165756      91.08272181
N      84.52479861      52.60242628      88.14041794
H      84.04669786      50.80529655      87.70767063
C      86.86805924      53.37721407      87.02925887
H      87.67875183      54.76805263      88.31427276
C      88.57259237      50.99993837      86.81194034
H      87.87717310      49.80185188      85.28693121
H      88.53479784      50.06263412      88.64686459
C      91.17474551      51.90700700      86.38108276
H      91.74922231      53.16367500      87.90798161
H      91.26734210      53.05218114      84.66899072
C      93.10793553      49.75460872      86.22045601
O      95.28867969      49.97192725      85.23023943
O      92.45786967      47.68535841      87.08784040
C      86.59215919      54.96458417      84.55938658
O      87.93764434      56.72958855      84.18333105
N      84.73644796      54.19168611      83.01548019
H      83.89363002      52.51171943      83.35563092
C      84.15063281      55.68079044      80.81772849
H      85.78524606      55.72614387      79.56295022
C      81.83760779      54.51293958      79.46657418
H      80.09905959      54.59041836      80.56828461
H      82.20799415      52.52116805      79.09618782
C      81.30848443      55.67134181      76.89843611
H      82.89963398      55.14599791      75.70034963
H      81.14596796      57.70468733      77.19701287
S      78.58727853      54.46002724      75.24303586
C      79.02947450      55.46725137      72.03239086
H      77.34005916      55.00615816      70.94768796
H      80.66408775      54.66600741      71.07052017
H      79.14474780      57.51760443      71.87743330
C      83.44954433      58.42845250      81.42244091
O      84.31692872      60.28983292      80.19222908
N      81.77902628      58.80450804      83.25925489
H      80.91164190      57.22847630      83.89987211
C      80.86628846      61.34807967      83.96412279
H      80.59416787      62.37987022      82.20100815
C      78.70066212      61.20257074      85.73290662
H      78.69688267      62.90899359      86.88752940
H      79.09372518      59.58118555      86.94044174
C      76.25913571      60.98525221      84.24002284
H      76.44243918      59.68512051      82.65265274
C      74.22390047      60.07062467      86.09006489
H      74.59995602      58.27160523      87.02169998
H      72.47590363      59.79472464      85.03559762
H      74.02736895      61.52949339      87.53003634
C      75.42198697      63.51937520      82.98902401
H      73.39620036      63.51748547      82.61674794
H      76.26669462      63.70834782      81.12008470
H      76.12685488      65.17855489      83.98490978
C      83.19065183      62.76537440      85.17543737
O      83.75379028      64.82328634      84.53482014
N      84.67975617      61.45579405      86.71934377
H      84.21299376      59.67567187      87.22768013
C      86.93608939      62.58585040      87.86262817
H      86.34460506      64.25069928      88.91898518
C      88.06047655      60.62242475      89.67676545
H      88.99022188      59.04261355      88.73757147
H      86.48255507      60.17644935      90.92398481
C      89.96154121      61.58429545      91.61184519
H      89.23399658      63.42488888      92.18065281
H      91.65473599      62.06428594      90.54037037
C      90.27901524      59.55472939      93.59983727
H      92.28023540      59.79850408      94.01935651
H      90.03146109      57.64421608      92.87040291
N      88.81258761      59.99881507      95.89774447
H      87.69009019      58.58907925      96.52702333
C      88.88061776      61.84696741      97.57582143
N      90.26389742      63.82929031      97.15819192
H      90.57003309      64.94422883      98.67564214
H      91.25222428      63.89354100      95.52735811
N      87.52190454      61.76759890      99.69987380
H      87.71087717      63.25481351     100.88095275
H      86.61861536      60.10652948      99.95687659
C      88.79180062      63.52315464      85.98235050
O      89.33982126      65.71712690      86.13541833
N      89.45320483      62.05294757      84.06238857
H      88.72754993      60.28983292      83.99057896
C      91.05002357      63.02048745      82.03849168
H      92.64873203      63.75748070      83.10996651
C      91.85882643      60.55250488      80.53237981
H      90.18641865      59.41299992      80.15254483
C      93.03801565      61.16099675      77.86786572
H      94.61026795      62.47246681      78.10408150
H      91.57536749      61.90176947      76.62253607
H      93.80713427      59.55283967      76.83607514
C      93.96209181      58.99348068      82.01770470
H      93.35737939      58.77805187      83.97357143
H      95.80457497      59.80228354      81.57928818
C      94.12460828      56.24581861      80.90276617
H      95.09970705      56.51982893      79.10941589
H      92.22354361      55.48425891      80.69489628
H      95.25466461      55.02883487      82.11786018
C      89.70831788      65.09162749      80.20734689
O      90.90073519      66.42577427      78.80516997
N      87.22332778      65.13887064      80.20923661
H      86.10272009      63.80661360      80.98780385
C      85.72855427      66.98324353      78.67099939
H      86.79624963      67.36685797      76.95323817
C      83.20954909      65.85129747      77.94723421
H      81.79603382      67.28937919      77.52771497
H      82.43476130      64.78549183      79.53082486
C      83.47411078      64.02204239      75.82129212
O      85.05203226      64.42077464      74.19990694
O      81.81871053      62.34018597      75.56050989
C      85.18998228      69.47390280      80.01837425
O      84.22811157      71.02536810      78.56139527
N      85.72477482      69.84995835      82.38620133
H      86.34460506      68.34951564      83.39342545
C      84.76668358      71.92109838      83.93766663
H      84.54558560      73.41209244      82.53548971
C      82.18153799      71.25213526      85.19622435
H      82.74467642      69.83861998      86.58517319
H      80.91731108      70.31294128      83.87152620
C      80.79258914      73.57082945      86.35462659
H      82.10405920      74.50624398      87.63397129
H      79.19199095      72.87541017      87.44877811
C      79.83260818      75.50212975      84.55371741
O      81.47667006      76.98367518      83.52003712
O      77.49312701      75.50212975      83.96979198
C      86.83593389      72.81493892      85.91054089
O      87.31592437      75.15630982      85.99557859
N      88.07370463      71.16898731      87.27114384
H      87.78079704      69.31516579      86.93477255
C      89.79524530      71.50157914      89.40086539
H      91.38072567      72.70533480      88.86985230
H      90.69286530      69.69878024      89.82227436
C      88.70298349      72.88107935      91.75168494
O      87.01356816      74.45900081      91.40775475
N      89.68186171      72.45967038      93.98156198
H      91.23710648      71.35984966      93.87951677
C      89.00344997      73.65397741      96.42119865
H      86.98333254      73.34217256      96.68009115
C      90.32625839      72.31227173      98.65863461
H      92.36338335      72.52770053      98.46210307
H      89.99366656      70.30538239      98.32982223
C      89.50611717      73.08516979     101.29291308
H      89.24911440      75.12985366     101.29480281
C      86.87939760      72.24046212     101.91274332
H      86.67719689      70.24680086     102.38895435
H      85.56414808      72.74879850     100.41041089
H      86.12728653      73.29681913     103.51145177
C      91.36749760      72.45022174     103.43397300
H      91.87205452      70.45467077     103.34893532
H      90.54735638      72.90375606     105.26700752
H      92.80935876      73.86373703     103.02768185
C      89.46265347      76.50935386      96.40419112
O      91.39584349      77.45043757      95.47633550
N      87.61639086      77.96255340      97.51912963
H      86.00256459      77.20099369      98.19376193
C      88.09449161      80.33982910      98.95721137
H      90.13350630      80.39274144      99.24633949
C      87.09293668      82.63206713      97.18842754
H      86.27846462      83.99078035      98.50556678
H      85.49989738      82.05003141      96.01868694
C      89.26045276      83.74700565      95.61428552
H      90.67774748      82.31081366      95.20043546
H      89.89351106      85.41941343      96.63473773
C      88.46109852      84.84493663      93.08205226
H      90.08815288      85.58570936      92.05593087
H      87.35938809      86.52679305      93.53369685
N      86.98522227      83.20276447      91.34728351
H      86.58271056      81.41697310      91.88018632
C      86.38239957      83.64118097      89.06449412
N      87.03246542      85.57059154      87.72845761
H      86.26523654      85.90696282      86.01258612
H      88.15685258      86.85371570      88.58261391
N      85.03124526      81.92153002      87.98735011
H      84.30370063      82.32404173      86.27147863
H      84.53991643      80.35116747      88.95677971
C      86.98144281      80.18109209     101.54802614
O      85.37328573      78.51246376     101.95620702
N      87.82992993      81.95176566     103.26767709
H      89.30958564      83.01757129     102.70642837
C      86.85294142      82.18042254     105.98699325
H      85.52635356      80.62895724     106.27234193
C      89.05258285      81.72499849     107.84270448
H      88.21732382      82.03680334     109.70030546
H      90.52656939      83.11394734     107.47609759
C      90.12027823      79.06048440     107.78223325
H      91.23332702      78.96221863     106.04935422
C      91.98543810      79.00946178     109.98565412
H      91.13695098      79.07749193     111.86215236
H      93.23832665      80.64407504     109.96486714
H      93.38194585      77.51468827     109.75510752
C      88.21921355      76.93076283     108.40395321
H      87.46143330      77.31437727     110.28045144
H      89.34549044      75.20922216     108.45875527
H      86.75845512      76.77391556     106.96209203
C      85.13706993      84.36305642     106.75611186
O      83.40041145      84.09282556     108.33592305
N      85.20887953      86.56458758     105.41629590
H      86.55058521      86.36427659     104.07647995
C      83.52135393      88.82092079     105.30291233
H      82.37240035      88.53557213     106.98665847
C      84.92542058      91.39094859     105.58259182
H      85.80225359      91.52889860     107.44397224
H      83.62906833      92.98398787     105.72243157
C      87.05892160      91.74243768     103.64751207
H      86.34838450      91.78590139     101.71621178
H      88.23622108      90.06247099     103.82514635
C      88.63684306      94.08380858     104.25978339
H      89.19809179      93.64728181     106.19108368
H      87.40474151      95.73353966     104.22387860
C      90.83648449      94.19341271     102.45698450
H      90.06358644      94.51277645     100.57481709
H      91.47899145      92.24510487     102.25478378
N      92.79235123      96.14927945     103.09949144
H      91.90606958      97.84058450     103.13161679
H      94.18507953      96.38927469     101.81447755
H      93.53501368      95.85637186     104.83237048
C      81.65997352      88.94186328     103.01823321
O      82.12106674      87.64551103     101.16819114
N      79.54536977      90.36482720     103.40184765
H      79.39041221      91.16985060     105.12527805
C      78.20744355      91.14528416     101.23055211
H      77.47045028      89.42752294     100.36505747
C      75.88308018      92.88950155     102.11683376
H      76.75613374      93.97987364     103.63239427
C      74.66042726      94.55246071      99.93608959
H      73.12974895      95.72976019     100.65418560
H      73.98012578      93.55846467      98.26557154
H      75.97567677      95.94140954      99.17452988
C      73.70989493      91.29835200     103.27901544
H      74.15776005      89.30469073     103.02201267
H      71.94489055      91.58559039     102.25478378
C      72.92943795      92.03156580     106.03045696
H      71.41576717      90.80135397     106.68997144
H      72.42677076      94.00821953     106.32336453
H      74.56027176      91.78779110     107.26255851
C      80.05181642      92.48321040      99.49011418
O      81.71099614      93.95530720     100.09293688
N      79.74001159      91.87093907      97.02213162
H      78.36429084      90.57080736      96.77646719
C      80.89085492      92.93863443      94.68831963
H      81.48611870      94.89072171      94.96799911
C      83.01490729      91.30213145      93.52613794
H      84.23378075      90.77489780      95.10027996
H      84.22622186      92.38305490      92.25813159
C      82.04169823      88.87950231      92.36773571
C      81.56737693      88.83792834      89.78259012
H      82.19098661      90.33837103      88.54670911
C      80.39007743      86.62505882      88.70733585
H      79.83260818      86.53435196      86.74579993
C      79.70977597      84.62383866      90.33816965
O      78.22823053      82.61316987      89.50857980
H      77.30226464      82.93253361      87.98357067
C      80.42976169      84.50100645      92.91008717
H      79.95544039      82.86828291      94.04014349
C      81.54281049      86.73844241      93.83038387
H      81.85272561      86.79702391      95.84672185
C      78.66664705      93.24665982      92.82882894
O      76.52369740      92.70052891      93.50346122
N      79.16364506      94.32758327      90.55737790
H      81.01557684      94.56568879      90.16998401
C      77.38541260      94.89639089      88.53159129
H      75.49001711      94.50899700      89.24023867
C      77.68965854      97.60625842      87.72089870
H      76.96778308      97.95396806      85.82172377
H      79.70788624      97.97853451      87.52814663
C      76.48779260      99.31268128      89.71267024
H      77.31171328      99.32779910      91.60239655
H      74.55082314      98.66639489      89.98290110
C      76.41976245     102.10947624      88.86418312
H      75.45600203     102.20774199      87.04626642
H      78.39452646     102.67639413      88.73946118
C      75.17254309     103.89337787      90.89185946
H      76.22701038     103.67794908      92.64930494
H      73.20722772     103.35480587      91.18287731
N      75.40497942     106.65048857      90.13974839
H      74.23901829     107.10402287      88.69788721
H      77.20777833     107.15126604      89.75991339
H      74.73223685     107.75030927      91.54759449
C      77.87485172      92.99343649      86.52659168
O      80.07638287      92.84036866      85.58739770
N      75.89063909      91.78968083      85.73479636
H      74.27492308      92.38305490      86.56060675
C      75.85473429      90.82025124      83.24224734
H      77.27391875      89.34059554      83.03059800
C      73.09195442      89.79412985      82.85107400
H      71.73702065      91.19441704      82.18400061
H      72.30393854      89.15162290      84.64064482
C      72.83117218      87.53968636      81.11819497
O      72.16976797      85.38728808      81.92888756
O      73.13352839      87.80613777      78.82217750
C      76.47456451      92.56446863      81.05583401
O      76.42543163      94.91906762      81.07662099
N      76.87707622      91.30213145      78.80328024
H      76.80337689      89.39728732      78.87697956
C      76.97534199      92.56068917      76.35041548
H      78.60239635      93.82680580      76.33718740
C      77.37029478      90.64828615      74.21502475
H      75.57883424      89.64106202      74.08652335
C      77.87485172      91.62527465      71.69979903
H      76.36685012      92.97642896      71.32941267
H      77.80682157      89.99633056      70.43935158
H      79.63229718      92.68919057      71.53350311
O      79.30726427      88.92107630      74.78383236
H      78.94254709      87.28646303      74.08463364
C      74.63019164      94.06113186      75.78349759
O      74.63019164      96.05101367      74.62887480
N      72.58172832      93.02178240      76.65655114
H      72.89353316      91.42496365      77.65810609
C      70.11374575      94.08569830      76.54316757
H      69.87375051      94.85292718      74.64777208
C      68.37330782      91.76889384      76.52993948
H      68.35441056      91.02056223      78.44990141
H      69.31817098      90.27978952      75.46791330
C      65.57651287      92.19597199      75.59641468
H      64.81684290      93.97231473      76.30884151
H      64.48047160      90.49710803      75.99892639
C      65.53304916      92.53045355      72.70513342
O      64.51259695      90.76544918      71.61098189
O      66.57617810      94.37104697      71.58074627
C      69.74524911      96.20975069      78.51982129
O      67.53426934      97.07713506      78.86942065
N      71.51781239      96.78989667      80.30183321
H      73.25636060      96.00188078      80.21868525
C      71.12852878      98.54356268      82.49013627
H      70.07973067     100.27833143      82.11974991
H      73.07116742      99.13126757      82.84729454
C      70.11563548      97.36815291      84.88064006
O      70.45389649      98.34703115      86.96689790
N      69.00447641      95.08725325      84.77292565
H      68.90810036      94.19530244      83.08728978
C      67.69300635      93.70586332      86.82894789
H      65.92422251      94.56946824      87.43555004
C      66.81995278      91.24166021      85.80849568
H      66.16610748      90.08892715      87.38452743
H      68.27504204      90.03034564      84.99591337
C      64.80928399      91.50433216      83.71845837
C      64.12709279      89.30658046      82.43533421
H      65.20045734      87.69464392      83.08540007
C      62.30539663      89.06280576      80.52482090
H      61.92745137      87.22410206      79.72357695
C      61.11297931      91.32102871      79.85963725
O      59.38954892      91.20953486      77.88298353
H      58.45035495      92.72698508      77.56173005
C      61.74792737      93.63405371      81.01048056
H      60.70479844      95.31024095      80.49647502
C      63.51860092      93.63783317      82.96823703
H      63.88709755      95.45008071      83.83562140
C      69.34462713      93.21264475      89.16464961
O      71.17955138      91.95030757      88.96055917
N      68.64920786      94.20097162      91.39452666
H      67.02026377      95.14394504      91.71011096
C      69.85674296      93.68129688      93.84361197
H      71.85796314      94.15939764      93.72833866
C      68.59251606      95.25543889      95.92231091
H      69.51281278      94.66773401      97.67030775
H      66.58373700      94.81135321      95.99034106
C      69.00825586      98.15805851      95.48011494
C      67.15632407     100.02132866      96.09049655
H      65.23069295      99.43929295      96.43631647
C      67.74402896     102.62159207      95.70499238
H      66.34752120     104.09935803      95.87884720
C      70.37452798     103.43417437      95.89207529
O      70.93577670     105.92294393      95.95443626
H      69.47312853     106.97741122      96.14718833
C      72.30771800     101.62948574      95.63885196
H      74.21256213     102.33624339      95.45743823
C      71.63119597      98.94607439      95.38184917
H      73.07116742      97.50232349      95.36484164
C      69.77926419      90.86371494      94.61462029
O      67.84607417      89.84893191      95.37995946
N      71.88063985      89.70342299      94.11384283
H      73.42076680      90.80135397      93.85306060
C      72.15465017      86.96143011      94.19132160
H      70.36129990      86.16018614      94.81682102
C      72.57038995      85.95042652      91.42854173
H      74.42232175      86.53435196      90.74257108
C      72.29826936      83.04024800      91.27925335
H      73.35273664      82.10861293      92.78158577
H      73.09951333      82.33160064      89.51802842
H      70.29704920      82.63773631      91.56460202
O      70.64475884      86.88395132      89.92431959
H      70.83373147      88.68675024      89.90542233
C      74.10673744      86.13750943      96.13962944
O      75.98701512      87.47165621      96.42308838
N      73.95177988      83.99078035      97.54747554
H      72.57983859      82.74734043      97.09016177
C      75.79615277      83.13284459      99.54302653
H      77.44588384      84.34415916      99.30681073
C      74.81349508      83.68086523     102.22643788
H      73.69477711      85.40429563     102.09415705
C      72.92754822      81.74011631     103.07492500
H      72.66298654      81.65885807     105.11582942
H      73.27525787      79.87306670     102.27368105
H      71.23246373      82.19743007     101.99967073
C      76.99990843      84.07959747     104.08781830
H      78.15642093      85.62350387     103.36216339
H      78.20555382      82.41852805     104.26734230
C      76.27047407      84.77123730     106.78634747
H      75.40875888      86.64017664     106.89973106
H      78.10728805      84.92430515     107.71231338
H      75.07427732      83.41252409     107.76900516
C      76.70511113      80.44943324      99.13295591
O      75.32183147      78.90174738      97.91030299
N      78.78947926      79.47055500     100.14962866
H      80.01591163      80.60817024     101.06803566
C      79.58127457      76.80604091      99.97766358
H      77.90319761      75.83472158     100.66741368
H      81.03258439      76.38085249     101.37606105
C      80.33716510      75.80448596      97.30181112
O      82.03791879      76.89674777      96.05648147
N      79.40741976      73.60484453      96.58938430
H      78.60806553      72.35762515      97.79313996
C      79.72489377      72.61084849      93.88707566
H      81.00801795      73.78625825      92.78536523
C      80.32960619      69.76870012      94.05526131
H      78.78003062      68.75013763      94.95288131
C      80.65274940      68.83517532      91.36807049
H      82.57460106      69.14509043      90.69721764
H      79.21088821      69.71200832      90.18699154
H      80.39574661      66.79238116      91.46633626
C      82.60105723      69.14320070      95.58404990
H      82.22878114      69.46256444      97.58338034
H      84.06370539      70.42254542      94.89996896
C      83.42875734      66.38797974      95.26468614
H      81.72044476      65.24280559      95.14752311
H      84.44920955      65.87208445      96.97677819
H      84.67975617      66.32750849      93.63007289
C      77.17943243      73.03981635      92.51702409
O      75.40686915      71.53370449      92.63040767
N      76.72022893      75.26024478      91.49090270
H      77.89185925      76.76257720      91.59672738
C      74.46200599      75.88196473      89.83361272
H      74.00469222      74.12451927      88.86229339
H      74.98734991      77.19910397      88.33883922
C      71.99969261      76.73423130      90.97878687
O      70.33295401      77.51468827      89.49346198
N      71.69166721      76.60950936      93.53936603
H      73.14297702      76.08794491      94.66564290
C      69.16510313      76.75312856      94.79603402
H      67.86686117      75.45488658      93.85684004
C      69.41076756      75.83283185      97.63629268
H      70.52948554      77.15941972      98.74556202
H      70.46145538      74.06026857      97.65896939
C      66.95412336      75.55126262      98.98177781
N      65.09841212      73.87129593      98.33738114
H      65.38376078      72.53714915      97.00323436
C      62.95924193      74.53081042      99.67719709
H      61.08463342      73.72956647      99.57893132
N      63.66033039      76.41297782     101.36283296
H      62.41311102      77.49390127     102.31903447
C      66.13209241      77.13296356     100.81859178
H      67.22435422      78.72222338     101.48944463
C      68.04071598      79.32882552      94.79414429
O      68.96101269      81.01824086      96.18309314
N      66.11319514      79.77669067      93.33149613
H      65.66533001      78.37262401      92.11829184
C      64.63920862      82.21443761      93.47133588
H      65.95067868      83.66385770      92.82315976
C      62.62476037      82.16719446      91.30948898
H      61.47013759      80.48155857      91.57783011
H      63.32962828      81.64185054      89.44621883
C      60.71424707      84.29691600      90.76902725
H      59.60308800      84.82981883      92.41875832
C      62.17311579      86.56836703      89.78825930
H      63.08396387      86.15073752      87.99112957
H      63.50915228      87.14473356      91.24712801
H      61.00148547      88.15762686      89.20055441
C      58.90577898      83.54858438      88.72434338
H      57.52438906      85.05469625      88.47867896
H      58.07996859      81.69476287      89.07961192
H      59.86953940      83.50134123      86.90453693
C      63.31262074      82.60750069      96.02624585
O      62.76648985      80.88029083      97.51912963
N      63.02349263      84.92430515      96.70276788
H      63.75859615      86.26790055      95.56326291
C      61.87075958      86.18097314      98.84571752
H      61.10542041      84.87139280     100.24033553
C      63.87575918      87.82881448     100.14773895
H      62.91766794      88.95320164     101.58393093
H      64.68078259      89.10626948      98.74745175
C      66.04705473      86.25467246     101.41952475
H      67.09207337      85.25500725      99.95120741
C      67.97268583      87.99511039     102.63461876
H      67.03160213      89.05146740     104.13317174
H      68.72857636      89.17996879     101.13039663
H      69.51092306      87.00678353     103.58137165
C      65.31195118      84.11172283     103.42641409
H      66.78971716      82.74356097     103.86483060
H      63.96079687      82.77379659     102.64028794
H      64.48236134      85.07737298     105.04779928
C      59.57474210      87.77779188      97.85739064
O      57.41289519      87.45275894      98.72477502
N      60.00748943      89.26689620      95.92986980
H      61.71202256      89.46909693      95.09272105
C      58.03461515      90.63127861      94.65052510
H      56.62487933      89.22721196      94.11951201
C      57.14266433      92.81769196      96.38340412