 %block lattice_cart
   137.614   0.000   0.000
   0.000 142.646   0.000
   0.000   0.000   160.855
 %endblock lattice_cart

 %block positions_abs
N      91.08592838      39.68709180      82.64603869
H      91.31647499      39.53591368      84.53387528
H      92.62605532      39.61717192      81.51976181
H      89.86138572      38.33593749      82.08478998
C      90.10705014      42.25334012      82.15093040
H      91.14828933      43.70464993      83.17705179
C      90.21287481      42.78624294      79.38626080
H      88.94675818      41.40485302      78.53021478
H      92.00055590      42.10027229      78.62848055
C      89.57981649      45.33926320      78.56422986
H      87.55402990      45.56225090      78.86280662
H      90.17697001      45.59815570      76.61025285
S      91.40718184      47.79023822      80.24419655
C      89.66863363      50.55679754      79.09713268
H      90.37539127      52.27833822      79.97774514
H      87.64851620      50.27711806      79.38059163
H      90.11082960      50.41884753      77.09024333
C      87.33293191      42.16074353      82.91437983
O      85.96665978      40.35416518      82.26431398
N      86.34649477      44.26400892      84.01798000
H      87.38206479      45.77956943      84.53954446
C      83.76701837      44.59093157      84.63592050
H      82.57271134      43.81236433      83.15059562
C      83.25868199      43.02434847      87.06232909
H      84.06937458      41.13273243      87.10012361
H      81.23856456      42.73899979      87.35334694
C      84.29803146      44.59282131      89.21094791
O      82.89396480      45.97610097      90.48840289
N      86.81703663      44.53612951      89.69849729
H      87.41419014      45.90429137      90.88713515
H      88.03779983      43.34560194      88.84434100
C      83.01112783      47.41607242      84.90804109
O      84.60983630      49.16028981      85.16882332
N      80.61117541      47.93574716      84.70773010
H      79.50001635      46.57136476      83.96506766
C      79.37340468      50.38861191      85.02520412
H      79.60962048      51.29757027      83.19027987
C      76.47456451      49.92940841      85.23496374
H      75.97378704      48.64250479      83.70617516
C      75.85851375      48.61982808      87.64814425
H      76.40842410      49.63839056      89.35078765
H      76.47078507      46.65451271      87.57822437
H      73.81571959      48.47431914      87.86924222
C      74.82294372      52.26322040      84.95528425
H      75.32750065      53.51232950      86.51430846
H      72.86707699      51.62449292      85.04788084
C      75.28403694      53.70130214      82.41549208
H      76.74479539      55.15261193      82.40604345
H      73.74202027      55.05812563      82.25297562
H      75.28781639      52.38605261      80.83190143
C      80.45810758      52.13660875      87.07744690
O      80.66030831      54.30979401      86.72217835
N      81.20077002      51.19174558      89.34133902
H      81.20643921      49.30957817      89.65314386
C      82.26657567      52.83958693      91.33877973
H      81.11573234      54.49876663      91.74696062
C      82.27413458      51.33536478      93.99195548
H      83.55536901      52.14227793      95.38657350
H      83.25490253      49.54579397      93.70093763
C      79.74190132      50.89883801      95.15413716
C      78.20555383      49.02800896      94.14880276
H      78.90475255      47.93385742      92.57277102
C      75.99646376      48.02834373      95.36389678
H      74.79459783      46.61671818      94.50785076
C      75.12152048      49.24910694      97.49361834
H      73.37352363      48.62549725      98.34588490
C      76.58983782      51.21064286      98.51029109
H      76.04181719      51.91173131     100.34521534
C      78.91042173      52.08558613      97.31598406
H      80.25023770      53.43485073      98.05864650
C      84.99345074      53.69752268      90.68871388
O      85.82870977      55.55323391      91.87357228
N      86.40507630      52.42195741      89.05976980
H      85.75312071      50.84592568      88.20372378
C      88.69542459      53.31012879      88.13002445
H      89.82359120      54.50254609      89.37346437
C      90.56436390      51.05190584      87.58200382
H      89.70075898      49.56280150      86.45194749
H      90.90829410      50.21097763      89.43015616
C      93.10037662      51.53189633      86.49541119
H      93.83925960      53.37437947      87.04154210
H      92.98132387      51.54701413      84.43938897
C      94.91640360      49.37004943      87.53098121
O      95.43040917      47.49922037      86.15526046
O      95.60993317      49.53823506      89.72873292
C      88.41763482      54.95608040      85.72062341
O      89.79335557      56.77021767      85.49196652
N      86.62806399      54.26633030      84.05388480
H      85.75123099      52.64494512      84.55277254
C      86.01390295      55.73653737      81.64448375
H      87.82237102      55.40583526      80.71473840
C      83.96732934      54.33436045      80.08168009
H      82.25901677      54.47231046      81.22685423
H      84.13740472      52.28589713      79.96073760
C      83.12451142      55.34347429      77.59102081
H      84.50779108      54.59892213      76.25687403
H      82.94687715      57.39571707      77.56078519
S      80.05937533      54.13971863      76.72930561
C      80.14441301      54.36081662      73.29189345
H      81.61839954      53.17028903      72.47742140
H      80.39574662      56.37526487      72.93851462
H      78.35295247      53.65783842      72.55867964
C      85.38651382      58.54656040      82.11313587
O      86.61483592      60.20007093      80.97552063
N      83.75945946      59.12670637      83.94806012
H      82.78625041      57.69996301      84.76064244
C      82.93364905      61.54744578      84.71339928
H      82.39129761      62.72663501      83.11280109
C      80.51668911      61.43217248      86.30832829
H      80.10661849      63.32000906      87.02453456
H      80.80581722      60.29077779      87.99585389
C      78.12429558      60.68006141      84.87780547
H      78.60806553      59.08891184      83.66271145
C      75.90764663      59.82401538      86.58989751
H      76.47456451      58.08735690      87.54231957
H      74.15776006      59.42906258      85.57700421
H      75.58639315      61.34524507      87.94105182
C      77.39864069      62.75309117      83.17894151
H      75.65820275      62.29577740      82.17927630
H      78.92553954      62.97796861      81.81077966
H      77.40430986      64.60313324      84.08601015
C      84.92353087      62.77198843      86.30454884
O      85.43753642      64.96974013      85.98518509
N      86.37862012      61.47185674      87.97695662
H      86.05358720      59.61425576      88.26608475
C      88.67841705      62.56222881      88.92181978
H      88.07181490      64.32723318      89.79487334
C      89.88028299      60.90871828      90.87579679
H      91.20120167      59.65582975      89.91203637
H      88.44031154      59.96385514      92.00774285
C      91.27112154      62.46963222      92.91292175
H      89.93319532      63.32000906      94.22628154
H      92.78290259      63.71496186      92.27419426
C      92.84337385      60.75187100      94.67792613
H      94.16051308      61.84035336      95.82876945
H      93.82414180      59.28922284      93.60834104
N      91.06325165      59.44418040      96.28041404
H      90.27712551      57.81712604      95.66436326
C      90.52845910      60.05456200      98.65202057
N      91.25411401      62.16727601      99.73861320
H      90.83837422      62.21829863     101.59999361
H      92.28779431      63.52787896      98.88634663
N      89.03557532      58.80734263     100.12789682
H      88.87683832      59.14182419     102.00250532
H      88.52534922      57.10469923      99.43625699
C      90.69097558      63.32189879      86.91682016
O      92.00433535      65.27776552      87.17571267
N      90.82325642      61.91783213      84.74174518
H      89.59304459      60.45896342      84.67371503
C      92.57881216      62.51876510      82.68761267
H      94.40995696      62.84568776      83.56822514
C      92.98510332      60.30589559      80.72418703
H      91.18797359      59.33079681      80.48419179
C      94.11704937      61.22997177      78.21652022
H      95.83859004      62.35246919      78.34880106
H      92.64495257      62.38270481      77.34724611
H      94.75010769      59.64827084      77.06000771
C      94.66318029      58.28577816      81.88825844
H      93.80146508      57.81901577      83.70050598
H      96.52267098      59.15127281      82.07912080
C      94.81813783      55.76110381      80.41616165
H      95.87638458      56.07668811      78.67572371
H      92.86227110      55.21119346      80.08734927
H      95.72331675      54.33058100      81.58968169
C      91.60182366      64.86580518      81.36291453
O      93.03801566      66.30388691      80.38025685
N      89.17730479      65.19650730      81.11158093
H      88.11338889      63.64315226      81.42149604
C      88.01134365      67.27331652      79.67349920
H      88.99400135      67.73629945      77.92361264
C      85.39029326      66.52309517      79.03288198
H      84.30936981      68.20873103      78.54533260
H      84.31314926      65.89948548      80.67316442
C      84.97833292      64.65226612      76.92016797
O      86.24444955      64.56344898      75.03989028
O      83.14529841      63.12158781      77.24709062
C      87.62394976      69.71106346      81.07567613
O      87.48977920      71.74440896      79.90593554
N      87.11372367      69.50508328      83.52476143
H      86.95876610      67.69283576      84.09923823
C      86.40885575      71.51953153      85.13102880
H      86.26145709      73.16359343      83.89514779
C      83.79725398      71.04709995      86.21573170
H      84.05992593      69.79610114      87.83144770
H      82.72010998      70.05310391      84.76820134
C      82.24011949      73.29587427      87.10012361
H      83.49111831      74.56199091      88.13569363
H      80.84928093      72.65525705      88.47773410
C      80.90597272      74.83978066      85.04410139
O      82.29303183      76.34967199      83.90837587
O      78.63830115      74.69049228      84.68883284
C      88.41952455      72.02786792      87.13413869
O      88.85983078      74.25585523      87.78798399
N      89.59493431      70.17404640      88.39647586
H      89.33415207      68.32211461      88.02042033
C      91.28057018      70.79009717      90.39769603
H      92.74132862      71.97306586      89.55487809
H      92.25755868      69.04021061      90.87390706
C      90.15618302      72.05621380      92.76741283
O      87.82804021      72.55510155      92.94315737
N      91.70575860      72.38502619      94.77241245
H      93.50099859      71.79165212      94.52296857
C      90.53979746      73.02753313      97.37834503
H      88.49700333      72.76486117      97.40480120
C      91.51489624      71.16993216      99.31342478
H      93.56713902      71.04709995      99.17547475
H      90.93286054      69.26886749      98.76918360
C      90.80624887      71.68015827     102.11777862
H      91.50166816      73.47161881     102.85288216
C      88.02646147      71.66126101     102.48060608
H      87.11561338      69.83578540     102.19525740
H      86.98333254      73.24674138     101.67747239
H      87.60127304      71.85968227     104.48560569
C      91.83425999      69.45217094     103.82231176
H      91.19364278      69.72807099     105.76117096
H      93.88839250      69.60523878     103.81097340
H      91.24466538      67.56622409     103.24216578
C      91.07836947      75.81487944      97.89801977
O      93.25155473      76.53486517      97.77329783
N      89.04502396      77.21327691      98.53107808
H      87.38206479      76.27408293      98.53863699
C      89.08848765      79.83432731      99.65735496
H      91.03868522      80.32376643     100.10522010
C      88.18897793      81.70704609      97.69959850
H      87.44442577      83.36244634      98.67469728
H      86.77168320      80.70927059      96.58843943
C      90.28468442      82.44592907      95.90057905
H      91.39773321      80.77730074      95.44515501
H      91.60749283      83.63456693      96.93992853
C      89.41730004      83.82542928      93.57243624
H      91.19931195      84.29408141      92.65024980
H      88.07181490      85.27106991      94.15069249
N      87.98299776      82.15869067      92.00018394
H      87.10049557      80.70360141      92.86567860
C      87.90173953      82.23050027      89.53787056
N      88.39684783      84.12589577      88.07522239
H      87.57481688      84.10321905      86.35179199
H      89.09604656      85.77751656      88.72906770
N      87.12695175      80.18392668      88.36812997
H      86.87561815      80.10644790      86.47840366
H      86.74144757      78.70805043      89.51330412
C      87.69764910      79.74551017     102.17636014
O      85.72855427      78.51718807     102.27840536
N      88.58771018      81.14201792     104.17758030
H      90.08059397      82.31553796     103.96782068
C      87.43497713      81.15713573     106.70036493
H      85.89862964      79.78708416     106.61910670
C      89.43997676      80.13479379     108.48426657
H      88.80880816      80.36156096     110.43068467
H      91.06136192      81.38957206     108.27450695
C      90.57948172      77.44571326     107.92679731
H      91.19553250      77.13579814     105.98415866
C      92.81124850      76.84667002     109.48582152
H      92.12905729      76.87501590     111.42846017
H      94.13594664      78.38490724     109.13055297
H      93.77500892      75.14969578     108.83008649
C      88.23433137      75.60323010     108.58442207
H      87.62772921      75.61078901     110.55351688
H      88.97132462      73.70216542     108.28962476
H      86.65829962      75.87913014     107.28806982
C      86.02335157      83.58732378     107.58475685
O      84.39440749      83.36433606     109.17968586
N      86.55058522      85.56019804     106.23738199
H      87.64851620      85.42224803     104.68213723
C      85.18242337      87.99605526     106.26761761
H      84.26590610      88.03762923     108.11199049
C      87.13829011      90.24860902     106.29596350
H      88.12283752      90.16735079     108.10443158
H      86.12728652      92.03629011     106.16368266
C      89.11683355      90.00483433     104.20781593
H      88.15307313      89.61177125     102.42958347
H      90.49633377      88.56297315     104.71426258
C      90.47554677      92.44447100     103.72215626
H      91.12561263      93.36476771     105.44369693
H      89.30580618      93.66334448     102.53918759
C      92.91329372      91.79251542     102.24816974
H      92.36149363      90.95158721     100.45104002
H      94.06035758      90.40923576     103.24972469
N      94.41940558      93.99971575     101.78707652
H      93.60493354      95.38488514     100.75906540
H      95.96898117      93.54996089     100.77229349
H      95.02222829      94.72915011     103.44436650
C      83.40419091      88.37966970     104.10955016
O      83.65363479      87.04741266     102.29541290
N      81.62784817      90.15979188     104.32686868
H      81.48422898      91.15756738     105.94825386
C      79.78158557      91.08953723     102.32186907
H      78.73845665      89.41334999     101.73794363
C      77.75390924      92.83942380     103.53696308
H      78.64397032      94.32852813     104.64245298
C      76.47645425      94.22837263     101.33732166
H      74.71144986      95.11276455     101.92124709
H      75.90764663      92.83186489      99.93514473
H      77.78981404      95.69291053     100.72505033
C      75.70733563      91.29362767     104.94291946
H      76.55582275      90.37333096     106.57942245
H      74.97790127      89.76483908     103.77128915
C      73.52092229      92.86776969     105.96526140
H      72.54204406      91.72448527     107.37121777
H      72.16409880      93.25516358     104.46670843
H      74.01981004      94.54773638     107.04618485
C      81.32360224      92.05707710     100.19214751
O      82.98278194      93.69924927     100.57576195
N      80.87573711      91.13300093      97.94337320
H      79.60395130      89.70814729      97.87723278
C      82.21555306      91.93235516      95.60956120
H      83.11884223      93.73326434      96.03663935
C      84.05803621      89.90467883      94.81020697
H      85.22966652      89.57397674      96.47127640
H      85.42430834      90.55096523      93.40991977
C      83.12451142      87.44803462      94.19226647
C      82.92609015      86.78852014      91.64302567
H      83.34371967      88.27195530      90.30509944
C      82.30625993      84.40746499      90.76619266
H      82.46499693      83.97093821      88.77820058
C      81.74123176      82.47805442      92.63324226
O      80.87384737      80.22928011      92.00207367
H      81.26124126      79.89479855      90.26163574
C      82.08516195      83.15268672      95.22972621
H      81.87918178      81.77696597      96.72449973
C      82.76735314      85.48271927      96.00451400
H      83.17742376      85.62822818      97.99817526
C      80.47511513      92.44258127      93.43826567
O      78.20555383      91.73582363      93.44015539
N      81.26313100      93.86932464      91.49751674
H      82.97900248      94.67434805      91.73940171
C      79.59072320      94.73481929      89.43204588
H      77.58761331      94.63088434      89.90258774
C      80.12173631      97.45413545      88.89347389
H      79.48489854      97.70735878      86.95083524
H      82.13807428      97.85475743      88.75552386
C      79.11262246      99.60275427      90.59800702
H      80.20299453      99.59141591      92.34600386
H      77.15864544      99.06229254      90.96083447
C      79.28836699     102.29183482      89.69660757
H      79.08238683     102.28238618      87.64625452
H      81.21588783     102.95134930      89.99518433
C      77.55737770     104.19289948      91.09689477
H      78.43610044     104.33651869      92.95260601
H      75.61851849     103.49559048      91.08555641
N      77.33439000     106.64387451      89.80432197
H      76.28559189     106.29994432      88.24907721
H      79.01624641     107.17488760      89.07299789
H      76.55960221     107.95723431      90.95138584
C      79.80615201      92.77517310      87.10012361
O      81.91508658      91.89645036      86.41037351
N      77.56493661      92.36132304      85.84156589
H      75.91520553      92.75438611      86.71650917
C      77.39486124      91.19158245      83.22429495
H      78.54570456      89.49460822      83.42082648
C      74.58672793      90.26750628      82.80288598
H      73.64186477      91.93991407      82.05833381
H      73.84973466      89.73460346      84.65103831
C      74.16531897      88.10565938      80.92071857
O      73.83650658      85.92680495      81.63692484
O      74.21445185      88.68391563      78.64170864
C      78.19610518      92.93391011      81.06811722
O      78.14697230      95.29228855      81.32512000
N      78.70822103      91.80952295      78.99130801
H      78.34350385      89.94436308      78.80800455
C      79.20143959      93.19847179      76.60647340
H      80.71511037      94.56096447      76.91071933
C      79.95166094      91.34842973      74.54100254
H      78.66664704      89.74027264      74.58635597
C      79.89685887      92.09865109      71.74798705
H      77.88430035      92.07219491      71.31523972
H      80.71133091      90.48293508      70.75777046
H      81.00423850      93.77672805      71.29445273
O      82.43287159      90.52828851      74.95107315
H      82.56893188      88.85210127      74.27455113
C      76.80148718      94.76694464      75.82412670
O      76.93376801      96.68312712      74.59391487
N      74.55082314      94.03562055      76.72174670
H      74.51680806      92.21203466      77.28488514
C      72.26236457      95.59464476      76.51576654
H      72.37763788      96.89477646      74.92272725
C      70.13075328      93.75783078      75.86381096
H      69.38053193      93.16445672      77.68550712
H      70.73735544      92.13833533      74.74509298
C      67.93867076      94.89355630      74.49564911
H      67.78938239      96.81729768      75.21752456
H      66.34752120      93.68602119      74.99264713
C      68.41488179      94.96536590      71.56657332
O      67.78938239      93.20036152      70.03400528
O      69.50147442      96.97225524      70.82580061
C      71.65009324      97.22547857      78.80611483
O      69.55249703      98.24404105      78.98563883
N      73.38675173      97.31051625      80.72796649
H      74.98734992      96.28439486      80.58434729
C      73.08817497      98.86009183      82.95784354
H      72.45889611     100.69879554      82.27754206
H      75.01947526      99.26071381      83.55499705
C      71.50458431      97.68279234      85.03654248
O      70.94711506      98.95079869      87.00374757
N      70.68444310      95.26772211      84.76820134
H      70.84695956      94.45513979      83.04855040
C      69.12730862      94.17357057      86.83556193
H      67.65332208      95.54740160      87.27019898
C      68.10307696      91.70747773      85.76597684
H      66.95790281      90.96670502      87.31177296
H      69.70556487      90.44514056      85.47873844
C      66.53082466      91.76416952      83.25453057
C      66.46090478      89.70247812      81.63125566
H      67.39631931      87.96204018      82.13959204
C      65.12675800      89.88200211      79.35791491
H      64.95668265      88.09054157      78.40171340
C      63.56206462      91.93802435      78.83068127
O      62.16555688      91.70558801      76.65938573
H      61.29817250      93.22870742      76.18317470
C      63.40521734      93.96948013      80.50875823
H      62.15988770      95.54173242      80.13081297
C      64.95668265      93.89956026      82.64036952
H      64.80172509      95.36598788      84.05199507
C      70.82995203      93.63310885      89.12779995
O      73.12030032      93.58397596      88.83489237
N      69.67910869      93.24949440      91.29342630
H      67.78749265      93.51216636      91.27263931
C      71.01514521      92.76761419      93.75762941
H      72.97290166      93.28728893      93.38913278
C      70.30649783      94.31718977      96.08766196
H      70.93766643      93.37988552      97.81109236
H      68.28260095      94.69513503      96.12356676
C      71.36474456      97.00249086      96.22750171
C      69.72446213      99.11520488      96.44482023
H      67.70812416      98.82418703      96.53741682
C      70.67499446     101.60019499      96.60355724
H      69.35407578     103.12331439      96.93236962
C      73.30360376     102.03861149      96.53741682
O      74.13319362     104.52549131      96.64702095
H      72.65731737     105.57995861      96.71316137
C      74.99112937      99.87298513      96.26718596
H      77.02636460     100.00715571      96.26151678
C      74.03114840      97.44468682      96.22939143
H      75.31427257      95.87054480      96.01585236
C      71.24191236      90.05207748      94.34533430
O      69.33139905      88.72359988      94.33777539
N      73.52281201      89.06941980      94.89524466
H      75.01380607      90.24671929      94.70249257
C      74.16153951      86.40490570      95.11445291
H      72.36818924      85.40146103      95.23728512
C      75.73946098      85.56586722      92.71639022
H      77.69154826      85.44492474      93.35889716
C      74.83995125      83.01284698      91.62601813
H      75.09506430      81.65602347      93.15669645
H      76.29315080      82.66324760      90.20872340
H      72.92187904      83.01662642      90.87579679
O      75.72056371      87.13434006      90.56210222
H      76.79770772      88.46281765      91.16492491
C      75.73190207      85.88901042      97.35755804
O      76.95266527      87.66724288      98.16636090
N      75.83772676      83.49850663      98.31753901
H      74.45255736      82.33443522      97.70526768
C      77.40808932      82.62167362     100.40946604
H      79.18632178      83.65913337     100.32064890
C      76.05126583      82.91269147     102.96437601
H      75.11396157      84.74572600     102.95492738
C      74.00280251      80.98706036     103.48405075
H      73.34895719      81.65224403     105.32086472
H      74.54137450      79.04253198     103.89412136
H      72.50424954      80.97005282     102.07053547
C      78.08839079      82.81820516     104.97882426
H      79.59072320      84.08054233     104.35899403
H      78.89908338      80.95682474     105.33220308
C      77.27580847      84.20904373     107.28618009
H      76.20622338      85.91924604     106.87233003
H      78.77247171      84.73816709     108.59576042
H      76.04181719      82.91836066     108.31608093
C      77.99390447      79.77763552      99.82932006
O      76.71455976      78.50962916      98.50840137
N      80.05937533      78.79875730     100.86300035
H      81.14596797      79.84566567     102.03085121
C      80.79636859      76.12290483     100.80630856
H      79.27513892      74.90592108     101.47149222
H      82.44043049      75.78275410     102.00061559
C      81.49556734      75.34244786      98.11533829
O      82.72199971      76.81454466      96.65835931
N      80.96833370      73.02753313      97.32921215
H      80.45810758      71.86157199      98.75217606
C      81.11573234      71.95227886      94.81587615
H      82.64263121      73.11068109      94.05998563
C      81.88863041      69.16115309      95.19571114
H      80.12551576      68.20306186      95.65869409
C      82.66152847      67.94605907      92.66725733
H      84.58526986      68.43360846      92.11923670
H      81.31037416      68.33912215      91.16492491
H      82.42909213      65.91271357      92.91103203
C      83.78780535      68.44305710      97.40480120
H      82.77869150      69.19138872      99.03563501
H      85.52635356      69.52587027      97.19315185
C      84.40385613      65.55555530      97.63156836
H      85.66997276      65.20595592      99.21893846
H      85.24667407      64.87525381      95.87979206
H      82.65963874      64.54455171      98.05675678
C      78.67987512      72.53053511      93.30787455
O      76.77881046      71.13591709      93.52708280
N      78.52491757      74.76419162      92.24962782
H      79.94221230      76.00196235      92.57277102
C      76.63330153      75.61834790      90.45249809
H      76.61818372      74.26719359      88.89914306
H      77.36084615      77.30587350      89.51897329
C      74.01792031      76.31754664      91.46728112
O      72.28126183      76.58021860      90.03486858
N      73.82516822      76.65958710      93.95038150
H      75.41631778      76.53486517      94.99728988
C      71.18333085      76.74651452      94.96138508
H      69.85107379      75.46528007      94.05053699
C      71.32128087      75.65425270      97.61267109
H      72.60251530      76.71816862      98.82398566
H      72.07339193      73.73995995      97.49550806
C      68.53015509      75.65425270      98.56131370
N      66.76704044      73.93082232      97.80353345
H      67.31695081      72.24518645      97.09488608
C      64.71857712      74.27097304      99.25862271
H      63.30884130      72.79509679      99.26807134
N      65.03983059      76.30809801     100.71560170
H      63.60930777      77.05265018     101.73794363
C      67.37175286      77.26996870     100.27907492
H      68.32039547      78.96694293     100.90457433
C      70.22901906      79.48283822      94.85745013
O      71.07939590      81.09666449      96.20482499
N      68.39598453      79.96849788      93.21905742
H      67.94622967      78.78741893      91.79042432
C      67.25647957      82.46482634      92.89213476
H      68.76259143      83.86322381      92.77497173
C      65.89965607      82.25506672      90.32399670
H      64.48992025      80.76218293      90.46761590
H      67.32828917      81.69381800      88.95016567
C      64.19134349      84.37156020      89.46795068
H      62.84774807      84.54919446      91.01941599
C      65.57840260      86.80930713      89.14291776
H      66.93144664      86.73371808      87.59145246
H      66.86719594      86.93402907      90.74540567
H      64.34630105      88.44958957      89.31866231
C      62.85719670      83.72338406      86.88469481
H      61.80272943      81.98861531      87.22484555
H      64.40299283      83.44937375      85.55243776
H      61.80650887      85.41279938      86.35179199
C      65.39698888      83.09788466      95.04453303
O      63.93623043      81.37445425      95.72483451
N      65.33273818      85.41657884      95.84577699
H      66.69145140      86.63545231      95.28452828
C      64.01559893      86.23483033      98.20037598
H      63.32584884      84.51328967      99.09610625
C      65.90343552      87.47449079     100.16002216
H      64.85274770      88.32864709     101.71337719
H      67.01459460      88.98816157      99.30775560
C      67.69678580      85.58098503     101.42424907
H      68.58117771      84.47171568      99.92947555
C      69.52793060      87.10599416     103.03051643
H      68.60763388      87.81653126     104.72938039
H      70.35941017      88.63478275     101.92880599
H      71.03404246      85.87011315     103.70325900
C      66.29271915      83.68747926     103.01728835
H      67.61174812      82.67836542     104.23805155
H      65.24014159      82.35144277     101.85699639
H      64.82251207      84.52273829     104.19080839
C      61.59296981      87.70314768      97.45393408
O      59.69379486      87.26662090      98.63690276
N      61.73469928      89.27728969      95.61145093
H      63.41655569      89.29618696      94.71383093
C      59.69379486      90.91190296      94.63635215
H      57.90800350      89.90089938      94.48328432
C      59.01916257      93.08697795      96.49962230