 %block lattice_cart
   137.614   0.000   0.000
   0.000 142.646   0.000
   0.000   0.000   160.855
 %endblock lattice_cart

 %block positions_abs
N      93.76461542      42.51790182      82.75091851
H      93.53973799      42.10027229      84.59907084
H      95.65812118      42.74466897      82.67343973
H      93.03518107      41.08359954      81.72479712
C      92.52684469      44.90084669      82.12730882
H      93.27517631      46.40317912      83.32161585
C      92.60810292      45.48477213      79.24358647
H      91.88622746      43.87094586      78.18911919
H      94.53373403      45.86649684      78.62375624
C      90.95459239      47.80913548      78.71824255
H      89.02707155      47.18552580      79.08673919
H      91.02073282      48.40061983      76.74347856
S      91.48182604      50.73821127      80.57584352
C      94.56774911      51.87582651      79.76137148
H      95.08175465      53.18162740      81.27126280
H      94.15767849      52.63360676      77.89054243
H      95.93591095      50.35270710      79.53460432
C      89.80563879      44.64573363      83.04193636
O      88.72093589      42.52168126      82.82461783
N      88.63778794      46.59971065      84.00191733
H      89.48060587      48.30991296      84.06238857
C      85.93358958      46.61293874      84.89008869
H      84.98305724      45.26556387      83.65609741
C      85.75784504      45.23154879      87.47334456
H      87.08254318      43.66307595      87.62641239
H      83.85489064      44.45487128      87.60940486
C      86.18681291      46.94742029      89.85439972
O      84.39346263      47.82803275      90.96366906
N      88.54141189      47.49355119      90.51391420
H      88.84376810      48.41951708      92.15608637
H      90.00406005      47.14206209      89.33850443
C      84.58432500      49.19808432      84.82772772
O      85.86555943      51.12938462      84.63308591
N      81.96138487      49.22643023      85.03559762
H      80.96549910      47.60126560      85.13386339
C      80.42692711      51.54890386      84.91465513
H      80.55920794      52.40494988      83.04571581
C      77.60556572      50.84592568      85.39653534
H      77.10667797      49.17162815      84.30616326
C      76.88746972      49.87838580      88.07805698
H      77.32021704      51.24843737      89.55204351
H      77.81343562      48.12094033      88.62229816
H      74.86357284      49.48910217      88.08561589
C      75.89347367      53.21942193      84.86363252
H      76.32055182      54.56868651      86.36029576
H      73.99807818      52.46353140      85.14331202
C      76.03142370      54.33813989      82.18022116
H      75.95205520      52.87738146      80.72702162
H      77.71894930      55.46819623      81.83629097
H      74.41570770      55.61181543      82.22557459
C      81.31320874      53.58980827      86.72690267
O      81.06943405      55.89338466      86.06549846
N      82.07287873      52.77911570      89.11362700
H      82.46783152      50.91206610      89.17598797
C      82.74751102      54.58758377      91.06760401
H      81.51918892      56.24109429      91.02791976
C      82.62467881      53.36115139      93.65463933
H      83.51096044      54.73120298      94.91319706
H      83.89079544      51.73976622      93.57338110
C      80.04142294      52.68840882      94.70154771
C      78.69593779      54.49687690      96.27191028
H      79.51418929      56.32613199      96.66497335
C      76.22417578      53.98854053      97.12417684
H      75.34923249      55.43607089      98.26557154
C      75.02608929      51.66984634      96.53269251
H      73.13636299      51.46575590      97.27724467
C      76.31110320      49.82736318      95.10594914
H      75.41348319      48.09259443      94.51635453
C      78.78475493      50.29412559      94.33683053
H      79.81843523      48.73321166      93.52802767
C      85.41769430      55.72519902      90.55548818
O      85.98650191      57.79822877      91.46066708
N      87.11655824      54.40239059      89.39141677
H      87.17136032      52.52022319      89.08528111
C      89.45225998      55.67984558      88.38986182
H      90.38011560      56.80612247      89.84495109
C      91.45159041      53.71641994      87.63586103
H      93.02006325      54.58758377      86.62296772
H      90.49727863      52.37849372      86.39431084
C      92.70069951      52.27833822      89.92620932
H      91.22104380      51.38260795      91.04114784
H      93.79296132      53.47264524      91.19988485
C      94.34665112      49.86893717      89.00213315
O      96.70502957      49.66295700      89.52369761
O      93.04651942      48.39873010      87.67554528
C      88.80219412      57.34658418      86.16187450
O      89.43525243      59.53299754      85.99179913
N      87.46237817      56.37904432      84.28159682
H      86.65357531      54.65939337      84.45734137
C      86.63089859      57.51476983      81.84384988
H      88.15590772      57.59602806      80.46245994
C      84.39724209      55.98787098      80.72702162
H      82.75884938      56.36014705      81.91565948
H      84.67314212      53.95452545      80.88386891
C      83.45426865      56.88171152      78.08518424
H      85.01707232      56.57746558      76.77938336
H      83.61867485      58.93395430      78.13053767
S      80.53464150      55.50599077      76.87764913
C      81.60611633      55.32835649      73.75582126
H      80.21338803      54.29278647      72.64466218
H      83.51096044      54.54600980      73.82007195
H      81.75729442      57.28044377      73.11898349
C      85.64068199      60.30022641      82.33328899
O      86.73105409      62.14459930      81.43755872
N      83.81142693      60.55722920      84.16632351
H      83.25017822      58.96985910      85.06583324
C      82.73239320      62.91560764      84.86741198
H      82.43759590      64.06645095      83.18366583
C      80.04898184      62.27499042      86.13163888
H      79.39702626      63.96818518      87.10484793
H      80.50251615      60.85580595      87.55460279
C      77.82855342      61.49075400      84.35718587
H      78.15736580      59.92606061      83.05894390
C      75.43427019      60.77832718      86.02581421
H      75.78575928      58.88104196      86.74768966
H      73.71272952      60.52888330      84.92410377
H      75.11112698      62.15215821      87.52436717
C      77.17281840      63.73574885      82.72068289
H      75.61568390      63.08379328      81.54149367
H      78.83388781      64.35179964      81.66810533
H      76.32622101      65.27398607      83.79404743
C      84.49172841      64.77887777      86.42076701
O      83.95315641      67.06355689      86.28659644
N      86.36066773      63.85480161      87.87774599
H      86.57420680      61.95940611      87.79081858
C      88.30330638      65.50075322      88.96244890
H      87.28096444      67.21851444      89.46133664
C      89.41257572      64.37258662      91.37562940
H      90.31397517      62.56978772      90.95422043
H      87.83654398      63.84157353      92.58883369
C      91.22671299      65.95617728      92.93465361
H      90.31964436      67.76464535      93.32204750
H      92.97470982      65.99775125      91.84806098
C      91.88244801      64.85068738      95.60105743
H      90.26862174      65.03777028      96.86717406
H      93.63233458      65.61791627      96.36828632
N      92.44180700      62.16538628      95.31192931
H      90.95270267      61.06178612      95.76168417
C      94.28429016      61.03344023      93.96644417
N      96.07575070      62.31467466      93.00646321
H      97.13588717      61.44162110      91.68176506
H      96.27606169      64.19873180      93.22945091
N      94.09531753      58.69395905      93.48078451
H      95.55607596      57.92295071      92.52269327
H      92.55708030      57.72263972      94.05148186
C      90.49916835      66.06389167      87.21634178
O      91.82197677      67.98385360      87.57350006
N      91.00372527      64.47841130      85.27370313
H      89.71115248      63.07434464      85.27181341
C      92.60621319      65.26831689      83.02870827
H      94.39389429      65.94294919      83.79593716
C      93.21092560      62.79277543      81.55472175
H      91.66323976      61.69862389      80.75347779
C      94.54885183      63.22174329      79.04327548
H      93.64745239      64.55211062      77.75070268
H      94.70569912      61.43406221      78.03227190
H      96.42723979      64.03432562      79.27193236
C      95.13844644      61.12225736      82.90398634
H      94.45247579      61.06556557      84.84473526
H      97.09242346      61.70807251      83.18744528
C      95.04396013      58.31601378      81.96857181
H      95.86410136      58.14782815      80.08829413
H      93.07108587      57.74153698      82.12163964
H      96.39889390      57.44484995      83.25169598
C      91.49694385      67.19583773      81.29771897
O      92.77061937      68.70761878      80.02404344
N      88.96093114      67.24119117      81.27882171
H      88.01795771      65.80121972      82.10274238
C      87.54552613      69.07422569      79.87097561
H      88.58487559      69.54854699      78.15699384
C      84.83376886      68.15581869      79.03193712
H      83.45237893      69.64303331      78.66910967
H      84.01173791      67.24875006      80.68922710
C      84.98305724      66.54577188      76.67733814
O      86.56097872      67.11835895      75.00870980
O      83.32198781      64.74486271      76.38443056
C      87.28852335      71.72173225      81.11630525
O      87.38678911      73.63980445      79.80483518
N      86.85010683      71.82188774      83.62964124
H      86.85199657      70.20806147      84.65009345
C      86.24728415      74.15758947      85.00536200
H      85.94492794      75.57488421      83.54271383
C      83.65080020      73.70783461      86.31872178
H      83.51662963      75.09678344      87.83617201
H      83.65835910      71.93905077      87.37129934
C      81.25651695      73.73995996      84.82205855
H      79.78630989      72.85367831      85.96156351
H      81.36045190      72.51163786      83.17232747
C      80.49306753      76.21739116      83.64664878
O      78.24240349      76.72383781      83.29138023
O      82.24484381      77.83877632      83.21957063
C      88.35432898      75.07977591      86.90075749
O      88.51117627      77.38902146      87.25791576
N      89.95870662      73.43571402      87.86451791
H      89.89067647      71.69905553      87.07839176
C      91.61788633      73.88546888      90.06604906
H      92.76306048      75.55031777      89.66920654
H      92.82353172      72.25841452      90.44399433
C      90.18547378      74.39569498      92.46978093
O      87.93292002      73.77019558      92.61151041
N      91.51584110      75.25174100      94.39352232
H      93.33375782      75.72417258      94.04770241
C      90.48027108      75.48984652      96.93142476
H      88.43936666      75.25363074      96.77835693
C      91.22671299      73.24674138      98.37706539
H      93.26950713      73.00863587      98.48666951
H      90.29129846      71.72362198      97.35283373
C      90.46137383      72.86690640     101.10771991
H      91.65001168      74.05176479     102.30391667
C      87.72316040      73.30910235     101.63306383
H      87.04663838      75.22339512     101.28157473
H      87.64379189      73.37902222     103.69097578
H      86.44948487      71.77086513     101.13417608
C      91.48749521      70.18349503     101.86361044
H      90.61633138      68.96084210     100.45387461
H      90.96593075      69.38036135     103.68719633
H      93.53217908      70.18727449     101.60660766
C      91.18513900      77.97483662      98.13707015
O      93.47926675      78.53986478      98.33360168
N      89.24627981      79.30520395      98.80981271
H      87.58332065      78.85355936      97.99345095
C      89.43147298      81.70893581     100.05325263
H      91.35521436      82.31175851     100.47277187
C      88.42046941      83.75361968      98.11817288
H      87.89701522      85.45059391      99.16130181
H      86.64223695      83.12812028      97.28669331
C      90.52751424      84.62478351      96.30592535
H      91.54985618      82.93347846      95.72388964
H      91.69914456      86.04018852      97.23945015
C      89.69603467      85.88334124      93.71511057
H      91.30797122      86.93591879      92.98378649
H      88.32976254      87.38189420      94.07793803
N      88.53763244      84.09188070      91.83105344
H      87.98205291      82.36467084      92.42253778
C      88.14267964      84.49061294      89.45566746
N      88.34488036      86.69970301      88.48434814
H      87.77418300      87.18158322      86.72879239
H      88.64534683      88.03951896      89.81093601
N      87.14490414      82.85977914      87.93065833
H      86.67436230      83.26418057      86.12596970
H      87.02396167      81.02107544      88.42009745
C      87.87055904      81.82420912     102.56469890
O      85.75973476      80.85855897     102.70642837
N      88.95148249      82.84088187     104.66229511
H      90.69569989      83.61000049     104.54891153
C      88.03685497      82.77285174     107.24933043
H      86.45137458      81.48405838     107.51200239
C      90.11933337      81.66358238     108.86504643
H      89.50706204      81.71271526     110.83036179
H      91.64623223      83.03363396     109.05779851
C      91.01884309      78.91403059     108.34915114
H      91.61599660      78.56632095     106.40840222
C      93.42257496      78.55120315     110.06313291
H      94.81719298      79.96660816     109.52078146
H      94.18413467      76.69927137     109.57558352
H      92.71014813      78.59655657     111.99443320
C      89.09132225      77.01107620     109.03890125
H      88.70581807      77.12257005     111.05901867
H      89.94169909      75.19504921     108.56835939
H      87.36033295      77.39658037     107.99199287
C      86.99750550      85.38067404     108.06002302
O      85.79941901      85.69625833     110.08203017
N      87.16947058      87.20425993     106.35926933
H      88.20315088      86.78852014     104.81158348
C      85.84099299      89.65712468     106.49532963
H      84.56731745      89.81775142     108.10537645
C      87.69859396      91.69047020     106.89595161
H      89.10455033      91.53551264     105.39928837
H      88.65290574      91.39378317     108.69497106
C      86.49483829      94.30585141     107.09248314
H      84.94904217      94.46647815     108.44363746
H      85.89390532      94.85954123     105.20086710
C      88.42235913      96.27494624     107.68774693
H      90.27618065      95.78739685     106.93941531
H      88.41291051      96.51494148     109.73432053
C      87.50584187      98.89410691     106.56147005
H      85.58776966      99.14733023     107.26822769
H      87.30175142      98.70135482     104.52056563
N      89.09888116     101.06918189     107.50066403
H      88.74172287     101.32618467     109.35826499
H      88.88912154     102.70946433     106.54824197
H      90.96404103     100.73281060     107.27200714
C      84.16858520      89.96137063     104.15017927
O      84.63345788      88.77084304     102.20187145
N      82.20326984      91.56196882     104.22009915
H      82.08799654      92.72415050     105.72999047
C      80.46283191      92.04384903     102.07903924
H      79.67481603      90.29585219     101.33259734
C      78.27263910      93.77672805     102.94642361
H      79.21750227      95.46803311     103.64751208
C      76.80621149      94.84820287     100.57292736
H      75.77631064      93.45358486      99.46365802
H      77.96083427      96.09164278      99.40318678
H      75.22451057      95.91022906     101.35338433
C      76.73818134      92.42179428     104.99866639
H      77.99295962      91.82464076     106.51989607
H      75.85378943      90.76639403     104.15206900
C      74.95238998      94.28317470     106.29501864
H      74.05854942      93.25327386     107.84081476
H      73.39903495      94.73859874     105.02323283
H      75.91048122      95.84786809     107.23043316
C      81.80264786      93.34398072      99.90963343
O      83.71127144      94.74426793     100.20065128
N      81.06565460      92.82808544      97.53046800
H      79.94693661      91.28228931      97.44354059
C      81.97083349      93.88444245      95.13429504
H      82.77774663      95.73826397      95.52357866
C      84.01740710      92.13266615      94.15163735
H      85.39879704      92.18746823      95.67853621
H      84.73361336      93.03973478      92.44899394
C      83.19348643      89.40390136      93.40141601
C      82.32421232      88.94091841      90.87485193
H      82.33177123      90.56419331      89.63897092
C      81.83477321      86.54096599      90.00746755
H      81.47194576      86.33498583      88.01002684
C      81.95571569      84.53407665      91.81971508
O      81.41525397      82.09821943      91.06949374
H      80.58755383      81.96215915      89.46133664
C      82.85144597      85.02162604      94.42942712
H      82.81932062      83.42102785      95.69554375
C      83.36734125      87.45937299      95.16642038
H      83.97394339      87.59543328      97.11094876
C      79.87323729      94.19435756      93.12929542
O      77.90603219      92.91501286      93.32204750
N      80.27763873      95.62488038      91.05248620
H      81.85933965      96.69257575      91.02414030
C      78.63924601      95.96314139      88.83772696
H      76.66448202      95.51149680      89.21000304
C      78.45594256      98.74670826      88.04215218
H      77.54131503      98.74103908      86.19777930
H      80.24740311      99.54984194      87.41098359
C      77.03108891     100.42478522      90.12841003
H      77.78697945     100.45124139      92.04270279
H      75.14892151      99.59519536      90.20966826
C      76.57377515     103.09307877      89.26291538
H      75.80465653     103.04961506      87.35240208
H      78.33500008     104.15699469      89.32905580
C      74.92404408     104.44801254      91.17342868
H      75.42671128     103.93022754      93.10283925
H      73.10801710     103.49370075      90.98445605
N      74.83333722     107.30338899      90.73501218
H      73.67871444     108.15754529      91.98979045
H      73.97729119     107.66621645      89.06827357
H      76.53220118     108.17455282      90.81438068
C      79.59544752      94.07530481      86.83839652
O      81.89524445      93.93735478      86.34328823
N      77.77564109      92.48037580      86.02203475
H      76.01063670      92.63155390      86.73446157
C      78.09311511      90.70403306      83.86585703
H      80.03953320      90.04829804      84.01514541
C      76.39614088      88.39856697      84.15120570
H      74.42137687      88.92013142      84.41765711
H      76.90069780      87.22882637      85.77070115
C      76.46039158      86.63356258      81.89487249
O      78.14602745      84.90635273      81.93077729
O      74.86924201      87.02662566      80.19411880
C      77.86823768      92.29707234      81.40354364
O      77.86067877      94.61954599      81.43377927
N      77.74729519      91.23504616      79.11130563
H      77.47517461      89.34720957      79.09429809
C      78.47861927      92.52950868      76.70568403
H      79.78819961      94.04695891      77.17622588
C      79.56332217      90.66245908      74.80461936
H      79.97528252      91.81519213      73.14921911
C      81.97272323      89.66657333      75.93845515
H      83.21994259      88.60454713      74.69123578
H      81.65713894      88.52895807      77.62787047
H      83.14435353      91.28984823      76.42033536
O      77.87957604      88.77462250      74.16589187
H      78.73373233      87.57464629      73.10575540
C      76.28842647      94.00349520      75.57373797
O      76.64558475      95.32252417      73.63676850
N      73.84878980      93.87499381      76.49781414
H      73.44627811      92.74115803      77.97935957
C      71.88347445      95.82141192      75.86853527
H      72.74329991      96.55462574      74.14510488
C      69.36068982      94.54395693      75.10130639
H      68.32134035      93.97136986      76.78316281
H      69.78398850      92.97737383      73.83330003
C      67.80733478      96.49415448      73.41944997
H      67.45773542      98.36876299      74.19423776
H      65.92138793      95.74015370      73.08118896
C      69.07723087      97.07619019      70.87776808
O      69.05833361      95.50393791      69.01071848
O      70.14870569      99.16244804      70.58108105
C      71.67182510      97.82641153      77.93400613
O      70.31311188      99.63865907      77.88865270
N      73.50108016      97.69979987      79.74625367
H      74.86357284      96.37888118      79.54972213
C      73.71650897      99.55929056      82.02148415
H      73.03998695     101.40744290      81.40732310
H      75.68938324      99.84841869      82.52982053
C      72.35212656      98.78450279      84.36474478
O      71.74552442     100.40966740      85.95967379
N      71.49419081      96.43746269      84.57261467
H      71.54710316      95.51905571      82.90020688
C      69.75186315      95.57196804      86.61351909
H      68.39881912      97.01382922      87.19366507
C      67.73363546      93.77483832      85.42866069
H      66.40326814      93.34398072      86.94233147
H      68.73141096      92.10621000      84.74835922
C      66.17083179      94.85009259      83.22712954
C      65.65871596      93.28917866      81.05583400
H      66.40893732      91.39378317      81.16354840
C      64.13937601      94.16601167      79.15287961
H      63.73119513      92.87154915      77.62787047
C      63.09624709      96.63399424      79.31728580
O      61.83013046      97.48437107      77.26882247
H      61.54100233      99.26071382      77.48236155
C      63.42883892      98.25726914      81.37708748
H      62.70885320     100.16589271      81.39598474
C      64.96329669      97.24815528      83.31783640
H      65.37714675      98.51805137      84.86174280
C      70.93294210      94.58931037      88.92654410
O      72.70172594      93.10209575      88.75835846
N      70.00886594      95.19213305      91.14508279
H      68.41771639      96.24282089      91.23012047
C      71.30143874      94.39088910      93.52802767
H      73.27620273      94.96725562      93.43732081
C      70.12980842      95.85731672      95.75034581
H      70.80444071      94.76505491      97.36228236
H      68.08512455      95.63432901      95.79380952
C      71.01042089      98.50293355      95.91475200
C      69.22651924     100.57596333      95.68231567
H      67.21962989     100.29061465      95.44043070
C      69.72351726     103.09307877      96.33427124
H      68.05110948     104.25337073      96.50434661
C      72.20472792     103.84330012      96.85205625
O      72.97762597     106.31884159      97.33960564
H      71.51308808     107.35819106      97.60983651
C      74.06799806     101.89688202      97.04480834
H      75.97095246     102.49970471      97.47755566
C      73.40659385      99.31551588      96.67064253
H      75.01097148      98.06451705      96.84638707
C      71.23340859      91.62244005      94.09305584
O      69.24730623      90.43191247      93.85495032
N      73.37635823      90.56041387      94.85461554
H      74.87302146      91.74338253      94.75257032
C      74.14736656      87.87322305      94.82626965
H      72.49196632      86.68080575      95.11350805
C      75.03742766      87.07953799      92.26380077
H      76.89880808      87.88645114      91.91042195
C      75.09789890      84.29408141      91.66853698
H      75.43049072      83.82164984      89.69188325
H      73.32533562      83.54763952      92.40741997
H      76.56810598      83.43047648      92.82315975
O      73.23840821      87.96581964      90.36651555
H      72.86991158      89.67980140      90.83327795
C      76.01063670      87.05119210      96.91063777
O      77.60745544      88.58376014      97.74211735
N      76.15047646      84.74572600      97.79125023
H      75.03175848      83.44748402      96.94465284
C      77.65658833      83.80086284      99.92097179
H      79.48962285      84.74383627      99.97010467
C      76.22417578      84.08621152     102.50422766
H      75.64780925      86.06286524     102.45509477
C      73.97351174      82.47616469     102.30958585
H      74.00752682      80.41636302     102.33604201
H      72.86235268      82.92780928     100.63528833
H      72.97195680      83.26418057     103.92719157
C      77.63391162      83.51551417     104.93441569
H      78.22350622      81.54263991     104.91551843
H      76.02575452      83.73661216     106.20431178
C      79.65591876      85.33343088     105.66196032
H      78.67326109      87.05119210     106.23265767
H      80.71983468      85.90412824     103.99333199
H      80.83888744      84.45092870     107.10193178
C      78.45783228      81.07020832      99.30114156
O      77.23706909      79.95715952      97.70810227
N      80.35889696      80.11967599     100.60883216
H      81.42281286      81.34043918     101.61605629
C      81.41336424      77.48917695     100.45765406
H      79.83166332      76.38746651     101.18141924
H      83.18025833      77.25485089     101.48944463
C      82.12579106      76.78430905      97.71755090
O      83.48072483      78.13924282      96.44954455
N      81.26974503      74.51663747      97.05803642
H      80.11323254      73.48106744      98.16730577
C      81.56832180      73.38847087      94.59950249
H      83.31442890      74.04798535      93.73022838
C      82.05965063      70.55199167      94.76012923
H      80.36645585      69.52020109      95.31759849
C      82.73995211      69.44083260      92.18443226
H      81.48139439      70.28931970      90.79170397
H      82.39413219      67.42449462      92.41875832
H      84.66747295      69.82444703      91.56271230
C      83.96071531      69.95861761      96.74056240
H      83.67725635      70.90914994      98.54525103
H      85.79186011      70.64647797      96.08482737
C      84.21771809      67.14103566      97.17519945
H      85.65579981      66.97473976      98.64162707
H      84.72416474      66.13570128      95.44987933
H      82.38090411      66.48530064      97.83849339
C      79.24017897      74.27664223      93.15008241
O      77.42604171      72.86879613      92.83638784
N      79.17025911      76.73517616      92.45088367
H      80.72739359      77.76507700      92.84961592
C      77.46761570      77.70838521      90.59328270
H      77.42415200      76.54620352      88.89252902
H      77.84556095      79.60567042      89.89219424
C      74.76530707      77.61578862      91.40775475
O      73.09667874      77.67814959      89.84684081
N      74.17571245      77.68570850      93.84739142
H      75.56277157      77.95971882      95.13051558
C      71.53198535      77.88412976      94.86973335
H      70.43972354      76.49707064      93.80770716
C      71.55277234      77.01863511      97.59660842
H      72.67338004      78.28853118      98.77012846
H      72.59968072      75.24418209      97.62306459
C      69.07156169      77.06965771      98.87784286
N      67.51064776      75.04198138      99.19342716
H      67.88670329      73.29776399      98.51690514
C      65.37714675      75.69393696     100.40663145
H      64.00520545      74.36167991     101.12094799
N      65.44139743      78.24128803     100.72221574
H      64.24709040      79.36945464     101.69164534
C      67.80733478      79.01229636     100.02490673
H      68.52165132      80.92280967     100.10805469
C      70.40003928      80.47116508      94.53525179
O      70.97451609      82.30230987      96.02246640
N      68.63881437      80.85855897      92.82693921
H      67.87914439      79.41291834      91.84050207
C      67.31222648      83.24906276      92.67009192
H      68.73708013      84.69092394      92.30348502
C      65.64926734      83.31709290      90.37029500
H      64.61558705      81.53697073      90.41942788
H      66.71885242      82.92214010      88.65442351
C      63.81245336      85.53563160      89.95644494
H      62.47830659      85.83420836      91.49657188
C      65.28077071      88.04518814      89.37818869
H      64.02788216      89.64389660      89.71078052
H      65.72674611      88.44392039      87.40531441
H      67.00231138      88.14156418      90.50446557
C      62.30634149      84.84399176      87.65664801
H      61.56367905      82.93347846      87.84373092
H      63.36647795      85.06131029      85.90298200
H      60.59235973      85.97593783      87.48468292
C      65.91382902      83.98416629      95.15130257
O      64.68739665      82.50829004      96.34938905
N      65.94406464      86.33120637      95.77869171
H      67.16482784      87.27795926      94.65997373
C      64.75920625      87.43858599      98.05203246
H      64.12992737      85.95893030      99.34271553
C      66.69806544      89.12611159      99.29169292
H      65.97807972      90.48671454     100.65985477
H      67.53332447      90.36766178      97.87250846
C      68.61802737      87.62755862     100.77134863
H      69.10935621      86.02129127      99.57893132
C      70.83467634      89.49838768     101.15496307
H      70.50397424      90.81174746     102.70831810
H      71.16348871      90.84765226      99.63751284
H      72.50330468      88.29652174     101.30236172
C      67.77898889      86.59198860     103.36972231
H      69.36257954      85.75483986     104.38261561
H      66.56767433      84.94414726     103.10138117
H      67.14404085      88.09810049     104.62261085
C      62.52177029      89.14311913      97.40007688
O      60.44685080      88.94469786      98.50178732
N      62.95262789      91.02150708      95.74089718
H      64.67038910      91.08008861      94.90752788
C      60.96841526      92.77706283      95.00201419
H      59.15616773      91.83030994      94.77146758
C      60.64149261      94.78395217      97.07315423