 %block lattice_cart
   137.614   0.000   0.000
   0.000 142.646   0.000
   0.000   0.000   160.855
 %endblock lattice_cart

 %block positions_abs
N      89.73099460      42.14279114      80.16010372
H      89.13762054      41.28107594      81.75692247
H      91.63772845      42.20515211      80.17900099
H      89.16785616      41.06375741      78.68989665
C      88.54046703      44.65234768      79.83696052
H      89.53824252      45.96192802      81.07284154
C      88.91085338      45.75027867      77.12142381
H      87.57103743      44.59376617      76.06884626
H      90.89695574      45.48571699      76.64332307
C      88.12094779      48.60187568      76.73402992
H      86.08004337      48.81919420      76.89465666
H      88.43275263      49.13855795      74.76871456
S      89.59493431      50.88844452      78.89776656
C      92.86794028      50.94513631      77.85841708
H      93.97154045      51.80496178      79.37019814
H      92.75077725      52.18479677      76.21813464
H      93.47265270      49.00249766      77.54661223
C      85.69831865      44.60699425      80.53993872
O      84.32070817      42.86277686      79.77459956
N      84.97644320      46.53640482      82.04983004
H      86.23878038      47.76283719      82.78871304
C      82.48011474      46.80096650      83.16098912
H      81.08927617      46.23593833      81.74936356
C      82.39507706      45.11533063      85.57416961
H      83.99756497      45.61232865      86.77225609
H      82.71444080      43.14623581      85.06205378
C      80.06126506      45.38178204      87.15209108
O      80.10661849      46.64033976      89.17220851
N      78.02036064      44.27440242      86.46801017
H      76.49913096      44.55597164      87.58672813
H      78.12429559      43.23316322      84.87119143
C      81.95477083      49.66390187      83.79782689
O      83.66308341      51.07741715      84.39687012
N      79.50568552      50.40278485      83.96223308
H      78.14886203      49.13288877      83.52570629
C      78.80648679      53.13343938      84.03782212
H      79.50946498      54.21247310      82.42966503
C      75.93788225      53.12777020      83.58617753
H      75.50891437      52.11109744      81.84573961
C      74.35996077      52.00338304      85.73668607
H      74.41476284      53.11076266      87.47145484
H      75.03459307      50.07208275      85.98990940
H      72.43055021      51.99771386      85.01481062
C      75.29537530      55.83574800      83.15720966
H      75.71678427      57.09430573      84.73513113
H      73.25258115      55.89055007      82.90020688
C      76.18165694      57.00170914      80.70812435
H      78.07894216      57.79728392      80.81394904
H      75.13474856      58.70246282      80.20356743
H      76.07772199      55.62409866      79.17744604
C      79.57182595      54.39388683      86.50958414
O      80.20488426      56.59541798      86.57950401
N      79.53592115      52.94446674      88.58072418
H      79.15986561      51.10009386      88.26325016
C      80.54881445      53.84586620      91.12240607
H      79.79292392      55.66567264      91.72522876
C      79.95544039      51.71992409      92.98000703
H      81.00801794      52.02417003      94.72422442
H      80.84172203      50.03050877      92.20521924
C      77.13029955      51.47614940      93.64708042
C      75.57316507      50.07019302      92.06160005
H      76.34417340      49.55051829      90.24368333
C      73.05982907      49.44847307      92.59072341
H      71.81638916      48.41479277      91.34539377
C      72.15465017      50.07775193      94.96232993
H      70.30838756      49.42012717      95.52735810
C      73.53604010      51.59520216      96.60072265
H      73.02770372      52.10353854      98.51123595
C      76.02858911      52.45880708      95.91286228
H      77.02258515      53.81563058      97.06748505
C      83.37017583      54.34286422      90.87863137
O      84.24322939      56.36676110      91.59294793
N      84.93486922      52.81407563      89.61818392
H      84.26023693      51.22481580      88.80560162
C      87.61261141      53.57374561      89.33283525
H      88.22866219      54.52805740      91.05248620
C      89.34360071      51.34764801      89.23834894
H      89.08848766      50.43113075      91.06571428
H      91.32403389      51.87299193      89.04181740
C      88.65385061      49.28217715      87.25413631
H      88.51212113      50.15712043      85.39653534
H      86.98333255      48.23715850      87.85506928
C      90.70987283      47.33008987      86.97634654
O      91.47710172      46.05074515      88.84717559
O      91.49221953      46.96348296      84.73891058
C      88.10205052      55.48047946      87.14831163
O      89.74800214      57.03194476      87.35051234
N      86.57893111      55.38599314      85.23968805
H      85.54525082      53.78350523      85.20945244
C      86.81325718      56.81840569      82.92666306
H      88.67463760      56.35542274      82.17644171
C      84.69298425      55.92645487      81.02748811
H      82.79380931      56.30817958      81.72290738
H      84.74778632      53.87988127      80.80827985
C      85.01612745      57.30406535      78.44045278
H      86.85672088      57.01115777      77.56739923
H      85.01234800      59.34874922      78.70123502
S      82.59916750      56.73525773      76.02349283
C      83.27757925      53.37910380      75.50003864
H      81.63729681      52.21314266      75.93278596
H      84.94242813      52.71014068      76.51293194
H      83.56481764      53.19580034      73.46669313
C      86.44287082      59.59441364      83.34807201
O      87.94709296      61.14776867      82.55627670
N      84.36417188      60.28983292      84.82016881
H      82.92042097      59.07662863      85.10362776
C      83.57993546      62.98647237      84.86174279
H      83.69709849      63.83873894      82.98902401
C      80.92486999      63.47213203      85.86896692
H      80.67164666      65.49035974      86.19966902
H      80.66219803      62.53293806      87.68121446
C      78.81782515      62.78238193      83.96223308
H      79.12018136      60.84163301      83.33673366
C      76.29881997      62.44601065      85.30960794
H      76.03992747      63.99936568      86.63619580
H      76.30448915      60.67911654      86.36407521
H      74.86262797      62.12664690      83.86585702
C      78.84806077      64.50203288      81.77581972
H      76.91109130      64.63998290      81.09173881
H      80.18031782      63.69511974      80.42844486
H      79.73056296      66.23869136      82.44856229
C      85.33927065      64.68722605      86.35651630
O      85.41296998      66.92655173      85.87463609
N      87.21009970      63.50803683      87.71711926
H      86.83971335      61.66366395      88.03648301
C      89.50044799      64.50959178      89.13630371
H      88.88439722      66.08940298      90.30793403
C      90.52845911      62.31939898      90.64052587
H      92.03457098      63.29260803      91.65152943
H      91.37127704      60.78872067      89.55015377
C      88.63873280      61.09296661      92.55103916
H      86.98711200      60.46557747      91.48901298
H      87.81859158      62.41955448      93.89463457
C      89.82737065      59.02182657      94.02124624
H      91.28434963      59.84952669      95.21555326
H      90.79868997      57.71035651      92.76457823
N      88.04913819      57.65744417      95.56326290
H      87.51434564      56.03416927      94.71288606
C      86.81514690      58.23570042      97.62873376
N      87.12506202      60.45990829      98.57737638
H      86.34460505      61.09107688     100.20065127
H      88.47810606      61.46713242      97.68353583
N      85.33738093      56.78817007      98.67753187
H      84.71188152      57.36075714     100.38773418
H      85.09927541      55.01371706      98.01612766
C      91.47710172      65.68689127      87.49413154
O      92.94352934      67.51047717      88.14797685
N      91.62450037      64.86108087      85.13008393
H      90.60782761      63.26615187      84.86552224
C      93.19108348      65.85129746      83.10996650
H      94.52523026      67.18544424      83.93766662
C      94.89750634      63.95590197      81.97613071
H      95.81969278      64.89131650      80.38876061
C      97.27856150      63.32662311      83.61452342
H      98.53333977      64.96123637      83.58050836
H      98.37271303      61.72602492      82.91910415
H      96.71542306      63.15087856      85.58739769
C      93.73910411      61.48602968      81.16543813
H      92.01756344      62.07562429      80.19978799
H      93.33281296      60.25581785      82.76603632
C      95.29245914      60.30306101      78.90910490
H      96.97998474      59.24670400      79.43822828
H      95.60615371      61.76759890      77.49558963
H      94.26633776      58.65144021      78.23069316
C      91.74166340      67.29504837      81.02370866
O      92.61471696      69.11296508      80.02026398
N      89.54013225      66.34829548      80.28104622
H      88.91841229      64.70234386      81.01803947
C      87.83748884      67.46134428      78.38376099
H      88.82392597      67.82606146      76.61497716
C      86.04035911      65.37319671      77.73747460
H      84.70243289      65.34296108      79.30594744
H      86.89262568      63.50614711      77.90377051
C      84.85361099      65.84562828      75.21657970
O      85.88351183      67.08717847      73.54417190
O      82.68798464      64.97068500      74.91611321
C      86.48255507      69.95956247      79.18311522
O      86.06870501      71.46567434      77.48614099
N      86.35972286      70.62663586      81.53960394
H      86.65640989      69.19044386      82.75847741
C      85.44698505      73.01902937      82.65454246
H      85.37139600      74.41742684      81.14465114
C      82.58593941      72.89619716      83.61452342
H      82.74278670      71.87196550      85.39653534
H      81.41619883      71.82661206      82.30116365
C      81.28958716      75.50212974      84.13041871
H      82.16264072      76.59250183      85.64408948
H      79.49812662      74.91820431      84.96000857
C      80.74912544      77.04414641      81.71912793
O      78.43421071      77.42587113      81.26370389
O      82.54058598      77.66964582      80.21868524
C      87.21198943      73.96767198      84.72379277
O      88.03779983      76.16920313      84.79182292
N      87.92252652      72.20644705      86.47367934
H      86.79247019      70.66820983      86.45856154
C      89.68186172      72.67698891      88.57127554
H      91.36182841      73.57271918      87.78514940
H      90.11082959      70.98757358      89.66542709
C      88.51401086      74.51569261      90.51391419
O      86.25956737      75.06938242      90.46289158
N      90.01256382      75.41898179      92.35828707
H      91.90606959      75.17709682      92.31860282
C      89.13573082      76.18810039      94.92642513
H      87.10049558      75.93865652      95.11539777
C      90.42452416      74.22656448      96.76701857
H      92.45220049      74.30782271      96.41552947
H      89.88784189      72.29715392      96.28702809
C      90.18641865      74.72167278      99.62995394
H      91.27112155      76.41864700     100.06459098
C      87.48411002      74.72545223     100.48033077
H      87.53702235      74.73679059     102.54013245
H      86.73199895      72.87352044      99.98144303
H      86.38239958      76.28258671      99.70365326
C      91.77567847      72.62029712     100.91685756
H      90.51712075      70.98757358     100.91496782
H      92.28401485      73.09839787     102.85571674
H      93.63138971      72.29526419     100.08915742
C      89.96721039      78.91497546      95.51601974
O      92.26511759      79.38740704      95.71633073
N      88.15496286      80.50990447      96.27002054
H      86.31436943      80.20943799      95.86561911
C      88.62361498      82.87773154      97.53991662
H      90.64373241      82.98733567      97.91219272
C      88.07937381      84.96587912      95.55192454
H      87.96599023      86.78568556      96.50812606
H      86.34460505      84.56714687      94.51635452
C      90.15051385      85.33059630      93.64897016
H      90.32247894      83.84338169      92.23356515
H      91.99299700      85.69720320      94.49745727
C      89.63461856      87.70220282      92.06348977
H      91.40718184      88.39195292      91.26791499
H      89.06770067      89.23288113      93.32015777
N      87.87906282      87.30725002      90.03014426
H      87.87150391      85.51767920      89.36874005
C      87.10049558      89.01934206      88.29348579
N      87.33671137      91.40606639      88.59773172
H      86.86616951      92.59659397      87.18421643
H      87.98866694      92.04857334      90.27391895
N      86.05925638      88.16896522      86.31305260
H      85.78335634      89.11382838      84.67654961
H      86.04224884      86.26979027      86.10707243
C      87.12317229      83.25567681      99.96443548
O      84.87439798      82.84938565      99.91152315
N      88.43086290      84.06447967     101.93164058
H      90.29224332      84.47832973     101.89573578
C      87.49733810      83.89062485     104.54702180
H      86.14240434      82.33915954     104.59615468
C      89.49099936      83.27457407     106.49721935
H      88.81258762      83.32748641     108.44363745
H      91.10671536      84.54258042     106.33848234
C      90.78735161      80.74234081     106.32903372
H      91.76056066      80.67431066     104.51489645
C      92.65251148      80.30770376     108.54568267
H      93.92807675      78.72033365     108.24332646
H      91.54891132      79.84283108     110.21998018
H      93.92618702      81.92908893     108.56269022
C      89.04313423      78.36506511     106.50666799
H      90.12027822      76.64730389     106.14384054
H      87.70898745      78.65419323     104.96465131
H      88.21732383      78.30837332     108.39450457
C      85.95343170      86.32081288     105.26322808
O      84.32826708      86.21498821     106.89973105
N      86.43909137      88.43541663     103.86483060
H      87.69009019      88.15195768     102.45320505
C      85.28635832      90.97898825     103.98577309
H      84.09016156      91.23977048     105.64117333
C      87.40096206      93.03312075     104.35049026
H      88.30425124      93.42996327     102.54391190
H      88.56503347      92.21486926     105.84148432
C      86.57704139      95.66928896     105.48999523
H      85.51501520      95.04189982     107.13783657
H      85.14840830      96.47809182     104.24655531
C      88.65574033      97.51366184     106.34415153
H      89.47777128      96.72375624     108.06002301
H      87.68442101      99.24087169     106.90540024
C      90.67774749      98.09758727     104.32781354
H      89.85382681      98.69852024     102.53635300
H      91.66418462      96.39116441     103.72310112
N      92.58448134     100.01376975     104.97976912
H      93.85815687     100.09502798     103.56058466
H      93.31013624      99.41283678     106.63894882
H      91.79646546     101.68428781     105.46731851
C      83.43820598      91.50055271     101.85794125
O      83.60450190      90.28734842      99.94175877
N      81.42942691      92.95942142     102.35115982
H      81.39730156      93.69452496     104.11238474
C      79.23545466      93.30524134     100.65418560
H      78.87640666      91.51756025      99.69420462
C      76.90920157      94.25388395     102.09604677
H      76.73534675      93.18429885     103.84782307
C      76.97156254      97.17729055     102.76312015
H      78.79703816      97.64594268     103.59271001
H      75.71111509      97.49854403     104.35804916
H      76.63519126      98.34514141     101.10016100
C      74.50546970      93.39405847     100.57103763
H      74.20311349      91.36449241     100.74489245
H      75.01191635      93.56413384      98.58304555
C      72.04693577      94.84725801     101.15874252
H      70.60507459      94.29734765      99.79436012
H      72.38330705      96.84847817     101.51212133
H      71.54615829      94.20286134     103.05224828
C      79.82315955      94.98142858      98.36572702
O      81.03825356      96.99398710      98.54147158
N      78.88963475      94.11782365      96.12073216
H      77.69343799      92.63060904      96.11695271
C      79.77591639      94.97953885      93.64330097
H      80.47133567      96.91272887      93.80581743
C      81.98500645      93.32224887      92.95166115
H      83.12073196      93.24288037      94.66753263
H      83.14529840      94.37104698      91.60995546
C      81.39163238      90.72765465      92.06537950
C      80.80959668      90.31758404      89.57094076
H      80.39574662      91.90684387      88.35962620
C      80.55637335      87.80613777      88.61095980
H      79.96677874      87.76456379      86.65698280
C      81.02691521      85.65184977      90.11707168
O      80.93242889      83.16874939      89.07772220
H      80.23700961      83.14040350      87.40342469
C      81.60706118      86.05058202      92.66442274
H      81.91508657      84.44053520      93.87573731
C      81.75445984      88.54124130      93.64330097
H      82.16264072      88.64328652      95.64074168
C      77.64808456      95.06835599      91.70633151
O      75.71867399      94.01010925      92.12585075
N      78.20933327      96.20975068      89.51235926
H      79.97433765      96.93162613      89.41409348
C      76.31393778      96.51399662      87.37696851
H      74.51869778      96.04156504      88.26891933
C      75.94355142      99.30701211      86.58517319
H      75.03837252      99.40527788      84.73702085
H      77.82760856      99.93818070      86.04849092
C      74.53948477     101.11548019      88.35206729
H      75.66765138     101.38004187      90.05471070
H      72.65920709     100.43706844      88.85095505
C      74.14075252     103.76865593      86.98201571
H      73.09195442     103.47385863      85.23401888
H      75.94166170     104.63415058      86.47556907
C      72.40409404     105.52988086      88.36907483
H      73.35840583     105.60169046      90.19266072
H      70.65231775     104.46974440      88.59017281
N      72.04693577     108.06589357      87.22012123
H      70.73357598     109.10335331      88.13663849
H      71.63308570     107.98463534      85.35685108
H      73.63241614     109.11847113      87.07083285
C      76.48779260      94.81324294      85.20000380
O      78.57594018      94.07058049      84.48001808
N      74.39964503      94.19341270      84.08884474
H      72.84062082      94.53545317      85.13386338
C      74.14075252      92.88383237      81.76070191
H      75.49379656      91.33992597      81.60007518
C      71.44411307      91.64606164      81.47913270
H      69.90398613      92.88005292      80.89709699
H      70.86207737      90.59348408      83.15154048
C      71.51025349      89.62594421      79.46279472
O      72.73668587      87.73243844      79.94656466
O      70.55027253      89.88672644      77.35197042
C      74.79648755      94.47876138      79.48169198
O      74.73601631      96.80879392      79.70090024
N      75.12718966      93.35437422      77.16299779
H      75.04404170      91.44764037      77.11197519
C      75.35962599      94.67529291      74.64210289
H      76.81093580      96.12093354      74.86698032
C      75.93221307      93.01422349      72.37065186
H      75.66576166      93.98176336      70.57163241
C      78.71577993      92.18652336      72.40655666
H      79.99134519      93.80223936      72.43679228
H      79.02380531      90.94308345      70.79462012
H      79.09561491      90.95820126      74.01660348
O      74.29193063      90.94119372      72.59930875
H      72.97101193      91.32480816      71.42011953
C      72.95211467      96.06991093      73.90699935
O      73.02392427      97.96719615      72.71269233
N      70.87908491      95.23843136      75.04272488
H      70.78081914      93.53200850      75.88743253
C      68.37708727      96.67084390      75.12398311
H      68.49236057      98.00499068      73.55928972
C      66.14154104      94.74899224      74.90099539
H      65.79950058      93.78712155      76.69056621
H      66.95979253      93.47342698      73.50637739
C      63.67733793      95.82802597      73.73692399
H      62.63231928      97.03367135      75.03894543
H      62.28838909      94.38049561      73.26638213
C      64.18378458      97.29634331      71.17634484
O      63.87953864      96.12849245      69.18079385
O      64.71479767      99.63582449      71.23492635
C      67.94056049      98.41317156      77.39354441
O      66.02626773      99.65094230      77.62976019
N      69.72068268      98.63049009      79.18311522
H      71.22679455      97.45508032      79.10374671
C      69.72068268     100.35392049      81.37519775
H      68.78337842     102.07735088      80.75158806
H      71.64442406     101.00020688      81.73613547
C      68.38653590      99.13882647      83.64475906
O      68.67944348     100.18384512      85.69889155
N      67.08262474      97.01099464      83.32917475
H      67.00892542      96.08124929      81.66432588
C      65.87508963      95.66739923      85.47401412
H      64.47102298      96.92784668      86.30549369
C      64.37086748      93.43374273      84.65009344
H      63.44490159      92.55879944      86.26769917
H      65.62942521      91.94652812      83.98113033
C      62.25815347      93.93829965      82.75847741
C      61.53249856      92.13928020      81.09929770
H      62.60208365      90.41207035      81.30149843
C      59.83174488      92.73832344      79.17933577
H      59.47836606      91.53834724      77.56550950
C      58.64688648      95.16284230      79.06406247
O      56.97825815      95.78078281      77.18567451
H      56.14299912      97.33791729      77.59007594
C      59.20813520      96.96186175      80.84985384
H      58.42200905      98.84591889      80.93867097
C      61.01660328      96.40817194      82.71690344
H      61.71769174      97.85192285      83.97924061
C      67.79694129      94.90394980      87.53570552
O      69.80005118      94.18207435      86.85162460
N      67.22057476      94.91906761      89.95266548
H      65.51037245      95.53889784      90.53092173
C      69.15376478      94.26144285      91.98412126
H      70.93577670      94.83969910      91.12429579
C      68.84762912      95.58236154      94.44832439
H      69.98524436      94.49198946      95.77491226
H      66.94656445      95.17984984      95.13429504
C      69.65832171      98.29978798      94.45210384
C      68.00670091     100.31045678      93.74912564
H      66.08484925      99.97786495      93.14819267
C      68.94400516     102.80678524      93.81148662
H      67.67410908     104.31100738      93.27102489
C      71.42521581     103.23008393      94.60139222
O      72.11874537     105.74341993      94.78847511
H      70.87719518     106.99063930      94.33872025
C      73.07305716     101.29500419      95.20421490
H      74.85695879     101.54633779      96.16041642
C      72.12063509      98.82891135      95.14185394
H      73.17510238      97.22831316      95.84294241
C      69.53171004      91.45519928      92.26758022
O      67.99158310      89.95097713      91.36240131
N      71.68410832      90.50277722      93.25023789
H      73.13730785      91.71409178      93.50535095
C      72.54582351      87.93274943      93.36929065
H      70.96979177      86.67797116      93.79636880
C      73.79115315      87.08804177      90.93343343
H      75.63363631      88.00266930      90.82382931
C      74.34106351      84.29313655      90.51013474
H      75.35773627      83.32181723      92.01624662
H      75.47111985      84.18164270      88.79237352
H      72.56661050      83.34638367      90.06604906
O      72.30771800      87.78724050      88.72245366
H      70.88286436      88.77178791      89.26102565
C      74.35996077      87.74566652      95.58404989
O      75.24246296      89.73365861      96.62906854
N      74.85317934      85.42319289      96.49678771
H      73.94611071      83.98511116      95.62751360
C      76.88085568      84.76367840      98.37706539
H      78.43232098      86.08837655      98.09171671
C      76.18543639      85.40996480     101.09827128
H      75.34261846      87.28835276     101.00756441
C      74.03114840      83.67519605     102.02045771
H      74.83239235      81.81948481     102.41541051
H      72.46834473      83.52212822     100.68820066
H      73.46045105      84.60872085     103.76656483
C      78.58727854      85.55169428     102.71776672
H      79.97811710      86.69686842     101.72377069
H      79.19577041      83.75078510     103.51145177
C      77.89374898      86.98032737     105.18385957
H      77.04904132      88.71698585     104.46765329
H      79.42820675      87.36772126     106.50099880
H      76.49157206      85.74822581     106.05880285
C      77.72745306      81.87617660      98.12006260
O      76.27047408      80.47777913      97.01268298
N      79.90819723      81.09571963      99.05925658
H      81.16108577      82.30892392      99.83593409
C      80.81148641      78.48411786      99.34649498
H      79.42064784      77.21233206     100.17797456
H      82.55570379      78.48411786     100.44064653
C      81.49934678      77.60728486      96.77268774
O      82.32893664      78.98300561      95.05870598
N      80.87384738      75.15630983      96.33805069
H      80.39952607      74.23223366      97.94053861
C      81.03258439      73.88830347      93.83416332
H      82.55570379      74.87474061      92.85906456
C      81.82815916      71.12930305      93.86817841
H      80.28047331      69.92365767      94.49367781
C      82.73522779      70.11452002      91.31137870
H      82.91853125      68.06416698      91.23578964
H      84.48511436      70.94788933      90.61973887
H      81.47855980      70.52459063      89.73156750
C      84.20354514      70.66065093      95.68042593
H      83.93709373      71.18410512      97.65330020
H      85.73611318      71.97590044      95.27602451
C      85.21454872      67.94889367      95.86939856
H      86.64129208      67.88275325      97.35283372
H      85.93831389      67.36307851      94.03258460
H      83.78969508      66.54860647      96.37017604
C      78.65719841      74.51380288      92.26380076
O      77.10951256      72.85084373      91.76302329
N      78.49468195      76.89296831      91.36807049
H      79.67765062      78.21577673      92.06915896
C      76.60873509      77.85861846      89.63897091
H      76.36685012      76.30526343      88.30482413
H      77.35139753      79.59905639      88.82827832
C      73.93099290      78.12129041      90.47989913
O      72.31149745      78.39719045      88.84528586
N      73.43021543      78.08160616      92.92898442
H      74.94010675      77.88696435      94.07982775
C      70.93199724      78.24979180      94.06470993
H      69.81327927      76.84194570      93.06126527
C      70.79971640      77.68098418      96.93520420
H      71.71245421      79.19654468      97.99156121
H      71.79560217      75.92542844      97.35094399
C      68.19756327      77.13107382      97.98589204
N      66.95979253      74.76702621      97.80636803
H      67.66088099      73.16264857      97.05047751
C      64.55606066      75.26213450      98.56225857
H      63.23892142      73.74090482      98.89674013
N      64.26315308      77.61106431      99.24822922
H      62.76460012      78.28947605     100.21765881
C      66.56106028      78.86206313      98.90240930
H      66.68389249      80.88218056      99.15374291
C      69.48824634      80.78958397      93.53180711
O      69.93989093      82.74923015      94.81682101
N      67.80072074      80.85383466      91.67987533
H      67.70056525      79.23433921      90.67454093
C      66.22090954      83.02513020      91.16020059
H      67.49458508      84.63517701      90.97878687
C      64.74692302      82.60561095      88.74324064
H      63.29939266      81.15808060      88.98134615
H      66.02437801      81.94609647      87.27114384
C      63.45435022      84.97343802      87.71900898
H      62.57940694      85.97310324      89.29126127
C      65.36297380      86.61938964      86.45478207
H      66.97868980      86.83670817      87.71711926
H      64.55417094      88.42407827      85.87652582
H      66.14343077      85.87672720      84.69733661
C      61.23014235      83.96999335      86.09384435
H      59.92623120      82.54513971      86.81194035
H      62.03705549      83.10827815      84.40442902
H      60.19835178      85.69153402      85.63653059
C      64.69967986      83.66196796      93.41653382
O      63.21624471      82.20498898      94.33116136
N      64.69212096      85.99577996      94.33305107
H      65.79194167      87.34315482      93.54314547
C      63.21435498      86.70442733      96.71032677
H      63.09341250      85.03201954      97.90463381
C      64.90943948      88.71131667      98.07659890
H      63.68867628      89.60704694      99.47499637
H      65.55572588      90.19097237      96.79914392
C      67.16955215      87.42063360      99.42208403
H      67.96890638      86.03546421      98.12384206
C      69.14242642      89.34059553      99.98900194
H      70.94522533      88.34659949      99.97955329
H      68.83440104      90.46876214     101.68597616
H      69.29360453      90.64072724      98.39974211
C      66.44956643      86.01467722     101.83337481
H      64.88865249      84.68619962     101.61983574
H      65.87886908      87.41118497     103.23366201
H      68.17677628      85.17752847     102.57792699
C      60.65944501      87.60015760      96.12829107
O      58.93601461      87.15418219      97.56070361
N      60.36086825      88.78123654      93.97022362
H      61.85942121      88.95887082      92.80237277
C      57.97603364      89.67318736      93.02158102
H      56.64188686      88.14628850      92.65875356
C      56.62109987      91.63094382      94.72989361