 %block lattice_cart
   137.614   0.000   0.000
   0.000 142.646   0.000
   0.000   0.000   160.855
 %endblock lattice_cart

 %block positions_abs
N      92.14700970      41.32737424      80.78182369
H      91.53095892      39.68898153      80.02215371
H      92.01283912      40.95131869      82.64887328
H      93.96303668      41.66563524      80.29994348
C      90.48405053      43.33804303      79.75948175
H      91.09443214      45.24288715      80.25459005
C      90.78262729      43.66874514      76.86064159
H      89.56375382      42.36483398      75.83452020
H      92.71392758      43.35883003      76.21813464
C      90.38389505      46.46931953      76.11042024
H      88.44881530      47.13639293      76.33529767
H      91.05474789      46.66396134      74.17345077
S      92.08842817      48.71242467      78.06439725
C      91.48938494      51.79078882      76.58474155
H      91.06608625      51.58858812      74.57785220
H      93.33186810      52.71108555      76.64332306
H      90.05130321      52.86415338      77.59763485
C      87.71749121      42.90529571      80.33962773
O      86.45137458      40.89462691      79.91821876
N      86.62333968      44.84793435      81.25047581
H      87.67780697      46.40317912      81.58684710
C      83.79252966      45.14462139      81.82495261
H      82.65680414      44.05991848      80.49458529
C      83.52418852      43.98810889      84.46679000
H      84.06653998      41.99822708      84.45167219
H      81.53052726      44.24511167      84.92410377
C      84.70904692      45.56225090      86.45856153
O      83.88134680      47.55969161      87.10484793
N      86.39846224      44.47187881      87.85695900
H      87.17325003      45.63595023      89.15709071
H      87.10899935      42.73522034      87.51680827
C      82.95538090      48.02456428      81.49236078
O      84.49739758      49.83303237      81.09362853
N      80.61401001      48.58581300      82.02337387
H      79.48584339      47.07214223      82.30305337
C      79.33655501      51.14828189      82.08573484
H      79.55387354      52.00243818      80.22435442
C      76.52653198      50.73065236      82.75469796
H      75.75930310      49.41918230      81.36196967
C      75.94449629      49.66862617      85.43432987
H      76.31110319      51.03678804      86.92910338
H      77.21628209      48.13605814      85.95778406
H      74.02264462      48.97320689      85.70267101
C      75.05632492      53.30634934      82.69044726
H      75.57033047      54.76143860      84.05293994
H      73.05699448      52.87360201      82.92855278
C      75.23395920      54.34947826      80.16010373
H      76.76274778      55.69685312      79.85774752
H      73.72028841      55.73275792      79.95601329
H      75.21128247      52.93029379      78.66721994
C      80.39102229      53.18351713      83.88475429
O      80.58944357      55.37748938      83.25925488
N      80.67448125      52.35770672      86.25825054
H      80.50062643      50.50010575      86.65698279
C      82.03130473      53.73531721      88.30671387
H      81.11856693      55.55512365      88.61851871
C      82.00862803      52.24621287      90.80871150
H      83.15758163      53.35926166      92.10695348
H      83.01585214      50.47742905      90.49312721
C      79.30065021      51.62260319      91.85184043
C      77.76241300      53.30823906      93.04803718
H      78.30287473      55.25843662      93.30692969
C      75.24718727      52.60526087      93.66975714
H      74.16437409      54.19074124      94.36139697
C      74.33067002      50.19019065      93.42220299
H      72.55243756      49.56091179      94.20454969
C      75.98040109      48.54801847      92.18821171
H      75.47584416      46.58081338      91.98790072
C      78.44271448      49.15651035      91.49279243
H      79.72583864      47.74866425      90.75957862
C      84.58621472      54.51388445      87.32027673
O      85.28730318      56.66061354      87.93254806
N      86.09988549      53.09658972      85.92187926
H      85.53485732      51.29379081      85.64786894
C      88.45826393      53.98098162      84.78615374
H      89.62800451      55.14883248      86.01447585
C      90.08909773      51.74543540      83.87908511
H      91.73693908      52.69407801      83.08728979
H      89.14612431      50.73443183      82.35218625
C      91.00750472      49.78200975      85.76503197
H      92.44936591      48.66329178      84.81072019
H      89.56375382      48.43085544      86.34517795
C      92.02984667      51.06513392      88.15364603
O      91.18891845      50.45286259      90.23045525
O      93.68902636      52.72242390      88.19899947
C      88.05764196      55.88582574      82.63753493
O      89.39367846      57.76988289      82.47690819
N      86.27940950      55.31701812      80.87442028
H      85.42525320      53.62571308      81.10496689
C      85.62745391      56.75698958      78.62375624
H      87.18647813      57.00265400      77.29716837
C      83.46182756      55.54378528      77.15732862
H      81.81776566      55.92173055      78.33840756
H      83.82465501      53.52366785      76.96646626
C      82.91947611      56.39794158      74.43612273
H      84.44448525      55.60614625      73.30228694
H      82.98939598      58.42939736      74.09219254
S      80.02252566      54.92206533      73.54417191
C      79.75607425      55.42284281      70.07463440
H      80.00740785      57.41839378      69.62676926
H      77.96839317      54.74443105      69.31307469
H      81.15069228      54.27199948      69.08630754
C      84.89046065      59.54433590      79.44767691
O      86.16224646      61.26965602      78.61808706
N      83.10655901      59.80700785      81.37897720
H      82.21271846      58.20640967      81.90999030
C      82.42436782      62.32412329      82.35785543
H      81.76296361      63.52787895      80.82339767
C      79.99229005      62.06901025      84.13608789
H      79.58410917      63.79622010      85.17921682
H      80.60078191      60.54211138      85.37763808
C      77.62068353      61.31878889      82.66966027
H      77.66981641      59.58590987      81.55850120
C      75.39836537      61.09013202      84.61607838
H      73.59367675      60.92572583      83.63720015
H      75.34356332      62.71718637      85.87841555
H      75.53253595      59.39504752      85.78014979
C      76.67771010      63.36725223      80.88386891
H      76.29787511      65.05477783      82.00258689
H      74.85979338      62.91749737      80.02971261
H      78.04965140      63.75653585      79.39854403
C      84.41047016      63.87936806      83.86018785
O      84.48605922      66.13381155      83.75436318
N      86.01295809      62.56222881      85.28693122
H      85.74272722      60.67439222      85.38519699
C      88.39779269      63.47307689      86.28848616
H      87.95559672      65.20973538      87.30515892
C      89.45603943      61.62303483      88.42765635
H      91.49883357      61.85925063      88.31805222
H      88.62267012      59.81834620      87.87963572
C      88.41102077      62.40349181      91.04681702
H      86.36066773      62.54333156      90.90319782
H      89.00250511      64.35557909      91.33216569
C      89.31619968      61.13548545      93.38629819
H      88.59054478      62.18806300      95.00012447
H      91.37222191      61.29422245      93.40141601
N      88.70203863      58.41427956      93.60739617
H      87.47938569      57.93050962      94.98878611
C      89.74705728      56.42817720      92.63607685
N      91.84087403      56.57368613      91.29059171
H      92.46637344      55.09780988      90.25502169
H      92.93124611      58.11381308      91.57971984
N      89.12155786      54.18129261      93.25779681
H      90.01161895      52.81313076      92.27135967
H      87.65890970      53.68240487      94.37840451
C      90.43491765      64.45006541      84.44222356
O      91.68969592      66.28687937      85.11874558
N      90.54452177      63.13103643      82.22557459
H      89.69414493      61.43028276      82.06116840
C      92.15834804      63.97385437      80.17900099
H      93.83453528      64.79399559      81.05205455
C      93.09565230      61.70429307      78.63698432
H      91.46292876      60.80478334      77.76393077
C      95.09309301      62.40160207      76.53560866
H      94.16334767      63.86613997      75.42633932
H      95.63544447      60.83123952      75.31673519
H      96.68802203      63.43339264      77.32740399
C      94.56396964      59.86558936      80.45112158
H      93.82130721      59.91472225      82.37108352
H      96.48015212      60.61959016      80.48135720
C      94.81908269      57.28044377      79.32106525
H      95.48426636      57.25965677      77.37086769
H      92.91801803      56.48486899      79.29649881
H      95.89622669      55.92739973      80.44167295
C      90.90356977      66.05822249      78.61997679
O      92.42857892      67.71929192      77.74692323
N      88.33165227      65.89381631      78.27415687
H      87.31497950      64.40660170      78.90343573
C      87.15057333      68.03487621      77.03071696
H      88.09354676      68.52998451      75.26760231
C      84.31409412      67.41504599      76.39954837
H      83.15758163      69.05343869      76.86631077
H      83.53363716      65.88625740      77.53905333
C      84.00606874      66.70261917      73.59141507
O      85.53107787      67.53787820      72.04372922
O      82.25807190      65.18894839      73.21724926
C      87.16569114      70.43860808      78.58029253
O      88.16535636      72.30376795      77.64298828
N      86.31342456      70.60301428      80.86308192
H      85.48761416      69.06099760      81.62842108
C      85.98083274      73.17682152      81.99880743
H      86.29830675      74.74907380      80.70623463
C      83.11789737      73.46217019      83.00414183
H      83.09900010      75.34055815      83.84318031
H      82.91191721      71.80110075      84.20789749
C      80.89557923      73.49240581      81.01237030
H      79.03041935      73.59445102      81.87597522
H      81.12801556      71.74251924      79.95034411
C      81.17525872      75.96416783      79.31728579
O      81.02408062      78.16758871      80.24703114
O      81.24139913      75.77708492      76.96268681
C      87.87811795      73.56232569      84.11152145
O      88.40724131      75.79220274      84.50080507
N      89.17258047      71.81054939      85.35685109
H      88.90234961      69.99263267      84.85229417
C      90.87522388      72.20739192      87.38263770
H      92.20559120      73.66248117      86.77981500
H      92.01094940      70.53687385      87.78514940
C      89.41824489      73.13524754      89.77881066
O      87.14112468      72.88958311      89.77125176
N      90.64278755      74.20294291      91.75546439
H      92.51739604      74.43159979      91.48334380
C      89.41824489      74.87190601      94.24990312
H      87.36033295      74.80576559      94.24423394
C      90.33476215      72.88580366      96.24545411
H      92.38511521      72.79698652      96.41741920
H      89.70737303      70.98284926      95.76924308
C      89.44470107      73.34500716      98.93831410
H      89.87933811      75.33299924      99.25389840
C      86.57420680      73.08422493      99.45042993
H      86.15846701      71.07355612      99.58649023
H      85.48761416      73.87035108      97.88762627
H      86.03374507      74.00641137     101.21165486
C      90.87711361      71.84645418     100.85638631
H      90.04752375      72.24329671     102.69886947
H      92.79329609      72.60234472     100.81670206
H      90.97348966      69.80932922     100.56725818
C      89.80374907      77.62523726      94.94532240
O      91.76150552      78.77230112      94.39919150
N      87.83276452      78.54364424      96.23222602
H      86.39846224      77.38335229      96.72544459
C      87.74394739      81.16658437      97.16008164
H      89.53918738      81.81476050      97.93108998
C      86.28129921      82.82576407      95.44609988
H      85.38178949      84.34321429      96.50812606
H      84.89424010      81.92058517      94.22344695
C      88.21637896      84.11077796      93.64330097
H      89.82264632      82.84655106      93.37873929
H      89.15368322      85.82098027      94.30659491
C      87.41324528      84.60210681      90.96177934
H      88.97793867      85.73027341      90.23234498
H      85.76351421      85.81531109      91.18287731
N      86.78396642      82.47238524      89.20055441
H      86.21893825      80.79808773      89.92242986
C      86.87278356      82.52907704      86.77792528
N      87.57009257      84.58887871      85.53070591
H      87.18647813      84.74761573      83.66743577
H      88.17669470      86.04207825      86.60596018
N      86.00161973      80.62234319      85.50236002
H      85.67280734      80.74139594      83.62586179
H      85.57454158      78.98584019      86.38864166
C      86.24728415      81.14957682      99.66585873
O      84.36511673      79.81920951      99.87372863
N      86.97293905      82.53474621     101.66329945
H      88.33921118      83.83109846     101.35527406
C      85.90146423      82.59143801     104.18419435
H      84.18937218      81.44626385     104.18041489
C      87.84410288      81.57098579     105.94352954
H      87.27340553      81.60689059     107.92207299
H      89.62044561      82.59899692     105.75644664
C      88.62078039      78.64002029     105.63550416
H      89.86044086      78.48506273     103.99711144
C      90.15145871      77.82554824     107.99199287
H      90.70892796      75.88290960     107.59892980
H      89.10455032      77.81043044     109.76455615
H      91.90323499      78.90269224     108.08647918
C      86.22649716      77.00162758     105.36716302
H      85.52729841      77.23784337     103.44342163
H      84.79597434      77.48350779     106.76933994
H      86.79908423      75.09489373     105.89439666
C      85.06242575      85.12367126     105.04401982
O      84.45582359      85.47893982     107.27956605
N      84.92069628      87.00583868     103.36972231
H      85.72382996      86.84899139     101.64440218
C      83.53741661      89.29240751     103.75522647
H      82.67192195      89.26217189     105.62605552
C      85.53107787      91.45425441     103.71743195
H      86.32476292      91.27284069     101.82770564
H      86.97293905      91.07252970     105.13850614
C      84.58243526      94.10743016     104.09726694
H      83.37867959      94.37010211     105.74888773
H      83.27663437      94.79906999     102.66485439
C      86.61578077      96.15022430     104.35237999
H      87.63623298      95.98770783     106.13439190
H      85.77863201      98.03050199     104.34293136
C      88.27873992      95.87810371     102.05258307
H      87.06931508      95.66834409     100.40096227
H      89.28029488      94.08097398     102.14895911
N      90.20626076      97.91333896     101.97321456
H      91.57442262      97.40878202     100.74111301
H      90.79018619      98.48970547     103.69664496
H      89.40123736      99.50259879     101.28724391
C      81.54753480      89.61177125     101.77668302
O      81.74217662      88.41557450      99.75467587
N      79.72772836      91.36543728     102.19242281
H      79.70127220      92.12888670     103.94230938
C      77.88524520      92.14589424     100.34804993
H      77.14636222      90.35065425      99.66774846
C      75.58355855      93.89389108     101.24566993
H      76.22417577      95.70802835     101.98455292
C      73.72595760      94.57041311      98.95154219
H      73.15714998      92.97359436      97.77991187
H      74.63869540      96.09164279      97.90463381
H      71.91748951      95.38488514      99.50523200
C      74.17004328      92.45202991     103.26200791
H      75.39080648      92.13455588     104.89095199
H      73.46895481      90.72293032     102.39084408
C      71.81733402      93.90333972     104.22198887
H      70.38303175      94.02050275     102.74800235
H      72.21417654      95.83464000     104.81725266
H      70.86491195      92.77706283     105.65629115
C      79.21561253      93.51216636      98.18809276
O      80.61589973      95.36598788      98.57926610
N      78.94538167      92.63533336      95.81648623
H      77.71894929      91.25016398      95.34783411
C      80.16047568      93.56129925      93.61684481
H      80.82754908      95.41701049      94.21210859
C      82.54531030      91.89645038      92.83260839
H      83.66024882      91.46559278      94.51068535
H      83.76607350      92.93957930      91.54381504
C      81.77619168      89.37744519      91.68932397
C      81.72516907      89.11288351      89.03992768
H      82.12579106      90.68513581      87.80026721
C      81.26785531      86.72804890      88.05538027
H      81.32265738      86.25372760      86.07116764
C      80.73873195      84.56809173      89.57283050
O      80.18882158      82.26262562      88.69788721
H      80.10756335      82.28152289      86.88752940
C      80.65558398      84.92336027      92.23167542
H      80.27574899      83.30953401      93.42409272
C      81.36045190      87.28173872      93.22945091
H      81.58910879      87.58031548      95.23634026
C      78.41436857      93.82397121      91.35484241
O      76.49062718      92.39911756      91.23578965
N      78.92270496      95.51716599      89.55582296
H      80.48928807      96.60753806      89.63708119
C      77.43926980      95.50582762      87.07461231
H      75.56466130      94.73859875      87.44499867
C      77.51296913      98.08152460      85.86896692
H      76.78542450      98.07585542      83.94144608
H      79.50663038      98.54639726      85.64786894
C      76.33944909     100.11675983      87.50546991
H      77.58288899     100.37565233      89.12874481
H      74.44216386      99.52527550      88.04971109
C      76.28086756     102.62820611      86.10140326
H      74.97884613     102.51671224      84.50836398
H      78.07988701     103.55795145      85.71778882
C      75.06766328     104.41588719      88.17065357
H      76.31299291     104.49525569      89.81093601
H      73.20817258     103.63165077      88.57883445
N      74.42326661     107.00859169      87.28626166
H      73.05132529     106.98969444      85.95967378
H      75.83489216     107.90999115      86.37163412
H      73.59745620     108.12353022      88.59962144
C      78.51641380      93.65389584      85.09795859
O      80.73684221      93.55940953      84.48946671
N      76.78164505      92.11376889      84.32695025
H      75.01097148      92.16668123      85.03370789
C      77.15770058      90.50183236      82.04983004
H      79.13246458      89.91601719      81.99502798
C      75.68182433      88.10565938      82.30494310
H      73.71839869      88.72171017      82.21612596
H      76.05599014      87.33087160      84.17577215
C      76.11457165      86.18569745      80.19978798
O      74.16437409      85.39957130      79.10941590
O      78.32555143      85.27673909      79.91254958
C      76.75329914      92.15912232      79.64987763
O      76.87046218      94.47592678      79.93522630
N      76.89124917      90.99127146      77.44078757
H      77.05943480      89.09398624      77.55795060
C      77.80209726      92.33108742      75.19012353
H      79.52174819      93.35720881      75.66822428
C      78.56176723      90.48671454      73.02071772
H      79.08522142      91.59220443      71.36342774
C      80.99195527      89.00327938      73.66700412
H      82.46027262      90.40545631      74.02605212
H      81.54942453      87.82220043      72.07774429
H      80.58377438      87.72960385      75.23547696
O      76.38858196      88.88422662      72.54450669
H      77.15203139      87.26662090      72.24215048
C      75.87646613      94.27561579      74.04683911
O      76.51897308      95.81385302      72.39332858
N      73.40470411      94.11309934      74.72714058
H      72.82455814      92.84887244      76.03294146
C      71.42238122      95.91967770      74.01849321
H      71.94016623      96.84375386      72.25159911
C      68.93550139      94.39844801      73.39110408
H      68.41015748      93.30618619      75.05595296
H      69.33990282      92.92824094      72.00215524
C      66.45240101      95.70613862      72.45002037
H      65.74753309      96.85320248      74.01093431
H      64.99164258      94.34742540      71.93979427
C      67.12325386      97.26327310      70.08219330
O      66.66782982      96.11998868      68.05451697
O      67.90560054      99.39488438      70.20502551
C      71.04254622      97.86798552      76.07451544
O      69.46273504      99.55740085      75.74381334
N      72.45984097      97.87176498      78.16833220
H      74.23807343      97.18579433      78.08896369
C      71.80599566      99.38921520      80.38309144
H      70.55499683     100.94445995      79.87286533
H      73.47084455     100.31896054      81.16354840
C      70.46051052      98.05317869      82.64320411
O      70.33767832      99.05284391      84.74835922
N      69.30966720      95.76283041      82.09518347
H      69.35313091      95.10898511      80.30183320
C      67.96418207      94.22648292      83.95656389
H      66.28421538      95.22614814      84.60851947
C      67.00420109      91.75472090      82.72257261
H      65.88926258      90.74938649      84.13041871
H      68.62369655      90.59064949      82.21045678
C      65.39982345      91.84353803      80.27348731
C      65.10691587      89.69113977      78.75603708
H      65.94406463      87.92235593      79.33429333
C      63.41372111      89.69302948      76.63954361
H      63.09057790      88.10754911      75.39610370
C      62.06445652      91.90022982      75.91199898
O      60.46574805      91.77172843      73.89944046
H      60.03678018      93.44602595      73.34575065
C      62.39515863      94.09420207      77.46157456
H      61.66950371      95.87810371      76.78316281
C      64.01276434      93.99782604      79.61964200
H      64.27165684      95.72881533      80.67032983
C      69.50619873      93.54429171      86.18266149
O      71.77387032      93.02839644      85.77448061
N      68.61046846      93.71814654      88.55048856
H      66.71318325      93.87499381      88.67332077
C      70.10902143      93.23437660      90.87485192
H      72.07244707      93.79373558      90.60084161
C      69.14904047      94.72537066      93.27102489
H      70.07500635      93.87688354      94.90374842
H      67.09112851      94.71592202      93.18409748
C      69.84068029      97.44279710      93.14441323
C      68.07000673      99.36086930      92.32994119
H      66.20295714      98.92245281      91.63641163
C      68.87125069     101.86097722      92.25246241
H      67.55600118     103.19890344      91.44932872
C      71.31655654     102.44112320      92.90252826
O      71.82489293     104.93934139      92.88930017
H      70.51909203     105.88231482      92.05404114
C      73.04187666     100.66100101      93.73211811
H      74.92782353     101.02193874      94.42375794
C      72.32567040      98.08530405      93.72077975
H      73.53131579      96.48281613      94.10628392
C      69.89737209      90.48860427      91.65341917
O      67.89615191      89.22248763      91.41909310
N      72.00063747      89.48138015      92.70221727
H      73.50296988      90.56230360      93.17086940
C      72.78865335      86.70159274      92.44521449
H      71.08600993      85.55830832      92.26569049
C      73.97729119      86.37278036      89.91487096
H      75.93126821      86.96615442      90.17754292
C      73.81099528      83.77062722      88.75457900
H      71.86646691      83.10355383      88.89630848
H      75.08845027      82.51773868      89.77503121
H      74.49696593      83.93881287      86.81949926
O      73.10045819      88.06786487      87.93443778
H      74.36657482      89.04863282      87.08406094
C      74.39303098      85.99294536      94.66375318
O      75.39080648      87.51039560      96.05837120
N      74.60090088      83.52496281      95.15130257
H      73.76942130      82.19459547      94.06282022
C      76.09945384      82.49884142      97.23756042
H      77.86634795      83.53252170      97.48511457
C      74.74640981      82.60088663      99.74711696
H      74.22106589      84.56431228     100.07970880
C      72.49763548      80.82076444      99.86805945
H      71.49986000      80.89068432     101.66707890
H      72.90392665      78.82143401      99.58460050
H      71.10868665      81.28941658      98.42052909
C      76.45094294      81.68814882     101.94675839
H      77.18415674      79.80976087     101.53101860
H      75.26230509      81.63145703     103.62483536
C      78.60334120      83.65724364     102.37194681
H      79.92425990      83.57598542     100.79402534
H      79.53119682      83.21126824     104.15395873
H      77.69816231      85.50539597     102.46265368
C      77.05187591      79.83810677      96.49678771
O      75.80843598      78.45293738      95.11350805
N      79.04931662      78.90269224      97.62684404
H      80.20015994      80.20282395      98.42052909
C      79.64835985      76.18526581      97.71755090
H      77.86823767      75.18371086      97.98589204
H      80.84455661      76.06243360      99.39184842
C      81.01085252      75.38969103      95.44609988
O      82.42247808      76.75029398      94.18754215
N      80.40614010      73.10501192      94.64296619
H      79.16458993      72.12613368      95.71255129
C      80.54597986      72.34723166      92.00301853
H      82.11067324      73.34122770      91.10539854
C      81.05620597      69.48429629      91.62129382
H      79.41781324      68.44494683      92.31293365
C      81.12801556      69.13469693      88.68087968
H      79.29498104      69.36713327      87.76625214
H      81.57588069      67.14292540      88.41253854
H      82.58688427      70.40648273      87.97412203
C      83.39757686      68.51675642      92.86662346
H      85.03219012      69.70350455      92.46600148
H      83.60733648      66.79332602      91.75735411
C      83.34088507      67.82511659      95.72011019
H      84.61645033      66.22640813      95.96199516
H      81.40013615      67.32433912      96.18687259
H      83.87189817      69.53909837      96.73300350
C      78.19138087      73.36957360      90.65753340
O      76.09000521      72.30943713      90.72556355
N      78.47106036      75.52008215      89.35173252
H      80.27385926      76.12857401      89.19488523
C      76.64747447      76.79186796      87.59428705
H      76.56810597      75.70149586      85.84817993
H      77.24840744      78.69293262      87.07272258
C      73.90359187      77.18871047      88.45411252
O      72.25386080      77.57043520      86.76658692
N      73.19494449      76.97328167      90.88052110
H      74.53476045      76.75974260      92.22411651
C      70.55499683      76.85611864      91.75546439
H      69.70839946      75.59756092      90.36273609
C      70.18461049      75.50685406      94.36139697
H      71.20695241      76.74462479      95.65019032
H      70.93483183      73.59634075      94.20454969
C      67.59379570      75.58433283      95.27035533
N      66.07634547      73.49429554      95.57082181
H      66.49397500      71.77653432      94.85083609
C      64.02221298      74.04987508      96.89551996
H      62.46318876      72.86312695      97.46621730
N      64.12614792      76.51029872      97.32070838
H      62.78066278      77.74995920      97.85928038
C      66.36358388      77.50240505      96.43820619
H      67.03065727      79.42047725      96.64040691
C      69.38525626      79.46016151      91.66664725
O      70.14870569      81.08343641      93.14630295
N      67.34435183      79.81920951      90.20210936
H      66.72074215      78.31309764      89.21000304
C      65.93461601      82.07365300      89.77314148
H      67.09679768      83.58354431      88.98890506
C      63.95796229      81.42547686      87.72845761
H      63.29466834      79.53197110      88.19333029
H      64.99164258      81.28941658      85.95400461
C      61.88682224      83.36055661      87.26736439
H      60.51299121      83.40213060      88.79993243
C      62.93562034      86.04018853      86.88563968
H      61.47675163      87.44425517      86.51336359
H      64.13181711      86.21782280      85.21890107
H      64.31134110      86.47671530      88.35584675
C      60.26921651      82.64812980      84.98835446
H      58.76499438      84.01818137      84.66899071
H      59.15805744      81.00784735      85.55338263
H      61.23864612      82.39301674      83.18933501
C      64.69873499      82.83710242      92.37340489
O      63.29088890      81.26862958      93.47889478
N      65.14093096      85.09532536      93.40330573
H      66.40515785      86.15357210      92.44143504
C      63.53466358      86.15546183      95.35917247
H      62.79767032      84.49628212      96.33427124
C      65.23541726      87.76739837      97.09205149
H      63.90882939      88.57998070      98.43942636
H      66.01398450      89.42468836      96.14718834
C      67.41805117      86.29908104      98.47155170
H      68.39126021      85.03296441      97.16953027
C      69.20195280      88.35888271      99.39373814
H      68.19850812      89.92546583     100.27624033
H      70.29043516      89.08642735      97.80447831
H      70.72507221      87.67669152     100.60316298
C      66.38815031      84.92336027     100.70142875
H      65.22596864      83.35488743     100.04758345
H      65.41116181      86.27829404     101.90896387
H      67.84512931      83.93692314     101.77290357
C      61.10258582      87.57275657      94.41430931
O      59.02010742      87.30819489      95.55003482
N      61.36336806      89.33020203      92.58127479
H      63.12459297      89.54185139      91.87640687
C      59.45852393      91.19347219      91.80648700
H      57.69162982      90.14467407      91.67987533
C      58.97475400      93.25138413      93.82093525