 %block lattice_cart
   137.614   0.000   0.000
   0.000 142.646   0.000
   0.000   0.000   160.855
 %endblock lattice_cart

 %block positions_abs
N      89.98232820      41.21493552      77.56550950
H      89.76500968      40.25495455      79.20012276
H      91.71331750      40.98060945      76.79639089
H      88.71243212      40.44203745      76.36553329
C      89.40785140      43.74149960      78.39131990
H      91.06892083      44.40668326      79.40799266
C      89.07903902      45.61610810      76.29939287
H      87.44064631      45.11344090      75.15421872
H      90.61538652      45.52162178      74.93123102
C      88.93730955      48.33164481      77.24614575
H      87.05703187      48.68313390      78.01337464
H      89.08092875      49.49382649      75.55106125
S      91.27301127      49.40500936      79.47980226
C      94.04712950      50.07964165      77.65432664
H      94.80302003      48.34865235      76.83229569
H      95.50221876      51.03962262      78.75036790
H      93.40462255      51.46481104      76.27104698
C      87.13451065      43.76228659      80.16199345
O      85.05203225      42.99127825      79.36452895
N      87.30836547      44.71092919      82.46745956
H      88.98833216      45.48382726      82.94178086
C      85.37139600      44.45203669      84.48568726
H      84.13551499      42.93269673      83.84507004
C      86.48822425      43.71315370      87.10295820
H      88.10960943      44.94147580      87.42799113
H      87.14962846      41.78563286      86.80249172
C      84.73833768      43.86433181      89.36496060
O      84.74778631      45.53673959      90.88996973
N      82.60294695      42.38656583      89.33850443
H      81.59761255      42.27696170      90.95611015
H      82.14185373      41.35288554      87.80026721
C      83.59694299      46.72159799      84.70489551
O      84.34338488      48.91557024      84.66332153
N      81.00612821      46.33798355      84.98457501
H      80.56015280      44.48416204      85.00347227
C      78.82538405      48.20314342      84.72568250
H      79.02758476      48.61699348      82.71690343
C      76.30448915      46.75561307      85.08662023
H      76.51235904      45.16257378      83.79593715
C      75.87363155      45.68224852      87.75680351
H      75.59017260      47.20347820      89.11362700
H      77.47234001      44.76006208      88.67143104
H      74.38452721      44.26117433      87.74546515
C      74.01792031      48.56597087      84.33072970
H      73.72690246      49.90200738      85.86896692
H      72.31716663      47.43969399      84.04916048
C      74.39586557      49.76783681      81.74558410
H      75.69788700      51.36276582      81.84762933
H      72.52692625      50.41034375      81.17299703
H      75.15175610      48.51494826      80.29238457
C      79.08805601      50.68813352      86.32061151
O      78.30004013      52.74037630      85.70834018
N      80.33527537      50.48593281      88.51836321
H      81.24990291      48.87210654      88.97378725
C      80.99667958      52.58730847      90.07360797
H      79.53214169      54.02350046      89.87518670
C      81.17242413      51.81063095      92.75323988
H      81.89240986      53.46792093      93.73967701
H      82.60294695      50.34420333      92.96110977
C      78.74601554      50.93757740      93.97967226
C      78.33783466      48.39022633      94.33872025
H      79.84772598      47.08820490      93.90030375
C      76.34606313      47.50583441      95.82026568
H      75.88308018      45.52351151      95.98467187
C      74.48468271      49.31052304      96.46088290
H      72.86140781      48.75305378      97.56448307
C      74.81349509      51.91834535      96.12829107
H      73.62674696      53.25060240      97.11850766
C      76.97912144      52.74226602      94.86217444
H      77.38730233      54.73970674      94.74501141
C      83.51568476      53.95547032      89.24023866
O      83.46655187      56.20613436      88.79237353
N      85.55658918      52.52494750      88.74513037
H      84.93864867      50.72403832      88.85851395
C      87.93764433      53.26949967      87.85128982
H      88.88817667      54.56018274      89.14575235
C      89.79524530      50.97159247      87.56216170
H      91.39395376      51.49504666      86.37163412
H      88.76156500      49.64122515      86.37919302
C      90.39239881      49.70925529      90.10951277
H      91.55269077      48.01795024      89.89408397
H      88.69731431      49.02328464      91.05437592
C      91.55835995      51.50638502      92.12585074
O      90.21287481      52.45124817      93.79447908
O      93.84114933      52.12621525      92.03136443
C      87.63717785      54.89277457      85.48346275
O      88.70676294      56.91100227      85.42677096
N      86.28980299      54.03105937      83.58617753
H      85.53769191      52.28117280      83.72412755
C      85.45454396      55.51449453      81.28638061
H      86.79435991      55.30662463      79.73491531
C      83.04703263      54.09153061      80.39065034
H      81.49556733      54.37498956      81.71534848
H      83.52891284      52.09408990      80.52104145
C      82.03602906      54.69057385      77.76771022
H      83.44576488      54.00271348      76.43356344
H      82.18531743      56.74281663      77.66566499
S      78.99167996      53.47547983      76.70190458
C      76.80337689      55.17056434      78.83351586
H      76.58416864      57.16044614      78.35541510
H      77.21533723      54.87576703      80.82906684
H      74.90987113      54.51860876      78.35352537
C      84.93486922      58.35664290      81.73046629
O      85.74934126      60.08007330      80.21868524
N      83.52891284      59.05584164      83.71089947
H      83.05648126      57.65177499      84.91654486
C      82.98845112      61.76192972      84.31183244
H      82.80136821      62.82017645      82.55438697
C      80.39574662      61.99814551      85.53259564
H      80.09150068      63.85196702      86.37541357
H      80.46188704      60.83785355      87.23334932
C      78.24901752      60.97013439      83.73168646
H      78.72522855      59.10686425      82.99658292
C      75.73568153      60.54116652      85.04315652
H      74.46578545      59.66811296      83.67877412
H      74.99868827      62.27971473      85.86896692
H      75.92843361      59.21835810      86.60784991
C      77.80682157      62.71435178      81.49802996
H      76.97723172      64.43211300      82.27470747
H      76.29693024      61.78082698      80.45301131
H      79.44143483      62.83340454      80.25081059
C      85.11817267      63.13576075      85.68755319
O      85.35438846      65.46579329      85.51369837
N      86.76223456      61.84318795      86.91965475
H      86.50712151      59.95535136      87.01603079
C      88.97888353      62.94111894      87.94388641
H      88.43086290      64.57762192      89.06827357
C      90.30358167      61.15910702      89.84873053
H      91.98165864      62.01704277      90.68021011
H      91.00278041      59.46780197      88.89819820
C      88.48566496      60.47124664      91.98223154
H      86.84160307      59.37709511      91.39641639
H      87.74489225      62.18522841      92.85150565
C      89.96343094      58.93678888      93.91164211
H      91.23332702      60.15188290      94.98500665
H      91.03490576      57.68956951      92.67198165
N      88.61038690      57.34941878      95.69365402
H      88.83904378      55.49181781      95.32326766
C      87.24600450      58.15822164      97.62684404
N      87.09104694      60.44479048      98.55469966
H      86.00256459      60.78116176     100.08537797
H      88.06425599      61.82051123      97.66274884
N      86.10649953      56.42723234      98.92697574
H      85.33738092      56.94123789     100.59749380
H      86.28035435      54.60742590      98.37706539
C      90.96120643      63.94456361      86.05038065
O      92.11204976      65.98357830      86.43021563
N      91.21820921      62.54427641      83.97168170
H      90.35649401      60.86241999      83.71089947
C      92.71676218      63.09040731      81.66243615
H      94.33814735      64.20345611      82.26903829
C      93.70508904      60.53549734      80.72135244
H      94.98254403      60.76226450      79.12075426
C      95.30568722      59.10875397      82.67532945
H      94.66884946      58.93300943      84.62741673
H      97.16517792      59.93078492      83.00981101
H      95.75544209      57.24737355      81.91754920
C      91.53379350      58.82907448      79.64987762
H      90.44720087      60.06495549      78.41021716
H      90.33381730      58.15255246      81.18055594
C      92.44086213      56.50849057      78.17778083
H      90.81380778      55.52205343      77.38976495
H      93.31391569      55.24615339      79.55161186
H      93.84303906      57.00548859      76.75670664
C      91.16529687      64.39809793      79.56861939
O      92.39739843      65.01981788      77.63731910
N      88.75211637      64.83840415      79.85207834
H      87.88473199      63.99558622      81.32795459
C      87.10616475      66.36719274      78.03605135
H      88.34393549      66.95867709      76.49970386
C      84.86116989      64.82895552      77.19323342
H      83.74434164      64.31683969      78.84485421
H      85.54903027      63.02426689      76.48080660
C      83.35505802      66.26703725      75.13721119
O      84.52668834      67.04560449      73.15110883
O      81.07982754      66.71679212      75.57184824
C      86.29925162      68.94855889      79.03193712
O      86.07059473      70.75324751      77.57684786
N      86.00823376      69.16398768      81.55472175
H      86.30681052      67.65409636      82.68477808
C      84.88006716      71.44299763      82.87375071
H      84.44920956      72.97178622      81.56417038
C      82.37429007      70.70978382      84.31183244
H      82.77302232      69.36807813      85.82550321
H      81.12896042      69.65153707      83.05894389
C      81.25368236      73.06627252      85.52503673
H      82.71444080      74.01113568      86.62674717
H      79.80615201      72.33116899      86.79304309
C      80.07638287      74.95599884      83.72790701
O      77.90319761      74.52892069      82.80005139
O      81.23289537      76.80415117      82.81705892
C      86.83215444      72.70155535      84.69355715
O      87.03246543      75.11851530      84.66143181
N      87.97732858      71.11985442      86.18266149
H      87.45576412      69.28681990      86.12030052
C      89.54958088      71.99479770      88.35206729
H      91.20498113      73.01147047      87.65853774
H      90.38106045      70.26002895      89.08528110
C      88.27023616      73.50090958      90.55170872
O      86.03468993      73.77114044      90.47422994
N      89.63083911      74.06404801      92.48111929
H      91.52623460      73.84295004      92.43009668
C      88.76723418      75.33205437      94.83193882
H      86.73766812      75.01269063      94.97366830
C      89.71209734      73.94499526      97.35094400
H      91.76811957      74.03759185      97.34905427
H      89.37194660      71.91542920      97.41141524
C      88.81636707      75.19977353      99.79436012
H      89.53635279      77.12540465      99.93042041
C      85.94776252      75.02213926     100.05892180
H      85.39785217      73.07194171     100.41985953
H      84.99911991      75.82527294      98.41674964
H      85.23155625      75.81015514     101.82203645
C      89.76878913      73.66909521     101.90707414
H      91.78134765      73.93365690     102.26234268
H      89.31525481      71.66220587     101.85605153
H      88.85038214      74.18876995     103.67585797
C      89.33037262      78.25924043      94.95855049
O      91.38072567      79.13985289      94.42942712
N      87.31970383      79.68787352      95.79758897
H      85.64918577      78.83560696      96.13962943
C      87.40285178      82.38829243      96.33616097
H      89.35871852      83.03268911      96.41175002
C      86.20854475      83.97566253      94.25557230
H      85.80603305      85.84838131      95.01902173
H      84.41141503      83.19142611      93.62251398
C      88.08882244      84.08904610      91.93498838
H      88.55558483      82.17664308      91.33027596
H      89.71398706      85.28713260      92.34505899
C      86.75467566      85.10760859      89.65408872
H      88.27212589      85.98444161      88.57316527
H      85.26746105      86.33026151      90.38730253
N      85.84004812      83.20276447      87.96089395
H      85.55469945      81.53413613      88.84339614
C      85.22966652      83.43709053      85.48913193
N      85.36950627      85.61216551      84.25703037
H      84.86872880      85.82381487      82.42777530
H      85.75690017      87.14095410      85.33039492
N      84.29236227      81.52468751      84.25514065
H      83.64796560      81.78924918      82.47879791
H      84.10905882      79.82204409      85.10173804
C      86.28602353      82.94576169      98.95154218
O      84.00701360      82.62261849      99.42775322
N      87.69197991      84.26668039     100.76945890
H      89.52879389      84.70131743     100.48222050
C      86.63940235      84.61627975     103.33381750
H      85.13329048      83.24622817     103.65696070
C      89.06959039      84.31770299     105.18574929
H      88.44031153      85.00556338     107.02256327
H      90.62672487      85.53846619     104.60371359
C      90.15996247      81.62862245     105.59204045
H      91.01789822      81.59082792     107.46664895
C      88.09071216      79.60094611     105.66573977
H      87.38017507      79.49890089     103.73443948
H      86.46365781      80.09605441     106.82792146
H      88.86927940      77.75279378     106.13250217
C      92.17819018      80.96721824     103.65318125
H      93.75989110      82.27868831     103.79869018
H      91.32025443      81.11272716     101.78613165
H      92.88494782      79.03213849     103.59271001
C      85.23911516      87.03701915     103.77223401
O      83.77646699      86.98788627     105.64306306
N      85.32226311      89.09115166     102.33037283
H      86.55814412      89.05335713     100.87528357
C      84.10149992      91.49488353     102.72721536
H      82.51224009      91.26811638     104.01600870
C      85.92886526      93.69452495     103.50578260
H      86.66963797      93.49988314     105.41629590
H      85.00856855      95.53322866     103.62861481
C      88.27968479      93.84381333     101.87683852
H      87.74300252      93.67373796      99.89451561
H      89.42863839      92.21486925     102.38895435
C      89.99555629      96.17006642     102.33415228
H      91.74166340      95.71464238     101.33826652
H      90.48499540      96.44218702     104.31647519
C      88.91841229      98.58702639     101.56125422
H      90.35838374      99.93440125     102.14895911
H      87.18364353      99.14260591     102.51934546
N      88.52912867      98.55301130      98.76445928
H      88.07370463     100.32746431      98.22777701
H      87.33482164      97.16973164      98.21643865
H      90.00500492      97.74231872      97.86494955
C      82.49712228      92.13172130     100.49922803
O      83.26057171      91.66495889      98.33927086
N      80.19354590      93.08036390     101.13417608
H      79.60017184      93.50744205     102.89540100
C      77.98823529      93.21264475      99.36728197
H      77.64430510      91.27756500      98.75690037
C      75.85473429      94.33136272     100.90362947
H      75.58450342      92.73643372     102.17730500
C      76.32338641      96.72375623     102.57414753
H      76.58227892      98.25065509     101.21921376
H      77.93343323      96.48754045     103.83837443
H      74.68499370      97.04878916     103.77790319
C      73.36785446      94.50521754      99.37106143
H      73.08061606      92.91595771      98.09549616
H      73.38486199      96.14738972      98.12762151
C      70.93955615      94.39372370     101.10583018
H      70.56539034      92.55501999     101.95620702
H      69.44100318      94.83969910      99.76601423
H      71.13230823      95.72598074     102.66485439
C      78.67420594      94.72631552      97.10527958
O      80.09716986      96.55557060      97.23378097
N      77.97311748      93.73042975      94.93587377
H      77.00935706      92.08825759      95.07760324
C      78.99356969      94.56001961      92.48111929
H      79.80048283      96.45352537      92.62095904
C      81.17998304      92.69674946      91.64586026
H      82.24389895      92.61360150      93.40519546
H      82.31003937      93.63594344      90.20021963
C      80.35039318      90.14372922      90.78603479
C      79.80615201      89.94908741      88.23490426
H      80.01213217      91.65928971      87.14264245
C      79.28647727      87.60015759      87.13697328
H      78.90853201      87.40173633      85.13953256
C      79.65119445      85.41185452      88.70922557
O      79.46222182      83.06859391      87.68877336
H      78.87262721      83.18386720      85.97668132
C      80.21244316      85.76901280      91.16964923
H      80.25779659      84.14384817      92.40175078
C      80.35228291      88.14628851      92.36962544
H      80.73778708      88.38817348      94.35761752
C      76.87896595      94.79056622      90.55737790
O      74.96089374      93.44130164      90.85217521
N      77.24179340      96.26266301      88.51458376
H      78.56271209      97.62515568      88.70166666
C      75.70166645      96.09069793      86.23557382
H      73.92910317      95.18929847      86.76658692
C      75.16876363      98.79300656      85.20000380
H      74.19744431      98.51710650      83.40476381
H      77.02636460      99.66228065      85.01103117
C      73.68910793     100.48809105      87.04248696
H      74.72278822     100.76588082      88.80371188
H      71.88819875      99.55645598      87.40153496
C      73.17888183     103.07512637      85.75747307
H      72.28882073     102.73119618      83.93199745
H      74.83995126     104.29211012      85.81038540
C      71.32506031     104.36203000      87.58294869
H      72.52314680     104.80611568      89.19866468
H      69.85107379     103.02977294      88.12718986
N      70.17232726     106.68261390      86.42832591
H      71.38742128     108.05455521      85.89542309
H      68.84762912     107.36291539      87.62263294
H      69.33517851     106.14971109      84.79749210
C      76.97534199      94.51277645      84.24947147
O      79.05971011      95.05512791      83.29704941
N      75.59206233      92.63060904      83.30082886
H      73.86485248      92.54935081      84.10963172
C      76.08150144      91.29268282      80.92355316
H      78.09028051      90.88639165      81.13520251
C      74.87585606      88.60927145      81.03504701
H      72.82739273      88.70375777      80.84418465
H      75.13852801      87.79857886      82.90965551
C      76.04559664      86.79891364      79.14721042
O      78.16397984      85.98633132      79.82751190
O      75.16687391      86.36238686      77.02882723
C      75.73379180      92.94052415      78.48013704
O      75.63174658      95.17229094      78.74469872
N      75.64497466      91.80290891      76.25970862
H      75.52592191      89.90751342      76.06884626
C      76.10039871      93.14272487      73.78983633
H      77.29848519      94.75844087      74.23392201
C      77.15486599      91.41173557      71.63932778
H      75.79048359      89.97932302      71.06863044
C      78.02414009      92.84981730      69.33197195
H      79.03703340      94.56379906      69.86676450
H      76.36873984      93.48098588      68.28128412
H      79.22600603      91.69897398      68.11687794
O      79.11640190      89.97365385      72.75993549
H      80.24645824      91.17929924      73.50826711
C      73.78926343      94.66584428      73.01882799
O      73.99713332      96.81257337      72.16656142
N      71.51025349      93.63027426      73.29661776
H      71.50836377      91.76133494      73.68968083
C      69.10463190      94.87182445      72.90355469
H      69.05360928      95.69574513      71.01571810
C      66.96168226      92.96320087      72.75615603
H      66.79538634      91.82180618      74.46446862
H      67.48135699      91.69330479      71.21791881
C      64.35574967      94.16128735      72.15900252
H      63.80205986      95.65417114      73.46480340
H      62.93278576      92.67596248      72.26671692
C      64.41244146      95.25354916      69.51338568
O      63.79828041      97.40216799      69.16378631
O      65.33084845      93.90617431      67.69546897
C      68.76637089      96.97697956      75.06918104
O      68.06906188      99.07457577      74.53060904
N      69.29171480      96.23998631      77.44834647
H      69.62997581      94.42395931      77.92077805
C      69.65265253      97.87837902      79.67255434
H      69.08762436      99.79834095      79.18311522
H      71.63308570      98.02955712      80.22057497
C      68.19189409      97.10548095      82.05171977
O      68.18622491      98.69474078      83.83184195
N      67.09207337      94.92851624      82.40698831
H      67.37364259      93.57169275      81.09551825
C      65.63698411      94.29545792      84.75780785
H      64.65621615      96.01699859      85.32661547
C      63.96268660      91.91629249      84.22868448
H      62.79483574      91.59125957      85.89353336
H      65.16833199      90.32892240      83.71278920
C      62.50570761      92.56257890      81.96479236
C      62.59452475      91.11126909      79.61019337
H      63.56962352      89.31791881      79.66499543
C      61.16778138      91.62716438      77.44834647
H      61.43423279      90.69174985      75.65499620
C      59.61253663      93.75310647      77.53905333
O      58.05918160      94.41640041      75.54917152
H      57.18423831      95.99621160      75.72302635
C      59.51238113      95.18551901      79.78971737
H      58.32563301      96.84469873      79.84829889
C      60.80117448      94.60159358      81.98368962
H      60.79550530      95.70519375      83.70145084
C      67.43222411      93.62460508      86.99713353
O      69.54682785      92.64194740      86.72879239
N      66.63475960      94.16884626      89.33094553
H      64.96802100      95.09670188      89.36685032
C      68.39787425      93.80034964      91.51924860
H      70.17421699      94.53545317      90.77469643
C      67.53048988      95.19874710      93.79258935
H      68.61708251      94.39372370      95.34594438
H      65.54438752      94.90394979      94.24612367
C      68.01803927      98.02010849      93.86250922
C      66.14721022      99.85503273      94.51635453
H      64.19512293      99.29189429      94.71855524
C      66.72735619     102.37781736      94.75257032
H      65.27226693     103.71763333      95.25712724
C      69.21612575     103.23764284      94.29147710
O      69.76414638     105.66783087      94.58816413
H      68.22401943     106.59190704      94.83949773
C      71.08695480     101.44618229      93.83038388
H      73.02392427     102.07357143      93.68487495
C      70.50680882      98.90827985      93.55259411
H      72.13764263      97.71586256      93.26346598
C      68.70967910      90.99221633      92.11829184
O      66.91443910      89.53901679      92.39419188
N      71.09073425      90.19664155      92.40175078
H      72.47590364      91.50433216      92.27324939
C      72.09228920      87.55291444      92.28836720
H      70.48224238      86.26790055      92.29970556
C      73.36029555      87.19764589      89.71455997
H      75.13096911      88.24644399      89.76936203
C      73.90642646      84.40463041      89.09095028
H      75.35395681      83.63362206      90.33439020
H      74.52058751      84.29502627      87.12563492
H      72.13575290      83.43520080      89.50102089
O      71.93166246      88.06692000      87.76247269
H      71.91654465      89.85460109      88.07238780
C      74.20500321      87.18252809      94.36139697
O      75.57505479      88.94942219      95.11728750
N      74.62830191      84.84493663      95.31381903
H      73.42832570      83.46921588      94.75634977
C      76.47834397      84.03613377      97.31125974
H      78.28303260      84.99422501      97.04291861
C      75.52025273      85.06792433      99.79247039
H      74.58483820      86.90095887      99.68286627
C      73.57194490      83.11394734     100.58804517
H      74.15964978      81.18453676     101.00756441
H      71.84473505      83.25189735      99.47310665
H      72.82550301      83.74889537     102.40029271
C      77.87296199      85.62350387     101.54046723
H      78.95388544      87.15418218     100.68064176
H      79.07104847      83.95109608     101.44220147
C      77.19832969      86.39640194     104.24277586
H      76.37440902      84.92619486     105.42385481
H      75.89441854      87.98944121     104.14828955
H      78.96333407      87.00678353     105.11204996
C      77.32872081      81.31492789      97.06181587
O      76.04181719      79.75401394      95.81081705
N      79.39608140      80.48911749      98.33738113
H      80.75668434      81.58893819      99.10649974
C      79.83260817      77.85672872      98.74745174
H      78.08083188      76.97044708      99.37295115
H      81.24990291      77.45988621     100.18553347
C      80.71888981      76.67187033      96.33616097
O      82.27980375      77.64129992      94.96232994
N      79.55292868      74.45144192      95.94687735
H      78.35106274      73.77491989      97.26968577
C      79.85339516      72.98312456      93.65652906
H      81.48611870      73.69555138      92.62284876
C      80.78125078      70.30916183      94.29525655
H      79.12207108      69.33973223      95.03791899
C      81.40108101      68.49880402      92.06726923
H      82.62373394      69.18666440      90.55926763
H      79.59639238      68.18510946      91.12429580
H      81.97744754      66.64120306      92.74379125
C      83.03569427      70.26758785      96.29647671
H      82.62373394      71.63574970      97.78180160
H      84.56259314      71.25969417      95.33082657
C      83.59127381      67.76370049      97.63251322
H      85.54336109      67.91865805      98.26557153
H      83.42308817      66.07428516      96.46466236
H      82.17019962      67.57283813      99.11216892
C      77.64430510      73.36673900      91.83483289
O      75.91331580      71.76614083      91.64397053
N      77.66887155      75.76669143      90.74257108
H      79.21655740      76.86084296      90.96366906
C      75.72623290      76.73045185      88.90575710
H      75.54292944      75.15253037      87.59428704
H      76.48590287      78.31593222      87.83428229
C      73.06171879      77.43154030      89.86006889
O      71.39498019      77.80759585      88.37852346
N      72.65542764      77.46366565      92.39608160
H      74.01792031      77.36162043      93.73022838
C      70.06839231      77.81515475      93.47133588
H      68.81550377      76.41864700      92.62662821
C      70.00225189      77.48445265      96.42308838
H      70.90743080      78.87907067      97.63629267
H      70.77326023      75.63252085      96.89174050
C      67.40387821      77.19910397      97.40952551
N      65.98091430      75.12607420      97.66841802
H      66.60074453      73.38752600      97.17897890
C      63.54883653      75.66653593      98.29013797
H      62.13910071      74.36640422      98.98744698
N      63.43734268      78.22900481      98.79280517
H      61.93123081      79.03402822      99.64318202
C      65.80894921      79.17008852      98.01990711
H      66.25681434      81.15241141      97.84794202
C      69.14620587      80.52313255      92.92331525
O      70.23468823      82.31459311      93.82093524
N      66.94656445      80.83304767      91.67798561
H      66.19823283      79.30803854      90.80115260
C      65.54249780      83.16119049      91.03925811
H      67.07506584      84.53880097      90.96933824
C      64.16866677      82.76623770      88.57694473
H      62.60208365      81.48878271      88.97000780
H      65.29305392      81.71366013      87.21067260
C      63.10475085      85.11516750      87.07083285
H      64.72991548      86.23199575      86.47556907
C      61.60430816      84.33471053      84.72001332
H      61.45879923      86.10349435      83.67688440
H      59.65789006      83.84716115      85.18677572
H      62.52082542      82.89662881      83.56350082
C      61.54194719      87.00300408      88.75835845
H      60.09630656      85.99577995      89.82605382
H      60.51960526      88.32770222      87.55838224
H      62.70223915      88.16140631      90.00935727
C      63.59418997      83.49945150      93.08016253
O      62.08240892      81.83082316      93.51668931
N      63.78694205      85.65751894      94.31415381
H      65.13053746      86.88584105      93.73967701
C      62.24870483      86.32081288      96.53647196
H      61.67611776      84.59549276      97.50590156
C      63.87386946      87.96487477      98.44509553
H      62.68145216      88.82470025      99.88506698
H      64.83951961      89.57492160      97.59660842
C      65.97146567      86.31514370      99.72632997
H      66.77459935      85.13217503      98.24289482
C      68.00103173      87.81180695     101.16819115
H      67.01459459      89.10249002     102.43241805
H      68.93266680      89.06469549      99.82459574
H      69.34462714      86.57403622     102.12061321
C      64.82062234      84.52179344     101.68030698
H      63.56584407      83.13473432     100.82048151
H      63.63954340      85.61405525     102.96532087
H      66.22279927      83.48244396     102.77634824
C      59.71836130      87.66251856      95.80514787
O      57.68501579      87.08048286      96.86717406
N      59.80906816      89.63728256      94.18376270
H      61.27171633      90.01144837      93.01402211
C      57.46391781      90.96198071      93.44487971
H      55.93701895      89.62216476      93.10661870
C      56.58897452      92.77611798      95.59916771