 %block lattice_cart
   137.614   0.000   0.000
   0.000 142.646   0.000
   0.000   0.000   160.855
 %endblock lattice_cart

 %block positions_abs
N      86.89168082      41.73366539      78.26659796
H      85.30620045      42.00389625      77.23858685
H      86.74428217      40.01968362      79.09618782
H      88.41102077      41.83949006      77.11764437
C      87.05797673      43.83693077      80.12041948
H      88.58676533      43.65173760      81.48858133
C      87.38300965      46.29168525      78.69367611
H      85.46871690      47.02678879      78.48769594
H      88.27496048      45.94019616      76.87009022
C      89.02518183      48.19652938      79.98435918
H      88.19748171      48.43841435      81.85329851
H      89.01762292      49.99743855      78.98469396
S      92.29440834      47.16284909      79.88987287
C      93.50761264      49.17162816      82.40887804
H      92.98415845      51.15584078      82.24825131
H      95.56552459      49.24910693      82.46556983
H      92.58542619      48.70675548      84.19088996
C      84.55030991      43.74433419      81.61897244
O      82.49995687      43.46654442      80.45868049
N      84.72983392      43.88228421      84.11530090
H      86.44381569      44.20920686      84.89197842
C      82.40925001      44.25833974      85.62708195
H      80.94849156      42.81458884      85.47779357
C      83.08388229      44.12983835      88.42954608
H      84.66369350      45.37138854      88.89252902
H      83.69615362      42.18342025      88.71111530
C      80.93337376      44.64951309      90.08683605
O      80.56865658      46.67340997      90.95799988
N      79.35167282      42.77301486      90.58194435
H      78.03264386      42.94875941      91.95388565
H      79.77308179      40.97399541      90.10384359
C      81.29998065      46.91718466      85.08662023
O      82.64924525      48.74077056      84.47623863
N      78.72428369      47.24221759      85.10362776
H      77.55076365      45.73799545      85.19433463
C      77.49596159      49.61193439      84.71245442
H      78.09311510      50.30546394      82.86619181
C      74.60657006      49.05635485      84.44789273
H      74.37602345      47.53323544      83.07784116
C      73.48029317      48.05102045      86.92721366
H      73.80532611      49.51555834      88.33883921
H      74.28153713      46.25200100      87.53003635
H      71.46017575      47.66551628      86.81760953
C      72.97006708      51.26544491      83.41988162
H      72.98329515      52.79990268      84.79560238
H      71.02175924      50.93096335      82.83784592
C      74.20405836      52.52400264      81.06906209
H      72.84156569      53.80523708      80.20734689
H      74.40058989      51.01600104      79.67822352
H      75.97851137      53.49532196      81.45267653
C      78.22350622      51.77378129      86.51336359
O      78.74318095      53.79200899      85.52881618
N      78.58255422      51.30512916      88.97000780
H      78.39925077      49.51555834      89.60873529
C      79.41970297      53.22887055      90.74068136
H      78.32177198      54.95797013      90.52714228
C      79.28175296      52.51644373      93.53180712
H      80.06220993      54.00176861      94.72800388
H      80.14346815      50.67774003      93.87762704
C      76.51708337      52.08747586      94.41052986
C      75.17915713      49.85570908      93.83605306
H      75.97473190      48.58770273      92.44899394
C      72.83211705      49.31335763      94.95288131
H      71.88347445      47.64283957      94.26313120
C      71.78331895      50.97442706      96.85583570
H      70.02398374      50.53412083      97.79313996
C      73.05699449      53.24398836      97.35850290
H      72.07433679      54.61403994      98.50556678
C      75.40403457      53.72019939      96.20388013
H      76.26574976      55.46630650      96.81804118
C      82.09933489      54.08302684      90.03014426
O      82.61523017      56.39794158      89.32716607
N      83.80764747      52.26322040      89.75613395
H      83.38056932      50.41695780      89.99234974
C      86.43058760      52.87171228      89.33283525
H      87.18269867      54.27577893      90.63863614
C      88.03307551      50.40183999      89.53503597
H      90.00783950      50.81191060      89.12496536
H      87.27340553      48.77856508      88.51647349
C      87.97827344      49.45130765      92.28269803
H      89.14045513      47.75055397      92.31104392
H      86.11500331      48.84848496      92.92520497
C      88.70392836      51.56024222      94.13085036
O      87.38489938      51.62260318      96.12073217
O      90.44058684      53.11170752      93.72644893
C      86.89923973      54.06790903      86.75335884
O      88.50361736      55.71386065      86.54359921
N      85.28163399      53.58602882      84.87497088
H      83.85489064      52.38794234      85.29826957
C      85.27218536      54.65183446      82.23124377
H      87.19403703      54.64049611      81.49236078
C      83.40513578      53.14950204      80.63064558
H      81.54564507      53.89783366      81.09929771
H      83.67725637      51.11615653      80.83095657
C      83.92103106      53.78445009      77.89432188
H      85.89390533      53.27989316      77.59007594
H      84.01173791      55.83102368      77.66566500
S      81.84233212      52.46542112      75.73058525
C      79.31387831      54.78033585      75.75137224
H      77.56021229      53.93373846      75.08240913
H      79.58788861      56.20141004      74.28494462
H      78.93026387      55.57213118      77.61275266
C      84.45582361      57.39193762      82.19722870
O      85.63501283      58.84891660      80.85174356
N      82.39602192      58.09680553      83.64475905
H      81.55698343      56.64360600      84.55560713
C      81.49840192      60.68762031      84.06238857
H      81.70438209      61.65138073      82.25392048
C      78.67704054      60.74053264      84.70867496
H      78.07421784      62.55844936      85.47023467
H      78.69971725      59.44984957      86.31116288
C      76.95549986      59.69173454      82.71501370
H      77.40714445      57.69807328      82.46556983
C      74.06232888      59.81078730      83.57105972
H      73.89603297      59.84480237      85.62330250
H      73.15148079      58.21396856      82.63753493
H      73.24407738      61.56445332      82.86430208
C      77.28242251      60.84446759      80.17900099
H      79.04931661      60.51565521      79.16988714
H      76.88558000      62.86458502      80.19600853
H      75.69694214      60.22652709      79.02059876
C      83.16891999      62.26932123      85.90109227
O      83.44859947      64.65226612      85.64786894
N      84.84888668      61.04855803      87.40909387
H      84.38401400      59.19851597      87.48846237
C      86.82931985      62.16538628      88.97756671
H      86.17547455      63.85669133      89.95455521
C      87.78741109      60.31723395      90.94288207
H      88.79085577      58.74876111      90.06226961
H      86.07909851      59.69551399      91.91420140
C      89.41257572      61.44162111      93.08583171
H      88.08220839      62.76631925      93.93242910
H      90.83553964      62.68506102      92.26569049
C      90.85632662      59.57457151      94.82815937
H      92.06575147      60.45140452      96.24167465
H      92.22259874      58.39349256      93.83983251
N      89.15368322      57.76988288      95.91853145
H      89.24250036      56.00676823      95.19287655
C      87.82709535      58.10436444      97.98400231
N      87.79874944      60.22274763      99.16319153
H      87.06742537      60.27754970     100.92441646
H      89.20470583      61.49075399      98.91374766
N      86.66680338      56.15794634      98.78713600
H      85.78808066      56.14471825     100.48033077
H      86.88412191      54.51010499      97.84605229
C      89.37478119      62.81923159      87.49602128
O      90.67491290      64.66927365      88.05538027
N      89.73949837      61.56445332      85.26992368
H      88.58109615      60.11314351      84.82205854
C      91.82575622      62.48663976      83.50869876
H      93.08431395      63.72441049      84.57072494
C      93.40745714      60.22841681      82.59029177
H      94.93246629      61.10336010      81.51692722
C      94.49971896      58.99820498      84.99213391
H      93.15990299      58.28577816      86.38675193
H      95.57308350      60.45329424      85.98046077
H      95.61465748      57.33713555      84.51214343
C      92.12622271      58.25743227      80.92922234
H      91.26450750      59.40260641      79.45145636
H      90.67869235      57.22186225      81.96668208
C      93.75516679      56.35069842      79.68578243
H      94.97215053      55.18095783      80.86686137
H      94.91923820      57.35792254      78.31573085
H      92.38511521      55.13938385      78.73902954
C      90.77695811      64.23274688      81.43188954
O      92.34165151      65.47618678      80.24703114
N      88.23905568      64.19495234      80.93489152
H      87.17325003      62.87214393      81.80794507
C      87.10521990      66.01286906      79.27193236
H      88.13890018      66.07523004      77.48992045
C      84.44637497      65.04532919      78.42155552
H      82.93837337      65.26453745      79.80861464
H      84.82054077      63.06489601      78.00203628
C      83.77741185      66.46262393      75.95735241
O      84.17992356      65.50453268      73.80684387
O      82.90057884      68.65470644      76.30695178
C      86.76506916      68.69439070      80.22057497
O      87.40001720      70.58222728      78.98091451
N      85.84099298      68.95517294      82.58840204
H      85.60288748      67.36969256      83.62397206
C      85.04919766      71.32677946      83.72412756
H      84.75062091      72.81210433      82.32761981
C      82.30720478      70.80143553      84.78615374
H      82.33555067      69.60145933      86.45856153
H      81.11100803      69.89436690      83.37452819
C      80.78408538      73.13902698      85.67999429
H      81.90469307      74.49396075      86.75146911
H      79.13246458      72.50974812      86.74013075
C      79.76552290      74.71883819      83.37452819
O      77.62446298      74.41837170      82.55627669
O      81.12423612      76.46494530      82.37486297
C      86.77262806      72.47951251      85.79337787
O      86.26996087      74.67537448      86.33383959
N      88.75495097      71.08489449      86.63241635
H      89.12533733      69.37658189      85.86518747
C      90.80530402      71.75007815      88.52025294
H      92.02795694      73.15414480      87.64153020
H      91.74260827      69.99263268      89.05315576
C      89.88878675      72.56832965      91.02225058
O      87.64190217      72.70816938      91.50791024
N      91.65568085      73.59067157      92.54914944
H      93.33753728      73.86657161      91.69121369
C      91.28340477      74.21239153      95.16831011
H      89.25194898      73.99507300      95.42720261
C      92.29062889      72.23573781      96.99378573
H      94.25594426      71.77275486      96.58182539
H      91.57253289      70.37624711      96.47600072
C      91.92402200      72.67037486      99.91341288
H      92.81975227      74.47695322     100.34804993
C      89.20470583      72.88580366     100.74300273
H      88.30708583      74.54687309      99.92097178
H      89.12155786      73.10312218     102.78957633
H      87.85733097      71.46095002     100.11561359
C      93.04273996      70.33278341     101.29858227
H      94.99860671      70.04554501     100.72032602
H      91.90701445      68.74919277     100.63150888
H      92.85376734      70.46884370     103.34515586
C      91.99394186      77.02052484      95.78436089
O      94.16901685      77.68192905      96.16608560
N      89.95681690      78.51340862      95.82026569
H      88.25984266      77.74617973      95.40830535
C      89.90768402      81.06831859      96.95221175
H      91.92402200      81.32154192      97.28480358
C      89.09132225      82.95804491      94.98311693
H      88.66613383      84.86666848      95.63507251
H      87.34521514      82.45726744      94.01746678
C      90.83176018      83.27740865      92.93276388
H      91.39678835      81.41224879      92.26569049
H      92.38133575      84.38856774      93.70944139
C      89.95303744      84.67013696      90.62918750
H      91.51584110      84.71738010      89.28937155
H      89.63934287      86.62978313      91.17909786
N      88.06142141      83.23394495      89.23456948
H      87.78930082      81.43303578      89.80148738
C      87.01640276      83.82164983      87.08406094
N      87.23750073      86.03640907      86.15431559
H      86.22838689      86.42569270      84.58206330
H      88.08598785      87.39890174      87.18610616
N      85.66902789      82.11900643      86.06738818
H      85.05486684      82.29664070      84.26836873
H      85.44037101      80.44848837      86.95933900
C      88.45637421      81.37634399      99.35216416
O      86.22460743      80.82832336      99.56570324
N      89.78107236      82.27774343     101.24755966
H      91.62355550      82.67836542     100.95654180
C      88.71526671      82.52340785     103.93097102
H      86.98805687      81.40280015     103.87238951
C      90.62578002      81.59555223     105.87549940
H      90.21192996      81.63145703     107.89372710
H      92.33787206      82.64812979     105.42574453
C      91.33820683      78.67781482     105.57314319
H      91.48749521      78.18837569     103.57570247
C      93.95736750      78.07310240     106.62194129
H      94.58664636      76.28731103     105.81313843
H      93.85721200      78.29042091     108.66662516
H      95.21214577      79.49417657     105.81502815
C      89.38422983      77.04509128     107.02067354
H      89.62989425      77.30020433     109.05212933
H      89.86044085      75.08166564     106.61627211
H      87.47182679      77.58177355     106.47265291
C      87.77607273      85.09721509     104.66418483
O      86.40791088      85.11611236     106.50477826
N      88.40913104      87.15701677     103.37917094
H      89.46359834      86.98694141     101.79747001
C      87.29041308      89.72137538     103.54357713
H      86.37389581      89.93302474     105.37472192
C      89.43336270      91.79818460     103.18074967
H      89.75461619      92.40100729     101.23811102
H      91.23994106      91.18024410     103.94797856
C      88.63400848      93.93924451     104.86260609
H      88.67936192      93.48193074     106.86760571
H      86.75562052      94.64222270     104.38828479
C      90.50294781      96.12754759     104.49033001
H      89.66390931      97.81129373     105.32936849
H      90.92435677      96.49982367     102.50800711
C      92.98982763      95.29039882     105.81502815
H      93.63422431      93.69358009     104.68497182
H      92.46826316      94.58175146     107.67829830
N      94.87388476      97.28406008     106.45753510
H      94.17468602      98.27805613     107.92774217
H      95.00427588      98.37443218     104.89662117
H      96.49715966      96.42612435     106.97909956
C      85.40824566      90.09743092     101.54802614
O      85.76918339      89.70814730      99.32570800
N      83.24261931      91.08197834     102.48722012
H      83.04419805      90.93268996     104.37883616
C      81.12423612      91.94747298     100.87150412
H      80.14157843      90.27128575     100.19120265
C      79.12868513      93.30618620     102.65351603
H      78.84522617      92.24038057     104.39206424
C      79.77875097      96.08408388     103.03524075
H      78.38413295      96.84753331     104.34860054
H      79.49529202      97.18012515     101.31558980
H      81.71949989      96.22014418     103.71365249
C      76.44527376      92.87532860     101.55936450
H      75.18482631      93.40256224     103.09949144
H      75.95016546      90.91190296     101.17575006
C      75.66292707      94.47403707      99.32003882
H      77.18037729      95.18835361      98.12384206
H      74.71239474      96.20502637      99.90774370
H      74.44027415      93.38555471      98.07281945
C      81.92548007      93.34587045      98.46966198
O      83.45237893      95.17323579      98.59627364
N      80.99384500      92.56541348      96.34371987
H      79.71639000      91.15945711      96.54214114
C      81.90658280      93.32697319      93.82660443
H      82.60956099      95.26205293      93.83227360
C      84.04386326      91.57897636      92.77024742
H      85.39501757      91.48637977      94.32171272
H      84.94148327      92.50305252      91.16020060
C      83.40513578      88.84643210      92.15797609
C      82.39035275      88.25494776      89.79581820
H      82.37334520      89.66468359      88.32183168
C      81.74784580      85.62822819      89.24023866
H      80.98061691      85.26351102      87.38452742
C      81.77430196      83.84243682      91.13752388
O      81.21305324      81.32343166      90.61217997
H      80.69715797      81.01162680      88.90197765
C      82.80042335      84.51706911      93.50724068
H      82.93459391      83.14134836      95.01146282
C      83.71127144      86.96237497      93.86628868
H      84.55975854      87.43102709      95.66341840
C      79.48962285      93.50082801      92.00490826
O      77.35990130      93.02083752      93.01402211
N      79.66158794      93.92979589      89.58605858
H      81.37934916      94.30018225      88.83772696
C      77.40903418      93.99026713      87.89286380
H      75.77064146      93.18146426      88.84339614
C      77.00841220      96.64722233      86.91587530
H      75.77442091      96.67178877      85.26803395
H      78.84711590      97.49570944      86.53226086
C      75.58733802      98.48970547      88.70733584
H      76.31866209      98.32340956      90.62351832
H      73.64280964      97.83208072      88.53915020
C      75.61568390     101.24681616      87.63019184
H      74.75207898     101.27516206      85.75936280
H      77.59611709     101.68145322      87.26358494
C      74.55365772     103.36141991      89.31015854
H      75.34356331     103.15921919      91.20177458
H      72.50897385     103.17244729      89.45566746
N      74.83522695     105.86152782      88.23112481
H      73.58233839     106.03349291      86.80060199
H      76.66070256     106.21301691      87.79270831
H      74.28531659     107.27126365      89.39519622
C      77.80020753      92.09865109      85.77448061
O      79.86567838      91.26717150      84.99591336
N      75.73095722      91.23882561      84.69922633
H      74.11524121      91.69613939      85.60629496
C      75.50985923      89.85932540      82.25392048
H      76.88369026      88.32297791      82.20856705
C      72.89825747      88.66879782      82.02715333
H      71.49985999      90.05018777      81.40921282
H      72.19149982      87.86188469      83.78459880
C      72.89258829      86.75261535      79.85585779
O      74.17760218      84.75139519      80.01459480
O      71.88158472      87.46504216      77.81306365
C      76.20149906      91.47882086      79.95223384
O      76.15803537      93.83341985      80.27915649
N      76.72117380      90.62277484      77.63542938
H      76.45850185      88.73115879      77.63353965
C      77.14069305      92.02306204      75.32051464
H      78.57877477      93.38177526      75.89688117
C      78.31232336      90.38466933      73.20024172
H      78.47672954      91.34465029      71.38421473
C      80.91447650      89.32642258      73.72747536
H      80.80109291      88.12266693      75.39421397
H      82.26752054      90.81174746      74.18100968
H      81.61367522      88.27384502      72.10042100
O      76.79865258      88.29841147      72.49537380
H      77.94571645      87.43480654      71.38799418
C      75.07333245      93.68602118      74.44746109
O      75.49852087      95.92156741      73.83707949
N      72.75463828      92.73548885      74.42856382
H      72.56188619      90.93268996      75.02382761
C      70.38114203      94.23971099      74.43234327
H      70.53043041      95.59842421      72.89221633
C      68.11536018      92.36699222      73.93912471
H      68.01142522      90.89300569      75.37342698
H      68.62747601      90.96859475      72.51427107
C      65.49430978      93.34209100      73.38543490
H      64.96518640      94.48726515      75.01059953
H      64.10158148      91.84164831      73.15110883
C      65.47919196      94.77072409      70.87020917
O      65.73619475      93.56696844      68.68568556
O      65.08234945      97.07430046      70.85698109
C      69.84257003      95.91022907      76.75292719
O      68.07378619      97.36153886      76.91733338
N      71.45639630      96.10865032      78.71635283
H      73.17037806      95.27528101      78.62375624
C      71.50552917      98.09286295      80.76481615
H      70.44917216      99.78227828      80.24136196
H      73.50485962      98.44435204      81.11630524
C      70.40192901      97.31429571      83.38964600
O      70.17516185      98.96780623      85.02047981
N      69.63470012      94.91812275      83.64097960
H      69.40415352      93.79184586      82.11597046
C      68.29488417      94.20758566      85.97290187
H      67.22529908      95.83652973      86.64375471
C      66.32578935      92.25927782      85.40787370
H      65.20140220      92.14778398      87.12941437
H      67.20829155      90.40356658      85.26425450
C      64.67605828      92.69013542      83.22523981
C      65.08612890      91.26528178      81.00292167
H      66.41838594      89.71948565      81.02559838
C      63.63859853      91.72070583      78.72013228
H      63.74442321      90.60198784      77.01748887
C      61.70729824      93.46114375      78.93367135
O      60.19551720      93.71058763      76.88709776
H      58.71019232      94.67056859      77.28771973
C      61.33691188      94.95024810      81.03504701
H      59.94796305      96.43935243      81.17488676
C      62.84491348      94.57419255      83.20823227
H      62.64082304      95.79117630      84.83528663
C      69.82934194      93.32508347      88.29348578
O      71.42994013      91.65078596      88.14797685
N      69.18116581      94.20380619      90.60273134
H      67.72985601      95.44157694      90.68021011
C      70.48696669      93.53295335      92.91575634
H      72.42015672      94.20380619      92.66820220
C      69.60635423      95.06930085      95.18720737
H      70.60412972      94.54773639      96.91252749
H      67.58245736      94.69513505      95.13996421
C      69.86713647      97.90011086      94.89241007
C      67.79032725      99.60653372      94.72422442
H      65.97618998      98.74670825      94.35950725
C      68.11158072     102.15388479      94.73178333
H      66.58279214     103.43889870      94.30659491
C      70.62869616     103.11008631      94.89996897
O      71.08600993     105.60641477      95.07004434
H      69.61580287     106.52482176      94.53336207
C      72.68093894     101.53972375      95.15697175
H      74.51397346     102.37309305      95.49145331
C      72.32944985      98.91300417      94.97933748
H      73.99240900      97.74326358      95.16453065
C      70.69672631      90.70025362      93.44865916
O      68.79755137      89.30185614      93.51479958
N      73.05699449      89.88011239      93.84928114
H      74.46673031      91.15000847      93.66219824
C      74.03020353      87.23071610      94.00990788
H      72.53165056      85.97404811      94.65619428
C      75.06199410      86.28774268      91.46255681
H      76.93849232      87.11355307      91.24712801
C      75.45316745      83.55141897      91.12996498
H      73.73918568      82.47994415      91.52491778
H      76.91392588      83.09221547      92.50757546
H      76.19205043      83.11111274      89.25913593
O      73.46706509      86.94347770      89.52369761
H      72.73574100      88.58753960      89.75046477
C      76.14480728      86.81119686      96.00545886
O      77.87768630      88.37211079      96.32104316
N      76.15047646      84.50006158      97.08260286
H      74.79176324      83.23772440      96.62906855
C      78.21783704      83.67614091      98.80036408
H      79.97150306      84.62478351      98.29013798
C      77.39580609      84.44148007     101.48944462
H      76.58700323      86.33309611     101.43086311
C      75.47206470      82.65190924     102.64028795
H      75.33411469      83.01095724     104.66418483
H      76.04843123      80.70360142     102.30013721
H      73.59934594      82.72182912     101.78802138
C      79.77686126      84.79296916     103.15240378
H      81.07699295      85.83798781     101.94486867
H      80.61778945      82.96560382     103.59837919
C      79.31198858      86.18758718     105.69219594
H      78.06098975      85.12934044     106.94130504
H      78.65058437      88.09243130     105.27834588
H      81.15636145      86.37278036     106.59170567
C      78.77908575      80.92658912      98.45076471
O      77.59800682      79.77007663      96.80859255
N      80.90880732      79.98739514      99.41641486
H      82.16169586      81.35933646      99.84916218
C      81.58154987      77.33610913      99.53924707
H      80.10000444      76.23817815     100.45765406
H      83.18781725      77.01107620     100.79024589
C      82.32799178      76.17770691      96.98622682
O      83.23695012      77.50429478      95.24578889
N      81.61745468      73.80232093      96.52135415
H      80.68770933      73.03320231      98.00100985
C      81.64391084      72.62880089      94.02691541
H      83.19726587      73.49618527      92.98945567
C      82.24106436      69.83767511      94.38029423
H      80.61401000      69.01942363      95.34216493
C      82.71538566      68.78509757      91.69499314
H      81.02408062      68.42604956      90.57816489
H      83.66024882      66.95584249      91.71578013
H      83.99473038      70.01341966      90.64241559
C      84.46905168      69.40681753      96.18120341
H      83.80764747      69.67515865      98.11439343
H      85.96571493      70.72206704      95.66152868
C      85.58965939      66.81978219      95.96388489
H      86.52885337      66.84623837      94.13274009
H      84.18181329      65.31556005      96.00923832
H      86.94648288      66.69506026      97.50968101
C      79.07955225      73.21650576      92.68898918
O      77.31076841      71.74818842      92.70032754
N      78.84144672      75.58622256      91.90853222
H      80.22472638      76.83911111      92.30159529
C      76.69282791      76.55754189      90.34005938
H      76.22039632      75.23473347      88.83205778
H      77.33155541      78.29231064      89.42921129
C      74.14736656      77.18871047      91.68554451
O      72.33511902      77.73862084      90.35139774
N      73.83178227      77.08666525      94.24612367
H      75.41159346      77.15091595      95.31570876
C      71.43560930      77.35311666      95.48578413
H      69.95028442      76.06621304      94.86406417
C      71.94205596      76.51029873      98.25990236
H      73.55777195      77.41547764      99.16319153
H      72.55810673      74.54309363      98.27124071
C      69.63847958      76.64824875      99.91152315
N      67.82623204      74.73962517     100.07781907
H      67.86969576      73.21461604      98.92886547
C      65.90627011      75.70149586     101.61983574
H      64.03922051      74.88324438     101.71432206
N      66.36925306      78.17892706     102.00533991
H      65.14471040      79.37323409     102.85382702
C      68.71062396      78.74584495     101.01701305
H      69.57989806      80.59210756     101.04913839
C      70.11280088      79.92503418      95.18153819
O      70.98585445      81.69948719      96.40986030
N      68.17961087      80.10644791      93.61117563
H      67.72985601      78.51529834      92.65686384
C      66.94561959      82.45915716      93.06693445
H      68.44228283      83.83865737      92.74757070
C      65.39037483      81.95648997      90.59895188
H      64.00331571      80.45604728      90.86729302
H      66.65460173      81.45193303      89.05504548
C      63.84268898      84.33943484      89.66731681
H      62.76743470      84.88556575      91.33783487
C      65.39793374      86.38222899      88.54481938
H      67.15726893      86.78096124      89.53881542
H      64.43795277      88.20014570      88.68276940
H      65.80422490      85.82098027      86.60596018
C      61.89060170      83.59110322      87.57727951
H      62.84869294      82.55364349      86.07872654
H      60.91361319      85.15201716      86.65887252
H      60.28811379      82.61411473      88.42576662
C      65.29777824      83.31142374      95.33271630
O      64.00709517      81.79964269      96.47033154
N      65.20140220      85.76239875      95.91286227
H      66.33523798      87.03040512      95.04925735
C      63.83324035      86.72615917      98.14084960
H      63.74631293      85.15579661      99.47121692
C      65.28643988      88.81241703      99.30870046
H      64.09024313      89.78751580     100.67308286
H      65.65493652      90.21081451      97.84227284
C      67.77331971      87.83164908     100.35560884
H      68.72952122      86.51450983      99.09327166
C      69.62525150      89.96892954     100.61639107
H      68.84101508      91.47315167     101.78235220
H      70.09957280      90.72859951      98.76067983
H      71.32411545      89.50216714     101.68597616
C      67.57111900      86.56553245     102.84059894
H      69.44194805      86.01751182     103.50578260
H      66.71318324      84.70415202     102.64217768
H      66.31634073      87.52551340     104.16151763
C      61.11203445      87.55385931      97.56826252
O      59.21474923      86.52017901      98.59816337
N      60.79078098      89.25461298      95.69743348
H      62.29878258      90.17113025      94.96988884
C      58.47586624      89.68547058      94.39163259
H      57.49509829      87.89023058      94.14407845
C      56.75810503      91.48449003      95.99789996