 %block lattice_cart
   137.614   0.000   0.000
   0.000 142.646   0.000
   0.000   0.000   160.855
 %endblock lattice_cart

 %block positions_abs
N      91.70386887      40.94187007      81.23535800
H      91.37505649      39.82126236      79.72546668
H      90.76845434      40.23700215      82.74146987
H      93.56902874      40.96832624      81.64731834
C      90.58704063      43.60071498      80.56450516
H      91.42607910      45.06525289      81.74558411
C      91.20498113      44.30558290      77.80550474
H      90.61727624      42.82214774      76.50537304
H      93.25911362      44.35849525      77.65621636
C      90.01634327      46.83025726      76.99103270
H      87.99622584      46.79246274      76.58852100
H      91.03112631      47.32725527      75.26949203
S      90.35082483      49.49666108      79.09429809
C      93.73721439      49.65917755      79.88231396
H      94.14917472      48.29290543      81.36574912
H      94.03768086      51.62638265      80.41332706
H      94.77656386      49.13761308      78.18156028
C      87.83748884      43.70464994      81.15976895
O      86.52601877      42.15318464      80.10341194
N      86.80191881      45.56792008      82.49391573
H      87.85260664      47.02300935      83.14587130
C      84.11094854      45.65673722      83.21768090
H      83.07159907      44.64573365      81.75503274
C      83.75190054      44.30558290      85.76503197
H      84.85172126      42.57081414      85.91998953
H      81.76957764      43.75567254      85.83306212
C      84.03724922      46.07814618      87.91931997
O      82.18153799      46.79813191      89.03992767
N      86.22555229      47.05513468      88.41631799
H      86.48444480      48.10393280      89.99046001
H      87.69009019      47.02678880      87.19177534
C      82.98278194      48.40817872      83.20823227
O      84.38495887      50.18641120      82.93422196
N      80.48645348      48.68218905      83.48980149
H      79.45466292      47.09103948      83.69389193
C      79.11451218      51.09347983      83.49358095
H      79.10128409      51.93440802      81.61330326
C      76.34984257      50.39617082      84.20600777
H      75.77158633      49.08281102      82.72635206
C      76.20055421      49.49477135      87.03114860
H      76.56905083      51.00844213      88.38041319
H      77.77847567      48.20786775      87.33350481
H      74.50924916      48.46676025      87.59617677
C      74.48090326      52.68651911      84.16443379
H      75.12529992      54.11137274      85.50613947
H      72.68566325      51.81724499      84.67277016
C      74.22201075      54.00932753      81.61519299
H      73.80816069      52.45786222      80.32639965
H      75.81127059      55.20741401      81.08040044
H      72.47401392      55.09403042      81.72668684
C      80.29748084      53.16839932      85.07150242
O      80.65274940      55.31512840      84.22112558
N      81.26880017      52.47675949      87.25413631
H      81.25557208      50.63616606      87.76058296
C      82.43854076      54.22475633      89.12685508
H      81.03636384      55.71386066      89.38574759
C      82.89963398      52.87738146      91.73278767
H      84.22622186      53.97342273      92.86473373
H      83.84449713      51.08214147      91.37562940
C      80.44298978      52.50132593      93.22189200
C      79.83071845      50.13349885      94.17431407
H      80.90219326      48.46298080      93.70755167
C      77.76335787      49.91429061      95.79191979
H      77.07927693      48.16251431      96.58749457
C      76.26102545      52.06479914      96.50056716
H      74.84373070      51.82102445      97.94998724
C      76.95644472      54.41372895      95.48200468
H      75.98323568      56.07479838      96.16041642
C      79.00112859      54.64616528      93.90786266
H      79.70410678      56.48108953      93.35795230
C      85.05014252      55.20741401      88.24435290
O      85.70965700      57.17461909      89.11362700
N      86.33515642      53.80901653      86.61351909
H      85.71154673      52.11771149      85.98612995
C      88.68030678      54.84836601      85.58361825
H      89.56280895      56.00298878      87.04248696
C      90.57948172      52.77344652      84.93922158
H      92.14228538      53.74854529      84.01892486
H      89.60060348      51.46575590      83.68444330
C      91.64150790      51.25032710      87.21067260
H      90.04846862      51.17473806      88.51269403
H      93.34982050      52.16684437      87.90420216
C      92.41251623      48.55179793      86.49446633
O      94.73876934      48.01511566      86.56060675
O      90.85538175      46.95119974      85.76314225
C      88.06803544      56.38471349      83.08917951
O      89.26423220      58.28010898      82.45801093
N      86.30114135      55.52488802      81.48102242
H      85.50178711      53.83736242      81.87597522
C      85.18431309      56.99320536      79.32484470
H      86.32570779      57.27477459      77.63542938
C      82.92609015      55.36615101      78.26470824
H      81.48989816      55.10347905      79.71601805
H      83.68576013      53.45941717      78.07762533
C      81.65241461      56.29967582      75.88365308
H      82.85994972      55.55512364      74.38698984
H      81.68076050      58.35758777      75.80617430
S      78.32838603      55.42662225      75.17122626
C      78.33405520      55.54567502      71.76593945
H      77.69343799      57.32957665      70.96091604
H      77.04337213      54.01877615      71.26516197
H      80.16708974      54.99198521      71.01004892
C      84.34527461      59.64827084      80.04672015
O      85.14840829      61.51343071      79.16232824
N      82.64830038      59.85236129      81.92510811
H      81.86028450      58.23664528      82.56005615
C      81.70910640      62.29388768      82.80572057
H      81.15541660      63.56000431      81.27882171
C      79.26380056      61.91594242      84.42899547
H      79.37718413      62.92694599      86.21856629
H      79.12774026      59.89771472      84.81449964
C      76.75613374      62.46018360      83.11941514
H      76.66731660      61.46051838      81.32039569
C      74.52058750      61.44351083      84.49891534
H      74.76247247      59.46118793      85.00536200
H      72.69700162      61.72319033      83.58050836
H      74.24657720      62.35435892      86.32628069
C      76.52936657      65.37981075      82.78871303
H      74.65664781      65.87491904      82.09329375
H      78.09594970      66.22451840      81.74936356
H      76.65219878      66.10168619      84.71434414
C      83.76701836      63.82834544      84.20033859
O      83.87095331      66.17160607      84.06805774
N      85.67375220      62.68506102      85.27370313
H      85.52257411      60.81990115      85.64408949
C      87.93575460      64.00220026      86.42643618
H      87.18364354      65.71051286      87.29760001
C      89.13573082      62.25231369      88.36907483
H      89.82170147      60.65738470      87.26358494
H      87.63339840      61.45106974      89.52747706
C      90.94608863      63.56756322      90.11329222
H      89.96910012      64.74108326      91.49468215
H      92.19897717      64.76375997      88.99646397
C      92.69408547      61.84035336      91.71766986
H      94.04146033      63.10835972      92.62284876
H      93.80713425      60.84446759      90.29848540
N      91.26734210      60.08479761      93.32771668
H      89.86894462      60.83123952      94.39163259
C      91.61505173      57.52988765      93.52424822
N      93.31202597      56.32991143      92.25246241
H      93.94886374      54.57246597      92.63796657
H      94.62538575      57.49020339      91.49846161
N      90.10516042      56.32991143      95.12106695
H      90.29035359      54.47608992      95.54058619
H      88.82770543      57.29178212      96.16419587
C      89.79902474      64.97729904      84.42521602
O      90.92341190      66.95773222      84.99402364
N      89.70831788      63.86236052      82.11219101
H      88.44976017      62.45073496      81.84951905
C      90.96876534      64.98485795      80.02404343
H      92.69219573      65.91082384      80.67410929
C      92.00622508      63.00442478      78.01337464
H      90.67018857      61.43595194      77.94345476
C      92.35771417      63.76220503      75.26004340
H      90.57003309      64.66171474      74.76115565
H      92.66384983      62.10680478      74.07329528
H      93.91295894      65.10957989      75.22602833
C      94.35704462      61.64760127      79.09051864
H      93.94508427      60.98052789      80.99536276
H      95.88772293      63.00442478      79.33429333
C      95.37182764      59.47441602      77.43322866
H      93.84114933      58.10625416      77.28960946
H      96.92896212      58.47475080      78.34029729
H      96.07669556      60.10747434      75.60397359
C      89.38706441      67.15048431      78.89398710
O      90.32625839      69.22918325      78.32328975
N      86.83971334      66.89348152      78.71635283
H      86.04413856      65.21729428      79.16232824
C      85.42052888      68.95517294      77.49369990
H      86.42397356      69.43516342      75.75893115
C      82.76924286      67.89881593      76.85119296
H      81.55792829      69.53342919      76.53182921
H      81.93587356      67.22418362      78.60674870
C      82.72199971      65.93539028      74.85753170
O      83.93331428      66.15459854      72.85442180
O      81.10817343      64.21007015      75.01437898
C      85.35627818      71.48173702      78.91666382
O      86.20098585      73.36768388      77.89810133
N      84.62684384      71.43827331      81.29393952
H      84.00701360      69.81688813      82.08573484
C      84.37362051      73.59067158      83.09673842
H      84.48511435      75.36890403      82.06494785
C      81.74690093      73.60956884      84.30238381
H      81.58816391      75.28764581      85.48724221
H      81.54281049      72.07889053      85.66487648
C      79.53403142      73.51508253      82.52226162
H      77.75957840      73.71350379      83.55027274
H      79.59828212      71.73496034      81.48480187
C      79.47922936      75.31032253      80.31506129
O      80.23889933      77.52886122      80.87442028
O      79.03703339      74.54687310      78.13242740
C      86.25389818      74.01585999      85.20189353
O      86.63562291      76.20983225      85.93132789
N      87.36127781      71.99007339      86.47556907
H      87.18742298      70.31388616      85.57983880
C      89.33037262      72.44738716      88.48812759
H      90.70609337      73.87602026      87.93443778
H      90.10705013      70.65970607      89.15520098
C      88.09638134      73.27130784      90.98067660
O      85.75123099      73.26563866      91.16775950
N      89.61761103      73.87413052      92.85339537
H      91.49221952      73.62468666      92.58694396
C      88.87305885      74.42971006      95.47444577
H      86.81703663      74.30498813      95.43665124
C      89.89918024      72.28865015      97.18653781
H      91.88150314      72.03353709      96.69520897
H      88.87683830      70.57844784      96.66119389
C      89.62516992      72.61179335     100.03624509
H      90.18263919      74.54120392     100.48788968
C      86.81136745      72.52864539     100.83937877
H      85.86083512      70.86946569     100.07403962
H      85.82870976      74.14814084     100.03435536
H      86.85483115      72.38502619     102.89351127
C      91.33726196      70.72395677     101.44976037
H      90.70231392      68.76620030     101.35149460
H      91.33726196      71.23040341     103.44720108
H      93.32903350      71.04332051     101.02835140
C      89.54013224      77.16603377      96.34183015
O      91.65851545      78.10333802      96.45332400
N      87.57103743      78.47561409      97.06370560
H      85.94398308      77.47972833      97.01268299
C      87.50111755      81.16280492      97.66463857
H      89.34926988      81.90168791      98.18620303
C      86.11783789      82.57820993      95.56515263
H      85.28824803      84.17124921      96.57426648
H      84.48322463      81.50673511      94.92264569
C      87.82804020      83.34165936      93.34661394
H      88.63306361      81.61255978      92.56993643
H      89.34549044      84.61344517      93.91920101
C      86.58837974      84.63801161      91.02036085
H      87.77512787      85.81531109      89.81660519
H      85.16541582      85.92680495      91.76680274
N      85.43564670      82.84088188      89.19299551
H      85.06148088      81.08343641      89.83928190
C      84.38684858      83.15079700      87.02736915
N      84.04858757      85.25595211      85.72912717
H      83.02057647      85.28051855      84.12097008
H      84.88195688      86.78852015      86.50202524
N      83.55347928      81.13634875      85.85951829
H      83.43442653      81.49728648      83.99057897
H      83.69331904      79.42425671      86.69288759
C      85.92697553      81.33665973     100.00223002
O      83.71599575      80.58643839     100.23088690
N      87.14584901      82.32309687     101.96187620
H      88.97888353      82.81820517     101.77668302
C      86.38428930      82.41947292     104.54702180
H      84.81392673      81.10044395     104.71898689
C      88.65385061      81.67681048     106.21187068
H      88.05102790      82.13412424     108.12994289
H      90.20342618      82.99583944     105.90195557
C      89.48344045      78.84600046     105.98699325
H      90.04846862      78.54175452     104.02923679
C      91.64339763      78.11845582     107.83325586
H      92.56180461      76.36667954     107.26444824
H      90.82325642      77.66303179     109.66629038
H      93.00589030      79.66425195     107.88805792
C      87.21387916      77.04887073     106.53501388
H      85.70776729      77.41925708     105.17819039
H      86.62050509      77.29453516     108.49277034
H      87.80536349      75.13268825     106.06825148
C      85.16919529      84.91013220     105.22732327
O      83.64607587      84.98383152     106.98098929
N      85.83248921      87.02095648     104.02734706
H      86.97577363      86.96993388     102.49855848
C      84.57015205      89.47760070     104.40718205
H      83.72544437      89.44358562     106.28557001
C      86.56948248      91.55063046     104.43363822
H      87.42174904      91.71881610     102.56658862
H      88.05102790      90.92702078     105.72054184
C      85.66241385      94.15656304     105.36905274
H      85.22399735      93.64822667     107.31547085
H      84.10149992      94.67056860     104.12561283
C      87.67686210      96.07652497     105.19708765
H      89.39084386      95.32063446     106.05124394
H      87.16096681      97.70357934     106.35171043
C      88.17197040      96.93635045     102.45320504
H      86.40318656      97.68279235     101.70865288
H      88.70109376      95.35464952     101.24189048
N      90.39428854      98.59553016     102.37950572
H      90.31869948      99.63110018     103.98010390
H      90.29035359      99.93534611     101.02268223
H      91.98921755      97.55051150     102.34171119
C      82.55759351      89.90089939     102.22265843
O      83.20954909      88.91635197     100.14395949
N      80.40519525      90.98938175     102.72532563
H      80.26346578      91.79062570     104.45253548
C      78.23012026      91.29551740     101.04724867
H      77.51013454      89.39445274     100.70898766
C      75.98323568      92.91312312     102.19620227
H      76.78825908      94.60820763     103.04279965
C      73.91587508      93.72948489     100.28001978
H      72.13953236      94.44380145     101.03402058
H      73.27903733      91.98526751      99.38617924
H      74.74546494      95.11087483      98.99689562
C      74.65853752      91.21614890     104.31836491
H      76.07583227      90.79473994     105.75644664
H      73.91209564      89.51917467     103.42452437
C      72.61574339      92.71470187     105.76778500
H      71.87686039      91.49771811     107.25688933
H      71.04538082      93.13422111     104.49977864
H      73.43966405      94.42490418     106.56524950
C      79.10506354      92.39344840      98.53580240
O      80.78125078      94.00349521      98.48666951
N      78.34539356      91.27095097      96.36828632
H      76.75424401      90.21837341      96.41175002
C      79.16364506      92.10243054      93.86061950
H      80.30503975      93.81452257      93.95510581
C      81.09872481      90.19002752      92.96866868
H      82.52924762      90.03506996      94.44265520
H      81.99067562      91.13111122      91.36996022
C      80.11417739      87.58976411      92.08238704
C      79.50379580      87.26662091      89.56905104
H      79.46600127      88.78218141      88.20088919
C      78.90286282      84.84210205      88.58072418
H      78.54759429      84.60966570      86.58328347
C      78.93309844      82.74828529      90.24179361
O      78.07705243      80.51840825      89.43299075
H      77.75390923      80.62612265      87.65286856
C      79.58505403      83.06386959      92.78347550
H      79.15608615      81.54075017      94.07226885
C      80.37306990      85.45437337      93.64330097
H      80.83038366      85.83420836      95.59727798
C      77.07171804      92.58620047      91.86317879
O      74.98168073      91.65645513      92.24301377
N      77.71611470      93.80318423      89.67676544
H      79.48300880      94.51372131      89.57849967
C      76.01914048      94.40978637      87.57350006
H      74.18988540      94.40411719      88.52214266
C      76.17787748      97.13099226      86.68343896
H      75.35773626      97.14799980      84.79371265
H      78.09405996      97.77727866      86.29982452
C      75.01947526      98.95646788      88.49190704
H      75.90575689      98.62009660      90.31927239
H      73.01825508      98.50482329      88.64497487
C      75.37663353     101.74570392      87.81349530
H      74.27492308     102.84930408      89.16087016
H      74.73412658     102.00081696      85.87463610
C      78.17531820     102.64899310      87.78325968
H      78.80270733     102.62064720      85.82172376
H      79.13718889     101.14288123      88.80749134
N      78.51546894     105.19256471      88.81127079
H      80.40897469     105.42689078      88.83205778
H      77.58194414     105.43255996      90.45722241
H      77.89185925     106.52482176      87.59428704
C      76.10606789      92.33675661      85.62141277
O      78.13941340      91.60921198      84.66710099
N      73.82138878      91.50716676      84.92410376
H      72.30960773      92.40100729      85.67432511
C      73.62863669      90.21270423      82.53737943
H      75.12152047      88.79351976      82.51092326
C      70.84318011      89.11477324      82.47690819
H      69.55249704      90.70403307      82.25014103
H      70.57672869      88.11699775      84.26080983
C      70.27626220      87.32709215      80.45679076
O      69.26903809      88.25116832      78.63509459
O      70.48602184      85.04619249      80.88953809
C      74.04626620      92.12510726      80.38120171
O      73.66265176      94.34364595      80.60229969
N      74.42610120      91.01394819      78.10030205
H      74.67554506      89.12422187      78.00014655
C      74.93254785      92.58431075      75.85341746
H      76.47645424      93.86932465      76.31451068
C      76.07394254      90.93080022      73.63298904
H      76.21945147      92.08353328      71.93223536
C      78.52302783      89.90089939      74.61375700
H      79.79103419      91.49204895      74.93501047
H      79.38096359      88.75194579      73.13410130
H      78.28303259      88.97682322      76.43923262
O      74.34862241      89.02217665      72.92812113
H      73.34895719      89.67413223      71.56184901
C      72.66487627      94.19813703      75.24870504
O      72.98424001      96.29951269      74.28305490
N      70.26870331      93.47059239      75.85719691
H      70.07784095      91.75094145      76.66222032
C      67.85930226      94.86332069      75.72680580
H      67.97457557      96.32218940      74.27549599
C      65.68800673      92.89611559      75.18823380
H      64.61464218      92.43124291      76.88331830
H      66.56295001      91.21614890      74.37376176
C      63.69434546      93.63310886      73.24937460
H      62.32996307      94.80095972      74.25848845
H      62.42633910      92.07030520      72.81095810
C      64.71668740      95.02961660      71.01004892
O      65.56328479      93.72570545      69.16378631
O      64.62409081      97.36909778      70.93634960
C      67.38876040      96.63777370      77.91699860
O      65.34785598      97.70924851      78.17400137
N      69.21612574      96.96847580      79.67444407
H      70.85262873      96.08030443      79.24925565
C      69.18211068      98.67678839      81.85518823
H      68.27126259     100.45313112      81.33929295
H      71.15309521      99.01504940      82.34462735
C      67.91977350      97.78861701      84.31561189
O      68.17866600      99.04528502      86.31872178
N      66.49491986      95.74582288      84.11719063
H      66.10185678      95.22614814      82.32195063
C      65.42533477      94.29451307      86.22612519
H      63.73213998      95.25260431      86.89697804
C      64.45023599      91.73582364      85.26992368
H      63.30695156      90.80607828      86.70989513
H      66.07918007      90.49994263      85.02614899
C      62.75515148      91.69424966      82.77737467
C      62.88176315      89.55507947      81.21268129
H      64.16110786      88.03007034      81.65676697
C      61.22258344      89.52106440      79.10941590
H      61.14888412      88.01306280      77.73747460
C      59.38199001      91.46559278      78.69367611
O      57.87776787      91.31063522      76.62442580
H      57.11242872      92.91690259      76.26726752
C      59.51238113      93.61988077      80.18278045
H      58.27838984      95.18457416      79.74625367
C      61.17723001      93.81074313      82.15943417
H      61.38698963      95.37165707      83.45767615
C      67.25458983      93.70491845      88.31994195
O      69.45423127      93.23059715      87.77570077
N      66.44389725      93.34209101      90.61784915
H      64.57306819      93.34776018      90.99390468
C      68.15220984      92.92635122      92.74568097
H      70.06083340      93.38933416      92.12396102
C      67.52293098      94.90867412      94.85650527
H      67.93678103      93.93924451      96.62528909
H      65.52171080      95.24693513      95.20799436
C      68.97802024      97.39933339      94.65997373
C      67.73080086      99.62543100      94.00234897
H      65.73524987      99.62921044      93.56960165
C      69.10463189     101.94979436      94.05148186
H      68.18622491     103.73936518      93.69999276
C      71.78426380     101.95924299      94.48422918
O      73.10518251     104.19667895      94.44832438
H      72.12441454     105.70657027      94.23100586
C      72.98990919      99.63676935      95.10027996
H      74.96089373      99.83897006      95.58782935
C      71.56316582      97.42767929      95.17208956
H      72.59117695      95.78550713      95.81081705
C      68.34685165      90.17490970      93.52046876
O      66.42499998      88.87288828      93.70377221
N      70.54649308      89.30941505      94.06848939
H      72.01481041      90.53017825      94.06470994
C      71.29293497      86.60899615      93.96833390
H      69.68099842      85.33721034      94.14218872
C      72.55149269      86.04963715      91.43421091
H      74.52625668      86.62222424      91.56082258
C      72.49291118      83.14890727      90.68021011
H      73.37919281      82.97883189      88.82638860
H      70.55027252      82.50262087      90.45911214
H      73.48879695      81.75617897      91.82349453
O      71.22679455      86.89812428      89.34039416
H      70.93766641      88.67446701      89.55582296
C      73.03337290      85.90601796      96.20388013
O      74.45822655      87.47071134      97.17708918
N      73.20722772      83.45126348      96.73867267
H      71.76347682      82.33443523      96.17742396
C      75.04971088      82.62734280      98.57737638
H      76.67676524      83.88401081      98.44131608
C      74.01792031      82.85033052     101.37228159
H      73.15809483      84.72115957     101.38361995
C      71.78237409      81.05509052     101.90707414
H      72.45322692      79.11434159     101.74644740
H      70.12886355      81.24217342     100.69386985
H      71.02837329      81.21949670     103.81569772
C      76.21189256      82.58009965     103.43208327
H      77.37407425      80.88123570     103.49255452
H      75.42576641      82.55364348     105.33692740
C      78.11862641      84.74950546     103.26956681
H      77.03770296      86.49183312     103.46798807
H      79.17120397      84.72493902     101.49889326
H      79.31293344      84.62100407     104.94197460
C      76.00591239      79.86645267      98.09171671
O      74.64152999      78.32254626      96.98055764
N      78.31893740      79.34677792      99.01201343
H      79.59261294      80.70360142      99.43342240
C      79.20332932      76.68604328      99.06492576
H      77.83516746      75.37457321      99.86616972
H      80.81715558      76.54620354     100.34049103
C      79.86662324      75.72606232      96.45332400
O      81.12896043      76.89580290      94.98878611
N      78.87451694      73.58311268      95.72011019
H      78.27925314      72.52486594      97.19409671
C      79.13907862      72.35857003      93.24645845
H      80.48834320      73.38847087      92.07860759
C      80.01780136      69.48429630      93.25401735
H      78.49846139      68.20306186      93.79636880
C      80.78314051      68.77942839      90.47611967
H      80.96455423      66.74419314      90.21344771
H      82.55759351      69.77720387      90.16998401
H      79.41119921      69.41626616      89.07961193
C      82.47255583      69.09123323      94.87540253
H      83.88796084      70.54443277      94.51068535
H      83.36828610      67.34701584      94.24990312
C      82.27413458      68.73407496      97.73644817
H      83.81237178      67.53409874      98.40352156
H      80.49779184      67.88747756      98.34871949
H      82.34216471      70.65970607      98.45832362
C      76.57283028      72.67226459      91.93309866
O      74.95900402      70.96584173      91.85373015
N      76.17409804      74.93804644      90.97689715
H      77.48934755      76.24573704      91.43043146
C      74.03303811      75.76574657      89.41031403
H      73.84595522      74.37868745      87.89853298
H      74.17665731      77.65547288      88.59962144
C      71.45545142      76.00574180      90.60084161
O      69.67532925      76.27408295      89.10984755
N      71.10585206      76.17392745      93.18031803
H      72.56850022      76.31187747      94.40108122
C      68.56417017      76.59533642      94.17809352
H      67.41899602      75.45583145      92.89685908
C      68.45267631      75.49929515      96.78780556
H      69.88319913      76.17581718      98.10683452
H      68.79093733      73.49051609      96.48544935
C      65.79005195      75.61645818      97.90274408
N      64.17433594      73.54153869      98.20510029
H      64.71857712      71.72173226      98.01990711
C      62.01437876      74.47884295      99.36728197
H      60.20591068      73.57366405      99.62995393
N      62.25248429      76.93926661      99.85483136
H      60.92211697      77.94460101     100.78268698
C      64.58818600      77.62712699      98.82304080
H      65.42155532      79.48850739      98.92319629
C      67.79127210      79.33354985      93.96833390
O      69.14620587      81.02863435      94.91130733
N      65.53115944      79.69448757      93.09528034
H      64.38787501      78.22805994      92.66631247
C      64.35763940      82.19459549      92.86095428
H      65.65588138      83.72905325      92.41497887
C      62.72302613      82.13412424      90.60840051
H      60.86920463      81.52185292      91.26602527
H      63.23325225      80.58454866      89.35362224
C      62.62853982      84.61911434      88.92465437
H      64.54661203      85.19359114      88.43521525
C      61.01660328      84.42069308      86.52092250
H      61.91422327      83.26796003      85.06772296
H      60.72180598      86.32553721      85.79148814
H      59.11364888      83.71393544      86.87997050
C      61.27738550      86.52017902      90.50824502
H      59.65222087      85.57720559      91.35295268
H      60.82196147      88.12077720      89.29504073
H      62.47358226      87.19481131      92.04270279
C      62.95924193      82.85033052      95.34027520
O      61.37376155      81.41035907      96.15663697
N      63.30884130      85.16524525      96.28702808
H      64.50692778      86.29341186      95.31759849
C      61.85942121      86.20648445      98.42430854
H      60.92967587      84.71738011      99.50334227
C      63.73402971      87.35543804     100.29135814
H      62.70601859      88.02629089     101.94675839
H      64.69023122      89.07697872      99.69042517
C      65.82784646      85.48838844     101.26456719
H      66.72735619      84.44525952      99.73199915
C      67.83284608      87.07197910     102.67430302
H      69.21990521      85.89467961     103.63806344
H      66.63664934      88.19069708     103.92719157
H      68.96857160      88.29085257     101.46487818
C      64.73180521      83.57976487     103.14862433
H      64.37653667      84.56431228     104.92307734
H      66.21335063      82.15302150     103.27523599
H      62.96869056      82.78985927     102.43808723
C      59.71269212      88.03573952      97.76479406
O      57.51305069      87.63322781      98.47344143
N      60.21346959      89.80074389      95.96199516
H      61.84808286      89.91601720      94.98122720
C      58.05540215      91.35220920      94.70343743
H      56.38488409      90.18813779      94.38407369
C      57.47903562      93.60854242      96.51001579