 %block lattice_cart
   137.614   0.000   0.000
   0.000 142.646   0.000
   0.000   0.000   160.855
 %endblock lattice_cart

 %block positions_abs
N      90.87333416      43.33520844      77.37937145
H      89.72060110      44.38967572      76.27955074
H      90.47838136      41.49839446      77.04111045
H      92.64967689      43.51473244      76.70284944
C      90.92813622      44.05708389      80.03821638
H      91.58387125      42.45081653      81.14181654
C      92.48716043      46.49672056      80.45962535
H      91.88244801      47.90456666      79.08201487
H      94.46003470      46.13389311      79.98908350
C      92.32653369      47.37544330      83.18272097
H      93.30541192      45.93169239      84.27498277
H      90.39712312      47.50772414      83.89703751
S      94.01783874      50.36876978      84.02175945
C      97.15478442      49.22548536      83.38114223
H      97.46658926      47.54362894      84.52631637
H      98.35476063      50.79206847      83.97262656
H      97.40233857      48.73226679      81.39503987
C      88.11622346      44.51628739      80.70340004
O      86.71782599      45.75216839      79.28799503
N      87.20726511      43.88511880      82.89548256
H      88.27118102      42.94592482      84.16915810
C      84.48227976      44.34054284      83.60790938
H      83.22939122      43.62622629      82.13581258
C      83.99284065      42.84954878      86.14770155
H      84.98872642      43.86622153      87.63680589
H      84.96038052      41.08076495      85.73007204
C      81.19793543      42.31286650      86.64092012
O      79.58599889      42.67947341      84.91182054
N      80.46094217      41.43414377      88.86890745
H      78.65625354      40.81809299      88.92559923
H      81.92736979      41.15446427      90.05943502
C      83.83599337      47.08253572      84.15593001
O      85.05297711      48.80974557      85.16882333
N      81.32832655      47.59465155      83.65137309
H      80.10189417      46.20003353      83.21106686
C      79.99040032      50.03239849      83.85924298
H      80.64424562      50.91868013      82.11880505
C      77.06888344      49.77917517      83.69294708
H      76.52275253      48.57352978      82.11691532
C      76.05410041      48.57352978      86.12313511
H      75.82166407      49.91334574      87.67082095
H      77.18415674      46.93891652      86.66359683
H      74.05288024      48.20503315      85.80944055
C      75.86701750      52.31140843      82.99941752
H      76.36968470      53.90633743      84.20506291
H      73.84501035      51.98826523      83.22240521
C      76.52464226      53.25249213      80.38214656
H      76.18827098      51.88622001      78.87792443
H      78.45783228      53.95547032      80.27821162
H      75.23395919      54.77372181      79.87381020
C      80.79353400      51.70480628      86.10234811
O      81.55131425      53.78161550      85.71117478
N      80.65369425      50.85631917      88.46828546
H      79.99040032      49.08186616      88.70639098
C      81.42092314      52.21692211      90.91548103
H      79.98662087      53.64933466      91.28964684
C      81.09589021      50.40467458      93.12457109
H      81.07321350      51.58197407      94.81587615
H      82.60200208      49.00060793      93.20016016
C      78.74318095      48.94013668      92.90158340
C      76.47928883      50.20247386      93.46094238
H      76.48873746      52.18101731      93.96171985
C      74.20216862      48.98360039      92.98284163
H      72.53731974      50.16089988      93.01307725
C      74.06043915      46.45514658      92.28553261
H      72.32000121      45.38745122      92.24017919
C      76.28086757      45.16257378      92.03608875
H      76.35267717      43.14245636      91.75451953
C      78.56365695      46.40979315      92.26285590
H      80.30787434      45.49705534      91.72239418
C      84.18370301      53.27138939      90.93815776
O      84.86589421      55.04962185      92.17970795
N      85.66335871      51.91078645      89.41125890
H      84.71849555      50.81474519      88.16592925
C      88.38456460      52.02039057      89.46039178
H      89.06486607      52.79895782      91.24240369
C      89.57698190      49.36910456      89.41503834
H      91.60465824      49.71303475      89.53976028
H      89.30486132      48.53384553      87.55176821
C      88.77573795      47.46803989      91.39358180
H      89.68847576      45.62555673      91.23862424
H      86.77262806      47.13166860      91.05910024
C      89.19525719      48.26361466      94.00896302
O      88.32220363      46.96348296      95.74373176
O      90.65790536      50.12499508      94.19604591
C      89.43147298      53.75704906      87.30232433
O      91.04340952      55.46725137      87.72751274
N      88.21259951      53.52461272      85.04599111
H      86.84065820      52.25660636      84.65670748
C      88.80786330      55.15544653      82.99563806
H      90.85254717      55.30095545      82.79910652
C      87.96693509      54.13121487      80.47474315
H      89.09699142      52.48526325      79.97207595
H      88.50172763      55.46158219      78.99697719
C      85.10966890      53.61720931      80.29521915
H      83.75851459      55.10064446      80.76009183
H      84.71849555      52.31707761      81.84479473
S      83.91158242      52.05818510      77.61936671
C      84.87912229      54.19546556      75.17217113
H      84.22716671      53.54162026      73.33157769
H      86.93325479      54.33152586      75.08713345
H      83.98906120      55.99070556      75.65216161
C      87.67024805      57.83885789      83.45673129
O      88.90801879      59.66622324      82.95973326
N      85.50840115      57.99003600      84.81544451
H      84.68825993      56.44235015      85.57322475
C      84.57487635      60.65832955      85.38047266
H      84.27818932      61.63909751      83.59279157
C      81.99728966      60.50148227      86.58422832
H      81.80453758      61.94145372      88.04309704
H      81.88579581      58.63632240      87.45161271
C      79.91481127      60.95690631      84.65481777
H      80.39291202      59.79661435      83.02020450
C      77.34667321      59.97424863      85.50141516
H      77.43360062      58.11664766      86.38958652
H      76.26197030      59.53961157      83.80444092
H      76.21283742      61.31784403      86.57288997
C      79.63702150      63.74803207      83.61357856
H      81.43226150      64.32250887      82.78398871
H      78.92459468      65.02548706      85.06488837
H      78.16681443      63.57984643      82.17927629
C      86.50239719      62.33829624      86.94516606
O      86.22460743      64.71557194      86.85256947
N      88.57353723      61.29705704      87.94861072
H      88.95148249      59.47347115      87.52720175
C      90.54452178      62.48947435      89.50196576
H      89.69981411      64.08440336      90.49029262
C      92.02039803      60.78872067      91.34633863
H      93.24305095      62.05294757      92.41970319
H      93.22982287      59.53961157      90.24462820
C      90.34610051      59.23536564      93.15480671
H      91.56686371      57.73492294      93.85967464
H      88.95337222      58.15633191      92.08522163
C      89.25572843      60.61486585      95.41680911
H      87.63245353      61.74114273      94.83666313
H      90.75428140      61.66366395      96.36356199
N      88.14078991      58.73458816      97.21015938
H      88.12000292      56.91289200      96.64324149
C      87.62678435      58.99348067      99.57798646
N      87.46048843      61.17044538     100.63812291
H      87.42269391      61.12320222     102.54674649
H      87.84221315      62.75592576      99.65168578
N      87.22805210      57.02627558     100.90835379
H      86.35310881      57.10753381     102.60154855
H      87.52473913      55.38410341      99.98427761
C      92.54574194      63.74614235      87.65948260
O      93.77784350      65.63964811      88.41915257
N      92.84809815      62.61041683      85.39370075
H      91.64812194      61.25926252      84.77953971
C      94.65467651      63.49669847      83.33956824
H      95.78851230      64.96690554      84.23151907
C      96.45558568      61.46713241      82.36069002
H      97.78595301      62.06806538      80.90749048
C      97.99760236      60.15944180      84.70017119
H      98.59853532      61.64854614      85.99085426
H      99.84386496      59.47347115      84.10112795
H      96.83542067      58.66088884      85.50708434
C      94.79262653      59.29772661      81.23252342
H      93.26761739      59.95157191      80.01176021
H      93.85154282      58.13932438      82.65170787
C      96.50093912      57.38343385      79.72263209
H      97.88988796      56.42534261      80.90182130
H      97.34942623      58.09586067      77.98408387
H      95.39355950      55.69968771      79.29933340
C      93.27328657      64.81572744      81.14181654
O      94.41846072      66.13664613      79.62625605
N      90.74294304      64.58518083      80.91504939
H      90.00406005      63.50614710      82.30399823
C      89.14045513      65.71523716      78.87981416
H      90.22893748      66.23113245      77.21118581
C      87.26206717      63.59118479      78.18061542
H      85.88067724      63.60441287      79.70751427
H      87.99717071      61.66744340      78.25998393
C      85.92792039      64.28471435      75.66161023
O      87.44537062      64.31117051      73.80400927
O      83.55631387      64.01826294      75.37626156
C      87.86300014      68.18133000      79.87569991
O      87.82331589      69.93688575      78.41305175
N      87.37923020      68.64620268      82.27565234
H      87.22616237      67.31772508      83.63625529
C      86.82365067      71.15764895      83.48696691
H      86.90301917      72.56927450      81.98841393
C      84.13268040      71.02158865      84.47151431
H      83.83032419      69.55705076      85.88691932
H      82.86089459      70.46033994      82.95028462
C      83.34088507      73.62941096      85.59968091
H      84.85077640      74.40797820      86.76186261
H      81.67603619      73.41965134      86.79587767
C      82.54908975      75.65708730      83.68538817
O      80.20582912      76.11251134      83.48885662
O      84.18559273      77.00068271      82.57800855
C      88.76062014      71.95133400      85.44094390
O      89.79619016      73.91098018      85.17071304
N      89.31242022      70.30916183      87.42704627
H      88.01417824      68.94099998      87.70861548
C      91.01884308      71.09150853      89.53220137
H      92.85754678      71.71889766      88.84623072
H      91.58198152      69.43988773      90.62635291
C      89.76595454      73.07383143      91.30854412
O      87.50017269      73.59350616      91.13090983
N      91.15868283      74.04893020      93.17181426
H      92.90856939      73.30248831      93.33055126
C      90.17602515      75.11284612      95.54908995
H      88.13323100      75.08261050      95.79286466
C      91.13222666      73.48012258      97.71849577
H      93.18257971      73.29492941      97.63723753
H      90.27051146      71.61118326      97.61456082
C      90.41791011      74.34750696     100.38489959
H      91.06230679      76.25046136     100.83087500
C      87.60410763      74.28136654     100.92536132
H      86.67058284      75.63819003      99.68570085
H      86.90301917      74.68954742     102.81886708
H      86.72349517      72.48612654     100.42269411
C      91.71237264      72.53714915     102.22360330
H      90.97726910      72.76391631     104.13600632
H      93.74004897      72.88863825     102.18769849
H      91.37600135      70.53781872     101.86644503
C      91.19269790      77.86806708      96.02341126
O      93.39989824      78.52758157      96.02719072
N      89.44848052      79.56693104      97.03063538
H      87.74016793      78.85261449      96.57143190
C      89.96059635      81.98767045      98.43092259
H      91.96937542      82.17097390      98.84666237
C      89.30297159      84.24022421      96.66591820
H      89.30108186      85.88239638      97.90746839
H      87.39812747      83.93975773      95.94404275
C      91.27017668      84.67486126      94.58343982
H      91.92780144      82.82859866      93.94282259
H      92.91990775      85.61783469      95.37712486
C      90.14578952      86.09026627      92.23828946
H      91.75772607      86.62505882      91.07421804
H      89.25572843      87.89495490      92.68804432
N      88.38456460      84.37439478      90.75296457
H      88.17480498      82.52813217      91.19327080
C      87.90268439      84.70698661      88.33600463
N      88.35432898      86.78190610      87.03965238
H      88.16913580      86.78946501      85.14047743
H      88.95526195      88.34659949      87.95427990
N      86.80853286      82.90985689      87.19083047
H      85.84666216      83.22922063      85.57322475
H      86.63656776      81.23933883      88.09789910
C      88.44125639      81.78169028     101.01984764
O      86.16791564      81.34138405     100.86300035
N      89.57509218      82.38073352     103.23649660
H      91.29663285      83.20654392     103.24405551
C      88.32598309      82.68686918     105.73471478
H      86.89546027      81.25256691     106.10510115
C      90.43302792      82.49600682     107.76995002
H      89.70548329      82.80025276     109.67101469
H      91.75961580      83.99833924     107.28995955
C      91.92780144      80.04125234     107.72648632
H      92.59865428      79.67086599     105.81219357
C      94.05941272      80.26801950     109.67668387
H      95.42946430      78.73734119     109.51794686
H      93.34698590      80.25479142     111.60987389
H      95.17813070      81.91208139     109.14756051
C      90.36499778      77.66586637     108.46347959
H      88.85699618      77.56571087     107.06319238
H      89.60154835      77.98334039     110.34942645
H      91.38167053      75.87629555     108.40867751
C      87.05797673      85.35138328     106.05029907
O      85.58587993      85.80302787     107.77750892
N      87.72316039      87.27701440     104.52717967
H      88.97226948      86.94253284     103.12311302
C      86.47783075      89.62972366     104.56875365
H      85.51784978      90.02467645     106.34698611
C      88.38456460      91.76700412     104.43458308
H      89.18013938      91.57425203     102.54296704
H      89.92280182      91.49110407     105.77628877
C      87.60599736      94.50521754     104.73127012
H      86.32854237      94.58647577     106.34509639
H      86.70459791      95.12504777     102.98516299
C      90.06642102      96.09636710     105.02795715
H      91.00750472      96.22108904     103.19870207
H      91.27395613      95.55968483     106.60776834
C      88.91557770      98.69663051     105.58920586
H      88.18047416      98.44151745     107.49593970
H      87.44159117      99.32024019     104.29285361
N      90.84876771     100.54289311     105.80463466
H      90.13445117     102.28711050     106.09943196
H      91.76150552     100.60903353     104.12844741
H      92.01850830     100.05156427     107.22759858
C      84.64101678      89.90562370     102.25005946
O      84.96227025      89.07036467     100.11655846
N      82.60578154      91.19819650     102.88878696
H      82.67192196      92.17707473     104.52528994
C      80.56109767      91.72165068     101.02740653
H      79.77686125      89.88105726     100.53229824
C      78.29720554      93.19374748     102.36533277
H      78.09311510      92.45864395     104.27962553
C      78.73751177      95.95463763     102.59398966
H      77.89280411      96.76721994     104.28718442
H      78.26319047      97.00721518     100.88945652
H      80.75196002      96.12471299     102.99272190
C      75.90481203      92.50210765     100.91024350
H      75.67993460      90.46120323     100.76284485
H      76.00685725      93.38272011      99.04886308
C      73.56911031      93.65295098     102.16880124
H      73.48029317      92.86871456     104.06986591
H      71.91182033      93.04634883     101.10677505
H      73.75052403      95.70519375     102.23116221
C      81.52107863      93.01800293      98.66713837
O      83.10844874      94.75088196      98.94870760
N      80.70660659      92.26211241      96.40324625
H      79.46694613      90.81647178      96.52985791
C      81.19982516      93.26933653      93.89557944
H      81.87823691      95.20630601      94.10722879
C      83.17836861      91.61204656      92.46505661
H      84.94148326      91.50244243      93.52708281
H      83.54497551      92.35092955      90.57722003
C      82.47539042      88.80013380      92.00774284
C      81.71383072      87.94030833      89.57566508
H      81.52107863      89.32547772      88.09034021
C      81.14691282      85.40240589      89.00685746
H      80.94660183      85.04524762      87.00752703
C      81.47005602      83.58070973      90.84367144
O      80.71038604      81.16374977      90.27486382
H      79.94126743      81.04847647      88.63647110
C      82.42625754      84.37439478      93.18315261
H      82.74940074      82.93253360      94.58910900
C      82.71538566      86.89528968      93.85022600
H      83.13490490      87.34693427      95.79664410
C      78.80554192      93.72476058      92.21372301
O      76.65881283      93.12571733      92.91859093
N      79.13813375      94.64316756      89.87991102
H      80.86345388      95.32535876      89.43771507
C      77.22006154      94.75844087      87.89947784
H      75.42671127      94.22931750      88.76308276
C      76.70038681      97.44563169      86.77698041
H      75.35868113      97.18107000      85.23685346
H      78.54098024      98.04845438      86.07778167
C      75.62702226      99.34669636      88.75552387
H      77.31643759      99.82101766      89.83455758
H      74.17004327      98.39994347      89.86101376
C      74.61223923     101.73153096      87.39681065
H      72.98896433     101.53121997      86.14392209
H      76.15047645     102.36080983      86.18171662
C      74.10012340     103.45874081      89.55676782
H      75.36435030     102.91449964      91.08933586
H      72.17827174     103.20362776      90.25218711
N      74.86357283     105.93050283      88.84812046
H      76.60967994     105.89270831      88.07711212
H      74.97884614     107.01142628      90.41848301
H      73.71650896     106.85835845      87.63869562
C      77.84367123      92.85170702      85.83211726
O      80.06598937      92.59281451      85.21795620
N      75.79142845      91.66117944      84.75119380
H      74.14736656      91.53078833      85.71117478
C      76.09000521      90.25522307      82.29832905
H      77.62824243      88.88895094      82.40037428
C      73.55399250      88.80769271      81.82211802
H      72.04788063      90.09837578      81.26653848
H      72.93794172      87.73810762      83.46806964
C      73.67871443      86.88962050      79.59791015
O      75.13191397      84.99611474      79.60735879
O      72.77164580      87.46031785      77.52299066
C      76.72306352      92.16951582      80.06845200
O      76.67015119      94.55812988      80.28954998
N      77.21061291      91.21709376      77.74219892
H      77.46005679      89.32547772      77.75542699
C      77.21439236      92.58525561      75.40838691
H      78.62790765      94.06491131      75.65405134
C      77.86067876      90.86938412      73.10481053
H      76.09189494      90.75411081      72.05790217
C      79.89969346      92.02778635      71.45507946
H      80.41936819      90.68608066      69.98109295
H      81.48517383      92.62305014      72.62670979
H      79.07199333      93.78145237      70.75777045
O      78.75262958      88.38061456      73.70574351
H      77.61123489      87.02001162      73.33346742
C      74.84467557      94.01199898      74.96619096
O      74.92971325      96.15116916      74.24809495
N      72.75085881      92.62305014      75.60869790
H      73.08156092      90.86749439      76.27955074
C      70.26397899      93.72854003      75.40271773
H      70.01264539      94.43151822      73.48275580
C      68.29677389      91.67629725      75.39704855
H      68.19661840      91.01867250      77.34535639
H      69.07534113      90.13050113      74.27644086
C      65.71351802      92.40006243      74.47864157
H      65.10313642      94.17073599      75.33657731
H      64.43228358      90.79379506      74.62037104
C      65.95162354      92.95375224      71.67995690
O      66.32012017      95.20819573      70.87871295
O      65.73997419      91.30780062      70.02266692
C      69.52131654      95.89983556      77.19984745
O      67.66182585      97.25476933      76.97119057
N      71.10112774      96.44029729      79.06311761
H      72.71684374      95.42929371      79.14248611
C      70.73641056      98.36781813      81.10402203
H      69.69517137      99.99109303      80.37836712
H      72.57511427      98.93662575      81.83534610
C      69.27565212      97.57035362      83.40948812
O      68.56322530      99.06701686      85.01575548
N      68.61802737      95.17607038      83.57956350
H      69.40793297      94.08191885      82.23029890
C      67.34813128      94.15183872      85.94550084
H      66.03099204      95.53511838      86.71650917
C      65.82879133      91.94841784      85.15559523
H      64.74408843      91.45519927      86.83556192
H      67.05900316      90.33459157      84.80977533
C      64.15260409      92.10148567      82.82178323
C      63.20774093      89.90373397      81.62558648
H      64.08646367      88.14439877      82.16793793
C      61.67895235      90.04735317      79.53365946
H      60.98731252      88.43352690      78.49242025
C      60.86070085      92.46620285      78.60202438
O      59.25821294      92.70997755      76.55923024
H      58.91050330      94.44285657      76.16238771
C      61.48620026      94.60915249      79.94184033
H      60.41472544      96.27022192      79.42216561
C      63.02065803      94.35781889      82.09612834
H      63.20585121      95.90361501      83.41515730
C      69.32289528      93.46775780      87.99207444
O      71.35435107      92.38116517      87.48751750
N      68.86747124      94.04601405      90.46005700
H      67.16482783      94.79812512      90.88146597
C      70.57956328      93.15028378      92.51607922
H      72.46551014      93.68696605      91.88302092
C      69.98618922      94.46364356      94.97839262
H      70.83089688      93.60381809      96.64891067
H      68.01331495      93.95152773      95.28263854
C      70.41893654      97.18862891      94.68548503
C      68.37425267      98.72497640      94.47572541
H      66.50720308      97.95018861      94.20360482
C      68.58401229     101.29500419      94.53808638
H      66.91727369     102.47230368      94.52674803
C      70.92349347     102.39104545      95.20704949
O      71.16915789     104.94217597      95.50184680
H      69.49863983     105.43917399      94.99917960
C      73.07400201     100.81312398      95.55853858
H      74.83333721     101.81089947      95.82876945
C      72.82644787      98.17506604      95.31098445
H      74.45539195      96.96564120      95.53397214
C      70.65137288      90.26278197      92.94126764
O      68.68794724      89.07225439      92.79764844
N      72.90581637      89.21209414      93.44582458
H      74.35901591      90.44608542      93.54031088
C      73.41415275      86.53057250      93.86723353
H      71.81922374      85.46854631      94.62123433
C      74.57822416      85.61972442      91.21594753
H      76.48117856      86.38506358      91.39925098
C      74.53098100      82.79836303      90.82288444
H      76.26574976      82.15963554      89.91581582
H      72.93983144      82.15207663      89.68526920
H      74.52342210      81.77980055      92.61434499
O      73.40659384      86.72332459      89.22228626
H      73.09667873      88.40896046      89.81755005
C      75.32466605      86.32270261      96.01018317
O      76.52086281      88.05369191      96.94937715
N      75.82922298      83.91897074      96.70182300
H      74.58389334      82.58482396      96.14435375
C      77.61312462      83.16874939      98.67091783
H      79.30820912      84.32337217      98.46682739
C      76.42826622      83.59393781     101.23338671
H      75.90670176      85.55547372     101.57920662
C      74.05099052      81.96877318     101.49605866
H      73.10045818      82.15585609     103.31397537
H      74.54231936      79.99400919     101.18047438
H      72.61479852      82.46199175     100.10144064
C      78.06665893      82.75867878     103.52940417
H      78.60901038      80.77635588     103.40657196
H      77.00463274      83.02701992     105.27551130
C      80.34566887      84.37250505     103.66546447
H      79.77497152      86.35104850     103.61633158
H      81.54942453      83.91708101     102.05730737
H      81.50974027      83.82448442     105.27551130
C      78.59956175      80.53825036      98.11155883
O      77.37123965      79.08505083      96.70182300
N      80.80865181      79.80314683      99.10933433
H      81.81776566      81.01635112     100.18458861
C      81.46438684      77.07438203      99.25106381
H      80.01118731      76.13896751     100.37167150
H      83.16891998      77.08572039     100.40568658
C      82.19193147      75.90464144      96.62245450
O      83.32387753      77.18020671      95.10689401
N      81.19604571      73.58594726      96.41647434
H      80.48361889      72.81304920      98.00951362
C      81.21494297      72.32549981      94.01652191
H      82.71160621      73.12296431      92.84678134
C      81.64013139      69.38697539      93.92203561
H      79.99229005      68.24558070      94.40013636
C      82.45649316      68.62163623      91.26319068
H      84.04386326      69.55327131      90.33722479
H      80.91636621      69.13375206      89.99329459
H      82.67381168      66.57506264      91.18193245
C      83.47316591      68.38164099      95.93459413
H      83.48639400      66.32183931      96.02341126
H      82.93081446      69.17532604      97.75629029
C      86.24539441      69.15075960      95.42436802
H      86.33610128      71.19922292      95.23539539
H      87.19781648      68.10574095      93.92581506
H      87.35844321      68.72746091      97.10622444
C      78.89057960      73.05304444      92.58599910
O      77.08022180      71.51669695      92.39702646
N      78.86412344      75.16197900      91.35578727
H      80.46283190      76.20699765      91.39736124
C      76.79487312      76.10306271      89.77408635
H      76.43771485      74.83127690      88.19238542
H      77.27675333      77.92664860      88.94449649
C      74.22484534      76.40541892      91.00429818
O      72.43527452      76.36384494      89.59645208
N      73.95272475      76.56604565      93.45338347
H      75.50796950      76.81737925      94.53430692
C      71.43749903      76.68698814      94.70438230
H      70.12602896      75.34906191      93.84644655
C      71.65103810      75.89330309      97.51440532
H      73.01353077      77.15941972      98.40068697
H      72.48062795      74.03570212      97.84321771
C      69.09612812      75.94432570      98.74083771
N      67.59946488      73.87696511      99.30208642
H      67.88292383      72.16487307      98.50462192
C      65.41683099      74.71600359     100.18647832
H      63.80678417      73.58027808     100.71749143
N      65.48675087      77.24445740     100.72505032
H      63.90316022      78.27813769     101.00284009
C      67.86024712      78.09483424      99.72538511
H      68.78810274      79.90141260      99.92380637
C      70.13925705      79.18520632      94.36234183
O      71.14837090      80.98989495      95.48105981
N      68.25331019      79.52346733      92.74473611
H      67.66749503      78.00790683      91.74318116
C      67.17427646      82.03491360      91.96994833
H      68.74274930      83.34449394      91.71105581
C      65.71729748      81.72688821      89.43960479
H      63.85780678      81.02391003      89.98384597
H      66.59790994      80.22266607      88.34167380
C      65.11069533      83.97377280      87.65570315
H      64.05433832      83.23866926      86.04943579
C      63.23797655      85.93152926      88.78575948
H      64.46062948      87.23733014      89.80999114
H      61.94162430      84.95454076      90.05187611
H      62.22319352      87.03512943      87.37413392
C      67.41049225      85.38728808      86.69005300
H      67.08734905      85.97121351      84.74363490
H      69.13203292      84.26101120      86.77320097
H      67.76576080      87.22977124      87.54042985
C      65.57934746      83.06103499      94.16958974
O      64.56267470      81.54358476      95.52263378
N      65.60958308      85.34193465      94.77808162
H      66.39004004      86.53813141      93.51007526
C      64.49275483      86.46821153      97.02496620
H      63.90316022      84.88084143      98.20037598
C      66.25775920      88.17274467      98.53107807
H      65.32045495      89.20831469     100.04474885
H      67.00609082      89.69019490      97.35566832
C      68.36669377      86.62505882      99.83120978
H      69.21518088      85.64618059      98.23061159
C      70.39059065      88.33904058     100.82142638
H      71.80977511      87.52078909     102.07053547
H      69.53076518      89.71476134     102.08943272
H      71.47907300      89.20264551      99.29830696
C      67.51064775      84.73344278     101.81731213
H      66.32012017      85.75200526     103.15523837
H      69.10368703      83.89818375     102.82075681
H      66.74341886      83.16308021     100.72694006
C      62.00587500      87.82692475      96.42214352
O      60.14638431      87.44897949      97.77518756
N      62.27610586      89.69019490      94.84611177
H      63.99008763      90.04546344      94.08644179
C      60.20496582      91.49488353      94.12612604
H      58.48342515      90.36671692      94.08266233
C      59.84402810      93.32413860      96.33521611