 %block lattice_cart
   137.614   0.000   0.000
   0.000 142.646   0.000
   0.000   0.000   160.855
 %endblock lattice_cart

 %block positions_abs
N      93.13344683      42.10688634      81.53298990
H      92.58164675      41.58154243      83.28287647
H      94.96270190      42.63034053      81.68038854
H      92.92368721      40.68770188      80.27443218
C      91.69158565      44.36132983      80.73363567
H      92.22448847      46.00539173      81.85235364
C      92.31330561      44.95848335      77.94439963
H      92.15456860      43.26906802      76.77843850
H      94.18413466      45.81074992      77.81589823
C      90.54263206      47.03718229      76.96930086
H      88.71526671      46.10932667      76.75954124
H      91.40812671      47.61732827      75.19295812
S      90.27051147      50.04940604      78.62092165
C      93.56241470      50.72403833      79.21240599
H      93.39422906      52.23203993      80.60702400
H      94.68113268      51.26638978      77.57023381
H      94.58097719      49.26327989      80.24608628
C      88.87589345      43.85866263      81.19661862
O      87.92158166      41.87256028      80.63348018
N      87.53229804      45.72571223      82.05644409
H      88.53196326      47.28851589      82.50997840
C      84.86778394      45.78051429      83.02398396
H      83.77174268      44.46526478      81.87880982
C      84.82998941      44.33109421      85.55621722
H      86.15846701      42.75884192      85.54109941
H      82.97805763      43.43158449      85.62802681
C      84.85077640      45.88633897      87.93160320
O      82.83065897      46.72915690      88.74040605
N      86.99939522      46.17546709      89.02008555
H      87.08443290      47.16001450      90.65280909
H      88.64345711      45.82019855      88.11679638
C      83.54119607      48.34298318      83.01453532
O      84.85077640      50.23270949      83.28476618
N      80.96171965      48.49605101      83.18650042
H      80.09622500      46.86143775      82.71595856
C      79.47450504      50.77506094      83.43027512
H      79.45938723      51.42701652      81.47629811
C      76.65503338      49.94358136      84.08223069
H      76.04465178      48.55274280      82.69139212
C      76.39992033      48.58675787      86.62958177
H      76.35267717      49.93224300      88.19049570
H      77.98729043      47.30930288      86.92059962
H      74.69538720      47.43402482      86.70328109
C      74.84278585      52.38132831      83.90459642
H      75.17915713      53.58508397      85.54109941
H      72.93794172      51.62732751      84.12947386
C      74.97695642      54.02916965      81.41393713
H      74.42137688      52.57974957      80.05900338
H      76.75707860      54.97403281      80.98874872
H      73.48596236      55.44079521      81.57456387
C      80.25874146      52.92556948      85.30866307
O      79.87890647      55.19891024      84.96095343
N      81.34155464      52.27361391      87.50263532
H      81.62501359      50.41979239      87.86546277
C      82.21838765      54.12554569      89.36212602
H      80.81432100      55.63165756      89.42826644
C      82.31854314      53.01249689      91.98317640
H      83.34277480      54.21058338      93.31165401
H      83.44104057      51.29284595      91.82632913
C      79.97906197      52.17345841      93.19827043
C      78.21405759      54.06318472      93.93148423
H      78.79042412      56.01527201      94.05998562
C      75.79142846      53.39800106      94.72138983
H      74.72562282      55.04962186      95.26941046
C      74.93916189      50.81096574      94.70816175
H      73.09478901      50.38577732      95.46972146
C      76.70983545      48.96659286      93.94660204
H      76.06165932      47.03529257      93.83132875
C      79.20427418      49.61476898      93.34566908
H      80.40614011      48.15779000      92.57466075
C      84.68448049      55.36331643      88.68182454
O      84.90746819      57.66122362      88.88780471
N      86.41358006      53.87988127      87.44594353
H      86.13768002      52.03172894      87.06232909
C      88.77573795      55.03828350      86.54643380
H      89.79052098      56.21936245      87.89569840
C      90.42546902      52.87643660      85.53354050
H      92.16779669      53.70224700      84.80977533
H      89.44659079      52.00338304      83.94617039
C      91.21159517      51.05851989      87.64058535
H      89.67335795      50.31396772      88.79331840
H      92.44558645      52.07708237      88.93882731
C      92.74038376      48.77762023      86.51430845
O      95.05718822      49.24438263      86.07967140
O      91.81252814      46.73293636      86.10801731
C      88.22582760      56.70124266      84.24852660
O      89.20092637      58.78183133      84.01986973
N      86.53263282      55.96235967      82.47974279
H      85.80130874      54.21625256      82.73674555
C      85.73705804      57.39855167      80.21963012
H      87.19214730      57.76893802      78.80800455
C      83.52796798      55.87921171      79.21240599
H      81.95193624      55.88488089      80.53710413
H      84.17992356      53.94413197      78.94217513
C      82.68892950      56.65399950      76.44584667
H      83.99473038      55.83196855      75.08335400
H      82.76262883      58.71191145      76.43450831
S      79.49718176      55.60898085      75.86192124
C      79.23262007      56.65399950      72.69285021
H      77.34478349      56.10975832      72.07490971
H      80.62534837      55.78094594      71.45130002
H      79.20427418      58.71002173      72.57568718
C      84.89990929      60.11786783      80.88103431
O      85.81642655      61.92444619      79.72074237
N      83.43726112      60.35597335      82.87469558
H      82.92514529      58.89143545      83.98774438
C      82.62278908      62.78049221      83.73263132
H      82.33744041      63.78582661      81.96006805
C      80.09244555      62.74458741      85.34078841
H      79.57655026      64.60785755      86.04565634
H      80.66881207      61.77515781      87.06232909
C      77.77753081      61.54650092      83.97640603
H      78.41058913      60.23125141      82.51942704
C      75.93504766      60.50526173      85.95683920
H      74.42893579      59.37520539      85.11969043
H      75.16781877      62.23814075      86.76186261
H      76.91959507      59.34874922      87.34956748
C      76.50952446      63.70078892      82.47785305
H      76.35267717      65.42610904      83.59090185
H      74.62546732      62.94678812      82.13014341
H      77.34856294      63.92188690      80.61080345
C      84.66747295      64.33573696      85.06488838
O      84.68825994      66.67710786      84.98929932
N      86.31720402      63.06962033      86.55966190
H      86.01484781      61.18934265      86.45572695
C      88.44125640      64.38486985      87.71239494
H      87.77985219      66.02326256      88.77064168
C      89.74516755      62.45734901      89.61534933
H      90.92435677      61.07217962      88.64780946
H      88.24850431      61.27627006      90.39580631
C      90.89412115      63.28693886      92.09089081
H      91.19458763      61.58996463      93.22094714
H      89.73571892      64.53793768      93.24362386
C      93.40178797      64.72502058      91.84333667
H      94.31074632      65.05572269      93.66314311
H      93.09565231      66.53726812      90.91926050
N      95.09309302      63.29260804      90.15392134
H      95.06285740      61.38587419      90.19927477
C      96.76928026      64.23180201      88.67237590
N      97.23037348      66.62608525      88.47962383
H      98.39255516      67.35362988      87.15114622
H      96.07953015      67.87141489      89.35834655
N      97.99004346      63.00536964      87.01319621
H      99.56040602      63.82551086      86.30643857
H      97.82563727      61.11942278      86.76942152
C      90.36877724      65.51303646      85.72440285
O      91.26828696      67.55583060      86.14581183
N      90.67680262      64.14487460      83.57389432
H      89.71682166      62.49514353      83.60790938
C      92.04874393      64.96690555      81.34023781
H      93.89311681      65.67933237      81.91660434
C      92.69880978      62.65954972      79.75853689
H      91.06608624      61.42366871      79.98152459
C      93.04840915      63.06017170      76.78977686
H      91.44592123      64.09763145      76.01309933
H      93.82697639      61.50303722      75.68995614
H      94.63388952      64.37542121      76.85780700
C      94.97026081      61.19123238      80.97363090
H      94.78128818      61.25359335      83.02398396
H      96.80140560      61.92822564      80.38592603
C      94.83042106      58.40577579      79.97018623
H      96.66723504      57.63098800      80.48041234
H      94.73404502      58.16767028      77.92550236
H      93.11832902      57.58941402      80.77709938
C      90.57286768      67.03426614      79.87947938
O      91.84654321      68.77659380      79.00453609
N      88.07464949      66.85285241      79.54877727
H      87.32253842      65.13509119      79.89459719
C      86.47972048      68.73879927      78.43383875
H      87.29419252      69.08083973      76.57245833
C      83.79819885      67.59740458      77.76109618
H      82.42247809      69.12997262      77.81589823
H      83.24072958      66.31617014      79.27476696
C      83.65646937      66.42577426      75.05311837
O      84.82620996      67.46890319      73.33157769
O      82.25807190      64.51148151      74.71485737
C      86.30019648      71.37685720      79.69806565
O      86.72538490      73.30815750      78.32801407
N      85.99973000      71.44110790      82.23785782
H      85.99028137      69.73090559      83.08634492
C      85.51973952      73.64263905      83.73641077
H      85.44604019      75.30748794      82.52509621
C      82.94026310      73.39319518      84.87402601
H      82.57932537      75.09772831      85.97006728
H      82.88546104      71.76992028      86.14014264
C      80.82376963      73.11918487      82.94272573
H      79.01908100      73.01524992      83.92916286
H      81.06565460      71.33528323      81.94117078
C      80.49306752      75.42087151      81.20417751
O      80.02441540      77.60350541      82.00542147
O      80.32110243      75.06749269      78.78154839
C      87.26584663      74.19065968      86.06266386
O      87.85922069      76.38085248      86.70328109
N      88.04252414      72.25746967      87.37602366
H      87.83654398      70.55293653      86.54643380
C      89.66768877      72.48612655      89.68904867
H      91.50072330      73.32894449      89.27519861
H      90.16657652      70.50380365      89.94794117
C      88.64345711      73.85617813      91.96238942
O      86.78774587      75.18654545      91.82254968
N      89.91335319      73.59917535      94.10344933
H      91.62733496      72.77147522      93.95227123
C      89.22738254      74.54403851      96.54497573
H      87.17702949      74.52703097      96.74339700
C      90.51617589      73.02847800      98.73894798
H      92.54952140      73.34973148      98.82398567
H      90.00028060      71.06316264      98.40068697
C      89.85855113      73.63319042     101.47905113
H      90.18925324      75.62685168     101.87400393
C      87.09766099      73.15131021     102.16124233
H      86.27940949      71.29370925     101.81542242
H      85.90902314      74.58750221     101.28818878
H      86.81420204      73.46878423     104.17758030
C      91.42135479      72.00046689     103.31775484
H      90.64656700      72.24235186     105.20937087
H      93.33753727      72.76202659     103.30263702
H      91.28151504      70.02003371     102.77540339
C      90.21004023      77.26335467      96.78119152
O      92.51361660      77.76224242      96.40324625
N      88.49038928      78.91875492      97.60322247
H      86.79719450      78.12884932      97.99817527
C      89.16880103      81.37728885      98.83532401
H      91.17002119      81.44720873      99.32287340
C      88.82487084      83.45598780      96.78497097
H      88.27307075      85.25311752      97.62589918
H      87.29230280      83.13473432      95.44893447
C      91.25883833      83.85283032      95.20515977
H      91.47993631      82.17286363      94.03541918
H      92.93691529      83.94353719      96.39568734
C      90.92435677      85.98255188      93.33055126
H      92.85754679      86.60049238      92.98473136
H      89.81319770      87.48488430      94.19793565
N      89.55430519      85.07170379      91.12902012
H      88.63778793      83.40496519      91.26697014
C      89.41446545      86.28868754      89.00685746
N      90.25728338      88.51667486      88.79898758
H      90.28562928      89.36705170      87.09067498
H      90.70325879      89.52956817      90.35423232
N      88.33921118      85.33248603      86.93949688
H      88.23338650      86.19042177      85.23874320
H      87.03907947      83.94542691      87.12846952
C      87.62111518      81.97066292     101.24850453
O      85.35533333      81.31681761     101.41102098
N      88.65668520      83.26701517     103.16279728
H      90.41035121      84.01534679     103.06264179
C      87.69103505      83.00434321     105.69314081
H      86.34932937      81.45287791     105.88778261
C      89.86611004      82.66608220     107.57908767
H      89.02140237      82.90418771     109.44235782
H      91.29852258      84.09093584     107.18413488
C      91.04907871      79.98834001     107.33720271
H      91.74827744      79.73133723     105.41724077
C      93.44525167      79.89952288     108.97559542
H      93.19391807      80.55336818     110.91256488
H      95.18379988      80.74423054     108.25938915
H      94.06886136      77.94554587     109.14378106
C      89.41068599      77.88129517     108.29718367
H      90.17791488      76.12195998     107.54507259
H      87.42458364      77.80948557     107.75483221
H      89.36911202      78.03625273     110.35131617
C      86.49105884      85.43642097     106.60209916
O      84.56920718      85.38539836     107.88144388
N      87.38111993      87.65306994     105.71203808
H      88.83809892      87.76267406     104.47993651
C      85.93736903      90.00766892     105.86699563
H      84.80353324      89.84515246     107.57719794
C      87.83087480      92.35281928     106.19202856
H      88.77762768      92.52478437     104.37222211
H      89.09510170      91.99755073     107.77939865
C      86.35877800      94.78489704     106.92335264
H      85.03030040      94.54301208     108.48048712
H      85.27785455      95.55401565     105.34732089
C      88.12945155      96.96942066     107.79262675
H      89.74327783      97.09792205     106.52084093
H      88.97037976      96.43084866     109.59542565
C      86.72349518      99.59236078     107.70569933
H      84.74306200      99.36181417     108.22537407
H      86.88223219     100.26699308     105.76684013
N      87.90835358     101.38382133     109.48960098
H      89.73004974     101.75798714     109.06252283
H      88.00661934     100.61470272     111.23381836
H      86.88979109     102.99575787     109.59353592
C      84.27440988      90.20609019     103.39523361
O      85.04919766      89.10060029     101.43747716
N      82.19193148      91.58936985     103.35932881
H      81.55887316      92.05424252     105.09787703
C      80.64991481      91.98054320     101.06331135
H      80.04898184      90.08136825     100.54363661
C      78.33877953      93.47720643     101.81542242
H      79.10600841      94.95497241     103.02862670
C      77.11990605      94.67529292      99.54964057
H      76.57944433      93.14272488      98.28352394
H      78.34066925      96.10203628      98.70304318
H      75.48529279      95.82235679     100.05608721
C      76.31299292      91.99377128     103.34988019
H      76.98951494      90.67096286     104.77473382
H      75.21884138      90.81647179     102.05919711
C      74.25886042      93.64728180     104.78229272
H      75.42104210      95.01733338     105.78573740
H      73.03242804      92.44919532     105.92368742
H      73.16092943      94.51088673     103.26673222
C      82.22972601      93.05390774      98.93547951
O      83.85111118      94.74710252      99.26807135
N      81.41903342      92.32636311      96.61489561
H      80.22472639      90.84859713      96.43726133
C      82.27129998      93.34114614      94.17714865
H      83.23317068      95.11181970      94.60044736
C      84.33299139      91.55913423      93.09244575
H      85.75973476      91.36827187      94.56454256
H      85.37423059      92.38305490      91.52019347
C      83.50529127      88.84926669      92.57844020
C      83.08388230      88.10849398      90.02919941
H      83.37301042      89.49555309      88.56088206
C      82.32043287      85.57248127      89.43393561
H      81.83477321      85.02635036      87.52909149
C      81.94248761      83.80369744      91.40492016
O      81.43793068      81.39996557      90.92492968
H      81.20927380      81.17130868      89.14102804
C      82.27318971      84.58226468      93.91258698
H      82.14657805      83.17441858      95.38468378
C      82.99317544      87.14284383      94.50596104
H      83.01774188      87.75511516      96.45237914
C      80.16803460      93.86460033      92.31765796
O      78.13846854      92.97642896      92.45749772
N      80.79731346      95.34992521      90.46950563
H      82.48672878      96.23998630      90.46383646
C      79.09089060      95.72976020      88.29065120
H      77.13502387      95.43118344      88.86134853
C      79.34411393      98.50954761      87.36090584
H      78.20082951      98.71552777      85.66015216
H      81.28486285      98.97819973      86.84879001
C      78.26130075     100.18762457      89.45283288
H      79.17403856      99.56590462      91.19138109
H      76.24118332      99.93251152      89.76463771
C      78.82632892     102.98630924      88.82355402
H      78.02697469     103.52110179      87.00185785
H      80.86723333     103.14693598      88.59678686
C      77.63391161     104.77776979      90.71894951
H      78.14791717     104.35447109      92.66725734
H      75.58733802     104.57556907      90.63202209
N      78.43137612     107.47062978      90.21628230
H      76.99140467     108.72162860      90.24273848
H      79.19671527     107.65204351      88.47584438
H      79.55576327     108.17549770      91.58633389
C      79.68804411      93.98176336      86.24785705
O      81.95949514      93.63216399      85.54676858
N      77.66603696      92.90650909      85.14425689
H      76.01441616      93.69452496      85.69038779
C      77.59611709      91.18496842      82.95973327
H      79.03986799      89.73176888      83.16382370
C      74.87680092      90.03601482      82.92760792
H      73.52186715      91.48354517      83.48318746
H      74.78987351      88.69052968      84.48474240
C      73.88280488      88.64328653      80.49553016
O      74.07744669      86.23199575      80.46529453
O      72.62424716      89.89050589      78.86847579
C      78.30098500      92.46809258      80.36891848
O      78.57310559      94.76599978      80.29899862
N      78.61656929      91.13016635      78.30533736
H      78.74885014      89.22910168      78.36580860
C      79.13624403      92.25644324      75.92239248
H      80.81810045      93.38460985      76.29088910
C      79.67292630      90.40451145      73.83424490
H      79.83733249      91.23788075      71.95585694
C      82.07476845      88.89273040      74.53155391
H      81.95949514      87.85149120      76.30411718
H      83.58088032      90.23632581      74.94729370
H      82.49428769      87.59826788      72.98386806
O      77.61690408      88.80958244      73.71708187
H      77.64902942      88.13872960      72.03144600
C      77.15203140      94.05924214      74.75643134
O      77.84745069      95.53700812      73.09158246
N      74.75018926      93.89672568      75.52366023
H      74.45917141      92.49454875      76.78599740
C      72.62991634      95.57291292      75.04178002
H      72.96439789      96.44029729      73.20307630
C      70.18838994      94.03089624      74.89060191
H      69.31722611      93.86460033      76.75009260
H      70.56255575      92.09770623      74.28399977
C      68.05677866      95.17040121      73.25787838
H      67.59946489      96.96375148      74.16116755
H      66.42594485      93.91751267      73.37693114
C      68.89959659      95.51055195      70.47053207
O      68.45173146      93.73987839      68.81324209
O      70.26397899      97.31524058      69.99999021
C      72.61101907      97.96719615      76.95607277
O      71.36379971      99.87015055      76.58568641
N      74.30610357      97.83680504      78.86469634
H      75.51741814      96.37226715      79.03099226
C      74.52909128      99.80967931      80.80355554
H      74.07177751     101.67483918      80.05711365
H      76.54542926      99.99298276      81.18905971
C      73.14581162      99.55078680      83.48129772
O      73.31966644     101.27610693      84.99496851
N      71.97040185      97.33035839      84.08034097
H      71.95528404      96.00943969      82.70273049
C      70.20161802      97.02233300      86.10045840
H      69.86524674      98.81946272      87.04721127
C      67.65237723      96.10203628      85.00441714
H      66.23697222      95.90361502      86.48974201
H      68.13803689      94.17073599      84.48096295
C      66.34090717      97.44185224      82.82367297
C      65.80422489      96.04345477      80.60702400
H      66.06311740      94.03089624      80.38214658
C      64.70629390      97.19051864      78.44517710
H      64.08835340      96.03211641      76.88237345
C      64.07701504      99.71897245      78.50564834
O      63.13782107     100.80178562      76.34002198
H      62.61247715     102.48742150      76.76332068
C      64.75920624     101.07012676      80.60135483
H      64.38315071     103.07323665      80.50497878
C      65.81556325     100.04967455      82.77831954
H      66.18594961     101.24020213      84.39592527
C      71.27876202      95.32724850      88.17159843
O      73.09667873      93.93829966      87.75207919
N      70.37358312      95.47086770      90.50730015
H      68.76731575      96.46675346      90.76619267
C      71.80788539      94.53545317      92.67292652
H      73.83367200      94.90017035      92.61434500
C      70.89514758      95.82991569      95.08988647
H      71.64725865      94.90017035      96.76796344
H      68.88069933      95.43118344      95.25429266
C      71.21640105      98.66828462      94.97272344
C      69.16037882     100.38604584      95.35444816
H      67.26498333      99.63015531      95.32988170
C      69.68950219     103.00331678      95.53208242
H      68.14559579     104.33368410      95.65491464
C      72.22740463     103.97274638      95.52452351
O      72.62235743     106.52576663      95.78341603
H      70.96884691     107.27220852      95.80987219
C      74.18894054     102.30033859      95.36767624
H      76.06921822     103.08268528      95.48294954
C      73.65792745      99.62826558      95.02563578
H      75.20183385      98.29222908      95.02185632
C      71.63592029      91.63283355      92.82032517
O      69.57422889      90.49710804      92.62001417
N      73.69572198      90.21553882      93.67259173
H      75.27364345      91.28512391      93.57810542
C      74.26641932      87.43953086      93.76140886
H      72.54298892      86.33215125      93.96549932
C      75.69694214      86.41718893      91.31799274
H      77.63013216      87.12961575      91.33689001
C      75.62135309      83.44086999      91.23673451
H      76.53787035      82.61694931      92.88646558
H      76.13724837      82.81726030      89.34322875
H      73.67682471      82.84560620      91.56932635
O      74.41003852      87.28079385      89.18827119
H      74.70483583      89.05713659      88.97284240
C      75.87835587      86.86316434      96.12923593
O      77.27675334      88.38628375      97.05142238
N      75.50230033      84.56147769      97.27063064
H      74.23051452      83.42386245      96.41458461
C      77.05565536      83.42575218      99.34177067
H      78.88302070      84.36494615      99.50995632
C      75.48718252      83.72621866     101.82676077
H      75.07900164      85.70098266     102.24439029
C      73.01353078      82.14640746     101.55841964
H      71.97040185      82.08026704     103.33098291
H      73.26486438      80.18109210     100.98961202
H      71.82867238      82.99678430     100.10333038
C      76.98573549      82.69631782     104.11521934
H      77.36934993      80.68186957     103.92435699
H      75.98040109      83.08749117     105.87077508
C      79.31198858      84.19487079     104.66135024
H      80.16047569      83.54480493     106.42446489
H      78.65058437      86.13184026     104.89378658
H      80.65936344      84.16085571     103.10421576
C      77.66792669      80.60628052      98.60666714
O      76.37724361      79.44787829      97.00417923
N      79.53308656      79.55181323      99.90679884
H      80.66314289      80.69887711     100.93103050
C      80.11701199      76.83438680     100.03718996
H      78.30287473      75.86306747     100.11844819
H      81.23006079      76.25613054     101.67180322
C      81.26974504      75.97645105      97.52007450
O      83.16325080      77.04792587      96.59032916
N      80.07354828      74.03192267      96.42592297
H      78.63357683      73.08328007      97.24606420
C      80.82376963      73.13052322      93.96360959
H      82.41113973      74.21900558      93.23039578
C      81.58910879      70.43199405      94.01274247
H      79.91103182      69.28115072      94.33210622
C      82.19949038      69.93310630      91.23673451
H      83.38623851      68.27581632      90.93437830
H      83.56954196      71.39197501      90.74351595
H      80.44015519      69.96523165      90.16525970
C      83.68103581      69.63830900      95.77963658
H      83.15002272      69.81594327      97.76384920
H      85.21738331      70.90631535      95.25996184
C      84.59944280      66.99458188      95.44326528
H      83.24072958      65.45067549      95.56987696
H      86.08476768      66.52404003      96.79441961
H      85.42147375      66.78482226      93.56676706
C      78.54664942      73.79570689      92.23828947
O      76.73818134      72.39919914      91.94538189
N      78.56365696      76.04070174      91.16870436
H      80.19827022      77.00824162      91.35200782
C      76.58133406      76.94966010      89.34322875
H      76.39614088      75.65141812      87.75585865
H      77.28053279      78.72411311      88.56088206
C      73.87713570      77.43343004      90.41281385
O      72.06866762      77.78302941      88.90103279
N      73.41037330      77.46366566      92.90725258
H      74.93727216      77.11028684      93.99951438
C      70.75152838      77.89074381      93.89557944
H      69.53265491      76.86273269      92.58977856
C      70.43594409      76.72100322      96.53552709
H      71.60568467      77.82460338      97.82243071
H      71.19183461      74.81615909      96.32387775
C      67.81300396      76.46589017      97.46149299
N      66.53743870      74.23979257      98.24194995
H      67.14971003      72.44077312      98.06431568
C      64.18094999      74.95977829      99.17358502
H      62.83168540      73.76736099     100.13545573
N      63.88426296      77.46933484      98.91280280
H      62.42161479      78.45955143      99.63656797
C      66.20673660      78.44443362      98.10588967
H      66.64326338      80.43431542      97.96982937
C      70.05610910      80.64974422      93.63479721
O      70.91404484      82.07270814      95.11634263
N      68.50464379      81.41319365      91.86979282
H      68.06055811      80.23022498      90.44115974
C      67.60891352      83.94920636      91.56554690
H      69.33801310      85.06603462      91.53153181
C      66.30122291      84.24400367      89.04087254
H      64.38693016      83.51078986      89.22039653
H      67.15159975      82.97410759      87.66137234
C      65.83446051      86.83292872      87.83900661
H      64.95195833      88.19353166      89.10890269
C      68.32323007      88.23699537      87.07933662
H      69.74430426      87.56614253      88.40970395
H      68.34590678      90.29490732      87.12657979
H      68.96951647      87.82692476      85.16693360
C      64.19417807      86.45876291      85.45606173
H      62.30445176      86.23766493      86.24029814
H      64.99164258      84.80147293      84.52631637
H      64.39826852      88.09715562      84.22396016
C      65.77209955      84.62194893      93.75196024
O      64.50409319      83.10449870      94.86878849
N      65.56045020      87.05780615      94.42848226
H      66.34468662      88.35226867      93.26441085
C      64.05811778      88.00644876      96.45426887
H      63.26821218      86.64962527      97.78841565
C      65.96674136      89.41618459      98.23628078
H      64.71952199      90.39695254      99.54964057
H      67.00798055      90.86182522      97.20071076
C      67.85079849      87.58315006      99.66113441
H      68.73330068      86.28112864      98.32887737
C      69.92193853      89.18563798     100.94614832
H      71.47529356      88.01589739     101.62267034
H      69.12825348      90.24199499     102.52595951
H      70.85546333      90.48954913      99.65168579
C      66.43161403      85.84649158     101.53385320
H      67.71662792      84.79013457     102.75083693
H      65.19006384      84.42919685     100.70048389
H      65.19195357      86.96898901     102.73382940
C      62.12492776      90.00011002      95.63979682
O      59.90827880      89.55980379      96.26907569
N      62.90538473      91.68574589      93.99006576
H      64.62125622      91.88227743      93.18126290
C      61.06668103      93.66239961      93.24173414
H      59.34703008      92.72887482      92.59922719
C      60.19362747      95.31591014      95.35066869