 %block lattice_cart
   137.614   0.000   0.000
   0.000 142.646   0.000
   0.000   0.000   160.855
 %endblock lattice_cart

 %block positions_abs
N      89.38895414      40.93809060      78.83068126
H      89.88217271      39.64173836      80.14026161
H      90.84404340      40.97210569      77.59857971
H      87.80725321      40.16141310      78.09557774
C      88.94297873      43.49866977      80.05522392
H      90.37350155      43.81047460      81.50275428
C      88.94675818      45.39595499      77.78944207
H      87.79591486      44.56069595      76.29844802
H      90.81758723      45.59059679      76.95040359
C      88.06992517      48.02456428      78.25620448
H      86.13295570      47.99432866      78.95162375
H      88.01890256      49.09792882      76.49875900
S      90.15240357      49.55713232      80.71284868
C      91.97032028      51.42418192      78.64359837
H      90.80624887      52.67329102      77.49275504
H      92.90762453      50.23743380      77.24520089
H      93.41785064      52.47486975      79.66594029
C      86.26523654      43.37205809      81.34023781
O      84.51346025      42.93364159      79.97018623
N      86.10649953      43.79346707      83.91026559
H      87.75245115      43.92385819      84.86646712
C      83.76134918      44.28290619      85.25386101
H      82.33082636      43.10560668      84.35813074
C      84.24511911      43.83315133      88.02608951
H      85.35060901      45.33548373      88.89536361
H      85.07659869      41.96232228      88.26230530
C      81.74690093      43.58181773      89.61534934
O      79.56237731      43.74433418      88.75363413
N      81.98122699      43.11505533      92.01341202
H      80.43354114      43.15851903      93.12835055
H      83.66497314      42.62939565      92.77119228
C      82.74467642      46.95308947      84.70395065
O      84.15063280      48.72754248      84.23907798
N      80.15764110      47.32347583      85.03276302
H      79.07860737      45.83815094      85.56188640
C      79.12774026      49.98421047      84.55277254
H      79.87040270      50.79112360      82.80855515
C      76.24590763      49.72909741      84.08223069
H      75.85851374      48.30235405      82.64981814
C      74.72656768      48.94297128      86.40848379
H      74.87585605      50.50010576      87.74829974
H      75.66009247      47.30457856      87.23240445
H      72.69511189      48.76722673      86.11368647
C      75.15553555      52.20274917      83.24319221
H      75.90575690      53.68618432      84.46017595
H      73.10329277      52.01755599      83.31878126
C      75.67332056      53.03233902      80.62970071
H      74.83806153      51.53756549      79.48452658
H      77.67643045      53.29123152      80.23096847
H      74.60184574      54.73120296      80.17238695
C      79.83638763      51.81724499      86.70328109
O      80.29181167      54.09058574      86.15526046
N      80.09905958      50.92151472      89.05976981
H      80.06315478      49.02045005      89.22795545
C      81.31415360      52.32936082      91.15358656
H      80.31259866      54.10192410      91.45972221
C      81.07037891      50.70797565      93.57054652
H      81.96421945      51.73787649      95.11256318
H      82.16453044      48.96753772      93.67637118
C      78.41909289      50.12216048      94.36045210
C      76.93754746      48.27778761      93.12835055
H      77.72367361      46.98899427      91.75451953
C      74.34484296      47.93574715      93.79353421
H      73.24880170      46.40695856      92.99795943
C      73.31683185      49.29446037      95.82687972
H      71.40820827      49.08092129      96.51474011
C      74.79270810      51.22009148      97.05142238
H      73.95177989      52.60715060      98.28919312
C      77.34761807      51.67362580      96.27096542
H      78.41153399      53.26099590      96.98339223
C      84.06181566      52.96619859      90.76997212
O      85.03313499      54.43451594      92.20994357
N      85.31848366      51.90039296      88.87457663
H      84.24511911      50.65506332      87.90325730
C      87.95654159      52.53912044      88.18671624
H      88.90329448      53.46130688      89.76463772
C      89.63272883      50.20341873      87.81821962
H      91.47521199      50.83836677      87.15492568
H      88.74077801      48.85982331      86.53698517
C      90.05035835      48.77100617      90.24840765
H      90.85160230      46.91907439      89.82888841
H      88.27968479      48.27589789      91.17248381
C      91.73410449      50.39239136      92.05309628
O      91.01033931      51.75299430      93.75384997
O      94.05657813      49.87271662      91.92837434
C      87.93386488      54.39861113      85.92660358
O      89.05825203      56.45085391      86.10612758
N      86.70743250      53.69752268      83.88380944
H      86.28224408      51.85126007      83.64948336
C      86.38050985      55.02977972      81.50275428
H      88.00945393      54.80868175      80.26309382
C      84.03913895      53.76744254      80.20451230
H      82.55759352      54.34569880      81.51409263
H      84.26212665      51.72653813      80.35946986
C      83.63095806      54.38727277      77.41527627
H      85.33171174      53.84681106      76.38915488
H      83.75190055      56.44518473      77.39637900
S      80.79636859      53.11737670      76.11703429
C      80.61873432      55.18662701      73.35803386
H      81.24801318      57.10469921      73.76999421
H      78.75357445      54.82946874      72.56434882
H      82.04736741      54.59136322      72.00121037
C      85.93264471      57.79633904      81.65393239
O      87.27812985      59.22308242      80.40293356
N      84.05425676      58.66183369      83.05799903
H      82.99223057      57.35603282      83.96128821
C      83.53080257      61.34335533      83.23941276
H      83.45521352      62.06712051      81.31189192
C      81.01746657      61.48508480      84.61135407
H      80.56582198      63.47874608      84.86835684
H      81.20454948      60.61770044      86.46895502
C      78.50979975      60.38715382      83.33578879
H      78.82538405      58.42939736      82.78020926
C      75.97567677      60.41549971      84.75875271
H      74.43366010      59.67283728      83.60979912
H      75.55993698      62.27876987      85.52976105
H      76.00780212      59.09836048      86.34045364
C      78.25279698      61.80822801      80.71473841
H      78.02225037      63.83023517      81.02465351
H      76.51046932      61.00320461      79.96640679
H      79.90630750      61.61547592      79.50342384
C      85.66808303      62.97607887      84.52631637
O      85.66430358      65.29477306      84.22584989
N      87.59371414      61.87058898      85.71684396
H      87.87906281      59.98842158      85.83211726
C      89.84059873      63.36158303      86.71839891
H      89.02234723      64.92816615      87.77853536
C      91.36938731      61.90649378      88.79331840
H      92.78857178      63.15938232      89.60401097
H      92.28023540      60.41549971      87.70294630
C      89.85382681      60.62714906      90.98729065
H      88.22677246      59.59913794      90.25218711
H      88.94108900      62.21262945      91.93026407
C      91.27301127      58.74498166      92.72583884
H      92.32180938      59.79566949      94.15447194
H      92.30669157      57.29178212      91.69593801
N      89.35871852      57.22942115      94.03919864
H      89.23966576      55.37370992      93.61023076
C      88.04724846      57.83602330      96.06498525
N      87.57859633      60.04889282      96.90969290
H      86.56192357      60.33802094      98.49895274
H      88.45353961      61.63248347      96.30498049
N      86.76412429      56.15605661      97.20826967
H      85.66619330      56.60581147      98.70304318
H      86.44476054      54.48553854      96.34088528
C      91.59048529      64.41794004      84.66048695
O      92.28779430      66.57978694      84.53954447
N      92.04024016      62.94962270      82.67438460
H      91.11616399      61.28099436      82.71784829
C      93.32903350      63.88692696      80.29521917
H      94.68207754      65.29855251      80.94150556
C      94.79168167      61.56067386      79.16705255
H      96.02000377      62.23530616      77.65527151
C      96.97809501      60.92572583      81.04355078
H      95.86126676      59.83157429      82.38336673
H      97.82847185      62.67561239      81.71629334
H      98.45964044      59.55756398      80.62781100
C      93.04368483      59.31567901      78.29210928
H      91.27301127      59.93361950      77.43795298
H      92.40306761      58.10247471      79.82845676
C      94.50633299      57.41461433      76.66316518
H      93.03423620      56.38660322      75.65594106
H      95.57969754      56.05023193      77.76865509
H      95.86882567      58.17806377      75.32145950
C      91.62827982      65.12658742      78.27321201
O      92.56936352      66.07334029      76.33057335
N      89.19431233      64.97729904      78.66060590
H      88.61038690      63.90960367      80.13081297
C      87.36694698      66.33979170      77.11103033
H      88.10771970      66.94828358      75.28744443
C      84.93297949      64.80533395      76.80300494
H      83.93142455      64.52565445      78.58123740
H      85.35816791      62.89671037      76.15104935
C      83.30781486      65.92405192      74.72997517
O      84.07882320      65.73507928      72.53222347
O      81.56926666      67.28843432      75.51043214
C      86.80380854      68.98162910      77.99164278
O      86.86994896      70.75608211      76.46285420
N      86.23122147      69.32366956      80.49553015
H      86.07059473      67.71362274      81.50842345
C      85.59627343      71.74251924      81.66149128
H      85.80603305      73.27319756      80.30088835
C      82.88829562      71.55921579      82.52131676
H      82.63129284      69.91326417      83.73074159
H      81.59194337      71.14536573      80.97363090
C      81.79414409      74.01208054      83.80633065
H      83.10561415      74.63569023      85.26897881
H      79.96866847      73.66626063      84.69450201
C      81.26691045      76.20983225      81.97707558
O      79.17498342      76.09266921      80.88103431
O      82.61050585      78.10711746      81.62936593
C      87.49922783      72.40392345      83.81388956
O      88.23622109      74.60734432      84.15404030
N      88.47810606      70.56333002      85.21606648
H      87.96221077      68.73785439      84.99496851
C      90.12405767      70.95072391      87.45917162
H      91.68875106      72.08833915      86.75241397
H      90.91963245      69.16304282      88.10545801
C      88.79746980      72.47384333      89.64369523
O      86.53546741      72.75730227      89.77975552
N      90.28657414      73.26374892      91.44460440
H      92.17063127      72.99162833      91.30287494
C      89.67241309      74.38435663      93.87290273
H      87.64473675      74.08766960      94.07321371
C      90.93663999      72.63258034      95.88168180
H      92.91518344      72.75919200      95.32232280
H      90.41507553      70.67482388      95.50373652
C      90.60593788      73.25052084      98.67091783
H      91.10860508      75.24418209      98.78619113
C      87.92063679      72.75541254      99.58932481
H      87.41419014      70.76742046      99.39090355
H      86.55625440      73.84011545      98.49328356
H      87.75434088      73.17871124     101.59999362
C      92.31236074      71.79732130     100.53229824
H      94.23421240      71.71417335      99.79719472
H      91.68497161      69.83767512     100.43025302
H      92.13850592      72.59856526     102.42202457
C      90.27334605      77.14902622      94.32265759
O      92.45597994      77.94082155      93.85778491
N      88.45164989      78.48884218      95.40169130
H      86.81325717      77.56665573      95.71916533
C      88.79935953      81.07776723      96.40702570
H      90.80624887      81.40091043      96.73205864
C      87.98110804      83.02040588      94.41525418
H      87.75434088      84.81186642      95.40925022
H      86.14996324      82.71049076      93.52330335
C      90.06736588      83.38890251      92.48584360
H      90.26578715      81.74484062      91.26130095
H      91.84937780      83.85755463      93.40614032
C      89.69131035      85.51862406      90.51674879
H      91.61694146      86.02885017      89.99140488
H      88.71621157      87.07953800      91.44271468
N      88.22866218      84.94036781      88.24718748
H      87.29702711      83.27551893      88.18860598
C      87.97543886      86.11199812      86.04754605
N      88.63873279      88.52328890      85.68282889
H      88.00945393      89.26028215      84.03687727
H      89.35115961      89.46059315      87.18516130
N      86.86050033      84.99328014      84.10868686
H      86.59215920      85.76050903      82.38147702
H      86.34649477      83.17347371      84.36568965
C      87.41419014      81.25540150      99.02996583
O      85.37517545      80.20282395      99.33988095
N      88.52156976      82.50829005     100.84221337
H      90.24122071      83.27740866     100.54741605
C      87.70142854      82.43648045     103.46893293
H      86.39184821      80.84722061     103.52184528
C      89.89729052      82.03774820     105.35487980
H      88.94297873      82.27018453     107.16523761
H      91.33348251      83.51551416     105.36999760
C      90.98577287      79.31276285     105.44180721
H      91.90417986      79.21071763     107.28240064
C      88.98644243      77.24918172     105.18102497
H      87.43875658      77.57988382     106.49627449
H      89.81414256      75.46150062     105.78573739
H      88.47243688      76.91847961     103.21381989
C      93.02100811      78.93292786     103.45948431
H      94.54034807      80.32376643     103.41602060
H      92.20086689      78.88568471     101.57164773
H      93.72965548      77.05265018     103.90356999
C      85.75878989      84.53596638     104.23427209
O      84.30936981      84.53596638     106.01817374
N      86.10083035      86.64490095     102.99272190
H      87.65040593      86.97182360     101.92880600
C      84.73644796      89.09398625     103.45003567
H      83.24356417      88.77651223     104.82953588
C      86.48255507      91.04040434     104.75394683
H      87.23088669      90.21648368     106.48871558
H      85.18809254      92.57486212     105.21315033
C      88.67085814      92.06841546     103.08909795
H      88.09638134      93.27406085     101.52251483
H      89.68753090      90.51506044     102.19336768
C      90.85160230      93.32319374     104.64245297
H      92.25377923      94.26805689     103.46704322
H      91.90040041      91.79251542     105.53629353
C      89.98988711      95.15622826     106.67579849
H      91.62450037      95.77227904     107.76617058
H      88.61983553      94.17923975     107.86632606
N      88.84849241      97.44090737     105.65345656
H      87.42930795      97.31618544     104.38167074
H      90.07870424      98.68245755     104.88622768
H      88.07748408      98.36120409     107.13500199
C      83.26624088      90.09554119     101.12000314
O      83.95221154      89.47571096      99.01106857
N      81.17053440      91.48449002     101.50928676
H      80.80770695      91.68480102     103.37255690
C      79.42442729      92.33297715      99.61956043
H      78.75924363      90.48671454      99.00161993
C      77.26258039      93.96381095     100.62111538
H      76.77503100      92.95658683     102.35210469
C      78.30192986      96.70391411     101.28440932
H      78.65341895      97.78861701      99.57042755
H      79.94410203      96.16345238     102.40501703
H      77.08305639      97.82074236     102.51273142
C      74.84373071      93.96381095      98.96004595
H      74.46578544      92.04762848      98.30431092
H      75.00435744      95.02205769      97.20071076
C      72.54582351      94.76505490     100.47749618
H      71.14553631      95.40945158      99.10933433
H      72.91809959      96.12754758     101.97604915
H      71.90898574      93.06619096     101.45637441
C      80.93998779      93.68791091      97.39913203
O      82.65207983      95.19024333      97.59755329
N      80.19543563      93.10209576      95.07854810
H      78.70255184      91.91534763      95.04831248
C      81.06282000      94.00916439      92.65969843
H      81.79981327      95.89889070      93.02063616
C      83.29080733      92.34620523      91.67137157
H      84.58149040      92.23849082      93.27196976
H      84.38873831      93.25138414      90.18226723
C      82.59916750      89.75539046      90.59989674
C      82.08327221      89.36799656      88.01475115
H      82.50090173      90.80985774      86.63147149
C      81.39919129      86.97371331      87.14547704
H      81.53714131      86.62411395      85.13858771
C      81.17053440      84.83076369      88.80654648
O      80.55259390      82.47805443      87.87869086
H      80.55070417      82.40624483      86.06644332
C      81.83571807      85.23894457      91.33311056
H      81.63918653      83.53063198      92.43482099
C      82.58971886      87.70692713      92.29687098
H      83.12640114      87.82220043      94.26407606
C      78.85184022      94.44002199      90.84556117
O      76.62952207      93.88822190      91.50129619
N      79.50379580      95.14866935      88.55332314
H      81.34249950      95.53606325      88.22073131
C      77.79926266      95.19213305      86.25919540
H      75.96433841      94.45513980      86.83745165
C      77.27769820      97.92278758      85.32945005
H      76.47078506      97.76216085      83.44350320
H      79.05215121      98.96024733      85.21606648
C      75.79237332      99.57629811      87.16815376
H      76.84684060      99.62354126      88.93693760
H      73.92910317      98.79395141      87.56877574
C      75.44844313     102.18978960      86.16092964
H      74.90231222     101.94412518      84.18994509
H      77.14163790     103.35386100      86.01731043
C      73.42643597     103.72235764      87.72751276
H      74.40153475     105.33996336      88.54954369
H      72.84251054     102.41277729      89.20716846
N      71.29671442     104.70123587      85.89825769
H      72.03370768     105.03004825      84.16915810
H      70.75058351     106.46624024      86.37635844
H      69.95311901     103.35953018      85.71495422
C      78.54948401      93.43846704      84.04821562
O      80.76235352      93.61232186      83.22807439
N      76.85062005      91.88889146      82.89926202
H      75.11018212      91.89456064      83.68727789
C      77.40053041      90.30341109      80.58812674
H      79.44521428      90.28073437      80.33490341
C      76.47078506      87.55574903      81.07189668
H      74.41287311      87.59921273      81.17205218
H      77.14541736      86.78474069      82.85768805
C      77.24935230      85.76995765      78.97052102
O      79.40364030      84.89312465      79.10847103
O      75.76024797      85.24650347      77.19984747
C      76.75613374      91.85865584      78.11258528
O      76.39519601      94.19057811      78.22029967
N      76.80337689      90.72670978      75.81845752
H      77.07738721      88.83698347      75.78822191
C      76.79581799      91.93046544      73.29756262
H      78.52302784      93.04918342      73.44496127
C      77.24935230      90.15979189      71.16217190
H      75.47489930      89.34909930      70.50643686
C      78.62507306      91.47882085      69.05134759
H      80.28047331      92.47470662      69.76755388
H      77.28714683      92.65612035      68.01955703
H      79.41119921      90.03318023      67.81357687
O      78.70255184      88.08676211      71.92940078
H      80.46566649      88.51195054      71.84814255
C      74.56783067      93.78995614      72.82702077
O      74.84562043      95.77983794      71.65350073
N      72.18110633      93.05107315      73.50732224
H      71.96567753      91.40323180      74.45029568
C      69.98335463      94.92190220      73.47708662
H      70.07028204      96.06518662      71.76688431
C      67.56639468      93.24949441      73.32779824
H      67.21301586      92.50683197      75.21752455
H      67.92733240      91.85676611      71.85192199
C      65.36108407      94.85198232      72.26955152
H      65.34218681      96.67934767      73.22386330
H      63.58663106      94.00916439      72.88371256
C      65.50848272      94.99938098      69.39149833
O      66.01303965      97.08563883      68.32002352
O      65.25714912      93.06808068      67.94963716
C      69.92855257      96.95146826      75.55767529
O      68.95156406      99.02638775      75.30067252
N      71.00191711      96.29762295      77.74030919
H      71.89953711      94.62332543      77.91605374
C      71.25514044      98.06829651      79.87947938
H      70.29704920      99.86731596      79.57523344
H      73.27525787      98.35553490      80.15537941
C      70.12508410      97.16311760      82.39281537
O      70.21201151      98.64277331      84.16159919
N      69.05927846      94.89733576      82.33045440
H      69.59218128      93.69169036      80.94906447
C      67.76670567      93.99215685      84.57166980
H      66.49869931      95.45102556      85.27842745
C      65.90154579      91.84920720      84.04632589
H      64.77526891      91.61299142      85.75652820
H      67.19789804      90.25427819      83.91215533
C      63.96457632      92.09865109      81.86558172
C      63.66033039      90.00672406      80.27254244
H      65.10219156      88.56297315      80.27254244
C      61.95390753      90.04073913      78.24675584
H      62.15610824      88.59509850      76.81812274
C      60.40055250      92.20636549      77.82534687
O      58.82074130      92.25927782      75.79011164
H      57.62832400      93.59531433      75.49720405
C      60.65377582      94.27561580      79.54121837
H      59.35742357      95.84786809      79.41460670
C      62.36208841      94.19246784      81.54621798
H      62.38098567      95.83464001      82.75753255
C      69.72257240      93.47815129      86.88091536
O      71.74457955      92.57675184      86.55210299
N      68.85329830      94.00538494      89.18449173
H      67.16766242      94.86710013      89.42826643
C      70.32161564      93.44224648      91.50696537
H      72.17165770      94.22270346      91.05532079
C      69.37486276      94.95591727      93.84833627
H      70.37074852      94.41734527      95.57176668
H      67.39820903      94.55340557      94.25840688
C      70.07028204      97.73948413      93.64802529
C      68.18811463      99.72558648      93.37590470
H      66.20012255      99.35708985      93.64991502
C      68.98557914     102.26159920      93.44960402
H      67.46057000     103.61842268      93.45716293
C      71.54237884     103.02504863      93.48739855
O      72.29071046     105.49681064      93.40991978
H      70.89420271     106.60419026      93.74818079
C      73.37919281     101.15799903      93.68204037
H      75.31805201     101.79294707      93.61212049
C      72.58739749      98.62009658      93.85967464
H      74.00280250      97.14988951      93.81432120
C      70.61641295      90.66812827      91.80743186
O      68.69645101      89.34909930      91.64302568
N      73.03337290      89.84231786      91.95483051
H      74.29004090      91.26528178      91.75829898
C      73.82327850      87.21559828      91.97183806
H      72.20378305      86.10065977      92.58032993
C      74.59617656      86.26506596      89.28842669
H      76.35929121      87.16457568      88.71583961
C      74.56594094      83.49094772      89.00496773
H      75.73001235      82.68970377      90.50163097
H      75.32561092      82.80308735      87.21917638
H      72.66676599      82.81820516      89.43582534
O      72.98424002      87.07764827      87.42137709
H      73.02770372      88.89178553      87.39870038
C      75.89819799      86.65812903      93.86534382
O      77.46478110      88.30597038      94.41714389
N      76.03425828      84.33943484      94.93870836
H      74.99868826      82.91647092      94.20171509
C      77.76902704      83.83298819      97.07976828
H      79.56804649      84.79107943      96.78875043
C      76.58038919      84.90446301      99.61578099
H      75.52970136      86.58820916      99.06965009
C      74.39019639      83.18292234     100.51718044
H      75.04026224      81.39335152     101.30330659
H      73.25258115      82.55364348      98.92036171
H      73.24313252      84.28274305     101.82865050
C      78.58916826      85.40335076     101.73983336
H      80.01024245      86.43136186     100.66268937
H      79.50001634      83.65913337     102.34832524
C      77.52525235      86.73938726     104.10388097
H      76.79392826      88.60265741     103.62389049
H      79.13340944      87.15701678     105.31897500
H      76.26480489      85.44492474     105.09220785
C      78.19421546      81.02296517      97.16480596
O      77.18510161      79.61322933      95.65869408
N      80.10094931      80.17069860      98.66524865
H      81.14596796      81.51996319      99.51940495
C      80.73022817      77.49106669      98.97516377
H      79.00490805      76.57643915      99.62900907
H      82.12106674      77.14524677     100.45481946
C      81.48800842      76.13802265      96.38245926
O      82.92986960      77.21705637      94.92359056
N      80.80203777      73.81932846      95.80987219
H      79.65497390      72.85934749      96.99473059
C      81.40863992      72.59856526      93.36834579
H      83.23411554      73.18627015      92.61056555
C      81.59572282      69.57122371      93.74629106
H      79.70788624      68.88714278      94.20738427
C      82.29870101      68.11424471      91.33500029
H      84.22811158      68.63014000      90.83422280
H      80.98723095      68.66226535      89.84400623
H      82.10027975      66.07711975      91.58255442
C      83.49111832      68.88147360      95.93270440
H      82.98467166      70.09089843      97.52196423
H      85.44698505      69.30855175      95.44515501
C      83.36450665      66.20184169      97.10811417
H      81.91319684      66.19239305      98.56698289
H      85.23344598      65.77854299      97.86778415
H      83.10939360      64.72596544      95.69459889
C      79.18254232      73.39414004      91.76963733
O      77.50257563      71.93905077      91.15547629
N      79.06537929      75.69960614      90.80776665
H      80.43732059      76.97517140      91.17815300
C      77.16620435      76.53864462      89.04654172
H      77.20210915      75.44638282      87.30043461
H      77.46100165      78.57387986      88.93693760
C      74.29948953      76.42715077      89.94983090
O      72.65164818      76.44793775      88.44749848
N      73.81949905      76.69927136      92.51985869
H      75.36340544      76.76163233      93.64235611
C      71.18333084      77.14713649      93.48928827
H      69.73769021      75.97928564      92.60300663
C      71.04538082      76.39124597      96.22372225
H      72.25291593      77.75373864      97.19126212
H      71.86174259      74.54498335      96.63001341
C      68.32795438      76.63502066      97.28007926
N      66.58562672      74.69994091      96.90969290
H      66.81050415      73.03509204      96.00451401
C      64.39921338      75.26118964      97.97549854
H      62.80239464      74.01019082      98.20226571
N      64.65243670      77.54208930      99.16980557
H      63.36742281      78.46427574     100.23372149
C      67.05805830      78.52285725      98.66902810
H      67.78938238      80.34266369      99.23972545
C      70.13264301      79.90424719      93.08677658
O      70.56350061      81.55775771      94.57021174
N      68.84384966      80.35589178      90.99862900
H      68.53015510      78.73072715      90.04620694
C      67.12986790      82.59710718      90.51296933
H      68.16165846      84.37344992      90.38824739
C      65.70879371      82.14357287      87.93727238
H      64.04961401      80.97572201      88.30009983
H      66.94278499      81.03430352      86.71839891
C      65.00959497      84.58509927      86.44060914
H      66.74058428      85.50728571      85.80755081
C      63.54316736      83.73850188      83.96128821
H      64.83951961      82.82954352      82.64036952
H      62.67389325      85.24461375      82.85957776
H      61.98792260      82.56687156      84.63969995
C      63.05750769      86.24427897      87.73885110
H      61.19234782      85.46193227      88.11868610
H      62.99325700      87.85432579      86.45383721
H      63.74347834      87.12111198      89.47361987
C      65.40454777      82.83143324      92.68615460
O      64.28016062      81.00784735      93.57621568
N      65.29305392      85.18603223      93.60456158
H      66.51003767      86.58631942      93.15291699
C      63.65277148      85.71704533      95.73050369
H      63.65088176      84.04652727      96.93614908
C      64.95479291      87.65590452      97.43314709
H      63.60930778      88.35321353      98.83154457
H      65.47257792      89.37555547      96.42403325
C      67.11286036      86.43514133      98.98650213
H      68.22968861      85.03485413      97.96604991
C      69.19344903      88.33998545      99.97860843
H      68.43188933      89.83097951     101.17480520
H      70.27059303      88.93335950      98.32509792
H      70.34807181      87.37622503     101.38645455
C      66.40610272      85.08776646     101.46393332
H      65.31195118      83.42858675     100.91969214
H      65.55950533      86.40112625     102.80185954
H      68.10874613      84.36778074     102.37289168
C      60.92211696      86.60143724      95.13146045
O      59.03239065      85.78318575      96.26907569
N      60.57440732      88.20014570      93.29653620
H      62.20902058      88.84832182      92.55387375
C      58.24437477      89.21492873      92.26474563
H      56.97825814      87.62944836      91.90002845
C      56.99148623      91.03851462      94.23761989