 %block lattice_cart
   137.614   0.000   0.000
   0.000 142.646   0.000
   0.000   0.000   160.855
 %endblock lattice_cart

 %block positions_abs
N      88.31086527      40.64896249      80.44639727
H      87.44159117      39.20899104      79.54499782
H      88.00095017      40.43164396      82.31533658
H      90.20248131      40.54880700      80.20640203
C      87.61733573      43.25678480      79.66594029
H      88.56786805      44.64006446      80.86024733
C      88.41291050      43.78212872      76.95985221
H      87.26206717      42.59160114      75.73341985
H      90.40846149      43.33993276      76.70662889
C      87.91024329      46.55057777      76.21341032
H      85.88445669      46.92852303      76.15860826
H      88.87400371      46.90017713      74.42761895
S      89.05919689      48.97698635      78.20329213
C      87.85544124      51.87582652      76.54789188
H      85.79563956      51.88716487      76.55923024
H      88.51495571      51.97220256      74.59958405
H      88.44881530      53.65405898      77.40015845
C      84.82809968      43.85015886      80.17427668
O      83.37490014      42.09082367      79.63948412
N      84.07598861      45.99499823      81.28165630
H      85.44415047      47.26678404      81.67471937
C      81.53997589      46.61293873      81.82211802
H      80.26630037      45.66240640      80.50875824
C      80.77652646      45.65862695      84.50741912
H      81.26596559      43.65929651      84.56222118
H      78.77152684      45.87027629      84.92504863
C      82.03130473      47.11938539      86.56155161
O      81.63446221      49.40595422      86.78831877
N      83.67347691      45.89295301      87.91837510
H      84.68259076      47.07970113      89.02008555
H      84.54464074      44.31125209      87.30043461
C      80.76707784      49.39461587      81.36858371
O      82.18437257      50.93285309      80.26687327
N      78.37468433      49.97098239      82.06400299
H      77.39580609      48.67651987      83.06744767
C      77.25785608      52.49943620      81.85991255
H      77.55832255      53.15328150      79.92861226
C      74.38169262      52.44274441      82.44383797
H      73.41037329      51.05946475      81.26464875
C      73.79209801      51.29379081      85.08567537
H      75.09600918      49.73098715      85.40314939
H      71.88536416      50.59837153      85.43905419
H      74.35712618      52.70730609      86.46895502
C      72.79999170      54.86915300      82.08856943
H      73.67682471      56.42628748      83.11469082
H      70.80822016      54.60837076      82.54021402
C      73.01164105      55.80645725      79.45618067
H      74.98640504      56.07857784      78.93650594
H      72.19905873      57.69051438      79.27098749
H      72.07433679      54.58191460      78.09179828
C      78.58066450      54.49687691      83.53798952
O      78.75262958      56.73242314      82.83123188
N      79.25151733      53.90350285      85.88691932
H      79.12301594      52.10259367      86.50108038
C      80.56298739      55.58913872      87.63491615
H      79.50474066      57.34658419      87.79554289
C      80.77463675      54.29278647      90.27675355
H      81.77052251      55.52677775      91.59200306
H      81.82154511      52.54856908      89.96305897
C      78.41436857      53.54256512      91.59200306
C      76.49062718      55.30567977      91.99451477
H      76.82321902      57.24453897      91.45027359
C      74.19460971      54.41561868      93.04520260
H      72.65259305      55.67039695      93.50440608
C      73.96217338      51.89661351      93.75762941
H      72.28787586      51.23709902      94.72138983
C      75.77253119      50.17129338      93.11323275
H      75.57788938      48.19463966      93.56865679
C      78.04398221      51.02733940      91.99262504
H      79.42915160      49.60059604      91.53720100
C      83.32009808      56.42817720      86.82800303
O      84.11378314      58.63348781      87.16626403
N      84.71282637      54.81435093      85.45417199
H      84.11189341      53.00588285      85.55810695
C      87.02207193      55.36237156      84.01042109
H      88.25606321      56.42439775      85.26897881
C      88.29763719      52.82446913      83.33011962
H      89.80374907      52.95108079      81.92983243
H      86.84065820      51.72842786      82.37202837
C      89.39178872      51.17851751      85.42204664
H      90.41413066      49.51177890      84.77387053
H      87.70426313      50.54356947      86.41604268
C      90.97159992      52.71675473      87.29098597
O      90.76939921      52.34825809      89.61534934
O      92.47960152      54.37026525      86.68060438
C      86.82176094      57.00454373      81.71818307
O      88.18425361      58.89993922      81.44606248
N      84.86211475      56.60014230      80.18183559
H      83.81709610      55.06946398      80.62970071
C      84.07409888      58.13082061      78.01431949
H      85.43659156      58.01554731      76.47419256
C      81.66658756      56.90816769      76.96552139
H      80.16992432      57.31256912      78.32234488
H      81.93492869      54.87671190      76.76710013
C      80.77085729      57.59224861      74.26510249
H      82.24673354      57.00076428      72.95552217
H      80.70471686      59.65016057      74.19896207
S      77.82855341      55.90850247      73.49598389
C      78.23484457      55.83858259      70.03211556
H      78.47295009      57.80389796      69.46330794
H      76.74951970      54.67829064      69.20063597
H      80.06409964      55.01844137      69.56157371
C      83.53363716      60.90682857      78.65871617
O      84.82620995      62.67183294      77.66283040
N      81.77619168      61.34146562      80.37647739
H      80.81810044      59.89960444      81.17772134
C      81.20171489      63.85669134      81.42716522
H      80.85589497      65.10391071      79.82656703
C      78.87924125      63.59779884      83.23374358
H      78.46728092      65.43461281      84.07089233
H      79.15703102      62.08790751      84.61135406
C      76.43015594      63.01576313      81.64637348
H      76.85156491      61.40571631      80.43127945
C      74.09634396      62.13893012      83.25453056
H      72.51086358      61.95751640      81.95250913
H      73.69194253      63.61669610      84.63214104
H      74.56499607      60.41927918      84.28443141
C      75.31143797      65.22107374      80.02309858
H      74.46673030      66.62325066      81.27409739
H      74.13791793      64.33479210      78.58123740
H      76.89880808      66.18294443      79.13114776
C      83.34466452      65.08879290      82.75375309
O      83.53363716      67.41126654      82.51942704
N      85.12478671      63.80188928      84.00475191
H      84.92258599      61.96318557      84.47718350
C      87.34143567      65.08879290      85.02520413
H      86.81609176      66.92182742      85.80755081
C      88.40913105      63.49197416      87.19649965
H      90.34421080      64.13259138      87.49507641
H      88.36944679      61.44729029      86.96028386
C      87.02774111      64.00597972      89.69849729
H      85.17580932      63.11402890      89.58322399
H      86.68948011      66.02231770      89.94227199
C      88.57542696      63.08946246      91.93971271
H      88.10488510      64.05322288      93.70093762
H      90.58231631      63.44851046      91.64869484
N      87.96126591      60.46841206      92.75796419
H      86.65924448      60.09424625      94.10155961
C      88.92313660      58.32924187      91.79042433
N      90.59554438      58.23475556      90.08778091
H      91.49883356      56.65683409      89.50763493
H      91.25127943      59.85614074      89.32244175
N      88.17858444      56.20707923      92.69749296
H      89.08565307      54.67073173      92.01341202
H      86.98994658      56.04834222      94.18281783
C      89.31619968      66.09790675      83.04855040
O      90.91679787      67.72685083      83.66271144
N      89.35399420      65.12847715      80.73552539
H      87.96693508      63.85102216      80.44828700
C      90.78829647      65.92972111      78.58123740
H      92.47204261      66.95584249      79.17839091
C      91.77473360      63.54866595      76.96930085
H      90.17413543      62.25798288      76.90127071
C      92.78384747      64.34990991      74.37470663
H      91.01884308      64.76187024      73.39393866
H      93.63800375      62.77954734      73.35047495
H      93.91012434      66.05444304      74.64493748
C      93.86477092      62.32412330      78.56045040
H      93.38855989      62.55466991      80.55033221
H      95.62977528      63.32945770      78.23163802
C      94.15200931      59.44795985      78.25620446
H      92.54385221      58.41805901      79.02532308
H      95.80929929      58.70718714      79.23319297
H      94.10476615      58.85458579      76.28521992
C      89.30864077      67.93850018      77.01465429
O      90.43491765      69.94349979      76.33246309
N      86.77829723      67.75141727      77.00520565
H      85.85800052      66.09412730      77.23197280
C      85.30431071      69.93594089      75.95262809
H      86.27374031      70.56333003      74.24809495
C      82.86656376      69.00052636      74.80367449
H      81.92925951      70.71828758      74.15738810
H      81.51918890      68.31644544      76.20018223
C      83.03663914      67.14481513      72.57757689
O      84.69392912      67.51709121      70.87115404
O      81.51729918      65.40248746      72.37537618
C      84.98305724      72.33211385      77.66283040
O      84.79219488      74.43348951      76.82757138
N      84.91502709      72.00519120      80.05144447
H      84.50495649      70.23640737      80.63725962
C      83.98528175      74.09900796      81.82400775
H      83.80575774      75.84511507      80.74686374
C      81.39446698      73.54531815      82.81044488
H      80.80676209      74.99662796      84.14837112
H      81.89335471      71.83511583      83.84601491
C      79.12301594      73.05398931      81.03788160
H      77.81154588      72.04676518      82.26809343
H      79.47261531      71.82566720      79.42216561
C      77.83044315      75.53142050      80.31600615
O      75.96150382      76.29298021      81.57834333
O      78.35956651      76.83533166      78.50564834
C      85.72005050      74.72639709      84.01420054
O      86.30397593      76.94304606      84.57733898
N      87.00884385      72.83478105      85.03087331
H      86.42869787      71.05087941      84.67560475
C      88.77006877      73.25807975      87.10957224
H      90.12500253      74.70561010      86.55021326
H      90.04374430      71.65181238      87.31177295
C      87.52851859      74.22561962      89.63613632
O      85.20604495      74.44104842      89.91203637
N      88.99116675      75.00985604      91.60712086
H      90.84687798      74.60167516      91.42759686
C      88.23527623      75.24607183      94.32265759
H      86.18492317      75.05898892      94.30565004
C      89.38234009      73.19193933      96.01585235
H      91.43080342      73.34311743      95.84388727
H      89.18013938      71.28520548      95.26941046
C      88.80597357      73.22973385      98.94870760
H      89.30864077      75.12701907      99.57609673
C      85.99406081      72.64013924      99.72349539
H      85.38934839      70.75041293      99.17547475
H      84.83376886      73.73995996      98.42336368
H      85.40068676      72.93682627     101.67369294
C      90.68436152      71.51953154     100.31120026
H      90.40657175      71.20016779     102.32753824
H      92.37566657      72.69116185     100.22616258
H      91.19458764      69.76964497      99.35121931
C      88.82298110      77.85389414      95.43948583
O      90.91679787      78.72694770      95.76073931
N      86.70081845      79.34299848      95.90246878
H      85.03407985      78.44348875      95.66625298
C      86.59310405      82.00562285      96.77930179
H      88.53007353      82.61789418      97.11945252
C      85.68981489      83.79519367      94.63824188
H      85.05108738      85.61122066      95.37523513
H      83.94559749      83.06953876      93.81810065
C      87.92347138      84.18258756      92.78819981
H      88.58109615      82.37978866      92.03608875
H      89.38422983      85.03863358      93.95983012
C      87.30364116      85.81531110      90.45249809
H      88.84754756      86.98127223      89.74385073
H      85.89957451      87.21370857      91.00996736
N      86.24917387      84.27329443      88.48340328
H      86.16602592      82.40246538      88.85189990
C      85.42714292      84.70982120      86.21006252
N      85.28541345      87.03607430      85.30677334
H      84.60322225      87.33465105      83.54932788
H      85.96949437      88.52517863      86.28943102
N      84.66180377      82.95048601      84.73796572
H      84.34055029      83.26984975      82.88225449
H      84.75629008      81.23461451      85.56755558
C      85.17202987      82.42892154      99.22649737
O      82.87790212      82.54797430      99.28696860
N      86.62522940      82.85033051     101.26362233
H      88.52251462      82.68592432     101.12000312
C      85.63879227      82.95048601     103.91868779
H      83.91158243      81.84310639     104.09443235
C      87.53040831      81.73539199     105.84620863
H      86.83120958      82.13412424     107.74349385
H      89.37856064      82.63868117     105.78195795
C      88.25984267      79.01418610     105.29629829
H      89.07431471      78.91025115     103.40657196
C      90.33665189      78.45860656     107.33342325
H      90.75806085      76.44982749     107.17279650
H      89.42391407      78.66080728     109.16645777
H      92.09787680      79.52252248     107.22948829
C      86.20948961      77.03375292     105.35865924
H      85.02274149      77.38524202     103.71081790
H      85.13234561      77.18493103     107.10854581
H      87.30742061      75.29142526     105.29818801
C      84.60511197      85.55074941     104.89567630
O      83.42025358      85.64712546     106.91201428
N      84.89801955      87.50661615     103.23838632
H      86.00539918      87.13245034     101.73227445
C      83.78686049      90.05207749     103.34232128
H      82.38657328      90.10121038     104.85032288
C      85.93736903      91.85109694     103.89034190
H      87.16002195      91.85676612     102.23494166
H      87.05797673      91.33331193     105.53818324
C      85.11155862      94.63844325     104.24938991
H      83.56765223      94.67056860     105.61188257
H      84.34432974      95.57007833     102.58076157
C      87.37923020      95.99904620     105.22070922
H      88.90423933      95.79873521     103.85065766
H      87.92347138      95.17134607     107.02728758
C      86.93325479      98.80151032     105.52873462
H      85.59532856      99.05284392     107.07453075
H      85.99028136      99.43078918     103.80908367
N      89.39934763     100.21880506     105.94069495
H      90.64089782      99.10197680     106.86666084
H      89.46548806     101.75893200     107.06319238
H      90.22893748     100.51171263     104.24750017
C      82.13146023      90.72104061     100.92347159
O      82.73428293      89.89523021      98.88256718
N      80.07543800      92.12699698     101.36188809
H      79.72205919      92.36699222     103.22137878
C      78.00051851      92.57297239      99.56475837
H      77.33155540      90.72104061      98.96949459
C      75.69883186      94.01861302     100.60599758
H      76.38669225      95.67590300     101.61700115
C      73.90737132      94.72348094      98.48005547
H      73.43871920      92.97170464      97.49928752
H      74.64436459      95.98581811      97.02874567
H      72.28220669      95.62865984      99.36444739
C      74.34956727      92.35943332     102.55997457
H      75.52308731      91.95503189     104.20592620
H      73.77886993      90.60765703     101.63589841
C      72.01764500      93.44980540     103.85443711
H      70.50775368      93.57074789     102.46170881
H      72.61479852      95.18835361     104.78418244
H      71.44316821      92.10054081     105.30385718
C      79.06254470      93.58019652      97.05709155
O      80.82943880      95.08441866      97.17047514
N      78.32933089      92.57297239      94.89524465
H      77.06510399      91.15378793      95.06720974
C      79.39324680      93.24571496      92.34978331
H      80.28141817      95.08819812      92.59922719
C      81.37745943      91.21236945      91.48428866
H      82.76829800      91.36165783      92.99795943
H      82.20138010      92.03062094      89.78164526
C      80.48928806      88.50061219      90.96272419
C      80.07543800      87.91668676      88.35301216
H      80.35133805      89.28673833      86.86390782
C      79.42915160      85.46382200      87.73696139
H      79.29687076      84.70604175      85.84912479
C      79.05120634      83.80086285      89.69849729
O      78.32933089      81.39335153      88.96528349
H      78.07043838      81.35366727      87.17004348
C      79.08522142      84.36589102      92.32899633
H      78.70727615      82.85222024      93.64235611
C      80.09433526      86.71482082      92.88457585
H      80.39858120      87.12489143      94.86122959
C      77.17659785      93.53673281      90.40147549
O      75.12057562      92.62588473      90.79264883
N      77.68115477      94.74615765      88.26041557
H      79.36490091      95.63054957      88.09411966
C      75.90670176      94.98804262      86.08912003
H      74.04532134      94.24726991      86.56911052
C      75.56088184      97.62988001      85.08756508
H      74.56121662      97.75460194      83.29043536
H      77.47706432      98.35553491      84.87969519
C      74.20783780      99.07174118      87.10579279
H      75.26419481      98.96591651      88.87079716
H      72.37858274      98.16278283      87.38169283
C      73.80154665     101.79483680      86.29321047
H      72.75274855     101.62098198      84.53009583
H      75.57033047     102.84363490      86.16281937
C      72.11591078     103.09496850      88.24529775
H      73.10801709     103.45401650      90.01408158
H      70.52854067     101.81373406      88.53820534
N      71.01797978     105.40988324      87.24941200
H      70.18838994     106.31506214      88.71206016
H      69.81422412     104.77304547      85.91148576
H      72.26708888     106.67222041      86.55210299
C      76.67015119      93.03784507      84.06333342
O      78.90380769      92.60887719      83.43405456
N      74.76908651      91.53362292      83.31689153
H      73.07589175      91.99849559      84.06144371
C      74.68593856      89.74216238      81.21173642
H      76.58322377      88.96926431      81.00764598
C      72.97006706      87.84676688      82.20384273
H      71.01420033      88.47226629      82.36824893
H      73.65036854      87.09087636      83.99530329
C      73.03053832      85.51484461      80.46151507
O      71.24663667      85.21626786      78.97807991
O      74.81255022      83.98416630      80.40293356
C      74.20405836      90.88544680      78.63981890
O      74.19272000      93.22303824      78.24297639
N      74.05665970      89.40390137      76.46285420
H      74.15114601      87.53874149      76.85024809
C      74.46484058      90.20136587      73.82857571
H      75.95016546      91.62621951      73.80022983
C      75.47206471      87.90345867      72.34325084
H      75.17159822      88.30408065      70.34392039
C      78.25941101      87.52173396      72.61537143
H      78.93971250      87.16835514      74.52777445
H      79.48206394      89.01650747      71.90294461
H      79.00774263      85.99861455      71.44752057
O      74.28909604      85.69625834      73.10670027
H      75.45883663      85.09154592      74.35769908
C      72.31622176      91.42590852      72.57757689
O      72.51464302      92.02684149      70.38927383
N      70.23185365      91.77172844      73.96085656
H      70.40570847      91.12166258      75.74664793
C      68.10780127      93.50649719      73.53566813
H      68.51976160      94.68379668      71.89727543
C      65.79099680      91.78117707      72.77599817
H      65.21085082      90.69836389      74.42950869
H      66.39192977      90.16735080      71.64405210
C      63.45340535      92.97548410      71.52121988
H      63.11325462      94.68190696      72.62293032
H      61.94729348      91.62999896      71.92562132
C      63.75387184      93.26461222      68.64694617
O      63.00931967      91.53362292      67.08036306
O      65.02376792      95.02205769      67.83436386
C      67.75820189      95.58141668      75.61247735
O      65.83823996      96.92501209      75.61625681
N      69.44005831      95.91022906      77.40393791
H      71.04632568      94.87843849      77.44362215
C      69.17738635      97.83963963      79.33901764
H      67.94339507      99.35142068      78.67950316
H      71.15026062      98.42167533      79.47696767
C      68.25708965      96.92123264      81.95628858
O      68.64259381      98.34041710      83.72507241
N      67.36135937      94.59686927      82.09612834
H      66.83601545      93.65956502      80.52009659
C      66.14248589      93.64444721      84.40726362
H      64.75353705      95.06552140      84.95150480
C      64.77621378      91.15945711      83.80444092
H      63.90504994      90.51506044      85.55810695
H      66.10658109      89.64956579      83.36224497
C      62.55767508      91.20670027      81.78243376
C      61.74887222      88.93524924      80.78276854
H      62.79011142      87.25906200      81.30622274
C      59.87804317      88.99761021      78.91760867
H      59.27333075      87.21181884      78.13526198
C      58.85003205      91.33331193      78.02754758
O      57.17006536      91.53929210      76.08301920
H      56.77511256      93.25327387      75.62948490
C      59.75899041      93.60854241      79.05555870
H      59.14482936      95.41134131      78.32234488
C      61.61092220      93.50838692      80.91315966
H      62.37248190      95.24504540      81.66905019
C      68.12102934      93.38366498      86.61068450
O      70.15626459      92.36321277      86.20250361
N      67.31222648      94.05640755      88.96339375
H      65.52643512      94.70458367      89.15236638
C      68.69739587      93.52539445      91.31799274
H      70.66082152      94.03940001      90.96839338
C      67.65804640      95.23937622      93.45716293
H      67.91504918      93.97136986      95.05776112
H      65.65682623      95.58519614      93.10378411
C      69.00164181      97.83208072      93.75007050
C      67.57489845     100.03739133      94.18281783
H      65.53399402     100.01093516      94.19604591
C      68.88258905     102.31073208      94.48706377
H      67.91126972     104.09085427      94.70438230
C      71.53387507     102.39010059      94.35856238
O      72.76408690     104.61052901      94.72516928
H      71.63969975     106.01648538      94.50974048
C      72.94361090     100.21691533      93.86156437
H      74.97506669     100.30006329      94.02786027
C      71.71906824      97.95302321      93.60834103
H      72.89447802      96.34486611      93.16425535
C      68.73896985      90.73237896      91.78286542
O      66.75664695      89.35098903      91.62601813
N      70.94050100      89.59854318      92.15703122
H      72.46173069      90.70781252      92.47261552
C      71.27120311      86.88489619      92.36112166
H      69.53265490      85.80019329      92.56521211
C      72.39747999      86.21971253      89.67582058
H      74.30421384      86.91135236      89.33189038
C      72.45984096      83.28685729      89.40747944
H      70.53609958      82.56687157      89.26197052
H      73.75619321      82.41569346      90.75485430
H      73.24218766      83.02796479      87.51964286
O      70.93861129      86.87166811      87.64814424
H      71.18427571      88.66879783      87.69916686
C      73.13258354      86.32364748      94.52485830
O      74.60468033      87.97148882      95.32988171
N      73.21951094      83.98794575      95.58877422
H      72.26141971      82.45915717      94.96516453
C      75.04498656      83.24717304      97.55597930
H      76.69471763      84.45659788      97.31220461
C      73.89792268      83.44370457     100.24694958
H      72.89825747      85.22760621     100.49828317
C      71.91748951      81.31209329     100.71371197
H      70.75341811      81.83932693     102.32942796
H      72.95494926      79.60944989     101.22582780
H      70.92349347      81.05320079      98.92981033
C      75.70639077      83.35110799     102.55430540
H      76.90636697      81.67870020     102.57131293
H      74.40058988      83.45315321     104.14356523
C      77.23328964      85.85121590     102.76217530
H      78.54098024      85.84932617     104.35332485
H      75.94260655      87.38945312     103.22137878
H      78.27074938      86.49183312     101.10299559
C      75.96717301      80.44848837      97.05142238
O      74.79743242      79.07276761      95.71160642
N      78.01752605      79.64346496      98.30998010
H      79.08333169      81.00973708      99.11122405
C      78.87546180      77.11123170      98.23817050
H      77.45438760      75.80354109      98.95626651
H      80.49495724      76.99406867      99.50239740
C      79.67859548      76.29675966      95.64357628
O      81.26218614      77.57799410      94.53430692
N      78.55231860      74.21806071      94.63635215
H      77.27108415      73.50752362      95.86089479
C      78.89813851      73.24296194      92.08333190
H      80.34755860      74.31821621      91.09122559
C      79.82977358      70.44994645      92.31954769
H      78.21216786      69.47295794      93.13968890
C      80.28519762      69.33689765      89.64369523
H      80.29653598      67.27898569      89.72873291
H      82.19004175      69.53909836      88.88402525
H      78.91703577      69.75074771      88.16026007
C      82.21271846      70.04176556      93.83699791
H      82.40925000      71.08867394      95.60011257
H      83.81898584      70.48774097      92.62568336
C      82.33177122      67.23741171      94.74406654
H      83.85489064      67.15804321      96.13112566
H      82.46216233      65.89003685      93.19260125
H      80.69904768      66.91048906      95.95538111
C      76.33189017      73.60767912      90.87201733
O      74.97506669      71.84078501      90.22762067
N      75.85378943      76.00574181      90.30698917
H      77.16903894      77.25863035      90.89280433
C      74.00185763      77.03564265      88.65347864
H      74.10012341      76.14369183      86.79965712
H      74.52342210      79.00473747      88.34734298
C      71.21640106      76.76163233      89.56999590
O      69.38525626      76.75407343      88.04120731
N      70.69672632      76.45738640      92.02664012
H      72.15370530      76.90714126      93.17370399
C      68.10024236      76.80509604      93.26819029
H      66.79822093      75.38402185      92.53875595
C      68.18150059      76.32888501      96.09522087
H      69.37580762      77.71972357      97.03252511
H      69.03565689      74.46750459      96.30309075
C      65.62092143      76.30431856      97.31220461
N      63.96363146      74.26719360      97.40858065
H      64.19984725      72.50407895      96.71883055
C      61.70729824      75.16481360      98.33643627
H      60.07835416      74.05554425      98.86933910
N      61.98508801      77.61389890      99.13579051
H      60.53566792      78.71182989      99.71215702
C      64.47196783      78.36789970      98.35722325
H      65.03699600      80.32565616      98.50462192
C      67.27254224      79.69448757      92.67103678
O      68.27220746      81.38390289      93.86156437
N      65.47352279      80.02141022      90.96839338
H      65.02754737      78.42837094      90.01408158
C      64.06567668      82.39112702      90.70005224
H      65.42627962      83.77062723      90.00463296
C      61.88115306      81.93003380      88.69883207
H      60.78511180      80.24628765      89.15614584
H      62.70129428      81.68436938      86.82611329
C      60.03300072      84.11833687      88.46639574
H      58.93695946      84.39423691      90.18982614
C      61.15549815      86.58442971      87.76152783
H      62.31390038      86.54096600      86.05699469
H      62.29311340      87.49149834      89.21850681
H      59.66072464      87.97148882      87.48184833
C      58.19240730      83.71015598      86.31777691
H      56.74676667      85.17847333      86.29698993
H      57.39305307      81.81287077      86.40848379
H      59.02955605      84.11455742      84.47907321
C      63.12081352      83.23583468      93.31543346
O      62.00776472      81.72216390      94.72894874
N      63.16427723      85.72649396      93.76140886
H      64.11291983      86.82631467      92.52363813
C      61.92083731      87.07764827      95.78530575
H      60.99676114      85.88901042      97.18937240
C      63.99953626      88.39478751      97.43314709
H      63.10191626      89.30185614      99.05075281
H      64.99164257      89.75916991      96.25206814
C      66.14059617      86.67891602      98.46115821
H      66.96451684      85.52051379      96.97016414
C      68.17394168      88.31541901      99.74806182
H      67.50875802      89.42090890     101.35621891
H      69.21518088      89.59665345      98.51407054
H      69.64603848      87.15890651     100.60410785
C      65.07668025      85.13123017     100.67780717
H      63.38726493      84.08054234     100.13923517
H      64.48330619      86.47671531     102.11966834
H      66.42216539      83.87645190     101.60566280
C      59.86292536      88.64990057      94.73083847
O      57.69918873      87.93180457      95.16736524
N      60.40716653      90.83064473      93.49873691
H      62.24209078      91.06308107      93.03386423
C      58.40594637      92.54273677      92.41025455
H      56.69385433      91.56196882      91.82065995
C      57.63115858      94.66678915      94.33966512