 %block lattice_cart
   137.614   0.000   0.000
   0.000 142.646   0.000
   0.000   0.000   160.855
 %endblock lattice_cart

 %block positions_abs
N      89.30108187      41.11478003      79.65743653
H      88.09354675      39.88645792      80.47568802
H      91.10577049      41.03163207      80.27348731
H      89.36533256      40.64612790      77.80739447
C      88.56597833      43.81141947      80.19789825
H      88.97226949      43.96637703      82.21234650
C      90.15334843      45.88633897      78.87508984
H      90.01539841      45.70492524      76.82851624
H      92.08275900      45.30052381      79.29649880
C      89.37478119      48.56597088      79.52893514
H      89.25761816      48.76250241      81.57550874
H      87.50584187      48.92123942      78.74091927
S      91.72560073      50.72970751      78.27415687
C      90.22137858      53.46603121      79.32862415
H      88.18614334      53.18068253      79.47980226
H      90.62200056      55.09686502      78.13620685
H      91.03585062      53.98003676      81.15032032
C      85.63879227      44.11377568      80.08262495
O      84.46338250      42.50183914      78.79194188
N      84.54086128      45.85421362      81.56983956
H      85.86366970      46.67246511      82.67721918
C      81.92170061      46.21515134      81.99124853
H      80.85967443      45.72193278      80.29427430
C      80.96549910      44.25928461      83.98490979
H      80.70471687      45.00383678      85.88786418
H      82.24106436      42.63978916      84.00569678
C      78.31610281      43.34654680      83.35563092
O      76.49818610      44.70714975      83.62208233
N      78.12335072      41.05241906      82.51470271
H      76.32433127      40.42691965      82.38620133
H      79.71072083      39.99417232      82.47312874
C      81.30376011      49.01950519      82.77359522
O      82.94971173      50.54829378      82.98902402
N      78.86601317      49.55996692      83.28004187
H      77.63769106      48.10676738      83.15531993
C      77.66792668      52.02039058      83.90365155
H      77.88713494      53.21847706      82.24447185
C      74.75018926      51.70480628      84.15876461
H      74.25319124      50.72781778      82.41454722
C      73.95650420      50.08909029      86.45478208
H      75.08089136      48.36754962      86.59840128
H      72.01953473      49.45603197      86.16565395
H      73.93004804      51.07552742      88.26325016
C      73.23840821      54.12365596      84.15309543
H      73.96217338      55.16300544      85.78014978
H      71.26364421      53.63799630      84.48190781
C      73.30454863      56.13999394      82.03093278
H      71.99307856      57.66311335      82.47123901
H      73.01353077      55.34630889      80.15065510
H      75.24340782      56.75415499      81.69267177
C      78.96805839      53.54728944      85.96723269
O      79.73717700      55.76582813      85.60818469
N      79.34789338      52.55896258      88.24435290
H      78.60523093      50.87899589      88.76402763
C      80.57432575      54.10853815      90.32116211
H      79.61056533      55.93023432      90.34005938
C      80.31921270      52.82919344      92.83827756
H      81.34911354      53.92712443      94.24234421
H      81.20738407      50.98671028      92.56615697
C      77.56021228      52.50038106      93.81337634
C      76.01441616      50.47270473      92.98756594
H      76.68337927      49.12721959      91.60617601
C      73.55777195      50.24971702      93.92298047
H      72.25952998      48.90234216      93.11039815
C      72.59401153      52.19424540      95.61239579
H      70.62869617      52.47014544      96.08860682
C      74.21728644      54.20302447      96.32860206
H      73.44438837      55.61653975      97.57771116
C      76.66448201      54.37121011      95.40074644
H      77.89847329      55.79039457      96.19443149
C      83.33710562      54.86820813      89.75802367
O      83.82654474      57.11698244      89.89975315
N      84.92447572      53.16556472      88.86796258
H      84.09677560      51.46103159      88.64686460
C      87.60977682      53.57374561      88.04215218
H      88.87400372      54.26727516      89.51424898
C      88.55275025      50.96781302      86.99146435
H      90.17413542      51.10009386      85.72723745
H      87.01262330      49.98515534      86.04093201
C      89.25383871      49.23682372      89.15331125
H      88.14645909      49.47303951      90.87485192
H      91.21348489      49.40122991      89.76369285
C      88.80219412      46.50994865      88.26136043
O      89.97949361      45.81830882      86.31683206
O      87.38867884      45.11155118      89.34228388
C      87.70804258      55.46914110      85.77259088
O      89.60910725      56.69179402      85.53070591
N      85.82020600      55.55039933      84.08317555
H      84.43314688      54.24459845      84.21923585
C      85.44981964      57.24548383      81.97046154
H      87.15624250      57.25871192      80.81394903
C      83.37678987      56.20235491      80.31128183
H      81.57966015      56.70124266      81.18622512
H      83.54119606      54.18034775      79.94089548
C      83.17647889      57.51949415      77.64487801
H      84.84321749      56.98092215      76.56017510
H      83.17269943      59.56606775      77.88298352
S      80.33810996      56.75037554      76.13876613
C      80.71983468      58.33963537      73.03961498
H      78.93026386      58.24136960      72.02861140
H      82.01807666      57.24926329      71.86798467
H      81.42659232      60.27282539      73.07551978
C      84.95471135      60.04227878      82.83406646
O      86.23216633      61.88665166      82.13297800
N      83.09900011      60.30873019      84.59718111
H      82.10311434      58.74781625      85.06016406
C      82.33555068      62.63498328      85.64597922
H      82.36956575      63.89921018      84.02081459
C      79.62001396      62.27026610      86.71745403
H      79.37434954      63.60630260      88.26325016
H      79.42348243      60.46746720      87.69255281
C      77.33722458      62.81261755      84.92599349
H      77.57344037      61.57862627      83.29326996
C      74.98073587      62.58962985      86.46612043
H      73.41037330      62.87875797      85.16787846
H      75.07900163      63.94456361      88.01380629
H      74.75207898      60.66588846      87.16342944
C      77.38635746      65.43744740      83.75058372
H      78.97561729      65.73791388      82.47690819
H      77.56021228      67.02292778      85.05260515
H      75.73851612      65.77003923      82.56005615
C      84.18937219      63.93322526      87.41665277
O      84.51818457      66.29727287      87.36185071
N      85.86744915      62.44979010      88.66765159
H      85.65013063      60.55628433      88.57316527
C      88.11622347      63.38520462      90.09250523
H      87.31308978      64.70234386      91.46066708
C      89.34265584      61.18556320      91.47578489
H      91.23994106      61.81862151      91.96144455
H      89.48627504      59.36575676      90.52336283
C      87.85544124      60.78494122      93.93431882
H      86.04130398      59.89488012      93.54314548
H      87.69859395      62.57640176      94.93776350
C      89.37856064      58.97269368      95.66341840
H      90.86766498      60.11408838      96.51190551
H      90.23271694      57.50815579      94.49367781
N      87.73449875      57.63287773      97.57393170
H      87.08821235      55.88866034      97.14685356
C      87.26206717      58.65332994      99.69420463
N      88.34865980      60.67155764     100.46899241
H      88.18236389      61.06651044     102.32848311
H      89.62611479      61.62775915      99.42019431
N      85.78052174      57.50248661     101.32503843
H      86.04886288      57.76893802     103.19586748
H      84.97738806      55.85086581     100.81103288
C      90.09287719      64.97068500      88.41442826
O      91.39300889      66.67899759      89.44621883
N      90.14956898      64.52470959      85.92754844
H      89.18958801      63.00725936      85.27748258
C      91.82386649      65.84751801      84.04538103
H      92.90478994      67.22890795      85.12441475
C      93.76272569      63.94645334      83.01925964
H      94.73404502      65.04627405      81.57361901
C      95.61654720      62.88631688      85.09039968
H      97.41556665      62.24192021      84.31750162
H      94.88144367      61.11186387      85.83306212
H      95.70158489      64.36219313      86.52281222
C      92.51361660      61.58429545      81.63786971
H      91.38356026      62.39498804      80.11852975
H      91.22860270      60.59029941      82.90776579
C      94.41279154      59.89488012      80.36230444
H      95.60709857      60.95312686      79.05839329
H      93.48304620      58.54561554      79.11319535
H      95.62977529      58.88387655      81.67944368
C      90.39523340      67.34985043      81.97424099
O      91.59520961      69.05816302      80.88008945
N      87.91213303      66.83962432      81.47346352
H      87.04852810      65.24847477      82.08006566
C      86.95593151      68.04149026      79.11886453
H      88.48094065      68.24180125      77.74503350
C      85.21927303      66.01381393      77.91321914
H      83.84166255      65.34674054      79.29271935
H      86.15279783      64.23747119      77.44645674
C      83.95126667      66.90954420      75.52082563
O      85.27596482      67.13631136      73.61409178
O      81.63635194      67.54449224      75.66444483
C      85.45737855      70.61907695      79.57995775
O      85.39312785      72.25935939      78.02093354
N      84.72416474      71.04426537      81.91943893
H      85.17202987      69.71200832      83.21012200
C      84.10622423      73.55760137      82.97012676
H      83.96638448      75.01835981      81.52448613
C      81.62123413      73.19288419      84.19088995
H      81.83855266      71.92298811      85.79715732
H      80.28141817      72.31983063      82.89453770
C      80.85589497      75.66653593      85.62519223
H      82.53397194      76.37707303      86.58328347
H      79.44426942      75.00513172      86.97256709
C      79.71827973      77.70177117      83.95089471
O      77.39580609      77.85105955      83.85640840
O      81.07510323      79.06804330      82.69422671
C      86.27563004      74.22467476      84.81260991
O      87.38867884      76.33549905      84.62741673
N      86.73483353      72.54092861      86.59840128
H      85.35533332      71.25024554      86.86863214
C      88.77951740      72.72612179      88.38041319
H      90.23838612      73.81649387      87.41854250
H      89.54674629      70.82316739      88.56371664
C      88.14267964      74.15475488      90.90130809
O      85.97138410      74.93521185      91.20177458
N      89.93036073      74.32483025      92.60962068
H      91.72182127      73.93554663      92.08049731
C      89.58643054      75.24134751      95.17397929
H      87.58521037      75.10717694      95.65019032
C      91.29285340      73.78814798      97.05992615
H      93.21092561      74.31727135      96.53269250
H      91.00183555      71.83984015      96.46088290
C      90.57475740      73.93743636      99.93231014
H      90.48405054      75.88763391     100.58804517
C      87.91591248      72.67698891     100.53135338
H      86.37011635      73.97901034     100.13073140
H      87.87244877      72.31227173     102.55902972
H      87.92536111      70.77403451      99.74144778
C      92.53629331      72.61462794     101.53857751
H      92.34354123      70.57750297     101.30803090
H      92.46259399      73.53870410     103.37728121
H      94.40712236      72.92832251     100.74111300
C      90.24594502      78.06837808      95.20799436
O      92.30763643      78.98867479      94.41808876
N      88.60755231      79.32882553      96.51190551
H      87.00884385      78.38774182      96.95788092
C      88.84376810      81.94987592      97.51346046
H      90.86766498      82.31648283      97.60416732
C      87.98772208      83.66007824      95.49334303
H      88.16913580      85.48177440      96.43631646
H      86.02807589      83.36528093      94.92831486
C      89.75272645      83.91141184      93.05748581
H      89.76028536      82.27112940      91.81404590
H      91.58387125      84.66919209      93.61684480
C      88.67747218      86.06192038      91.50602051
H      89.18391883      87.87038846      92.35450763
H      86.70081846      85.96554434      92.07482813
N      89.12911677      85.86916830      88.86418313
H      90.62011083      86.88584105      88.24246317
C      87.84599260      84.57281605      87.06327395
N      86.01106835      83.04213773      87.67176582
H      84.93770381      82.33915954      86.25636081
H      85.64824090      82.50167601      89.46511609
N      88.08598785      85.00367365      84.68977770
H      86.92947534      84.07770775      83.48602204
H      89.48627504      86.23766493      84.28915572
C      87.43970145      82.46766093      99.99278138
O      85.06053602      82.59049314     100.05514235
N      88.83998865      82.51301436     102.02423717
H      90.74294304      82.41663832     101.90896386
C      87.65890970      82.53191163     104.49977864
H      86.07531905      81.22800047     104.69442045
C      89.50517231      81.75334439     106.63894883
H      88.72660507      82.01223689     108.52867514
H      91.31364039      82.70765617     106.37627687
C      89.94925799      78.92253437     106.62572074
H      90.39523340      78.15719521     104.76623005
C      92.22070902      78.51246376     108.26033400
H      92.93502557      76.59817101     108.00144150
H      91.85221239      79.02080014     110.21998019
H      93.68713664      79.84094136     107.68018802
C      87.70426313      77.48067319     107.59137089
H      86.00539918      77.45799648     106.42540975
H      87.22049320      78.19876919     109.46031021
H      88.11811319      75.48701193     107.90317573
C      86.60444242      85.13595449     105.07047599
O      85.35344360      85.37783946     107.08114478
N      87.02963084      87.05591642     103.51145178
H      88.19559197      86.55891840     102.08470841
C      86.21326907      89.64106202     103.74199839
H      85.32509770      89.77523259     105.59393018
C      88.72660507      91.09615128     103.83459498
H      89.81130797      90.75033136     102.11494403
H      89.87933812      90.54057174     105.44653152
C      88.28440911      93.93452020     104.08214912
H      87.09010208      94.26333258     105.72810074
H      87.33009732      94.65828538     102.40785161
C      90.85254717      95.28378479     104.26167312
H      91.96559597      94.81135321     102.59493452
H      91.87299938      94.92095734     106.01344942
C      90.00783951      98.04467493     104.23332723
H      88.44692557      98.22986811     105.56558428
H      89.16502157      98.38104622     102.38328517
N      92.24338574      99.72086217     104.42985877
H      93.58698114      99.60936832     103.07870445
H      93.33564754      99.11614975     105.87171994
H      91.85599184     101.53688916     104.86449582
C      84.28763796      90.37238610     101.73510904
O      84.58243526      89.52389899      99.56948269
N      82.35255821      91.83881372     102.29824749
H      82.25051299      92.37927544     104.12561283
C      80.28141817      92.64761658     100.58237599
H      79.39324681      90.96198071      99.79247039
C      78.10445346      93.91940239     102.13762075
H      77.73028765      92.60037342     103.67396824
C      79.01908100      96.46486373     103.21476475
H      77.60934517      96.88060352     104.65662592
H      79.44804887      97.96341670     101.87116934
H      80.83132853      96.23998630     104.16529708
C      75.94071683      94.09892639     100.37828555
H      75.47584416      92.14683911      99.92097178
H      76.46228130      94.95875186      98.58115583
C      73.55399250      95.12126833     101.66329944
H      73.20628286      94.13483119     103.43964218
H      72.02331419      94.80190458     100.32348349
H      73.70517060      97.11303986     102.16407692
C      81.34722381      94.03845515      98.25801263
O      82.91380693      95.72598075      98.37706539
N      80.38913257      93.07658445      96.10561436
H      79.05498580      91.71220206      96.05270202
C      80.96360937      93.89861540      93.59983727
H      81.71572045      95.80723898      93.79636880
C      82.93648364      91.96164593      92.39230215
H      84.55408937      91.75377604      93.65085988
H      83.63190293      93.08414336      90.81249095
C      82.16736503      89.38405924      91.39074721
C      82.34877876      88.89462012      88.84717559
H      82.79475417      90.36482720      87.50358018
C      81.61934440      86.60616156      87.80593639
H      81.69871291      86.35482796      85.78014978
C      80.53842095      84.73911196      89.38952704
O      79.72772836      82.56970615      88.15553576
H      79.45560777      82.84371647      86.38486220
C      80.48361889      85.16241066      92.04648224
H      79.94504689      83.90196320      93.56015301
C      81.25462722      87.47354594      93.05748581
H      81.18281763      87.66062884      95.08705187
C      78.55420832      94.12160311      92.04459251
O      76.57566487      93.99310172      93.21244337
N      78.57688504      94.46175384      89.55204350
H      80.32110243      94.45419494      88.77536599
C      76.38858197      94.68285182      87.87585626
H      74.65759267      94.14239009      88.84906532
C      76.00496753      97.52311047      86.95178010
H      74.82766803      97.69885502      85.26992368
H      77.88713494      98.18451468      86.43777454
C      74.68782829      99.25598950      89.02103041
H      75.64402980      98.96308192      90.82004986
H      72.77920471      98.50387843      89.20622359
C      74.67082075     102.06034335      88.36340565
H      73.69572197     103.19417913      89.78259011
H      73.62580210     102.15105021      86.59273210
C      77.49029241     102.97119143      88.02136519
H      78.44838365     102.00365156      86.47556907
H      78.42570693     102.59891535      89.81849491
N      77.67548559     105.74719938      87.54515416
H      79.47261531     106.34813235      87.33728427
H      76.67393064     106.91127079      88.67898995
H      76.99329439     106.14026246      85.80471623
C      76.79109367      92.90272963      85.52692646
O      78.81121110      92.43974669      84.67465989
N      74.64436458      92.28856858      84.32506052
H      73.10045818      92.73076454      85.35496136
C      74.47428921      90.97898825      81.96668208
H      75.65914761      89.29524210      81.97235126
C      71.68694290      90.07002989      81.87408549
H      70.56444547      91.79346029      81.74369438
H      71.15592981      89.05713659      83.58806726
C      71.21262160      88.38628375      79.52893514
O      71.83623128      86.06381011      79.62909063
O      70.33767831      89.46342774      77.64487801
C      75.34923250      92.92162690      79.86530642
O      74.93160298      95.21764437      80.18467017
N      76.15803536      91.97676374      77.71668761
H      76.03142370      90.07569907      77.60141430
C      76.67771009      93.54712631      75.43767767
H      77.66792668      95.28000534      75.94034487
C      77.89091439      92.22053843      73.11520403
H      77.63580134      93.27122626      71.35964829
C      80.61967918      91.45519928      73.64810685
H      81.51729918      93.06902555      74.55895494
H      81.64013139      90.91284783      71.94357372
H      80.48361889      89.80168875      74.86698033
O      76.66259228      89.94719768      72.42734366
H      77.21250264      89.64673120      70.72470025
C      74.26641932      94.87938336      74.44557136
O      74.56688580      96.91461860      73.21346980
N      71.99496829      93.96286610      75.02571734
H      71.76442168      92.28667886      75.90632980
C      69.47785284      95.27055670      74.49281452
H      69.54777272      96.00566024      72.56907313
C      67.21018127      93.42996327      74.61186727
H      67.11947440      92.80635359      76.57151346
H      67.63536969      91.79912947      73.43078833
C      64.59668978      94.31435519      73.60842260
H      63.79544582      95.98109380      74.51171178
H      63.22663820      92.77989742      73.74637262
C      64.69873500      95.01166420      70.75871532
O      66.22185441      94.04601405      69.19402193
O      62.99231214      96.44785620      69.95369191
C      69.11691512      97.40216798      76.36553329
O      67.83757040      99.24843059      75.55106125
N      70.22429474      97.27933577      78.63320487
H      71.42994012      95.85070268      79.02059876
C      69.97674059      99.05378878      80.67977846
H      68.79566164     100.63171025      80.07884550
H      71.77009086      99.93629097      81.17866621
C      69.05266442      97.91806327      83.14587130
O      69.17360691      99.25409977      85.02047981
N      67.90560055      95.67873759      83.24791652
H      67.68828202      94.59781414      81.69078204
C      66.50720308      94.60348332      85.47023467
H      65.23541727      96.11148491      86.06738818
C      64.93495079      92.33581174      84.68599825
H      63.89938077      91.56858286      86.29415534
H      66.34468662      90.93174509      84.15309543
C      63.25876355      92.55124054      82.42777530
C      62.76365525      90.39884227      80.85930246
H      63.46852317      88.56013857      81.39598474
C      61.03077622      90.69552930      78.83351586
H      60.70763302      88.95698109      77.81495337
C      59.88749180      93.01233376      78.13620685
O      58.40405665      93.24665982      76.10286133
H      58.22075320      95.04945873      76.04050037
C      60.46385833      95.12882723      79.77459956
H      59.42450886      96.87304462      79.55917076
C      62.16272228      94.85859637      81.79471699
H      62.63137441      96.61226239      82.72824179
C      68.27598691      94.01388871      87.58294869
O      70.24508173      92.96509060      87.10862738
N      67.79032724      94.38427506      89.93943740
H      66.25586948      95.48787523      90.22289635
C      69.62903095      93.79657018      92.00301853
H      71.54521343      94.38238534      91.51924860
C      68.89014796      95.40283755      94.39919150
H      69.91060017      94.65639565      96.02435613
H      66.90971478      95.08536353      94.86217444
C      69.26053432      98.32057497      94.51068535
C      67.00987028      99.90605535      94.85839499
H      65.19573302      98.96875110      94.86406417
C      67.30088813     102.50820848      94.69776825
H      65.73052556     103.78377374      94.43887575
C      69.76887069     103.51165315      94.52013398
O      70.03910156     106.15915972      94.27824901
H      68.52921023     107.15315576      94.12518118
C      71.93260732     101.98097484      94.37273533
H      73.68816307     102.96552225      94.03636404
C      71.67371482      99.38071143      94.32738190
H      73.33856370      98.22230920      94.10439419
C      69.92382825      91.06024648      92.77780632
O      68.08512455      89.70531271      93.01402211
N      72.29543478      90.35915802      93.35417285
H      73.65603772      91.69708425      93.32771668
C      73.27998218      87.77968160      93.58660918
H      71.76253195      86.46632181      94.04770240
C      74.16248437      86.70442733      91.02036085
H      75.05821464      84.85060581      91.08650127
C      72.09512379      86.43986564      89.11740645
H      72.60534989      85.09060106      87.64908911
H      71.38080724      87.94786724      87.90798161
H      70.42460573      85.58381962      89.96589357
O      75.88402504      88.53935158      90.00557782
H      77.56966091      88.43163718      90.66509230
C      75.30009961      87.30347057      95.70310265
O      76.82321902      88.99099617      96.09049655
N      75.38702702      85.20965381      97.11094876
H      74.05099052      83.86605840      96.88985078
C      77.41848281      84.44998384      98.91563738
H      78.97561729      85.74444636      98.53391267
C      76.55298816      85.23799971     101.61038711
H      75.50985923      87.01245272     101.53479805
C      74.58200361      83.43142135     102.53635300
H      72.95494926      83.47110561     101.27401582
H      74.07555696      84.09282556     104.42041013
H      75.29632016      81.52090805     102.83681948
C      78.62790765      85.44209015     103.70042441
H      80.16236542      86.56836703     102.90862908
H      79.39135708      83.58637891     104.16718681
C      77.97973152      86.99544518     106.08525902
H      79.72016946      87.53401718     107.04523998
H      76.80621148      85.82192514     107.30602221
H      76.97250740      88.70942695     105.54857674
C      78.07988702      81.65507862      98.64351680
O      76.83833683      80.37951336      97.14874328
N      79.98095169      80.76312780     100.08726770
H      80.90124840      82.07081841     101.13039662
C      80.70849632      78.04948081     100.43119789
H      79.26285569      76.85895324     101.29102336
H      82.32610204      77.92097942     101.70109397
C      81.52296836      76.87785050      97.90085435
O      83.44859947      77.66019719      96.86906379
N      80.16236542      75.04859543      96.88418160
H      78.73940150      74.16231379      97.80069886
C      80.37212504      74.25868983      94.30281545
H      81.97461295      75.26402423      93.48645369
C      80.30787434      71.26914280      93.97589280
H      78.47295009      70.50380365      94.52013398
C      80.64424563      70.73623998      91.09028072
H      82.42436781      71.44677708      90.33061075
H      79.11923649      71.61307299      90.01880590
H      80.61589973      68.71801228      90.68965874
C      82.59066373      69.99357754      95.37429027
H      84.42936743      70.72301190      94.80359293
H      82.49050823      68.01125464      94.82626964
C      82.37712465      69.83106108      98.30714551
H      82.90246857      71.57338874      99.27468538
H      83.72827897      68.41376634      98.94020383
H      80.45905245      69.43988773      98.94776273
C      77.90792192      75.19032490      92.96677895
O      76.01441616      73.94310554      93.37118038
N      78.01563632      77.35973071      91.77058220
H      79.69938247      78.21766646      91.50224106
C      75.87646614      78.42931580      90.35517719
H      75.60056610      77.25768549      88.68276940
H      76.36212580      80.32849075      89.72400860
C      73.25730547      78.62584734      91.58727874
O      71.31277709      78.91875492      90.23801416
N      72.96817734      78.54269938      94.16675516
H      74.48940702      78.41608772      95.31192931
C      70.46617970      78.43498498      95.24389916
H      69.50619874      77.01202107      94.10439419
C      70.91026539      77.60350540      98.05014273
H      72.07433680      78.93198300      99.11216892
H      71.75308332      75.74779416      97.75534543
C      68.44795200      77.48256292      99.27090593
N      66.60168939      75.58527770      99.02713124
H      66.82656683      74.00168705      97.98589204
C      64.61747677      76.11629080     100.53513284
H      62.85058266      75.09772831     100.43686707
N      65.07856999      78.29514523     101.64440218
H      64.01843352      79.09827892     103.01445376
C      67.40671280      79.16441934     100.89040138
H      68.27409718      80.87840110     101.57826176
C      69.15281992      81.08816072      95.18909710
O      69.98807895      83.04591719      96.13396025
N      67.00420110      81.04280729      93.91920101
H      66.60357912      79.33449471      93.16897967
C      65.38659537      83.30291996      93.37873929
H      66.68483735      84.72021470      92.64174603
C      63.54411222      82.69253836      91.29437116
H      62.31767984      81.14296279      91.87829660
H      64.50598291      82.05381087      89.58983803
C      61.74320304      84.94320240      90.47989912
H      61.11392418      85.80302788      92.24301377
C      63.28710944      86.66852253      88.69977694
H      62.08335378      88.14439878      87.91176106
H      64.11103011      85.58948880      87.15209109
H      64.82723639      87.48488429      89.79581820
C      59.44718557      83.84527142      89.01158178
H      58.36437240      82.59994178      90.24557306
H      60.08213361      82.82103975      87.34295344
H      58.17539976      85.35705247      88.43143580
C      64.19417807      84.22321668      95.78247116
O      63.16049778      82.77190687      97.24322960
N      64.42850413      86.72710404      96.15663697
H      65.60391390      87.65118021      94.96799912
C      63.42316974      87.94786724      98.37706539
H      62.76932443      86.54002114      99.73388888
C      65.54722211      89.37650033      99.83215465
H      64.68361719      90.64261696     101.20976513
H      66.40704758      90.62182997      98.43186745
C      67.54655255      87.49622265     100.89796029
H      67.77520943      85.93152926      99.57704159
C      70.19594884      88.78879545     101.26645692
H      71.33356408      88.56013857      99.56381351
H      71.13892227      87.96676450     102.90484963
H      70.14303650      90.82403069     101.57070285
C      66.71696270      86.30191562     103.35838395
H      66.15193453      87.57181170     104.87772390
H      68.16638278      85.02257091     104.06892104
H      65.07101108      85.23233053     102.73477426
C      61.11581391      89.71287162      97.77991187
O      58.98231290      89.09871057      98.53013322
N      61.45974410      91.63283355      96.21521848
H      63.20207176      91.92385140      95.49712248
C      59.48120065      93.13705570      95.05303680
H      57.93540452      91.80857810      94.75257032
C      58.48909433      95.24410054      96.85205625