 %block lattice_cart
   137.614   0.000   0.000
   0.000 142.646   0.000
   0.000   0.000   160.855
 %endblock lattice_cart

 %block positions_abs
N      86.45137459      40.06125761      78.93461622
H      88.02551661      39.53591369      77.98975306
H      85.07376410      40.28046586      77.63448451
H      85.66335871      38.76490536      80.09490817
C      86.86711438      42.49144565      80.18939449
H      88.31464473      42.08704421      81.59535086
C      87.99528098      44.51534253      78.38092641
H      86.62711913      45.74933381      77.46062969
H      88.84565783      43.62339171      76.72930561
C      90.02862650      46.21042703      79.72830127
H      91.35521437      46.97198673      78.34880106
H      90.94703349      45.32603511      81.34779672
S      88.56786806      48.94864046      81.20417752
C      91.15490338      49.69697208      83.37925250
H      90.47082245      51.42607165      84.26742387
H      93.03329134      49.97287212      82.58178800
H      91.10199104      48.09070471      84.66615612
C      84.43692634      43.40796291      81.48952619
O      82.42814727      43.59126636      80.21585066
N      84.48039004      43.80669516      84.01798000
H      86.13201084      43.48544169      84.91371027
C      82.31287396      44.20542741      85.67338025
H      80.68204015      43.16985739      84.95528425
C      83.13301518      43.34938139      88.30198955
H      84.61456061      44.61360829      88.97284239
H      83.88890571      41.43508864      88.20372378
C      80.92581485      43.34938139      90.00841241
O      80.54220041      45.08415015      91.43893523
N      79.19104609      41.67508388      89.71550483
H      77.38446774      42.02090379      90.22951039
H      79.52741738      40.40518780      88.33411490
C      81.55131426      46.96442783      85.85479397
O      83.31442891      48.52912122      85.93227275
N      79.05120635      47.64283957      85.98329536
H      77.84745068      46.16129415      85.99652345
C      77.98162125      50.28845641      85.75841793
H      78.94538167      51.14072298      84.14837111
C      75.22829001      50.12593995      85.10646235
H      75.22262084      48.99210416      83.38681141
C      73.47840345      48.91462538      87.14169759
H      71.65670728      48.72376303      86.20061389
H      73.06077393      50.24688243      88.65347864
H      74.09067477      47.02300934      87.68215932
C      74.14736656      52.83958694      84.44505814
H      74.20972753      54.13971864      86.04187688
H      72.12346968      52.56746635      84.17104783
C      75.21506193      54.16806453      82.19250438
H      77.11612660      54.88427081      82.53076539
H      73.99429873      55.72330929      81.61424813
H      75.31899688      52.95108079      80.53332468
C      78.62223847      51.88716487      88.22262104
O      78.95294058      54.16050563      88.02608951
N      78.63735628      50.90828664      90.57533030
H      78.50885489      49.00344252      90.53942550
C      79.53119683      52.03834298      92.92992929
H      78.50885489      53.82602407      92.94693683
C      78.99829401      50.31680231      95.16547552
H      80.28141817      51.00655241      96.62056478
H      79.81087632      48.50455477      94.61745489
C      76.31299292      50.13916803      95.74751122
C      74.83522694      48.27400816      94.60422680
H      75.72906749      46.90962577      93.37590470
C      72.29354505      47.83937111      95.36578651
H      71.13892227      46.40317911      94.48895350
C      71.31655655      49.40595422      97.25740255
H      69.39470489      48.97320690      97.78841564
C      72.74329991      51.27489355      98.39501779
H      72.25386080      52.39739098     100.02774132
C      75.24718728      51.63961073      97.65046562
H      76.52653199      53.02666984      98.42714313
C      82.35066849      52.67518075      92.75985392
O      83.13301518      54.74254133      93.51385472
N      83.94181804      51.02355995      91.73562226
H      83.41458440      49.33225490      91.02508517
C      86.57231707      51.69441279      91.10445367
H      87.28852334      52.86415338      92.63891144
C      88.21448924      49.25855557      90.59422757
H      89.96059635      49.74610496      89.61345961
H      87.12033770      48.34203831      89.11079241
C      88.28818856      47.41985187      92.82977379
H      89.24627980      45.75122354      92.09844971
H      86.31153484      47.37827789      93.40803005
C      89.85477168      48.30424378      95.06532002
O      88.79085576      48.87683086      97.05142238
O      92.12433298      48.53290067      94.74217682
C      86.97482878      53.33091578      88.67804508
O      88.68881054      54.84269683      88.68938344
N      85.31564907      53.20430411      86.70706054
H      84.06465025      51.78700938      86.96028387
C      85.59910802      54.75010024      84.35246155
H      87.54363640      54.46475156      83.74019023
C      83.74339678      53.76933228      82.27754206
H      81.93681843      54.30601455      83.10902164
H      83.71505089      51.71708951      82.10935642
C      83.70938171      54.92395506      79.63192522
H      85.21171413      53.92428984      78.63981891
H      83.85489063      56.95919030      79.92105335
S      80.80865182      54.08113712      78.05967293
C      81.22061215      55.69118394      75.02855193
H      79.36112146      56.21085868      74.31423538
H      82.38468356      54.63293721      73.70007433
H      82.12012188      57.51665956      75.35547458
C      85.25517783      57.60925615      84.73985545
O      86.92191644      59.11347829      84.09545878
N      83.12923573      58.31034461      85.84912479
H      81.89335472      56.90816769      86.24029814
C      82.47539042      60.98808680      86.07022277
H      82.20893901      61.70618280      84.15781974
C      79.74473590      61.10524983      87.34767776
H      79.21183308      63.09324191      87.41381818
H      79.81843523      60.21707846      89.20338900
C      77.71705957      59.91472225      85.72440286
H      77.94004727      57.86814865      85.77353574
C      75.12057561      60.31912368      86.79965713
H      73.61635347      59.72763935      85.52220214
H      74.69160774      62.29010823      87.20783801
H      75.05632492      59.38370916      88.63269165
C      77.56399174      61.00698406      83.02965314
H      77.04620673      62.99497614      83.17894151
H      76.07299768      60.06967981      81.95817832
H      79.22695089      60.64037716      81.87314063
C      84.34055030      62.73041446      87.47050997
O      84.27629960      65.10957989      87.29665515
N      85.91847177      61.59846840      89.13535885
H      85.71438132      59.71252154      89.34511847
C      87.84032343      62.83245968      90.53942550
H      86.96160069      64.34046128      91.63735649
C      89.18391884      60.86903404      92.29309152
H      90.38767450      62.11436368      93.40803005
H      90.23460667      59.42717286      91.26319068
C      87.41513501      59.43284204      94.05998562
H      86.33043210      58.18940213      92.82977379
H      86.32854238      60.85958541      95.07098920
C      88.53196326      57.56768217      95.95160166
H      90.24972448      58.42750764      96.69426410
H      89.12911677      55.90094356      94.89902411
N      86.57798625      56.82501973      97.89424031
H      85.66902789      55.15828112      97.68637042
C      85.89012587      58.03822402      99.93325501
N      87.13923496      60.03566474     100.73638869
H      86.76128970      60.48164015     102.55241568
H      88.49416873      60.88226212      99.69137004
N      84.20071055      56.93273413     101.32598330
H      83.63190293      57.85114112     102.90201504
H      84.30653522      55.03922836     101.12756204
C      89.97382443      63.79810982      88.97284239
O      91.46481850      65.50642241      89.84400622
N      90.38011559      62.66805349      86.82989275
H      89.46926751      61.04855804      86.39147625
C      92.10543572      63.45795909      84.78331915
H      93.35076536      64.86958464      85.62046791
C      93.74571816      61.28666355      83.83089709
H      95.07986493      61.96885475      82.41738181
C      95.47859718      60.67628196      86.13825292
H      96.94313508      59.36859135      85.51464324
H      94.52239567      59.61992495      87.62357780
H      96.32330485      62.43183770      86.81288521
C      92.27740081      59.02466116      82.92193874
H      90.80341429      59.79189004      81.70306526
H      91.36844245      58.14026924      84.54332391
C      93.76461542      57.09714032      81.42905495
H      92.39456384      55.97653262      80.37269794
H      94.58853609      55.73086819      82.73107638
H      94.99104780      58.09869526      80.11191571
C      90.94136431      65.10957989      82.58934690
O      92.19236313      66.54010270      81.23063369
N      88.43369749      64.77698805      82.27754206
H      87.42458364      63.51087142      83.28476619
C      87.00128494      66.06200195      80.14971023
H      88.30897555      66.53632325      78.63414973
C      85.01518259      64.33668182      78.99508746
H      83.53930634      64.13637083      80.41805137
H      86.02807589      62.57545690      78.65115727
C      83.87567762      65.45917925      76.59513504
O      85.31375935      66.03176633      74.84524847
O      81.58910878      65.88625740      76.50442818
C      85.73705804      68.55266123      80.85835760
O      85.66713817      70.29309916      79.29366421
N      85.04919766      68.94572430      83.23941276
H      85.36100250      67.50008367      84.44883760
C      84.33488112      71.34567672      84.27120332
H      84.19126192      72.83289133      82.85390859
C      81.70060264      71.01308489      85.43338501
H      81.84611156      69.50697302      86.83178248
H      80.20393940      70.60112455      84.08223069
C      80.92203540      73.52264143      86.76753178
H      82.44137535      74.25774497      87.94861073
H      79.42726188      72.97273107      88.07144294
C      80.05654074      75.42181638      84.71528901
O      81.63635194      76.81265494      83.57011486
O      77.76430273      75.75062875      84.29388004
C      86.40224170      72.24518644      85.97573646
O      87.48883433      74.31065730      85.72251313
N      87.30931033      70.48018207      87.62546753
H      86.33988073      68.85879689      87.90325730
C      89.14990376      71.24741095      89.60590070
H      90.72782523      72.20928164      88.69505262
H      90.04374431      69.71295318      90.64336045
C      88.10110566      72.99918724      91.71672500
O      85.77863202      73.47917773      91.77908596
N      89.64879151      73.46594964      93.60645131
H      91.40245753      72.77242008      93.30598483
C      88.88156263      74.22184017      96.13868457
H      86.82743012      74.34278265      96.04230853
C      89.54107711      72.19605356      98.23439105
H      91.52906919      71.87857954      97.80731290
H      88.54519134      70.41593137      97.94715265
C      89.19525719      72.95761326     100.98961201
H      90.37066696      74.59222652     101.41291071
C      86.48916911      73.70027570     101.77573816
H      85.08321274      72.22250973     101.49038949
H      85.97705328      75.48984652     100.88945652
H      86.44570541      74.25018606     103.75995079
C      90.17224570      70.84300952     102.84910271
H      90.19870187      71.38914042     104.83331533
H      91.95047816      70.03798611     102.18769850
H      88.99305648      69.17060173     102.62611500
C      89.97760389      76.90903098      96.72827918
O      92.19236313      77.40602900      96.48450448
N      88.20504061      78.44726820      97.63534781
H      86.43058760      77.74617974      97.71660604
C      88.45637420      81.09477477      98.42525341
H      90.42357930      81.66169266      98.63501303
C      87.20159593      82.69348323      96.27663459
H      86.91435753      84.55108419      97.11945253
H      85.52540869      81.59555224      95.79664411
C      88.88912153      82.66513733      93.90880752
H      89.40312709      80.70360142      93.54409034
H      90.56719850      83.75361969      94.39824663
C      87.43781172      83.75739914      91.70538664
H      86.90868835      85.72649396      92.01530175
H      85.67847652      82.68781405      91.66192293
N      89.06108663      83.56275733      89.42448698
H      90.27618064      84.98194179      89.03709308
C      89.21982364      81.67492075      87.78231481
N      87.99339126      79.53575056      87.96183881
H      88.19370225      78.21672159      86.59745641
H      86.52507391      79.39213136      89.17315338
N      90.88467252      81.70893582      86.08156113
H      91.65001167      80.11400681      85.36913431
H      92.05441310      83.21315796      85.95872892
C      87.04663838      81.52752209     101.02173736
O      84.75251063      81.72027418     101.12378258
N      88.47716119      81.99806395     103.19492262
H      90.32720325      81.53319127     103.13445138
C      87.57009256      82.25884618     105.80085521
H      85.88445669      81.08154668     105.70825862
C      89.49194422      81.17792273     107.63577946
H      88.89479071      81.72405363     109.52928522
H      91.32497875      82.11333725     107.55074177
C      89.87555867      78.26396475     107.63388973
H      90.79585538      77.67437014     105.88778262
C      91.46481850      77.54964820     109.87699486
H      90.47838136      77.99184416     111.63255061
H      93.37155235      78.32065654     109.79762636
H      91.76150553      75.51819242     110.05273941
C      87.24128019      76.95249469     108.04962952
H      87.68725560      74.94371562     108.11199049
H      85.84099299      77.63090644     106.70036493
H      86.59310406      77.55342766     109.90912021
C      86.59688351      84.88178630     106.69091630
O      85.03030040      84.92902946     108.42757478
N      87.48316515      86.86221947     105.60621340
H      88.80030439      86.68836465     104.23427209
C      86.33610128      89.29807669     105.86699563
H      85.39879703      89.41901918     107.69814043
C      88.37700570      91.35976810     105.84431891
H      87.33387678      93.11343412     105.55330106
H      89.68091686      91.11410368     104.26828717
C      90.14767926      91.30307631     108.20269735
H      91.30230203      89.62688907     107.89089251
H      88.92313660      91.43535715     109.85431815
C      91.69347538      93.83719930     107.90790005
H      90.34987997      95.39433378     107.99860691
H      92.66290498      93.79940477     106.09187306
C      93.29596329      93.95058287     110.30785246
H      94.30129769      92.15534288     110.40044905
H      92.12811243      94.10931989     111.99915751
N      95.17813070      95.84786809     110.15856408
H      96.35543019      95.87054481     111.66089650
H      94.35798948      97.56940876     110.05462914
H      96.15322948      95.82141192     108.51828165
C      84.38212427      89.63255825     103.66357475
O      84.63345787      88.48927383     101.62456006
N      82.32610205      91.11032423     104.00561521
H      81.88012664      91.93046545     105.67046409
C      80.52708260      91.96825997     102.03652039
H      79.49718176      90.33553644     101.31842439
C      78.42948639      93.53673281     103.28562948
H      77.66225751      92.24793947     104.69536531
C      79.36868037      95.91967769     104.64812216
H      77.87957603      96.57163327     105.91612851
H      80.13779898      97.35209024     103.38578498
H      80.80865182      95.49070982     106.05785799
C      76.44149431      94.18112948     101.37133673
H      75.76308256      92.35565387     100.70048389
H      77.09533961      95.37354679      99.82743033
C      74.22484534      95.44913584     102.72060132
H      72.58078345      95.65322628     101.49794839
H      74.73696117      97.39555394     103.15523837
H      73.78453911      94.33797677     104.39867828
C      82.01051775      93.12477248      99.70837757
O      83.98339202      94.30207197      99.86900431
N      81.04108815      92.46714772      97.50117724
H      79.36679064      91.55440991      97.42936764
C      81.89524445      93.31374511      95.01429741
H      82.97805762      95.04473441      95.29775636
C      83.80008857      91.41457016      93.92014588
H      85.30809017      91.12733176      95.29019745
H      84.69203939      92.25171892      92.26096617
C      82.99506516      88.82564511      93.06787931
C      82.59066373      88.53840671      90.52808715
H      83.32198781      89.84609732      89.14291776
C      81.51729918      86.38033926      89.56621645
H      81.21683270      86.18758718      87.55554766
C      80.70282714      84.53218693      91.20460917
O      79.87512702      82.23805919      90.32021725
H      79.71072083      82.15680096      88.51741835
C      81.17714845      84.81186643      93.86534381
H      80.71605523      83.19048125      95.01429741
C      82.45271371      86.95103661      94.84422204
H      82.80042335      87.34032023      96.81520659
C      79.54253519      93.67279311      93.36834579
O      77.38068828      93.64255749      94.39635691
N      79.88457565      94.31907951      90.97973173
H      81.70627181      94.51939049      90.45060837
C      77.87201713      94.36821239      88.92370951
H      76.24307304      93.54618144      89.88180075
C      77.63202188      97.04973403      87.91837511
H      76.58133405      97.17445596      86.15337073
H      79.54442491      97.66767453      87.46484079
C      76.62290803      98.98292405      89.79676306
H      77.52430748      98.75804662      91.63546676
H      74.65570294      98.41978561      90.04053776
C      76.71739435     101.73814501      89.15047666
H      78.51263435     102.38443141      89.92148500
H      75.13569342     102.49970471      90.22762066
C      76.27330867     102.50537389      86.33667418
H      74.54987827     101.57184910      85.70550559
H      77.92303974     101.91388956      85.25575073
N      75.62702227     105.22091061      85.95872892
H      77.12935468     106.27348816      86.48596256
H      74.13413848     105.70090109      87.04721128
H      75.33222496     105.42878050      84.08601014
C      78.25185211      92.45391963      86.89036399
O      80.35133805      91.80574351      86.12313511
N      76.15047645      91.65645513      86.07778168
H      74.63680568      92.04006957      87.17571267
C      75.66103734      90.15979189      83.79310257
H      76.97250740      88.57620124      83.91215532
C      72.99463351      89.23949518      84.19183482
H      71.79843676      90.88733652      84.50552939
H      73.12691435      87.89023059      85.74141039
C      71.98929911      87.74850112      81.95817832
O      70.66460097      88.84076292      80.35380068
O      72.72062320      85.56586722      81.46495975
C      75.97851136      91.79251543      81.42527550
O      75.55899212      94.09609180      81.56700497
N      76.31299292      90.62466456      79.25020051
H      76.82132930      88.78785059      79.33523819
C      76.68526900      91.93802435      76.70851862
H      78.03075414      93.46870266      77.01276455
C      77.82099452      90.14278435      74.64682721
H      78.43326584      91.11977286      72.93851462
C      80.16047569      88.61210604      75.36681294
H      80.82376963      87.50094697      73.76432502
H      79.90725236      87.28929762      76.92583714
H      81.49651219      90.01617269      76.06034249
O      75.95583464      88.66690810      73.79456064
H      76.73251216      87.74283194      72.44151660
C      74.33633919      93.34209100      75.71641230
O      74.69727692      94.88599740      73.97975382
N      72.11213132      92.94713820      76.91260906
H      72.18583065      91.65456540      78.31856544
C      69.61769259      94.34553567      76.51954599
H      69.61202341      94.99182207      74.56556898
C      67.59001626      92.32352852      76.65182683
H      67.30655731      91.85487639      78.63603946
H      68.59913011      90.67379745      75.94128974
C      64.95006860      92.63911281      75.53499858
H      64.08268422      94.21703428      76.53466380
H      63.95985201      90.85899063      75.84113424
C      64.94628914      93.17768481      72.66261458
O      63.72552595      94.99938098      71.75932540
O      66.37303251      91.84353804      71.28311437
C      69.07156169      96.54328738      78.37147777
O      67.32923403      98.00782527      78.14282089
N      70.81766880      96.91556346      80.24230682
H      72.39181082      95.86676536      80.50875823
C      70.56633520      98.97158569      82.03376737
H      69.66493575     100.57029415      81.09835284
H      72.48062795      99.66511525      82.33423385
C      69.63847958      98.44813150      84.68694311
O      69.54399326     100.14510573      86.26486458
N      69.09423840      96.03873045      85.23496374
H      69.12069457      94.66300969      83.91404505
C      68.00953550      95.34142144      87.77475591
H      67.37269773      97.12532308      88.57977932
C      65.82501188      93.49326911      87.35523667
H      64.64393293      93.27973003      89.02953418
H      66.69806544      91.71314692      86.79398795
C      64.27732603      94.25482881      84.99685823
C      63.28521972      92.24604974      83.43972375
H      64.00142599      90.36577206      83.78554366
C      61.81123319      92.88855669      81.26653849
H      61.03455568      91.52795374      79.95884788
C      61.06479130      95.41512077      80.74686375
O      59.47553147      95.91400851      78.77587920
H      59.49631846      97.70546906      78.48297163
C      61.76965921      97.27083201      82.46084552
H      61.23297694      99.18890421      82.01109065
C      63.33246287      96.81351824      84.63403078
H      63.58946565      98.39521916      85.90014740
C      69.97485086      94.31718978      89.59456235
O      71.89670252      93.44602595      88.76875195
N      69.53265491      94.63655353      92.09089081
H      67.90938000      95.38488515      92.75985392
C      71.20128324      93.77861778      94.13557468
H      73.10423764      94.25671854      93.50629581
C      70.81766880      95.30929609      96.52418874
H      72.24252244      94.54017748      97.79786427
H      68.94306030      94.92001247      97.28007926
C      70.98207499      98.18168009      96.22183253
C      68.75408767      99.57818783      96.13868457
H      67.02120864      98.50482329      96.22183253
C      68.89770687     102.22569440      95.88546124
H      67.30277786     103.49936993      95.84388726
C      71.28443120     103.44645760      95.64357627
O      71.48852164     105.94845524      95.55853859
H      69.83312139     106.65899233      95.77774684
C      73.49163153     102.04617040      95.76829821
H      75.37757839     102.77182530      95.48105981
C      73.36124042      99.39677411      96.11600785
H      75.00908176      98.20624653      95.92325577
C      70.98963389      90.91757214      94.55320419
O      69.02809798      89.70625758      94.53052748
N      73.26864383      89.84231787      94.88579602
H      74.70672555      91.03284545      94.49651240
C      73.70895006      87.12489143      95.06720975
H      72.11591078      86.19703581      95.98561674
C      74.45728168      86.06853442      92.44426963
H      75.53253595      84.32242731      92.65024979
C      72.10457242      85.39579186      90.88335569
H      72.88691911      84.37533965      89.27519860
H      70.84223524      86.99450032      90.57910976
H      70.98018526      84.04274782      91.95483051
O      75.92559902      87.78629564      90.98729064
H      77.57155064      87.71826549      91.74696062
C      75.87835587      86.73749754      96.95504634
O      77.40336500      88.35699299      97.60322246
N      75.98418054      84.42825198      97.96982937
H      74.60279060      83.17347371      97.56920739
C      77.85311986      83.42102786      99.74239265
H      79.71450028      84.08054234      99.15657749
C      77.26163553      84.30730950     102.38234031
H      76.48873746      86.20270499     102.17069096
C      75.42671128      82.78041064     103.94514397
H      73.70139115      82.50073114     102.85855134
H      75.18482631      83.77818613     105.73093533
H      76.13346892      80.89446378     104.37600157
C      79.63324205      84.65501914     104.16624195
H      81.13935392      85.37878432     102.96248628
H      80.46094217      82.83521270     104.66890915
C      79.11923649      86.40490571     106.40745735
H      77.76430273      87.93369429     106.15801348
H      80.87668196      86.97749278     107.32019516
H      78.11390209      85.19548087     107.73782468
C      77.98540070      80.50895961      99.65735496
O      76.40747923      79.25796079      98.48950410
N      79.87701674      79.43181561     100.92725105
H      81.32832655      80.45982673     101.61511142
C      80.30976407      76.70116109     100.91402296
H      78.62979738      75.74873903     101.63022923
H      81.65335948      76.37423844     102.44092182
C      81.06376487      75.67126025      98.31186983
O      82.46594179      76.99217894      96.87000865
N      80.10189418      73.47917773      97.67692179
H      79.10600841      72.68171322      99.09610625
C      80.25685173      72.05243436      95.18059333
H      81.84611156      72.59478581      93.98628630
C      80.72172441      69.19327845      95.24484402
H      79.28553241      68.30888653      96.42592297
C      80.80487236      68.06700157      92.65780870
H      82.16358558      68.91926813      91.36712563
H      79.00963237      68.01408923      91.65058458
H      81.13368474      66.06011222      92.99040053
C      83.27474465      68.50919752      96.45993804
H      83.62245430      69.75830662      98.05864650
H      84.77329762      69.34823601      95.32421253
C      83.67347691      65.82767588      97.56164848
H      82.23350546      65.62169572      99.01862747
H      85.65957926      65.79366081      98.11155884
H      83.74339678      64.36313799      96.11411813
C      77.67359586      72.72517693      93.69715817
O      75.63458117      71.59701032      94.10722878
N      77.64524997      74.81899368      92.40458537
H      79.32710639      75.63157600      92.01530175
C      75.57222020      75.84511507      90.83044336
H      75.26230509      74.44482787      89.35078765
H      76.21661688      77.73862084      90.33722479
C      72.96250816      76.10778703      92.18726685
O      70.97451608      75.64858353      91.00051872
N      72.70172593      76.89769263      94.58532954
H      74.31555220      77.34177831      95.50184680
C      70.23185364      77.55531738      95.68703998
H      68.80322055      76.32510555      94.85933985
C      70.23563309      76.95249469      98.45926848
H      71.31277709      78.24506749      99.64601661
H      71.04821541      75.07977591      98.73894798
C      67.66938476      76.75974261      99.44759534
N      66.30311264      74.59789570      99.47027206
H      66.62625584      73.08800438      98.34588490
C      64.07134586      75.11568071     100.57198250
H      62.65405113      73.70027570     100.96504557
N      64.08835340      77.44760298     101.30897576
H      62.69751483      78.20538323     102.37289168
C      66.30122291      78.62301275     100.63623319
H      66.92294287      80.51273906     101.08976751
C      69.52887545      80.37856849      95.27696937
O      70.89703730      81.97538723      96.40324625
N      67.47474295      80.86989734      93.89935889
H      66.68105790      79.48661768      92.85056078
C      66.11225028      83.36622580      93.77274722
H      67.23474771      84.78918971      92.79197927
C      64.07701504      83.13189973      91.61279005
H      62.74286826      81.60122142      91.96427914
H      65.05022409      82.73883666      89.83833704
C      62.34413601      85.42224802      91.28775712
H      61.40305231      85.95326112      93.04142314
C      63.64237799      87.78629564      90.31643780
H      65.30722687      88.36455189      91.38224344
H      62.22508325      89.27539998      90.45816727
H      64.32267946      87.54252095      88.38702723
C      60.26354734      84.75895409      89.36590546
H      60.66227959      84.43581089      87.37035448
H      58.89160604      86.28396322      89.56054727
H      59.39805269      83.13567919      90.29187136
C      65.08045971      84.36400129      96.29931131
O      63.71418759      82.91647093      97.59755328
N      65.80044544      86.59765779      97.21393884
H      66.85113327      87.75417029      96.11411813
C      64.71574253      87.51228533      99.52696385
H      64.25653904      85.94381249     100.77985239
C      66.59790994      89.32075341     100.82142637
H      65.49619950      89.98404734     102.43147319
H      66.99475247      90.98749202      99.67625223
C      69.14904047      88.11699775     101.62644978
H      69.75375289      87.29496680      99.83876869
C      71.12569419      90.02751105     102.44281155
H      70.58523246      90.68702553     104.31930978
H      70.93294210      91.56007909     101.08031888
H      72.96250816      89.09965543     102.33887660
C      68.88825823      86.36144200     103.81286313
H      67.70906901      84.76651299     103.25161441
H      68.01520468      87.36677640     105.38511542
H      70.74396947      85.70381724     104.41001664
C      62.25342915      88.68769509      98.93736924
O      60.25598844      87.91668676      99.85010705
N      62.44996069      90.76828376      97.38401421
H      64.09780203      91.53173319      96.79252987
C      60.18228911      92.24604974      96.71505109
H      58.58736010      90.95158722      96.86244975
C      59.86859454      94.33797677      98.78241168