 %block lattice_cart
   137.614   0.000   0.000
   0.000 142.646   0.000
   0.000   0.000   160.855
 %endblock lattice_cart

 %block positions_abs
N      90.05224808      38.88962729      77.89054243
H      88.59148964      37.90696961      77.15165944
H      90.38672963      37.86539563      79.46846390
H      91.63394900      39.08048965      76.84174432
C      89.22265823      41.50500851      78.46690895
H      90.89128656      42.47443811      79.18878440
C      88.34393549      42.81458885      76.04427982
H      86.60349756      41.87161541      75.48303110
H      89.70642816      42.45365112      74.54383713
C      88.05480736      45.70020092      76.44112234
H      86.18019886      45.82870231      77.28394028
H      87.78079705      46.60537983      74.61186727
S      90.52278993      47.27434294      78.39131990
C      93.22698828      47.36504981      76.14065586
H      94.93719060      48.15873486      76.97213544
H      92.59581969      48.51400341      74.55328576
H      93.74855275      45.54902282      75.31484546
C      87.00034008      41.34249205      80.28293594
O      85.33171175      39.83638018      79.64420844
N      86.71688113      42.86372173      82.21045678
H      87.90929844      44.35282606      82.20100815
C      84.39251777      43.12828341      83.82239332
H      83.05837099      41.63917908      83.32728503
C      85.55092000      43.06781217      86.42076700
H      87.12695174      44.38684114      86.53981976
H      86.23500092      41.15162969      86.73446157
C      83.91819646      43.64984788      88.71489475
O      81.58060502      43.61772253      88.79237353
N      85.09549596      43.61394308      90.83516767
H      84.04480813      43.85771777      92.41119942
H      86.99845036      43.72732665      90.92398481
C      83.11506278      45.69075229      83.19878364
O      84.47188627      47.53134572      82.80194111
N      80.63763159      45.93830644      83.48791177
H      79.56426704      44.54557815      84.22868448
C      79.39419167      48.37416366      83.30271859
H      80.29181167      49.02233978      81.56606010
C      76.51802822      48.09637389      82.69233699
H      76.23456928      46.83970589      81.08417989
C      74.84373071      47.11749566      84.87875033
H      72.95022494      46.52790105      84.32317080
H      74.87585606      48.46487052      86.43588481
H      75.58261370      45.26367415      85.38141753
C      75.65631302      50.83458732      81.91565947
H      75.92843361      52.17629300      83.45200697
H      73.61351888      50.71175511      81.68700259
C      76.64086043      51.95519502      79.39665430
H      78.64774978      51.87204706      78.94311998
H      75.67143084      53.76366310      79.21524057
H      75.58828288      51.04812639      77.87542462
C      80.19732535      50.21286736      85.35874081
O      80.87762683      52.31424302      84.91654486
N      80.38818771      49.43996930      87.68310418
H      79.82882872      47.66173684      88.08939534
C      81.10817344      50.95175035      89.99423946
H      79.86851298      52.59014306      89.86195862
C      80.24645824      49.35115216      92.44332476
H      80.84172203      50.44719342      94.08360720
H      81.34816868      47.62583204      92.66253301
C      77.26258039      48.99021444      92.58505424
C      75.98134595      47.04757579      91.41153420
H      76.86762759      45.91751945      89.96211411
C      73.28092705      46.93986139      91.70633150
H      72.18677551      45.45642623      90.83327794
C      71.90898575      48.52723149      93.44110026
H      69.90209640      48.38361229      93.78880990
C      73.32061130      50.36404547      94.63918674
H      72.46267556      51.80023746      95.81270678
C      75.91142608      50.67018113      94.12140173
H      76.90164266      52.26511014      94.92264569
C      83.74812110      51.83992172      90.05849016
O      84.49456299      53.30068016      91.59861710
N      85.15974665      51.10859763      88.13096932
H      84.19409651      50.08058652      86.84973488
C      87.79780459      51.90039296      87.80971584
H      88.49133414      52.90572736      89.46889555
C      89.48155073      49.59492686      87.93821723
H      91.36560786      50.26388997      87.44688839
H      89.02234724      48.26455953      86.43399509
C      89.64595692      48.24377254      90.54037037
H      87.75434088      47.80913549      91.22445129
H      90.49255431      49.39083641      92.02569525
C      91.35237978      45.81169478      90.22289634
O      93.48021161      46.10649208      89.27047428
O      90.45475978      43.73488556      90.60840051
C      88.03968955      53.47642470      85.39653534
O      89.36249797      55.37370992      85.26803395
N      86.74711676      52.72620336      83.39909463
H      85.72288509      51.11615654      83.40098435
C      87.03624488      54.03956314      80.93111206
H      89.02234724      54.03200424      80.38309143
C      85.53013301      52.70352664      78.82784668
H      83.55347929      52.92273489      79.37019813
H      85.90240909      50.68151949      78.75792680
C      86.08382282      53.75988365      76.22569354
H      87.66552374      52.53534100      75.72680580
H      86.52979823      55.77244217      76.18411957
S      83.55347929      52.91139654      74.19990694
C      81.35950704      55.46063733      75.01059952
H      79.74946022      55.33024622      73.73314454
H      82.19665579      57.34280474      74.99737144
H      80.63385213      55.29812087      76.93056146
C      86.17830914      56.76454849      81.07851072
O      87.42363878      58.40861038      79.96357219
N      84.11661773      57.14627320      82.45612120
H      83.15285731      55.72708874      83.29326995
C      83.03758400      59.63504276      82.50714381
H      82.85806000      60.37014629      80.59285105
C      80.36173154      59.27788448      83.58239808
H      79.73056296      61.03910941      84.44033383
H      80.50535074      58.12137198      85.28126204
C      78.45310797      57.88137674      81.83818069
H      79.31293344      56.07479838      81.34118267
C      75.93032334      57.44862941      83.24224734
H      76.45566725      56.15227716      84.75591812
H      74.45066764      56.53967106      82.13486772
H      75.09884376      59.21552352      83.89420292
C      77.87107226      59.49142356      79.59885501
H      77.16053517      61.34902452      80.13553729
H      76.29315079      58.47853025      78.74658845
H      79.45088346      59.53677699      78.27982605
C      84.91030278      61.33390671      83.79215770
O      84.96699457      63.56378376      83.11752541
N      86.53546741      60.37959492      85.43621959
H      86.64129208      58.48041998      85.58739770
C      88.40440673      61.78177185      86.97634654
H      87.41419014      63.38425976      87.81160557
C      89.63461856      60.11692297      88.99268451
H      90.78924134      61.32634781      90.19644018
H      90.82136669      58.68828987      88.10073370
C      87.93953406      59.05489678      90.98634578
H      86.16130160      58.43128710      90.15108674
H      87.44064631      60.63470798      92.20710897
C      89.23966576      57.18595746      92.84016729
H      90.77979271      58.15349733      93.80581743
H      90.29035359      55.74787573      91.80459727
N      87.22332779      56.29967581      94.54281070
H      86.01579267      54.88049135      94.13462981
C      87.04002433      57.20485472      96.87473297
N      88.46487797      59.05111733      97.70432282
H      88.48566496      59.35725299      99.58837995
H      89.67619254      60.01865720      96.58938429
N      85.74178236      56.11448264      98.59438391
H      85.62461933      56.81557110     100.36316774
H      85.46777204      54.23231523      98.43186745
C      90.60026871      62.67939185      85.23779833
O      91.47899144      64.70517845      85.90676145
N      91.21820921      61.27154574      83.23846789
H      90.15807275      59.72008044      82.89831716
C      93.23643691      61.96129585      81.36574912
H      94.57058369      63.18205905      82.35029652
C      94.92207279      59.71630099      80.39442979
H      96.18818942      60.33046204      78.89020765
C      96.42629493      58.71663577      82.57517396
H      95.17718584      57.64894040      83.81483442
H      97.24832588      60.15660722      83.79593715
H      97.91350954      57.55634381      81.75125328
C      93.36304858      57.54122600      79.17366659
H      92.10827031      58.32924187      77.74503350
H      92.32558883      56.55289914      80.65332230
C      95.01088992      55.54000584      77.89432188
H      93.63138971      54.43262622      76.83985460
H      96.22787367      54.54789952      79.22657893
H      96.12015927      56.50376626      76.45246070
C      92.16307237      63.49197416      79.23980701
O      93.52367531      64.87147437      78.02849245
N      89.64406719      63.50898170      78.69556584
H      88.47243688      62.19940136      79.44578718
C      88.43086290      65.29099361      77.07040121
H      89.60627267      65.58957037      75.40555232
C      86.21043448      63.74519749      75.80995376
H      85.13518021      62.72096583      77.23480740
H      87.22143806      62.39782263      74.62131590
C      84.47944518      65.43461281      74.22069393
O      85.30714531      66.39270405      72.19301759
O      82.35161335      66.02420742      75.06918104
C      87.89984981      67.96873580      78.17400137
O      88.17197040      69.98885323      76.80772925
N      87.29891684      68.22573858      80.72513190
H      86.97577364      66.69506026      81.81739370
C      86.41452492      70.62191154      81.90621084
H      85.35627819      71.82755693      80.61363804
C      84.52101916      69.91326417      83.95089471
H      85.67375221      69.05910788      85.42866069
H      83.09994497      68.60935302      83.22712953
C      83.14529840      72.25841453      85.10740722
H      84.62117465      73.29587427      86.10329298
H      81.82437971      71.56488497      86.52848140
C      81.92642493      74.06121343      83.18933501
O      80.00646300      73.10879137      82.05171977
O      82.67475655      76.34589254      82.83028701
C      88.76156501      72.06377272      83.07406170
O      89.08848766      74.28609086      82.32950954
N      90.23555153      70.81655335      84.86174279
H      89.85760627      69.00619554      85.33795383
C      91.97221001      72.21495082      86.52470195
H      92.69219574      73.88357916      85.55716208
H      93.63705889      71.11890956      87.03870751
C      90.84215368      72.96139272      89.00969205
O      88.87683831      71.90125625      89.62574283
N      91.90984904      74.63757996      90.51580392
H      93.48399106      75.50118488      89.86951752
C      91.02545713      75.34055814      93.07638308
H      88.96754517      75.31977115      93.17842830
C      92.05157852      73.47728800      94.95099158
H      94.10193157      73.27319756      94.88863061
H      91.06703111      71.72362198      94.50879562
C      91.59993393      74.05932370      97.81770640
H      92.73187999      75.75440821      98.11250370
C      88.75967528      74.67159503      98.38840374
H      88.70865267      76.71816863      98.61517090
H      87.98110804      73.85901271     100.11183414
H      87.48599974      74.33333402      96.80292337
C      92.42952378      71.91826379      99.55247515
H      94.35704462      71.40425823      99.03469014
H      91.11616399      70.36868821      99.21799359
H      92.34826555      72.66848514     101.46865763
C      91.99488673      77.95593936      93.90597293
O      94.29468365      78.42459149      94.19699078
N      90.24122071      79.66992113      94.29147710
H      88.44220126      79.03686281      94.38596341
C      90.48121595      82.09443999      95.49901221
H      92.46164913      82.44214963      95.95065680
C      89.46643292      84.11455742      93.78503044
H      89.00533970      85.89090015      94.71855524
H      87.90173953      83.32465182      92.70221727
C      91.56591885      84.88556575      91.78570001
H      92.32369911      83.16402508      90.94666152
H      93.04557456      86.04585771      92.62662821
C      90.68719612      86.48994339      89.72967778
H      92.44086214      87.24583392      88.95488999
H      89.65540555      88.18313817      90.29470594
N      89.21509932      85.05753085      87.93443778
H      89.06392122      83.20748879      88.37852346
C      88.26645671      85.98538647      85.89542309
N      88.13795532      88.41935396      85.44377850
H      87.10616476      88.96170541      83.93199745
H      88.95431709      89.67602195      86.62674717
N      87.24600450      84.36778074      84.26080983
H      86.38050985      85.05564112      82.70745480
H      87.35371890      82.48561333      84.56316604
C      88.93919928      82.51773868      97.86494955
O      86.67908661      82.01129203      97.79691941
N      89.99933574      83.18103262     100.12128277
H      91.90606959      83.21882714     100.11372387
C      88.74077802      83.07331822     102.47021258
H      87.26112231      81.63901595     102.39651325
C      90.38861936      82.26640508     104.76811978
H      89.30013700      82.65001952     106.47454264
H      92.12338812      83.38134361     104.78890677
C      91.20687085      79.56787591     105.02323283
H      92.17630045      79.49228685     106.83925981
C      89.23777604      77.64224479     105.03646091
H      87.61261141      78.20160378     106.17218643
H      90.07303507      75.91881440     105.79802062
H      88.49133414      77.26996871     103.15429350
C      93.18919376      78.62490248     102.98799759
H      94.93341114      79.68125949     103.27145654
H      92.46542858      78.94993540     101.08693292
H      93.73343493      76.71249945     103.52845931
C      87.18364353      85.44681447     103.25633873
O      85.35060901      85.31264390     104.72087662
N      87.62394976      87.48960861     101.96565565
H      89.06770067      87.53874149     100.71843629
C      86.33704615      89.77050827     101.97888374
H      85.07281924      89.98215762     103.59271001
C      88.38550947      91.88133256     101.72566041
H      87.47466139      93.65578557     101.20409595
H      89.72532542      91.51472566     100.20254100
C      89.98043848      92.46714772     104.08403885
H      90.73065982      90.75883513     104.95331295
H      88.85605132      93.45547458     105.49566441
C      92.25755868      94.03562056     103.72499085
H      93.50666778      93.02839643     102.43619751
H      93.10982525      94.01672330     105.60148908
C      91.79268601      96.73414973     102.79146605
H      91.10671536      96.61320725     100.85260686
H      93.63705889      97.63743891     102.65162631
N      90.09004260      98.13821638     104.41474096
H      90.00689465      99.95235364     103.82703607
H      90.61160707      98.34230683     106.23832685
H      88.34771494      97.36909778     104.28057039
C      84.64952055      89.92735555      99.61294639
O      85.30903503      88.79163004      97.74211734
N      82.73711752      91.43913660      99.78113204
H      82.48578392      92.20825521     101.51023161
C      80.72644872      92.10998945      97.83471393
H      79.94599176      90.32041863      97.17519945
C      78.58916826      93.63877803      99.02713124
H      77.92020515      92.69391488     100.72788492
C      79.60017184      96.28817432      99.71499161
H      78.33972439      97.07241074     101.14362471
H      79.41119921      97.28028064      97.91975162
H      81.43887554      96.02739209     100.60505271
C      76.21000283      93.92601643      97.30937002
H      75.58639315      91.99471614      96.95599120
H      76.68621387      94.99749125      95.61617524
C      73.97634633      95.29795774      98.58493528
H      73.65131341      94.57419256     100.48599995
H      72.33417417      95.11276456      97.35661318
H      74.43366010      97.29161900      98.83248943
C      81.88485095      93.24571496      95.41775398
O      83.97866771      94.24726991      95.49712248
N      80.80392750      92.67501761      93.23512009
H      79.43198620      91.36732700      93.46566670
C      81.38407348      93.75405134      90.69532792
H      82.12295647      95.64188792      91.06382455
C      83.75190055      92.23849084      89.62574283
H      85.30714531      92.34620524      90.96933824
H      84.54936505      92.90556422      87.84940010
C      83.26057171      89.30941505      89.23456948
C      82.14941264      88.45147930      87.05949450
H      81.48989815      89.79129526      85.66865593
C      81.65997352      85.90601796      86.73635130
H      80.64330076      85.23705485      85.09606886
C      82.09461057      84.23172045      88.70922557
O      81.46722144      81.72405363      88.56182692
H      80.72266927      81.21571725      86.98768490
C      82.99789975      85.13878908      90.98256632
H      83.00545866      83.73850188      92.46978093
C      83.73300329      87.69936823      91.24145883
H      84.55503423      88.52517863      92.91575634
C      79.04081285      94.08853290      88.99646397
O      76.89786321      93.44413622      89.81093601
N      79.51891361      94.59875900      86.51903277
H      81.25746182      95.05607277      85.87841555
C      77.56871605      94.60253845      84.51970233
H      75.85662401      94.23026237      85.60629496
C      77.22100641      97.22169912      83.33673366
H      76.00024321      97.21225049      81.67566423
H      79.01246696      97.86042662      82.54871779
C      76.28370216      99.27961108      85.21134216
H      77.88052089      99.66133579      86.45478208
H      74.67743479      98.64466304      86.33194987
C      75.49190684     101.88176421      83.95845362
H      73.72690246     101.68145322      82.91343497
H      77.09439475     102.58096295      82.86997126
C      74.96845265     103.84896930      85.94077652
H      76.31771723     103.60897406      87.47901374
H      73.17132292     103.38787608      86.83272734
N      75.04971088     106.44545326      84.79560237
H      74.67365534     107.75314386      86.13541833
H      73.90831619     106.79883208      83.30649804
H      76.82416389     106.99158416      84.34773724
C      77.95799967      92.53517787      82.57895341
O      80.04992670      91.79629488      81.91943893
N      75.85284456      91.76039008      81.42244090
H      74.23901829      92.27439564      82.30116364
C      75.67332056      90.39411795      78.99414259
H      77.14919681      88.96170541      78.88264874
C      73.13163867      88.93713897      79.05650356
H      71.58962200      90.15979189      78.44801169
H      72.63464065      88.53084781      81.01237030
C      72.82928246      86.50884065      77.44834647
O      72.99557838      86.61088588      75.04839405
O      72.05827412      84.55108419      78.69556584
C      75.99646376      91.92857572      76.54883674
O      75.58072397      94.18679866      76.73025047
N      76.36307067      90.72482006      74.36431313
H      76.27803298      88.81997593      74.43612273
C      76.31960696      92.11376890      71.92845591
H      77.39108178      93.86365546      72.09097237
C      77.89941816      90.85899063      69.73070421
H      77.02825433      89.14500886      68.99371094
C      78.43232098      92.67501761      67.42712783
H      79.70788624      94.10554043      68.18490808
H      76.62385290      93.37799580      66.73926745
H      79.14663752      91.63566814      65.79818375
O      80.27669386      90.19002751      70.83619410
H      80.21055344      89.53051303      72.52371970
C      73.69666684      92.87910806      71.04217427
O      73.39053118      94.70458367      69.61921035
N      71.75402819      91.83597913      72.23081212
H      72.06016385      90.33742616      73.37220681
C      69.23691274      92.76194502      72.12120799
H      68.91376954      93.05674233      70.10675974
C      67.60040975      90.47726591      72.70891288
H      67.54182824      90.06530558      74.72714058
H      68.33929274      88.83509375      71.70546820
C      64.68645178      90.73993787      71.82830041
H      64.03827565      92.41045593      72.84875262
H      63.63576395      89.12044242      72.54261696
C      64.25937363      91.24260507      69.11087398
O      64.99636689      93.33453210      68.21703343
O      63.28238513      89.51917467      67.77861693
C      68.71534828      95.14111045      73.59897397
O      66.80861443      96.43368325      73.36842736
N      70.44066840      95.81574275      75.30539683
H      71.82772751      94.50616241      75.25248449
C      70.29138002      97.73759441      77.26693274
H      69.78115392      99.51771659      76.36364357
H      72.22079059      97.89255196      77.96802120
C      68.49425030      97.07052102      79.42877964
O      67.33206862      98.76938497      80.49458529
N      68.35819000      94.61387681      80.00325644
H      69.59407101      93.47626157      79.09807754
C      66.99947678      93.72759517      82.23502322
H      65.69745536      95.13166182      82.98902402
C      65.62186630      91.18213383      81.75881219
H      64.40677228      90.86465981      83.39153572
H      67.04483022      89.70814730      81.54905257
C      63.83418521      91.08575778      79.42500019
C      63.18600909      88.64612111      78.72013228
H      64.15543868      87.07953800      79.59696529
C      61.27360606      88.25305804      76.98158407
H      60.76715940      86.40490571      76.28238533
C      60.10764492      90.41679467      76.03672091
O      58.42956796      90.09932065      74.20557612
H      58.13477065      91.76416953      73.54606163
C      60.74070324      92.91879231      76.82662651
H      59.91300311      94.56096447      75.94034487
C      62.63798845      93.31185538      78.58407198
H      63.11797894      95.16189744      79.30216798
C      69.00069695      93.38366498      84.37608313
O      71.26836853      93.27028140      83.73924536
N      68.31472630      93.05863206      86.74202048
H      66.51759657      92.67690734      87.25980549
C      70.20445261      93.02272726      88.81693997
H      71.94300082      94.02995138      88.36151593
C      69.16510314      94.53072885      91.06760401
H      69.77926419      93.67279311      92.83638784
H      67.11475009      94.37955075      90.94666152
C      69.87564023      97.33319298      91.04303756
C      68.08606941      99.23992682      90.67076148
H      66.14532049      98.79017196      90.23234498
C      68.65109758     101.77782926      90.52525255
H      67.09774255     102.99670274      90.00746754
C      71.08506507     102.52427116      90.98256632
O      71.54993775     104.98280509      91.00902249
H      70.08539985     105.90499153      90.46100186
C      72.90676124     100.68934691      91.71955958
H      74.75491357     101.31295659      92.31860283
C      72.40409404      98.15522392      91.74223630
H      73.97067715      96.87209975      91.99545963
C      70.60129514      90.20325560      89.63519146
O      68.70967910      88.81619648      89.77314148
N      72.92376878      89.61744044      89.97912165
H      74.13508334      91.08953724      90.02636481
C      73.74579972      86.99261059      90.34194910
H      72.30015909      85.73783232      91.10539853
C      74.86451770      85.81720082      87.85506927
H      76.21378229      84.29408142      88.17821247
C      72.91432014      84.97816234      85.81794431
H      74.00658195      83.93881287      84.41387766
H      72.04315631      86.73749754      85.19244490
H      71.34773703      83.71960462      86.26769917
O      76.18165694      87.79196482      86.57572456
H      77.42887631      88.48360465      87.69255281
C      75.78481441      86.68080575      92.38096379
O      77.09250502      88.47037657      92.93465360
N      76.11740624      84.40368554      93.49401259
H      74.89286359      82.95993464      93.26535571
C      78.13374422      84.12022659      95.37806973
H      79.60962047      85.42035830      94.76390867
C      77.19832970      84.95359590      98.06526054
H      76.14197269      86.72237973      98.00100985
C      75.12152048      83.02985451      99.01012370
H      75.95488978      81.17414327      99.33893608
H      73.63430587      82.96938327      97.58338033
H      74.45255736      83.44559430     100.91118837
C      79.33561016      85.37878432      99.94175877
H      80.55448363      86.79418933      99.07059494
H      80.36929045      83.61566967     100.20632046
C      78.42287235      86.37278036     102.45887422
H      76.99801871      87.85243606     102.33037283
H      80.21055344      86.83387358     103.37350176
H      77.56493660      84.85721986     103.55680521
C      78.79892788      81.40657961      95.34783411
O      77.55359824      79.70960538      94.53336206
N      81.09305563      80.80564664      96.31348425
H      82.35350308      82.17002904      96.75945966
C      81.92264548      78.10333801      96.83126926
H      80.35606236      77.29453515      97.90085435
H      83.54025120      78.19971406      98.10305507
C      82.60483668      76.49329120      94.59761276
O      83.78780535      77.35878585      92.66631247
N      82.24200923      73.95916821      94.88107171
H      81.60139201      73.15981398      96.49300825
C      82.20799415      72.32266522      92.61151040
H      83.57048682      73.08422493      91.26791500
C      82.96010522      69.59012097      93.24645845
H      81.36895567      68.53943314      94.02313596
C      83.38907310      68.33723243      90.69343820
H      84.00512388      66.40782186      91.06760401
H      84.98589183      69.14036611      89.66920653
H      81.73178312      68.21251049      89.48023390
C      85.22777680      69.31044148      95.02469091
H      84.54558560      69.91893335      96.86906379
H      86.68475579      70.66159579      94.47856000
C      86.62428455      66.69506026      95.05303680
H      85.42997752      65.03021138      95.28736286
H      87.90929844      66.45506502      96.64418636
H      87.63528812      66.58167668      93.26346598
C      79.56615677      72.69494131      91.37751912
O      77.88052089      71.07733558      91.36807049
N      79.21277795      74.87946492      90.27013950
H      80.52424801      76.25707541      90.43832514
C      77.35517698      75.49173625      88.28403715
H      77.28336738      74.06310316      86.80438144
H      78.12051614      77.22839473      87.48468292
C      74.68688343      75.92070412      89.19866468
O      72.86329753      75.72417259      87.67932473
N      74.33917378      76.65580766      91.68176506
H      75.81316031      77.15847486      92.78536523
C      71.84095560      76.82966248      92.70032754
H      70.66176638      75.36134513      91.86695824
C      71.86174259      76.20983225      95.49712248
H      72.85384890      77.58366328      96.66686307
H      72.65731737      74.36167991      95.94120817
C      69.30683261      76.09077949      96.56481785
N      67.80827965      73.94971958      96.71788568
H      68.25992424      72.19227411      96.12451162
C      65.53115944      74.56577036      97.79502968
H      63.94378934      73.36390442      98.25045372
N      65.66533001      76.92981797      98.53958185
H      64.15921814      77.79720235      99.33326690
C      67.98969337      78.06176404      97.72699953
H      68.59629552      79.95715953      98.18242357
C      70.54649307      79.34488820      91.93687811
O      71.48001787      81.28752685      92.60206177
N      68.64353868      79.37512382      90.34383883
H      67.91977350      77.64980370      89.96778329
C      67.21868504      81.80153241      89.78070039
H      68.51692701      83.27362921      89.15898043
C      65.32328955      81.45193304      87.61696376
H      64.02882702      80.00062323      88.29348578
H      66.21524036      80.81131582      85.87463610
C      63.74725780      83.65346420      86.75524856
H      62.67389325      84.28652251      88.39364127
C      65.09274293      85.80208301      85.38330726
H      63.76615506      86.83954276      84.19844886
H      66.67066441      85.24461375      84.18144132
H      65.57651287      87.37433531      86.62296772
C      61.80083970      82.68403460      84.87119143
H      60.48747991      84.21282318      84.45167218
H      60.55551006      81.26107068      85.68755319
H      62.62476037      82.09066053      83.07973088
C      65.80705948      82.70671131      92.12963019
O      64.24614555      81.22894534      93.15575158
N      66.16988693      84.96871371      93.02725019
H      67.34529670      85.95326112      91.88774523
C      64.85652715      86.07231388      95.21933272
H      64.08740854      84.65879859      96.50623634
C      66.59885481      87.65023535      96.85772543
H      65.41399641      88.48360465      98.32226332
H      67.43222411      89.10910406      95.66719785
C      68.75314280      86.33687556      98.25990235
H      69.64887308      84.94981645      97.02591107
C      70.63153076      88.33620600      99.28980319
H      69.61863745      89.82531033     100.28946841
H      72.06205358      88.81808621      97.89140572
H      71.79560217      87.58409493     100.81103288
C      67.53615906      85.02162605     100.48599995
H      66.27571161      86.24616870     101.55747477
H      68.98179969      84.32809649     101.78046247
H      66.43066916      83.40213060      99.85672109
C      62.37909595      87.52929286      94.48233945
O      60.33252235      86.81119686      95.44798960
N      62.52838433      89.01083829      92.48489874
H      64.34441131      89.23004654      91.93498838
C      60.43645730      90.50183235      91.36051159
H      58.76593924      89.33209177      91.07705264
C      59.63332362      92.50683197      93.23323036