 %block lattice_cart
   137.614   0.000   0.000
   0.000 142.646   0.000
   0.000   0.000   160.855
 %endblock lattice_cart

 %block positions_abs
N      92.50038851      42.98088476      78.59824493
H      92.27929054      41.28768999      77.74786810
H      92.57408784      42.72577171      80.48797124
H      94.29373879      43.54402320      78.27510174
C      90.72782524      45.10304741      77.93117154
H      91.14734448      46.66018189      79.21240599
C      91.20214653      46.26711882      75.30067252
H      90.25350392      45.01423028      73.96652574
H      93.22226396      46.37861267      74.92083752
C      89.89445593      48.90895621      75.10036152
H      87.86488987      48.61037945      75.28177525
H      90.22704776      49.47587410      73.14827424
S      90.72971495      51.43929974      77.07134608
C      94.05941273      51.97409229      76.40049323
H      95.37088278      50.62482770      77.23764198
H      94.50160867      53.79578845      77.25464953
H      94.28806961      52.00243818      74.35391963
C      87.94236865      44.30180346      78.29588872
O      87.02207194      42.58026278      77.10158170
N      86.57987597      45.60949406      79.93050199
H      87.34521513      47.19686417      80.66560551
C      83.93236941      45.47154404      80.20262258
H      82.86089459      44.60982884      78.66816481
C      83.31253918      43.71220885      82.34557222
H      84.36511674      41.96988119      82.02431874
H      81.29998066      43.27001289      82.30588796
C      83.76040432      44.74021996      85.04221166
O      82.05209172      45.62272215      86.31210775
N      85.99406082      44.72510215      85.98518508
H      86.02807590      44.90840560      87.88436004
H      87.41702474      43.94653491      84.97796097
C      82.60200209      48.07558690      80.78465827
O      84.09488588      49.86326799      80.87536513
N      80.07165855      48.31936160      81.20606724
H      78.90191796      46.81891890      81.05299942
C      78.93782276      50.92718391      81.50464401
H      79.18159746      51.70008197      79.60924850
C      76.15425591      50.71553456      82.11880505
H      75.46072635      49.64783919      80.49930961
C      75.30765852      49.33414463      84.50174994
H      75.65725789      47.30457857      84.53765474
H      73.25352602      49.20186378      84.44694788
H      76.14102783      50.06924816      86.23651869
C      74.85034475      53.38949729      81.76164678
H      75.20372356      54.44396458      83.49452581
H      72.87558076      52.81502050      81.64637348
C      75.31710714      54.98064685      79.38815054
H      77.30887868      55.49654213      79.29177449
H      74.14358710      56.65494436      79.63192523
H      74.96939750      53.89405422      77.67038932
C      80.26063118      52.51644374      83.54365870
O      80.55164903      54.78978449      83.26964838
N      80.90691759      51.31079835      85.67338025
H      80.55542848      49.45508711      85.93794193
C      81.88957526      52.53345127      87.93538265
H      80.82187989      54.26066112      88.28687174
C      81.47950465      50.70608593      90.19171587
H      82.60200209      51.27867300      91.82443939
H      82.24106435      48.82013907      89.86479320
C      78.75262958      50.46987014      91.10256394
C      77.62068353      52.39550125      92.37246003
H      78.38791241      54.25877140      92.69371351
C      75.13191396      51.93440803      93.40614032
H      74.26452959      53.36493085      94.57399118
C      73.99429872      49.51177890      93.51952390
H      72.16504366      49.30957818      94.40391582
C      75.29254070      47.53323545      92.59544774
H      74.33255973      45.74933381      92.84489161
C      77.72839792      47.99432867      91.29153658
H      78.73373233      46.36538459      90.58288921
C      84.74306200      53.19674521      87.66326206
O      85.80508819      54.51766390      89.22795545
N      85.83154436      52.29534576      85.60912955
H      84.83187914      50.98387570      84.64536913
C      88.27118103      53.03989793      84.71906845
H      89.40123736      53.65405898      86.32911528
C      89.82453606      50.88938938      83.59279158
H      91.50261302      51.57536003      82.61580308
H      88.66046464      49.82169402      82.26809343
C      90.75428139      49.10170829      85.59968093
H      89.09888115      48.35337667      86.56911052
H      91.94291925      49.96909267      87.04154209
C      92.01283912      46.84915453      84.11057659
O      94.28995933      47.17985663      83.47562855
O      90.97537938      44.76289668      83.71562379
C      87.94425838      55.08269207      82.68194349
O      89.05730718      57.13871430      82.91060038
N      86.07342933      54.78600504      80.96985145
H      84.91124763      53.27611372      81.08323504
C      85.51218060      56.61148066      78.87603470
H      87.18647813      56.84202727      77.69873521
C      83.39946658      55.41150445      77.25842898
H      81.70627182      55.68551476      78.39982366
H      83.78875021      53.43674045      76.82568165
C      82.89490967      56.80990192      74.72430599
H      84.32921193      56.16172580      73.39582840
H      82.91758638      58.86970360      74.72430599
S      79.86567838      55.96330453      73.53944759
C      80.07732774      57.06879443      70.21541901
H      80.23984419      59.11914748      70.10959433
H      78.32177198      56.48297927      69.30646066
H      81.59099851      55.99354015      69.32535791
C      84.70526747      59.22497215      79.79066223
O      85.72949913      61.05044777      79.09146349
N      83.01396243      59.47252630      81.60479950
H      82.09744516      58.02688567      82.45328661
C      82.30342533      61.92539105      82.71973802
H      82.15224722      63.29355290      81.18905971
C      79.79575852      61.38114987      84.22962935
H      79.64647014      62.76631926      85.74518984
H      79.98851060      59.50276192      85.05166030
C      77.44115952      61.72696979      82.61769279
H      77.63580133      60.53833194      80.94717474
C      75.43238046      60.51376549      84.33734374
H      73.55777195      60.85580596      83.55877650
H      75.63647090      61.48508482      86.14203237
H      75.64402981      58.47664053      84.56222118
C      76.95549987      64.50486747      81.76164678
H      78.50129599      64.86202574      80.44828700
H      77.21250265      65.99775125      83.15437508
H      75.15081123      64.61825105      80.77898910
C      84.38779346      63.05544739      84.41293280
O      84.65424487      65.31367033      84.58867735
N      86.10555466      61.49831290      85.46740008
H      86.09421632      59.63126331      85.06677810
C      88.38645433      62.63592814      86.66926602
H      87.72693985      64.02298726      88.04120732
C      89.50517231      60.55156002      88.47962383
H      91.45536986      61.11469846      88.82166428
H      89.54863601      58.72230495      87.53287094
C      88.39401324      60.36069766      91.07421805
H      86.35688827      60.07912844      91.15547629
H      88.75495097      62.09735614      92.12112642
C      89.73949837      58.26310146      92.38946757
H      91.73315963      58.69584878      92.67103678
H      89.76217508      56.61903956      91.14791738
N      88.83431946      57.83224386      94.90847274
H      89.30108187      59.04166870      96.31064966
C      87.86488987      55.54945447      95.50373653
N      87.41135556      53.63894117      94.06376508
H      86.79341504      51.96275393      94.74217683
H      87.22805210      54.23798441      92.26096618
N      87.45859871      54.97308794      97.84132797
H      86.23216634      53.54067540      98.13234583
H      88.09543648      56.10692373      99.23783572
C      90.17791487      63.88125778      84.75875271
O      91.14167529      65.88814713      85.57511448
N      90.48216082      62.79277543      82.51564758
H      89.48249559      61.18839779      82.25297563
C      92.12622271      63.99842082      80.62970071
H      93.75327706      64.77698806      81.62369675
C      92.92557694      62.10113560      78.62659083
H      91.30041231      61.40004714      77.57023382
C      94.57719773      63.32189880      76.54789188
H      94.86254640      62.01231846      74.98508822
H      96.39889390      63.98519273      77.25087008
H      93.79485103      65.09824153      75.86192123
C      94.27106206      59.65582975      79.57712317
H      94.54318266      58.75065084      77.74597836
H      92.94636393      58.48041998      80.62970071
C      96.75605216      60.20385038      81.00575626
H      97.48737626      58.35758777      81.55566662
H      96.27984113      61.50587181      82.53076539
H      98.25649487      61.01076351      79.84924376
C      90.75239168      66.21695951      79.45618067
O      91.85788157      68.22006940      79.08768405
N      88.27118103      66.02798688      79.09146349
H      87.43592200      64.31211538      79.16894228
C      86.86900410      68.07267075      77.70062494
H      87.74205765      68.78698729      75.97719454
C      84.39346263      66.99174730      76.82379193
H      83.06687476      68.56210986      76.69906999
H      83.60355703      65.63303408      78.15604898
C      84.25551261      66.02042797      74.11959357
O      85.17580932      67.17316102      72.35458920
O      82.92892474      64.16282700      73.60180856
C      86.36633690      70.34412177      79.51098275
O      86.02618617      72.49085087      78.46029492
N      86.22271771      70.12680325      82.02242902
H      86.25106360      68.37691668      82.78776817
C      85.49328335      72.33022413      83.58334294
H      84.82998940      73.95160931      82.50052976
C      83.25962685      71.49307537      85.10079318
H      82.87412267      72.98217971      86.47084476
H      83.89457488      69.72996072      85.95305975
C      80.89368949      70.89592186      83.52476143
H      79.56710162      70.24396628      84.95906371
H      81.38879780      69.29154422      82.33234413
C      79.63324205      72.95194409      81.94495024
O      80.62534837      75.05520947      81.66905019
O      77.80965615      72.46061525      80.51253768
C      87.53796722      73.32988935      85.23118428
O      87.26773636      75.53331023      86.16470908
N      89.54296684      71.96739668      85.50708434
H      89.40879627      70.23451765      84.71339929
C      91.43080342      72.41148236      87.44405380
H      92.71014813      73.91192505      86.85067975
H      92.75739129      70.84867870      87.65570315
C      90.62766974      73.07288657      90.11990626
O      88.76628931      71.85212337      91.03264408
N      91.92402198      74.79631697      91.30476465
H      93.25060985      75.82621781      90.39769603
C      91.43647259      75.26307937      93.96171985
H      89.43336271      74.88891356      94.26785552
C      92.84998788      73.33933798      95.65491463
H      94.87199503      73.64736337      95.39791186
H      92.57030839      71.38536097      95.06154058
C      92.19236313      73.66248118      98.41769451
H      92.39267412      75.60511983      99.07909872
C      89.40312708      72.79509680      98.92225142
H      88.15401800      74.33144430      98.35344380
H      89.21415445      72.33589331     100.91969214
H      89.06108663      71.09056367      97.81865126
C      93.86099146      71.87857954      99.90490912
H      93.45847976      72.45872552     101.83809912
H      95.80174039      71.71228363      99.23405627
H      93.19013861      69.93972034      99.72160566
C      91.83709458      78.11845583      94.56643227
O      93.92524216      79.12567995      94.36045211
N      89.89634566      79.43937452      95.36578651
H      88.25606322      78.49451136      95.11256318
C      89.71304220      82.04908656      96.48639422
H      91.62355551      82.61789418      97.00795867
C      88.92124688      83.93503342      94.26785552
H      88.31842418      85.70759670      95.12390154
H      87.22427265      83.09977439      93.44960402
C      91.06797597      84.39234719      92.40458537
H      92.34921041      82.84655106      91.95483051
H      92.19992203      85.93247413      93.17181426
C      90.14767926      85.12556100      89.68337949
H      91.66701921      85.26540074      88.30009983
H      89.10266061      86.90001400      89.80243225
N      88.59432423      83.13001001      88.52686698
H      88.23905568      81.55208854      89.53976028
C      87.60032818      82.98639081      86.24974678
N      87.89701522      84.79296916      84.67560476
H      86.87656301      84.71926984      83.06366820
H      88.88534208      86.38033927      85.05543975
N      86.61011160      80.96249393      85.37291377
H      85.88445670      81.12690012      83.61735802
H      86.39090334      79.37323410      86.40848379
C      87.93669947      82.03963793      98.76918360
O      85.92414095      80.76974184      98.69170482
N      88.67558246      83.31142373     100.86300035
H      90.36688750      84.19392592     100.82142638
C      87.39434801      83.06575931     103.28940893
H      85.66713817      82.02829957     102.85477189
C      89.12533731      81.56153717     105.00717015
H      88.20126115      81.45760222     106.84587386
H      90.87711361      82.61789418     105.26606267
C      89.94925800      78.92158951     104.16246249
H      90.84498827      79.04820117     102.31242044
C      91.98071377      77.99184416     105.96337166
H      92.93313584      76.34589254     105.16968662
H      91.12655749      77.36256530     107.72648632
H      93.39044961      79.44126425     106.35643475
C      87.81197754      77.03942210     103.99616658
H      86.68192120      77.40980846     102.31431016
H      86.70459791      77.14713650     105.72715589
H      88.65479547      75.17237250     103.77695833
C      86.39279307      85.55641859     104.40056800
O      84.73739281      85.41090967     105.99738675
N      86.90112945      87.68236070     103.13067193
H      88.07087004      87.56330794     101.62456006
C      85.32131825      90.02373160     103.34799046
H      84.53897155      90.29396246     105.23393732
C      87.17513977      92.37266141     102.99650136
H      88.00472962      92.58242103     101.12189285
H      88.65857492      92.21959357     104.41757555
C      85.77107312      94.84253370     103.62200076
H      84.96415998      94.68001723     105.50983736
H      84.42936743      95.43779749     102.17824986
C      87.52473914      97.18579432     103.68247202
H      89.08376334      96.72848056     104.94858864
H      86.51373556      98.90355554     104.20970566
C      88.44692557      97.84719853     100.90646406
H      86.72349518      98.43868287      99.94081392
H      89.35399420      96.26927706      99.94081392
N      90.19114296      99.96369200     100.96693529
H      90.92813623     100.18478998      99.21893845
H      91.60843769      99.58763647     102.18769850
H      89.49572367     101.60964362     101.63778814
C      83.17080971      90.11254874     101.37700591
O      83.42781249      88.83698347      99.47405151
N      81.12801556      91.66779349     101.54708127
H      81.06754431      92.94713820     102.96059656
C      79.40647488      91.97581888      99.43247754
H      78.80554192      90.12955627      98.74461716
C      76.90825671      93.44980540     100.39623796
H      77.52997666      95.30173719     101.05386271
C      75.33600441      93.81074313      98.06809514
H      74.77853515      91.94180381      97.40291147
H      76.30921346      94.90489466      96.62245451
H      73.60501511      94.79906999      98.59154933
C      75.56277156      91.79818461     102.56753348
H      76.91770533      91.35220920     104.05285837
H      74.90136735      90.05396722     101.69259021
C      73.43871920      93.36287799     103.79207614
H      72.11969022      91.98337778     104.56686393
H      72.49196632      94.49671378     102.35588413
H      74.28153712      94.34931513     105.39078459
C      80.74629085      93.22492797      97.16102651
O      81.74217662      95.29984746      97.38590394
N      80.71983468      91.94369353      95.03130495
H      79.60489616      90.40167686      94.85745012
C      81.81776566      92.69391488      92.62379363
H      82.95160146      94.40222747      92.83355325
C      83.86433927      90.73993787      91.88869010
H      85.03596957      90.55852414      93.57432596
H      85.24383948      91.16134684      90.41848302
C      82.96860899      88.17179981      91.07421805
C      82.57365620      87.66346343      88.55710260
H      82.80042335      89.19036229      87.22106609
C      81.60989578      85.19548087      87.95239018
H      81.14124365      84.76462327      86.01353099
C      81.26218612      83.34354908      89.77597608
O      80.45149355      80.98895010      89.16181502
H      80.24929282      80.82643363      87.36657503
C      82.08799652      83.71204571      92.27608398
H      82.03508419      82.18514685      93.62723829
C      82.83821787      86.22916116      92.93937793
H      83.30498027      86.70348247      94.86878848
C      79.72016945      92.98304300      90.68682415
O      77.50352050      92.84698271      91.35389755
N      80.19071131      93.41579033      88.18482651
H      81.98784104      93.66523420      87.58767300
C      78.11390210      93.68791092      86.38769679
H      76.34700799      93.06997041      87.24752227
C      77.56966092      96.28817433      85.33889869
H      76.36212579      96.36565310      83.67216009
H      79.28553240      97.23303748      84.69828147
C      76.30732374      97.97003074      87.50641477
H      77.62824242      98.14010611      89.07866707
H      74.48751730      97.11020527      87.93916210
C      75.57033047     100.57974278      86.57100025
H      74.36468508     101.35453057      88.05065595
H      74.36468508     100.48903592      84.90615136
C      77.92681918     102.29750400      86.05321523
H      78.98884538     101.50759840      84.47529377
H      79.10600841     102.40143895      87.73885111
N      77.12179578     104.87320097      85.18205140
H      76.67959982     105.68200383      86.85256947
H      75.44182908     104.79761191      84.27876223
H      78.49751654     105.87475591      84.31844648
C      78.46350145      91.83219968      84.12758412
O      80.68581961      91.47315168      83.30744291
N      76.42637649      91.21425918      82.66871541
H      74.75018926      91.37299619      83.56444568
C      76.25441140      89.92168638      80.16671778
H      77.96839317      88.82375539      79.85491293
C      74.00941654      88.14534364      80.03821638
H      72.35023684      89.31508423      80.39537465
H      74.16059465      86.77718179      81.57078442
C      73.64280963      86.73560781      77.52677012
O      75.12057562      84.89312466      77.16772212
O      72.16882312      87.75606002      76.08868838
C      76.03520314      91.82842023      77.92928181
O      75.48151334      93.96192123      78.48675108
N      76.57377515      90.99127147      75.59169037
H      77.37123966      89.27162053      75.37437184
C      76.60967995      92.74115804      73.40527703
H      78.00618769      94.18679867      73.85125244
C      77.11234715      91.38622427      70.89194103
H      75.29443044      91.28228932      69.93007033
C      78.93404331      92.90934368      69.09292158
H      78.45972201      94.91434330      69.09670103
H      78.96805839      92.07030520      67.21264389
H      80.80298264      92.58431075      69.89794499
O      78.16681443      89.01083829      71.16784107
H      78.13657880      88.63856221      69.39338806
C      74.02453436      94.19057812      73.25031947
O      74.15870492      96.09353252      71.87270899
N      71.95717376      93.41012115      74.48620048
H      72.02898337      91.72259555      75.37437184
C      69.45706585      94.67623778      74.38415525
H      69.28888020      95.51527626      72.51143647
C      67.47285322      92.50494225      74.35958882
H      67.34624156      91.67157294      76.23986650
H      68.07378619      91.17457492      72.90827900
C      65.05589327      93.64822667      73.32401880
H      65.47541252      95.25638376      72.10514532
H      63.95418283      94.49104460      74.84713821
C      63.55545058      91.86621475      71.64972128
O      64.26409795      89.63444798      71.19618697
O      61.53911260      92.57675185      70.65383551
C      69.07345141      96.66800931      76.44584667
O      67.13081277      97.93601567      76.42883912
N      70.95561882      97.24815529      78.14660034
H      72.67904921      96.48848532      77.84235441
C      70.60790918      99.19268367      80.15726914
H      69.46840421     100.77249487      79.48830602
H      72.49007658      99.90511049      80.59757538
C      69.56478026      98.12309858      82.64414896
O      69.02620826      99.53661386      84.46017595
N      69.12258429      95.70613862      82.63470034
H      69.55155217      94.54773639      81.17961107
C      67.97741014      94.33797677      84.73040682
H      66.49964418      95.53606325      85.52031242
C      66.76987504      91.80007433      83.71373406
H      65.98752835      90.70403307      85.27464800
H      68.09079372      90.56797278      82.72540720
C      64.58724115      91.98904696      81.77865431
C      63.76332048      89.81586170      80.45395618
H      64.52865963      88.00550390      81.00386653
C      61.73375441      89.95381172      78.74186414
H      60.96274608      88.28329366      77.86125166
C      60.65472069      92.33864633      78.14282089
O      58.57035257      92.49738334      76.50253846
H      58.53255804      94.18679867      75.84491370
C      61.51454616      94.52128022      79.39004026
H      60.74920701      96.33352776      78.85713743
C      63.37592658      94.34175622      81.29677410
H      63.75954102      96.03306127      82.37202837
C      69.99563786      93.67090338      86.64469958
O      72.09890323      92.98304300      85.97951590
N      69.31911584      93.63877804      89.05976981
H      67.51631693      94.13577606      89.44527396
C      70.94428046      92.92635122      91.20649889
H      72.82266842      93.59342460      90.68304471
C      70.09579335      94.54773639      93.39858142
H      71.23718804      94.12632742      95.05965085
H      68.15504442      94.08097399      93.90691779
C      70.04477074      97.34264161      93.09622520
C      67.75442245      98.59364043      92.77308201
H      66.04799958      97.47303272      92.76174364
C      67.71095874     101.26193398      92.60489637
H      65.89493176     102.17845124      92.78819981
C      69.91437962     102.71135406      92.43482099
O      69.79532686     105.26248459      92.36301140
H      68.08890401     105.81806412      92.08711136
C      72.23307381     101.45846552      92.65591898
H      73.92626859     102.58474240      92.50474087
C      72.20850737      98.76371580      93.02630534
H      73.98485010      97.76405058      93.14913755
C      71.06144349      90.19002751      91.88680036
O      69.13014320      89.09776570      92.47828471
N      73.31021781      89.25839244      91.57499553
H      74.81632967      90.35632343      91.16681464
C      73.93004803      86.61466533      91.81688050
H      72.25197106      85.54319051      92.34789359
C      74.65948239      85.61688984      89.21850681
H      75.25474619      83.65724365      89.42259725
C      72.53354029      85.48838845      87.36846474
H      73.30832807      85.13878908      85.49385625
H      71.74363469      87.38756339      87.26075035
H      71.05577432      84.15613140      87.89758812
O      76.58511351      87.27229009      88.19238542
H      78.24807266      86.59198861      88.45505737
C      75.89158395      86.33120638      93.91447670
O      77.25596634      88.11321830      94.50407130
N      76.06921823      84.05975535      95.02185632
H      74.83333722      82.75017502      94.38690827
C      77.86256850      83.48338883      97.04764293
H      79.68426465      84.41124445      96.78308125
C      76.74951970      84.15991085      99.64412687
H      76.12024084      86.11577758      99.48538987
C      74.53098101      82.41380374     100.31120026
H      73.26486438      83.14323809     101.76251008
H      75.13380370      80.49195208     100.74394760
H      73.27998218      82.20782357      98.68792536
C      78.81310082      83.93125397     101.81731214
H      80.66881206      84.39045746     101.04819353
H      79.01908099      81.95648997     102.36344304
C      78.21783704      85.19737059     104.41001664
H      76.72873270      84.09754988     105.31330582
H      77.92492946      87.14945788     103.81853231
H      79.99606950      85.25595211     105.44369694
C      78.49940625      80.58832812      96.93047990
O      77.20872318      79.08221625      95.71160642
N      80.65747371      79.93826227      98.12289720
H      81.92359034      81.32532138      98.46682739
C      81.39257725      77.27941734      98.64446166
H      79.63702149      76.30242884      99.10744460
H      82.67759114      76.99784812     100.22994204
C      82.31098424      76.02652880      96.26718596
O      83.87378789      77.05076046      94.94248782
N      81.22439160      73.93460177      95.65491463
H      80.16803459      73.06532767      96.98717169
C      81.80642730      72.47951251      93.33244099
H      83.53174743      73.26374893      92.52552786
C      82.44137535      69.66948948      94.03919864
H      80.74440112      68.84934826      94.86878848
C      83.14435353      68.10857555      91.76018871
H      81.69871291      68.20873104      90.29565081
H      83.11411792      66.15648827      92.42159292
H      85.02274149      68.67360371      91.12524067
C      84.47661059      69.40492780      96.04797771
H      84.37456536      71.05654859      97.27818953
H      86.34932937      69.32177984      95.19760086
C      84.36133728      66.92749660      97.53519232
H      82.60767126      66.68183218      98.58588015
H      86.04697315      66.80088494      98.71249180
H      84.56542773      65.15682305      96.50529148
C      79.58032972      72.69116186      91.41814824
O      77.91926029      71.12079929      91.26697014
N      79.17592827      74.80387587      90.08400147
H      80.22283666      76.30809802      90.62068374
C      77.07077316      75.46716981      88.54954369
H      76.79865258      74.10278741      87.03020374
H      77.38824719      77.29642488      87.66137233
C      74.29665493      76.10211785      89.66448223
O      72.44472315      76.28164185      88.16214980
N      73.86012816      76.27597267      92.24395863
H      75.26419481      76.49896038      93.51574444
C      71.23529831      76.74273507      93.05654096
H      69.99941731      75.38969103      92.11923671
C      70.84601470      75.93582193      95.83443863
H      71.92315870      77.07910635      97.16858541
H      71.74741414      74.08766960      95.96294003
C      68.26464855      76.07944113      96.76985316
N      66.43728320      74.18971482      96.84355249
H      66.59979967      72.34156249      96.39379763
C      64.20551643      75.19504922      97.48039026
H      62.41783533      74.21239154      97.56542794
N      64.60613840      77.72161330      97.77896700
H      63.14349025      78.89135389      98.14557391
C      67.04388536      78.24506749      97.59566356
H      67.83379095      80.12534517      97.67881152
C      70.37169339      79.48283822      92.58599910
O      71.59056685      81.38012344      93.26441085
N      67.98118960      79.70204648      91.78664486
H      66.93239150      78.12034555      91.58255442
C      66.75664696      82.11144753      91.15736601
H      68.02843276      83.67236146      90.71894950
C      65.04455492      81.42547687      88.95583486
H      63.76898965      79.90235747      89.50574520
H      66.37303250      80.93036858      87.45917162
C      63.38915466      83.70448681      88.15648063
H      61.77721812      83.91991561      89.42259725
C      64.54944661      86.26128651      87.65759288
H      65.27888097      87.08520718      89.39803081
H      63.07546010      87.48393943      86.90170235
H      66.09335302      86.04207826      86.31210775
C      61.99642637      83.06197986      85.71873367
H      61.08368856      84.65690887      84.78520889
H      60.77377345      81.41980770      85.93227275
H      63.29277862      82.36845030      84.27498277
C      65.17494602      83.07331822      93.50440608
O      63.33246288      81.77318652      94.15447194
N      65.73808447      85.35799733      94.59099871
H      67.07223125      86.53907628      93.90502806
C      64.20740616      86.34821392      96.68670520
H      63.49308961      84.73627737      97.75251084
C      65.84012968      87.99227581      98.55375480
H      64.62881513      88.80674785     100.00506461
H      66.68483736      89.54941029      97.50117725
C      68.18339031      86.67324685      99.75940019
H      69.28132131      85.78885493      98.25895750
C      70.01264539      88.44014095     101.00284009
H      71.29765929      89.21114928      99.58932481
H      71.13136336      87.25717228     102.26328754
H      69.09423840      89.99916516     101.98360806
C      67.25175524      84.59832735     101.63778814
H      66.04799958      85.57909531     102.98894246
H      68.84479452      83.56842651     102.44092183
H      66.15760370      83.19804016     100.59654895
C      61.82257155      87.91479703      95.70215780
O      59.67017328      87.44425518      96.73961754
N      62.28366477      89.34154040      93.68581982
H      64.04111024      89.30185615      92.94315737
C      60.18606856      90.90812351      92.56899157
H      58.55712448      89.66090415      92.37623948
C      59.60025341      92.92635122      94.59666789