 %block lattice_cart
   137.614   0.000   0.000
   0.000 142.646   0.000
   0.000   0.000   160.855
 %endblock lattice_cart

 %block positions_abs
N      82.82971411      41.07037145      77.12425841
H      83.32482241      39.62662055      78.27132228
H      84.17708896      41.05147419      75.77499382
H      81.05904056      40.76612552      76.48175147
C      82.70688190      43.63095061      78.26376337
H      84.55503424      43.88228421      79.13492720
C      82.29303184      45.50744884      76.02443769
H      80.52991719      45.02745835      75.07201563
H      83.88796085      45.32225566      74.73375462
C      82.30059074      48.23810336      76.82379192
H      81.22722620      48.38928146      78.57556822
H      81.11195289      49.16784871      75.41972527
S      85.18620282      49.96342348      76.85969672
C      85.63217823      50.35270710      73.48275581
H      87.56536825      50.83836677      72.96308107
H      84.16386089      51.59425729      72.74576254
H      85.20321035      48.52534176      72.63993787
C      80.55259390      43.91818901      80.13837187
O      78.31515795      43.80102598      79.56011563
N      81.24045428      44.56258568      82.47218388
H      83.03758400      44.23566303      83.02776342
C      79.38852250      45.12194467      84.42049170
H      77.78225513      43.84071023      84.26553415
C      80.63574186      44.76100694      87.00941675
H      81.86406396      46.35971540      87.43460518
H      81.37462484      42.84293474      87.16248458
C      78.72900800      44.67407953      89.15614584
O      76.45755698      44.98588437      88.79331840
N      79.43198620      44.22621440      91.43893522
H      77.97500720      43.81992324      92.60111692
H      81.26124127      43.77456981      91.75262979
C      78.30381958      47.73165671      83.93483205
O      79.56615677      49.58925767      83.45484156
N      75.81693976      48.10204307      84.12002521
H      74.66987588      46.59593119      83.87058135
C      74.50169025      50.59081262      84.34490265
H      74.82483344      51.27111409      82.42872016
C      71.59907062      50.27144887      84.62458215
H      70.88853354      48.57636437      83.69672653
C      70.71278899      50.29979477      87.27964761
H      68.66621540      50.14105776      87.44216407
H      71.34584731      52.00810735      88.23584912
H      71.50836376      48.55179793      88.02231005
C      70.06650259      52.28967657      83.19594905
H      70.47846293      54.02633506      84.22396016
H      68.06339270      52.00054845      83.57011486
C      70.46523484      52.44085468      80.33868287
H      72.17921661      53.45185826      79.80200060
H      68.98179968      53.44429935      79.31823066
H      70.81105476      50.49443658      79.76231634
C      75.86607265      52.41061906      86.26864403
O      76.53314604      54.56868651      85.72440285
N      76.41409327      51.41851274      88.52875671
H      75.94544115      49.59681658      88.86134853
C      77.54603934      52.71297527      90.66603717
H      76.78825909      54.62726802      90.74162621
C      77.06037968      51.33347506      93.24362386
H      77.95610995      52.40872933      94.75540491
H      78.01847092      49.51177889      93.29275674
C      74.41287311      51.13505380      94.03919863
C      72.91054069      49.08092130      93.28897728
H      73.63241615      47.52945599      92.17781822
C      70.38964578      48.88061031      93.96171986
H      69.48446689      47.26678403      93.10189439
C      69.22557438      50.67396058      95.55853859
H      67.24136175      50.55490782      96.01207290
C      70.77703969      52.64683485      96.44670995
H      69.89642722      54.07546794      97.60700192
C      73.30171404      52.99643422      95.68326053
H      74.29571008      54.57246596      96.51474010
C      80.34472401      53.34036440      90.23517957
O      81.57304611      54.83135847      91.53909072
N      81.51257487      52.27644849      88.24718749
H      80.60928569      50.96119898      87.20027910
C      83.77457727      53.40083565      86.94705579
H      84.79313975      54.54412007      88.32466626
C      85.78902552      51.40528466      86.21762143
H      84.71377125      50.15239611      84.98929932
H      86.36350232      50.37538382      87.90703676
C      88.09071216      52.61848895      85.18205141
H      88.53290811      54.31357346      86.26486458
H      87.63339840      53.06824382      83.22429494
C      90.52656938      51.04434693      85.09134454
O      91.80402437      50.71742428      87.03776264
O      91.35049006      50.51711329      82.92571818
C      83.18120321      55.31134895      84.73229654
O      83.92008619      57.44484996      84.80032669
N      81.59950228      54.44585430      82.89926203
H      80.93242889      52.66573211      83.07311684
C      80.98345149      55.79700861      80.40293357
H      82.76168396      55.82346478      79.36169437
C      78.94632653      54.27766866      79.11980940
H      77.25691121      54.46664129      80.28577053
H      79.51702388      52.29912521      79.13870665
C      78.57216073      54.98631602      76.30789664
H      80.31259866      54.61215021      75.26665744
H      78.30192987      57.02344099      76.19640279
S      75.96244868      53.45752744      74.91894780
C      75.77725550      54.69718790      71.75554596
H      75.01002663      56.60203202      71.59302949
H      74.55838204      53.56902129      70.53667248
H      77.61029004      54.26633030      70.92028692
C      80.25212742      58.62403918      80.72229731
O      81.25557208      60.16794557      79.34657656
N      78.50224085      59.10025021      82.50619894
H      77.94477158      57.61870478      83.57389431
C      77.37785369      61.66082936      83.11091136
H      77.17187353      62.55089045      81.26653849
C      74.74357522      61.47185673      84.36191018
H      73.98390524      63.32945770      84.82111369
H      75.01002663      60.57045728      86.19494471
C      72.85006945      59.75220578      82.98996888
H      73.67587984      57.88137673      82.74997365
C      70.42366087      59.30812010      84.44694788
H      71.07372672      58.19885076      86.05510496
H      69.19155930      58.27632953      83.15626479
H      69.34273742      61.01643269      84.83056232
C      72.13953236      60.94084364      80.39537466
H      73.70233602      60.74620183      79.06689705
H      71.50080487      62.89482064      80.49553016
H      70.55783143      59.76165442      79.80578005
C      79.30915399      63.49197416      84.58111844
O      79.30159509      65.90893411      84.45639650
N      80.95888505      62.37703563      86.03998716
H      81.21966728      60.49108877      86.17604744
C      82.90152371      64.01353862      87.29665515
H      82.19665579      65.80499917      88.02797924
C      84.23000131      62.54144182      89.43015615
H      85.58871453      63.87747833      90.22006175
H      85.41296997      61.07879366      88.58922795
C      82.49901200      61.28477382      91.29720575
H      81.73934202      59.56512288      90.45816727
H      80.86628846      62.32601302      91.99640450
C      84.14874307      60.61014153      93.64235612
H      84.33960544      62.33735138      94.74973572
H      86.09894062      60.21518873      93.10756356
N      83.06215045      58.49364806      95.18059332
H      82.86939836      56.83446836      94.25462744
C      82.00579344      58.55222958      97.41802928
N      82.02091125      60.62525934      98.75028633
H      81.92264547      60.46841206     100.64946127
H      82.96010523      62.12759176      98.04163897
N      81.31415361      56.49998680      98.53107808
H      81.04959192      56.50187653     100.42080440
H      81.92642493      54.81813038      97.87534306
C      84.84983154      64.93950451      85.51842269
O      85.51690493      67.20150691      85.60723982
N      85.53958164      63.20473576      83.73830051
H      84.78747057      61.45106974      83.74585941
C      87.54269154      63.78866119      81.85424337
H      88.97132463      64.85446683      82.88792366
C      88.94675819      61.21674368      81.14181655
H      90.53790774      61.86869926      80.00798077
C      90.09571179      59.90527362      83.43594430
H      91.32592360      61.12792654      84.54899309
H      91.29379827      58.45963299      82.58934690
H      88.81258761      58.92072621      84.71150955
C      87.28379903      59.65205029      79.29744367
H      86.36728177      60.79155526      77.84613386
H      85.76823853      58.79600427      80.39726438
C      88.75022664      57.55445408      77.88959757
H      89.19242261      55.95763535      79.11602995
H      90.37728101      58.47664052      77.02788237
H      87.41607987      56.93273413      76.45151584
C      86.70365304      65.49130460      79.62436633
O      88.23433137      66.97662948      78.75131276
N      84.20732459      65.46106898      79.12547857
H      83.08671689      64.21951879      80.04388557
C      83.01679702      67.11646923      77.37181255
H      84.21110404      67.16371238      75.69373559
C      80.37306990      66.13003209      76.87292480
H      78.99923888      66.39270405      78.38470585
H      80.33716510      64.10046603      76.51954599
C      79.05026149      67.35646447      74.65627585
O      80.19921507      67.54921655      72.58513580
O      76.87707622      68.14070089      75.03989029
C      82.71255108      69.87546964      78.48486135
O      83.01490729      71.74629870      77.15827348
N      81.90185849      70.29309917      80.84512951
H      81.37840430      68.76997976      81.87125091
C      80.95888505      72.67982349      81.94495023
H      80.37495963      73.86657163      80.36513903
C      78.73278746      72.04109600      83.61735802
H      79.26946974      70.64647798      85.03276303
H      77.38352287      71.21339588      82.29643932
C      77.30604410      74.17459701      84.79465752
H      78.73467719      75.47094927      85.51842269
H      75.97756650      73.57366404      86.24974678
C      75.82638840      75.57677394      82.79910653
O      73.81760931      74.58844708      82.14715094
O      76.72967757      77.51185367      81.73330089
C      82.72388944      74.27475250      83.49074635
O      82.49334282      76.58588778      83.44350320
N      84.41141504      73.12768863      84.87213629
H      84.27157528      71.22851368      84.99307877
C      86.00445432      74.35601073      86.80154685
H      86.97388392      75.94149111      85.91526522
H      87.31781410      72.91414955      87.47050997
C      84.83471373      74.70749983      89.39236163
O      82.60672641      74.62057243      89.78353498
N      86.38239958      75.24418210      91.39358179
H      88.27401561      75.20260812      91.12713038
C      85.61139123      76.00385209      93.93904314
H      83.57615601      75.76196712      94.12801577
C      86.99467091      74.11601549      95.79853384
H      89.00156025      74.52230665      95.56231805
H      86.51468042      72.24329671      95.08799673
C      86.39562765      74.48829158      98.56509315
H      86.64129208      76.40825351      99.26807135
C      83.67064232      73.69082707      99.10366515
H      82.17397908      75.05709920      98.73138908
H      83.57993545      73.22028522     101.10677505
H      83.42119845      71.91070489      98.09266157
C      88.12661696      72.55321183      99.83498923
H      87.68442101      70.75230265      98.93925896
H      87.60883195      72.34534193     101.81920186
H      90.12783712      73.03509204      99.74806183
C      86.08004337      78.80820592      94.32832676
O      88.20598546      79.60944989      94.35100347
N      84.08449237      80.23494930      94.95760562
H      82.41019487      79.33354984      95.10878372
C      84.23000131      82.88245586      95.76829821
H      86.19531667      83.46449157      95.97616810
C      83.09427580      84.33376566      93.45905265
H      82.52924762      86.05152688      94.44737951
H      81.58627420      83.22071687      92.60867581
C      85.21454872      85.21248840      91.60523115
H      86.47877562      83.68558954      91.04587216
H      86.41641465      86.62411396      92.49907169
C      84.09961019      86.38033927      89.10134379
H      85.83248922      86.81497631      88.07711212
H      82.95821550      88.07353405      89.36590546
N      82.79947849      84.46037734      87.52720177
H      82.37806952      82.78796954      88.34167380
C      82.24956812      84.40368555      85.11402126
N      82.77680177      86.26884541      83.52098198
H      82.73333806      86.17624882      81.61613786
H      83.88418139      87.58598466      84.34490265
N      81.28958717      82.41569347      83.94050122
H      81.43320637      82.49884141      82.03754682
H      80.73022818      80.83777199      84.85512876
C      82.80892712      83.11300248      98.25895750
O      80.46188704      82.81064627      98.43659177
N      84.05425675      83.51173472     100.33387698
H      85.91563718      83.62322857      99.92758582
C      83.01112783      83.84810601     102.89067668
H      81.35005840      82.63490171     102.79052119
C      84.88006716      82.87111751     104.90890438
H      83.98433689      82.85222024     106.76461563
H      86.44476055      84.21282318     104.96181673
C      85.82304059      80.21038286     104.29285362
H      86.69420442      80.04030748     102.43336292
C      87.94898269      79.36189573     106.01250455
H      89.57792678      80.61667402     105.90290043
H      88.58582046      77.44193380     105.62133120
H      87.26301204      79.48094850     107.95136375
C      83.76512863      78.15058117     104.58576118
H      82.86939836      78.43970930     106.41879571
H      84.50590134      76.23439869     104.44592145
H      82.15319209      78.19971405     103.30452675
C      81.95288110      86.45403859     103.69758982
O      80.20866372      86.70915164     105.07520031
N      82.96955386      88.40234642     102.30108208
H      84.10527937      87.90912786     100.84977227
C      81.73934202      90.91190296     102.01384368
H      80.81337613      91.63566814     103.70703846
C      83.71977519      93.11532385     101.66235459
H      82.51601953      94.76694464     101.39590318
H      84.56637258      92.70336350      99.83120978
C      85.65863440      93.49137938     103.78829669
H      84.79125002      93.43846704     105.65534629
H      86.56948248      95.27339129     103.30452675
C      87.79024568      91.60732225     103.96593096
H      88.25700808      91.03473518     102.04218958
H      86.95120720      89.94247336     104.84276396
C      90.06358644      92.60131828     105.52117571
H      90.67774748      94.40411719     104.73882903
H      91.66796408      91.32953248     105.30007774
N      89.21509932      92.72415050     108.16490283
H      88.62739443      91.02717627     108.80552005
H      87.93953406      94.12821715     108.37655218
H      90.82325642      92.85832106     109.18535503
C      79.75701912      90.67001799     100.01829269
O      79.98756574      89.26217189      98.19470680
N      77.73312225      92.14778397     100.24694958
H      77.54037016      93.07186014     101.90423956
C      75.89630827      92.56730321      98.22683215
H      75.29537529      90.69836389      97.60511218
C      73.69477711      94.17546031      99.20004120
H      73.50202503      93.60665269     101.16913601
C      74.40342448      96.85887167      99.54586112
H      72.92565851      97.89255196     100.54174688
H      74.69066288      97.76971975      97.72227521
H      76.17787748      96.90044565     100.58899003
C      71.13230823      93.81830203      97.94148348
H      70.69200199      91.83030995      97.63156836
H      71.11341096      94.80473917      96.13301540
C      68.92888735      94.82363643      99.41924944
H      69.04416065      96.78328261     100.04285913
H      68.87786474      93.41956978     100.92536133
H      67.21301586      94.64978161      98.29486230
C      77.09250503      93.86176574      96.07443388
O      78.91798064      95.21669951      96.30498048
N      76.03047883      93.43468759      93.81432120
H      74.48279299      92.34431552      94.04297808
C      76.89597348      94.26238771      91.24240370
H      77.65564346      96.17101129      91.36901535
C      78.80270734      92.44636073      90.17848778
H      80.39007744      92.46147855      91.49184757
H      79.76079858      93.34776018      88.59300741
C      77.98823530      89.66846305      89.85912404
C      77.14919681      88.84076293      87.48562778
H      77.15486599      90.26939601      86.02864880
C      76.49724124      86.38222899      87.04721127
H      75.84717538      85.81909056      85.19716922
C      76.58605836      84.60777598      89.09378488
O      75.85095483      82.17002905      88.80465674
H      75.53348082      81.85255502      87.04721127
C      77.46289137      85.45437337      91.46728112
H      77.74068114      84.03896836      92.91103202
C      78.03169899      87.92235593      91.94349216
H      78.54192511      88.51006082      93.82943901
C      74.54704367      94.55718502      89.42070753
O      72.60440503      93.27028140      89.56999591
N      74.87018688      95.77227905      87.24185309
H      76.62196316      96.49415450      87.01886538
C      72.71400915      96.69257576      85.62046792
H      70.91876916      95.95369276      86.31210774
C      72.66298655      99.62543099      85.80944055
H      74.38641695     100.35864480      84.95150480
H      72.46267556     100.09219339      87.80499152
C      70.53137527     101.04650519      84.43183006
H      68.66999485     100.77438459      85.26897881
H      70.56728007     100.40777768      82.47407361
C      71.16821303     103.82440286      84.13892248
H      73.07872633     104.11731044      83.43405456
H      71.14931576     104.65021326      86.02486935
C      69.16321342     105.15477018      82.54588320
H      67.27915628     105.31350719      83.36224497
H      69.27092782     104.37620294      80.64103908
N      69.97390600     107.79660757      82.15282013
H      68.67566403     108.86619266      81.25142067
H      71.55938638     107.67566508      81.09646312
H      70.17610672     108.80950087      83.75719777
C      73.24691198      95.74771259      82.96918189
O      75.39931025      95.76660986      82.00920092
N      71.44600279      94.74993710      81.61235841
H      69.69233678      94.88599740      82.35691056
C      71.44411308      93.62177049      79.15382446
H      73.25069142      92.65612035      78.93083677
C      69.32572988      91.55818937      79.30689230
H      67.55694605      92.52006005      79.74908826
H      69.55249704      90.28640355      80.90938021
C      69.07817573      90.15979189      76.81434329
O      67.86119199      91.26906123      75.11925880
O      70.17610672      88.02818061      76.58379669
C      71.26458908      95.58897558      77.12425841
O      70.40287387      97.71869714      77.52677012
N      71.87497068      95.09197757      74.74698270
H      72.37007897      93.27973004      74.40305252
C      71.80127135      96.71147301      72.46986250
H      72.99557838      98.33096846      72.90827900
C      72.79337766      95.40945158      70.16439640
H      71.79371244      93.62554995      69.92629088
C      72.75558314      97.01004977      67.78145152
H      70.80727531      97.14422035      67.12949593
H      74.00658196      96.25604897      66.33014171
H      73.16187428      98.95457816      68.33136187
O      75.31805202      94.89733576      70.60470262
H      75.36529517      93.66901365      71.94073914
C      69.09707298      97.76216084      72.04278436
O      68.88164420      99.88810295      71.11303900
N      67.23947202      96.22770309      72.62670979
H      67.79316184      94.56663366      73.38637976
C      64.63542917      97.06485183      72.52844401
H      64.44456680      98.43679314      71.00343488
C      63.11797893      94.71781175      71.88593707
H      62.85530698      93.39500334      73.44307155
H      64.30661679      93.45736430      70.76910882
C      60.59141485      95.12977209      70.47053206
H      59.84308323      96.79462097      71.42673357
H      59.29884205      93.68602119      71.16217190
C      60.51015662      95.24315567      67.51877956
O      61.67044857      96.90233538      66.42462803
O      59.35175440      93.72192599      66.18274306
C      63.64521258      98.79584114      74.73186490
O      61.54194720      99.76905020      74.61092242
N      65.31384092      99.23047819      76.56489941
H      66.89932128      98.16845201      76.62726038
C      65.05494841     100.74414898      78.86658607
H      63.87009000     102.42411566      78.71918741
H      66.98435898     101.42256072      79.11791966
C      64.32362432      99.08496926      81.23630286
O      64.05528318     100.12431874      83.29232509
N      64.15165923      96.67367849      81.19283917
H      64.55417094      95.90267015      79.49397520
C      63.01026454      95.20347143      83.29043537
H      61.65344104      96.23337226      84.45072733
C      61.50793212      92.75249640      82.40415372
H      60.49881826      92.00794422      84.03876698
H      63.01026454      91.40701125      81.99408311
C      59.72403048      92.79973956      80.29899861
C      59.55206539      90.57364195      78.68517235
H      60.70101899      88.93902869      79.10091213
C      57.98737200      90.51317072      76.54411243
H      57.99871036      88.83320402      75.38382047
C      56.91967662      92.85454161      75.80711916
O      55.55151478      93.00949918      73.56023458
H      54.85042631      94.63088434      73.14638451
C      56.97636841      94.94646864      77.32834886
H      56.16567584      96.77950316      76.94095495
C      58.21035971      94.96158646      79.64326358
H      58.24059533      96.61509698      80.83946034
C      64.84140933      94.42679390      85.56944530
O      66.91821856      93.39122388      85.09701373
N      64.00804002      94.55529530      87.94105182
H      62.22224866      95.12032346      88.30576901
C      65.71257316      94.13577606      90.05943502
H      67.51537207      94.85387205      89.36401574
C      64.97746962      95.84030918      92.29876071
H      65.69556563      95.07119058      94.06943426
H      62.92900631      95.89700097      92.52174841
C      66.00548074      98.54450754      92.04931683
C      64.40866200     100.70824418      92.37434975
H      62.42255966     100.38888042      92.71261076
C      65.45746012     103.14788085      92.11923670
H      64.42566955     104.89209822      92.35734221
C      68.08606941     103.46346514      92.20994357
O      69.27092782     105.76704151      92.62190391
H      68.23157834     107.19945405      93.01874642
C      69.64131416     101.30728741      91.97939695
H      71.65387270     101.58507718      91.79987296
C      68.57928799      98.89599663      91.78475514
H      69.83784571      97.30295735      91.58066471
C      66.02626774      91.29362767      90.68682416
O      64.17055649      89.86310486      90.91548105
N      68.36007973      90.54907551      91.11957148
H      69.88319913      91.69802911      91.18193246
C      69.05549902      87.82409017      91.30665439
H      67.45490083      86.69403383      91.94160243
C      70.03059778      86.99261060      88.61190466
H      71.91087547      87.73149358      88.20939297
C      70.07028204      83.98605602      88.47962383
H      71.16443358      83.24339359      90.05943502
H      71.03593219      83.58354432      86.70706054
H      68.22212971      83.08276685      88.56655123
O      68.38842562      87.86377443      86.72217836
H      68.33173384      89.65523497      87.00563729
C      71.01325548      87.26473118      93.47417046
O      72.20945223      89.01272803      94.26029661
N      71.20033838      84.92902946      94.50974049
H      69.81327927      83.69314844      94.07321371
C      73.15053594      84.17124920      96.50718120
H      74.80593619      85.17091443      95.79664411
C      72.11118646      85.18036305      99.09232679
H      71.15120549      86.92835989      98.58210070
C      70.20256289      83.39646142     100.26962628
H      71.05671917      81.66358238     100.98016338
H      68.93266680      82.72371885      98.79186032
H      69.05927847      84.18447729     101.79085597
C      74.43743955      85.67358162     100.82898528
H      75.82260894      86.56742217      99.59310426
H      75.16876364      83.90290806     101.58676554
C      73.73635109      87.02284621     103.21948907
H      73.84595522      85.54508024     104.64812216
H      71.84095559      87.77684701     102.94358902
H      75.19144035      88.43636149     103.57853707
C      73.68532848      81.27618849      96.54686545
O      72.09417893      79.72850264      95.84010782
N      75.94922061      80.77163157      97.41047037
H      77.30415437      82.04908656      97.82809990
C      76.71833922      78.16191953      97.75629029
H      75.36718490      76.80509603      98.51785000
H      78.46444632      78.01641061      98.83910348
C      77.50446536      77.03942210      95.20138031
O      78.84239159      78.06176403      93.62156913
N      76.60873509      74.78875806      94.75540491
H      75.49568629      73.91759423      96.03663934
C      76.75991319      73.59256131      92.19482576
H      78.15642093      74.52608610      91.00051873
C      77.50068590      70.72773621      92.53686622
H      75.89441853      69.91515390      93.53653144
C      77.97689693      69.62224632      89.86290349
H      78.31326822      67.59268026      89.77597607
H      79.45655264      70.71639785      88.94260676
H      76.20622338      69.86413129      88.83867183
C      79.86473353      70.40459301      94.22439181
H      79.38852250      71.24930068      96.04230853
H      81.48989816      71.30410274      93.33811017
C      80.45999732      67.74007891      94.87445766
H      81.48800843      66.90104043      93.29842593
H      78.58349908      66.89159180      94.91792137
H      81.46533170      67.68338712      96.67347711
C      74.15398061      74.19727373      91.06476942
O      72.40031459      72.71383857      91.42192769
N      73.83839631      76.41203297      89.80621170
H      75.39553079      77.49862559      89.62101852
C      71.57828364      76.83722138      88.24907721
H      71.28915552      75.25363074      86.96217359
H      71.84473505      78.43215040      86.97729140
C      68.99691750      77.02052484      89.57755482
O      67.08640420      76.62935150      88.29065120
N      68.74558389      77.61767835      91.93971271
H      70.26303413      78.01263116      93.03008478
C      66.29082942      77.87846058      93.19449098
H      65.09085321      76.35723090      92.49151278
C      66.40610272      77.76696673      96.07443388
H      67.55883578      79.33354984      96.75095590
H      67.35285561      76.00763154      96.57521134
C      63.92111261      78.02585923      97.26496145
N      62.31862471      76.15691992      98.11155884
H      62.51893569      74.29176004      97.75818001
C      60.24370522      77.24162281      99.04886310
H      58.82074130      76.22495007     100.10333038
N      60.45724429      79.79653279      98.87878772
H      59.04750845      80.97572202      99.38523438
C      62.72113640      80.28030272      97.72416495
H      63.27293649      82.23239000      97.49361834
C      65.14754500      80.43903973      92.43671073
O      66.31728559      82.43837017      93.13213000
N      63.02727207      80.43715001      91.19327080
H      62.78916655      78.76474222      90.30131998
C      61.73469927      82.70671132      90.50918989
H      63.14443510      84.15802113      90.11990626
C      60.06418122      82.14357287      88.20939297
H      58.85664610      80.54675413      88.70261153
H      61.25092933      81.53319128      86.64092013
C      58.38610424      84.24683826      87.29287569
H      57.08219309      84.54352528      88.85756908
C      59.70513322      86.68080574      86.70895026
H      60.50826690      87.65968398      88.33600462
H      58.39933233      87.94125320      85.73763095
H      61.20179645      86.36144200      85.32945005
C      56.72881428      83.46827101      85.03465275
H      56.07685869      81.53697073      85.31811171
H      58.04595351      83.54197034      83.45484156
H      55.12254690      84.75706436      84.92126917
C      60.20780041      83.67047174      92.72583884
O      58.57885633      82.24561809      93.78030613
N      60.60653267      86.06097551      93.40425060
H      61.74225818      87.29307707      92.49151278
C      58.94735296      87.33276133      95.25240293
H      58.36342753      85.83987755      96.54308600
C      60.55362032      89.26595134      96.64702095
H      59.33663658      90.40356658      97.85833551
H      61.55139583      90.56419332      95.39791185
C      62.64932681      87.93558402      98.37801025
H      63.77938314      86.66379821      97.21582857
C      64.62031135      89.90656856      99.40602136
H      63.60552832      91.49771813     100.23561122
H      65.48958545      90.69647416      97.71282658
H      65.92800196      89.19981093     100.82898528
C      61.60808762      86.30663993     100.45481946
H      60.21535932      84.99516987      99.68759059
H      60.39866278      87.37811475     101.73227446
H      63.15388373      85.29185691     101.36377782
C      56.51338547      88.45147930      94.21494319
O      54.40634063      87.77873673      95.12579127
N      56.77794715      90.22593231      92.36301140
H      58.53350291      90.48671454      91.66003320
C      54.69168930      91.55818937      91.17437355
H      53.07219385      90.38466933      90.69060361
C      53.89422480      93.59531433      93.05276151