 %block lattice_cart
   137.614   0.000   0.000
   0.000 142.646   0.000
   0.000   0.000   160.855
 %endblock lattice_cart

 %block positions_abs
N      88.63495335      39.19009378      82.02337388
H      88.66518896      38.40396764      83.76381181
H      90.44153170      39.51512671      81.49425051
H      87.80347377      37.95421277      80.83284630
C      87.41796960      41.76390102      81.87597522
H      88.58771018      43.13206287      82.87564044
C      87.22143805      42.92608269      79.19067413
H      85.67375220      44.28101647      79.09807754
H      87.02112707      41.55792084      77.66377527
C      89.50422744      44.40762812      78.45179114
H      89.63650828      45.17863646      76.54505729
H      91.15584825      43.18497521      78.60485898
S      90.36405292      46.69419696      80.72324217
C      88.41574508      49.47587410      79.86530643
H      88.99022189      50.36026602      78.09463287
H      88.89951502      50.99143460      81.17677649
H      86.42586328      48.95619936      79.96735165
C      84.78369112      41.82626198      83.13642267
O      83.25112308      40.15385420      82.84918427
N      84.39818694      43.93330682      84.56316604
H      86.00823376      44.91218506      84.86174280
C      82.39318733      44.33203907      86.30549370
H      80.98723096      42.96765668      85.66865593
C      83.31726349      43.80858489      88.99646397
H      84.88951579      45.13328303      89.10228864
H      84.23944994      41.98121955      89.23267976
C      81.41808855      44.42463566      91.05059647
O      81.09872480      46.47876816      91.79703837
N      80.13118493      42.46121002      92.05215142
H      79.18065259      42.90340598      93.64897015
H      80.31637811      40.74722825      91.23201020
C      81.31037416      47.03245797      85.92565871
O      82.88451617      48.74455002      85.71022991
N      78.76869225      47.40851351      86.20155875
H      77.62729756      45.87972492      86.23179437
C      77.70666608      49.92751868      85.52503673
H      78.57027100      50.25066188      83.68444330
C      74.82672318      50.05790981      85.43999905
H      73.99335387      48.67463015      84.16065434
C      73.60595997      49.35304188      88.10640288
H      73.64564423      50.85348458      89.51613871
H      74.62263273      47.80346632      89.00780233
H      71.67088022      48.76155755      87.71522953
C      73.71745383      52.73754171      84.64631400
H      74.54704367      54.17373371      85.86707720
H      71.73513092      52.78289514      85.20378326
C      74.23712857      53.15517122      81.92510811
H      72.93888659      54.57057623      81.18244567
H      73.62485724      51.48465316      80.88764836
H      76.24779736      53.45185826      81.60007518
C      78.64586005      51.94196693      87.41476305
O      78.94065736      54.16239536      86.68343896
N      79.43954511      51.46386617      89.78259012
H      79.48300880      49.67807481      90.45344296
C      80.47889457      53.38382812      91.51924860
H      79.23356494      55.00899275      91.31326843
C      80.39385688      52.44274440      94.23478531
H      81.66186325      53.75232474      95.19665600
H      81.29147689      50.60782015      94.50123672
C      77.78414485      52.48431839      95.48389440
C      76.10984734      50.48309822      95.06815461
H      76.43299054      49.17540761      93.53369685
C      73.73635108      50.49821603      96.41175002
H      72.30771799      49.06013430      96.16986505
C      73.23935307      52.51455401      98.01045848
H      71.49891514      52.49565674      99.07815385
C      74.94199647      54.38916251      98.59816337
H      74.62452246      55.82157505     100.01923755
C      77.18888107      54.39483170      97.27724467
H      78.57594017      55.85747986      97.59282897
C      83.18687238      54.17373371      90.77469643
O      83.83693823      56.50187654      90.86162384
N      84.58715958      52.39550125      89.80526683
H      83.83126906      50.64183523      89.82983327
C      87.20820998      52.74321089      88.78292490
H      88.14551422      54.03389396      90.08494633
C      88.54424647      50.15428584      88.76024818
H      90.38672963      50.32625093      87.85695900
H      87.40663123      48.84470551      87.64908911
C      89.24344522      49.08848020      91.43043146
H      90.34137621      47.36504980      91.17909786
H      87.57292716      48.62171780      92.53970081
C      90.95364753      50.99332432      92.95733032
O      90.13728575      52.03645325      94.88863061
O      93.20998074      51.32024698      92.09372540
C      87.24978395      54.00554808      86.23935328
O      88.98077326      55.45307843      85.82361349
N      85.25990215      53.86759805      84.64253455
H      84.03913894      52.44463414      85.00347227
C      84.69487398      55.80645724      82.67910891
H      86.33326669      55.78755999      81.43188954
C      82.33271609      54.88427080      81.27882171
H      80.65652884      55.06379481      82.46368011
H      82.63129284      52.90572735      80.79694150
C      82.18909688      56.36959569      78.89398710
H      83.82937932      55.94251755      77.72424651
H      82.14941264      58.39538229      79.27004264
S      79.27891837      55.71575038      77.23102795
C      79.71544514      56.88171151      74.07329528
H      80.94943643      55.59858735      73.03772526
H      80.66786720      58.67695151      74.40966656
H      78.01847091      57.33713556      72.99615128
C      84.25456775      58.49553779      83.89798238
O      85.60572207      60.34557985      83.34618229
N      82.33460582      58.95474128      85.42677097
H      81.22533646      57.49209311      85.94266625
C      81.63162762      61.57579168      86.16187450
H      81.70910640      62.70017883      84.43466465
C      78.99923888      61.34524508      87.33350481
H      78.39263673      62.96285080      88.45411252
H      79.00868751      59.68417564      88.55237829
C      76.88463513      60.87092377      85.37385863
H      77.41942768      59.21930296      84.26458928
C      74.42421147      60.21329900      86.71367458
H      72.84062081      60.13015105      85.39842507
H      73.81382987      61.44540056      88.25002208
H      74.64530945      58.30278570      87.45066785
C      76.19677474      63.17450014      83.76759126
H      77.80682157      63.68094679      82.58840204
H      75.72056371      64.69761954      85.06772297
H      74.47334435      62.85135694      82.68477808
C      83.49300805      63.06111656      87.82483366
O      83.50245667      65.31178060      87.77192132
N      84.99723019      61.59090949      89.26102565
H      84.66274864      59.72197017      89.44432911
C      87.27624013      62.64348705      90.59517243
H      86.85294143      64.24408524      91.82160481
C      88.50267250      60.46841206      92.17120418
H      90.28846387      61.17894915      92.91386662
H      88.66896841      58.77332756      91.01280195
C      86.78680101      59.91472226      94.55603878
H      84.82337537      59.51221054      94.07604830
H      86.70743251      61.67594717      95.61995470
C      88.09071217      57.73586781      95.90908282
H      89.78579666      58.60136247      96.69520897
H      88.18330876      55.97653261      94.84138746
N      86.64129207      56.69273888      98.03691465
H      85.91374745      54.92962423      97.94809751
C      86.00823376      57.73019864     100.17419511
N      86.56192358      60.07156954     100.69953903
H      85.77957689      60.81612171     102.27368105
H      87.56914769      61.21674368      99.55247515
N      84.36984105      56.92517522     101.78424193
H      83.87095331      57.86058974     103.37161203
H      83.73111356      55.12804550     101.73321932
C      89.31147537      63.92094203      88.86229340
O      90.70042420      65.54421694      89.75424422
N      89.25478358      63.15371315      86.43588482
H      88.03779983      61.74208760      86.02770393
C      90.82892559      64.54266200      84.52537151
H      92.02134290      65.97696426      85.40220452
C      92.65251148      62.77009871      83.38397682
H      93.73721439      63.93983929      82.08384512
C      94.95797759      61.92728077      85.19244490
H      94.38161106      60.46652234      86.52470195
H      95.54190302      63.31245017      86.60029101
H      96.57180386      61.41705467      84.01514541
C      91.73410449      60.47786069      81.84951905
H      90.42452416      61.05611694      80.36986335
H      90.38106046      59.60669686      83.13642267
C      93.75989111      58.77899673      80.83284630
H      95.09214815      59.96007568      79.79916600
H      93.07014100      57.31445884      79.56295022
H      94.68396727      57.75854452      82.36541434
C      89.19809179      65.83334507      82.49391573
O      90.02390218      67.57189328      81.13520251
N      86.80758800      65.32311895      82.14998554
H      86.31058997      63.60346801      82.80950002
C      85.14084938      66.72529589      80.47946748
H      86.36161259      67.17505074      78.88264874
C      82.99978948      65.02265248      79.60263447
H      81.44265499      64.78265723      80.92544289
H      83.63284778      63.09324190      79.25681455
C      82.18153799      65.71429231      76.95323818
O      83.96732934      65.91271356      75.31484546
O      79.99134519      66.07334030      76.36742302
C      83.98811634      69.09501269      81.52448613
O      83.38718336      70.68238278      80.05994824
N      83.60261217      69.34445655      84.00569678
H      84.35472325      67.95361798      85.07528187
C      82.57271133      71.59512059      85.28504149
H      82.75790450      73.15792426      83.95656389
C      79.79859311      71.16048355      86.12596970
H      79.68331980      69.39925862      87.19177534
H      78.73467719      70.70883896      84.42143657
C      78.55704292      73.20894687      87.52058772
H      79.91008695      73.79854148      88.95677972
H      76.77314128      72.70627967      88.41631799
C      77.78225513      75.38591157      85.78392924
O      79.44143483      76.91281044      85.16976819
O      75.55615753      75.50118488      84.95622911
C      84.23944994      72.20928165      87.63964048
O      84.84038291      74.37868746      87.83995147
N      85.13140076      70.38002657      89.20811332
H      84.66652809      68.55455095      88.89441875
C      87.20443052      70.84867869      91.09028073
H      88.81447733      71.56866443      90.02636481
H      87.57670660      69.11768939      92.13907883
C      86.66207907      72.90848038      93.16708994
O      84.73455824      74.19349428      93.16331049
N      88.09449162      72.79131735      95.20610463
H      89.51367608      71.52898017      95.02280118
C      87.52757372      73.70594489      97.83471394
H      85.53769192      73.54909760      98.33927086
C      89.08848765      72.10345698      99.73010943
H      91.00278041      72.34156248      99.01012370
H      88.51590058      70.12491353      99.67152791
C      88.86927941      73.05209957     102.50611738
H      89.57225759      74.98339988     102.62894959
C      86.21988312      72.83667077     103.40373738
H      85.19754117      74.40514361     102.54580163
H      86.13106598      73.02564341     105.45409043
H      85.27879941      71.10001229     102.81981195
C      90.63428378      71.39480961     104.14451010
H      90.32625839      69.37280244     103.90451485
H      90.75333654      72.06944190     106.08714875
H      92.60337860      71.70661444     103.62294563
C      88.20409574      76.60100560      98.03691465
O      90.35082483      77.42870572      97.35472345
N      86.28980298      78.06743321      98.97610863
H      84.51346026      77.37012420      99.01579288
C      86.64696126      80.73383705      99.76034505
H      88.68408623      81.03619326      99.80191903
C      85.40730079      82.40435511      97.74022762
H      85.39596244      84.36400129      98.37517566
H      83.47600051      81.78830432      97.36795154
C      86.89262568      82.60655582      95.24578889
H      86.70176333      80.79241856      94.28769765
H      88.87683831      83.03741342      95.58971908
C      85.59060425      84.63234242      93.73022838
H      85.42997751      86.36522146      94.83193882
H      83.64607588      84.17880812      93.22189201
N      87.04569352      85.09910483      91.33783487
H      88.48566497      86.34632419      91.44743900
C      86.61861537      84.02951974      89.14575235
N      84.96699456      82.24750782      88.88119067
H      84.51346026      81.60311114      87.14264246
H      83.87473275      81.56909608      90.29092649
N      87.78835596      84.66257805      87.08217122
H      87.26679148      84.00873275      85.36818945
H      88.92219174      86.18380773      87.29382056
C      85.69831865      81.16091518     102.43808723
O      83.33805048      80.96627337     102.72343591
N      87.19309216      81.39335152     104.42041014
H      89.07903903      81.60500088     104.23710668
C      85.99122622      81.98294613     106.86949544
H      84.38495887      80.78296993     107.33814756
C      88.10394024      81.62011868     108.84992861
H      87.19498189      82.14168315     110.62627135
H      89.54580143      83.03741342     108.45308609
C      89.39840277      79.07654706     108.99732727
H      89.99555628      78.64568947     107.07358588
C      91.59426475      78.86111826     110.86059741
H      90.74010846      79.04442171     112.72575728
H      92.94163961      80.39179658     110.55824120
H      92.60148888      77.09800362     110.51855695
C      87.45198466      77.06776799     109.62849586
H      86.45042972      77.45705162     111.38405160
H      88.59904855      75.35756568     109.58692188
H      86.06870500      76.76541178     108.13183262
C      84.85928017      84.62856297     106.99610710
O      83.06026071      84.98572125     108.39450457
N      85.93831389      86.56175300     105.56369456
H      87.63150867      86.49939202     104.68686155
C      84.75912468      89.05997117     105.26133835
H      83.87095331      89.41146027     107.08681396
C      86.88506678      90.87032898     104.42796904
H      86.17075023      92.48793470     103.36972231
H      88.06425599      89.94814254     103.01256403
C      88.42897318      91.86432502     106.64461801
H      89.34171098      90.26750630     107.56869417
H      87.19120244      92.91312312     107.91262436
C      90.48121595      93.42145951     105.67140896
H      89.76689941      95.21669951     104.95898214
H      91.23710647      92.38022030     104.06325186
C      92.72243135      93.86176574     107.61026815
H      93.95075346      92.24038057     107.94474971
H      91.93252576      94.36254321     109.44330268
N      94.53467889      95.91211878     106.62383102
H      95.95764281      95.28283992     105.51834112
H      95.44552698      96.71147301     108.09781754
H      93.64839725      97.37854641     105.78290281
C      82.46121748      88.95225677     103.49255452
O      82.58215996      87.67291206     101.45731928
N      80.71133091      90.55663441     104.18986353
H      80.87006791      91.18591327     105.98510352
C      78.68554431      91.42023934     102.57792698
H      77.68587909      89.66846305     102.15273856
C      76.84495087      93.12288274     104.15206900
H      76.44243916      92.05140793     105.86605077
C      77.97689694      95.68913108     104.99866639
H      76.73345703      96.29762296     106.52745498
H      77.70666608      97.16689705     103.59082029
H      79.95733011      95.37354679     105.46731851
C      74.32972516      93.22303824     102.69886947
H      73.53037092      91.35409892     102.35871873
H      74.64153000      94.13388632     100.87717330
C      72.39464541      94.78773164     104.01033953
H      72.45511665      94.31152060     106.01344942
H      70.47657320      94.37199184     103.38106066
H      72.64975846      96.80595934     103.68530660
C      79.76457802      92.86021080     100.28379924
O      81.67698105      94.37388157     100.40474172
N      78.80081760      92.46714772      98.11628316
H      77.14541736      91.51472566      98.12384206
C      79.84205680      93.44980541      95.51413002
H      81.11573234      95.02016796      95.90530337
C      81.70343723      91.63188869      94.22911613
H      83.27191007      91.40701125      95.54436564
H      82.46877639      92.57297239      92.56426725
C      80.65652884      88.97871295      93.61873453
C      80.15953082      88.38344915      90.92587454
H      80.65463913      89.81586171      89.55771269
C      79.38285332      85.92302549      90.21344772
H      79.18254233      85.47893981      88.22923509
C      78.96522380      84.13534441      92.16175554
O      78.28492232      81.84499611      91.52491778
H      77.86351336      81.80153240      89.75991340
C      79.29970536      84.69092395      94.77713676
H      78.67798540      83.28496756      96.11695272
C      80.16708973      87.17402431      95.56137318
H      80.45999732      87.73527304      97.50023238
C      77.70099690      94.35876376      93.82282497
O      75.48812739      93.95625205      94.17998325
N      78.43043124      95.50204817      91.69121369
H      80.31826784      95.69668999      91.47578489
C      76.66353714      96.15211403      89.55204351
H      74.73223685      96.05195854      90.25691142
C      77.03014405      98.94323980      88.57883446
H      75.63174659      99.33630286      87.11996574
H      78.83672241      99.19646312      87.62263294
C      76.78636936     101.00682092      90.61784915
H      77.95988940     100.95768804      92.31104392
H      74.80026700     101.09185862      91.16020060
C      77.20777832     103.65054803      89.47267500
H      75.86607265     104.07573647      87.96656313
H      79.03325395     103.84518984      88.53915020
C      77.38919205     105.57995861      91.74412603
H      78.84050186     106.94056155      91.21311294
H      77.94288187     104.58596256      93.46188725
N      74.83428208     106.74403001      91.87640687
H      73.42076679     105.46090584      91.89719386
H      74.30515870     107.63409111      90.27202923
H      74.68499370     108.21612681      93.08205226
C      77.07927693      94.15278359      87.36751989
O      79.18254233      93.65767529      86.66643143
N      75.04215197      93.09831630      86.35462658
H      73.31116267      93.27406085      87.14075273
C      75.03837251      91.56574826      84.05482966
H      76.54070494      90.16735080      84.22112558
C      72.59117695      90.14089462      83.84695977
H      71.03215274      91.42212907      83.43688916
H      72.11307619      88.98816157      85.48724221
C      72.74802422      88.33053682      81.50747859
O      71.36474456      88.67824647      79.62531118
O      74.48657243      86.66757767      81.59062655
C      75.84150621      93.22303824      81.70023068
O      75.90575689      95.52472489      81.65298752
N      76.21189255      91.86432502      79.55728104
H      76.12118570      89.96326035      79.67444407
C      76.50857959      92.92824093      76.98536352
H      78.01847091      94.32852813      77.02504778
C      77.29470574      90.91379269      75.05217351
H      77.52147290      91.80763323      73.21158008
C      79.73056296      89.65145552      75.99514694
H      80.96455424      89.19792119      74.40777683
H      79.20710877      88.03951896      77.16677725
H      80.63574185      91.11410367      77.12520327
O      75.40119997      89.01461775      74.68178715
H      76.09283981      88.09999021      73.27394105
C      74.24279774      94.31530005      76.08585380
O      74.32594570      95.90644961      74.43423300
N      72.02614877      93.61610132      77.10630601
H      71.94678027      91.90022982      77.93778559
C      69.58084293      95.01260906      76.77749363
H      69.54115867      96.12187840      75.04272488
C      67.44356247      93.07563960      76.53560866
H      67.21679531      92.02117230      78.28927468
H      68.06717215      91.76039008      75.07862968
C      64.96424154      94.23971101      75.58507633
H      64.22913801      95.59653449      76.94945872
H      63.56017490      92.73359913      75.48492083
C      65.27415666      95.45291529      72.94701839
O      64.91132921      97.84908825      72.71836151
O      65.70501426      93.93924451      71.14610922
C      69.18400041      97.14988952      78.91288436
O      67.29616381      98.48025684      78.96579670
N      70.89420272      97.37476696      80.80639013
H      72.48913172      96.33352776      80.71757299
C      70.55783142      99.12465352      82.86619181
H      69.26903809     100.58352224      82.19533897
H      72.26614402     100.14132628      83.40665354
C      69.37486276      98.16467256      85.26992368
O      69.74146967      99.34764122      87.25413631
N      68.09929750      96.03495100      85.05449488
H      68.01803926      95.27339130      83.30649804
C      66.56483974      94.78206245      87.10295820
H      65.23825186      96.18234965      87.82861311
C      65.20801624      92.35565386      86.09384435
H      64.08173935      91.69047020      87.68688364
H      66.52704521      90.83820363      85.64408949
C      63.40143788      92.71281214      84.00758650
C      62.73247477      90.60576731      82.45801093
H      63.67544820      88.81052730      82.68666781
C      60.83896901      91.03473518      80.50781337
H      59.98670244      89.50783631      79.45523582
C      59.75237638      93.34964991      80.11286057
O      57.96847474      93.64444721      78.39320963
H      56.79495470      94.99938098      78.66533022
C      60.45346484      95.34709062      81.68511287
H      59.69190514      97.18201487      81.22024019
C      62.42066993      95.09386729      83.49169122
H      63.07073578      96.74170864      84.50458452
C      68.13331258      93.89578081      89.39519622
O      70.11185603      92.61265664      89.03614822
N      67.12986790      94.30963088      91.60050683
H      65.27604639      94.72726038      91.75735411
C      68.72857636      94.27372607      93.97400308
H      70.63719994      94.69513505      93.32393723
C      67.79883102      95.91967769      96.01679722
H      67.72135224      94.79906998      97.74211735
H      65.95823759      96.66611958      95.47066632
C      69.59218129      98.19868762      96.43442674
C      68.87030584     100.62698593      95.68231567
H      66.98246925     100.98603393      94.99067584
C      70.39909442     102.73403078      96.07915819
H      69.77737447     104.64076463      95.70499238
C      72.74235505     102.47513828      97.28480358
O      74.20878267     104.40265912      98.03880438
H      73.75524835     105.95979360      97.22811179
C      73.60218052      99.98636871      97.90085436
H      75.53159109      99.91644884      98.56414829
C      72.12630427      97.87554442      97.36606181
H      72.63086119      95.95369276      97.83471394
C      68.80605514      91.47882086      94.75823950
O      66.95412336      90.23727067      95.28358341
N      71.06238835      90.42057413      95.08705188
H      72.47401392      91.68480102      94.85650527
C      71.54804802      87.69747850      94.96044021
H      69.74902857      86.77718179      95.36106219
C      72.61763311      86.81875576      92.27891858
H      74.56783067      87.47071135      92.15419664
C      72.55905159      84.08810124      91.99168018
H      70.65042802      83.45882238      91.53814586
H      73.36596474      83.02229561      93.56015302
H      73.65131340      83.48338882      90.35139774
O      71.01892466      87.72582439      90.30793403
H      71.26647880      89.50216714      90.03959290
C      73.50769421      87.10032499      97.14496383
O      75.15553554      88.62533412      97.68164610
N      73.59462161      84.77407189      98.32037360
H      72.18677551      83.54008061      97.94620779
C      75.34072872      84.06542454     100.30836568
H      77.12652009      85.07075893     100.09293688
C      74.33161488      84.44525953     103.05035856
H      73.30360376      86.23105089     103.00878458
C      72.27559265      82.68214488     103.89884567
H      71.22679454      83.45882238     105.49188496
H      73.24691198      80.90580213     104.27868066
H      70.92443833      82.48561334     102.35682900
C      76.69377277      84.65123969     104.76811978
H      78.27547370      85.32965143     103.63617372
H      77.35895644      82.85599970     105.52778976
C      76.33283504      86.39356735     107.01878382
H      77.99579420      86.72426946     108.19230386
H      74.90231223      85.72271450     108.34159224
H      75.59395206      88.19258680     106.33848234
C      75.97378704      81.27807821     100.00223002
O      74.49224162      79.75495882      98.93075520
N      78.12807503      80.34644314     101.04157949
H      79.31482317      81.53886045     101.94108921
C      78.69877239      77.53642013     101.17008088
H      77.00179816      76.53675491     101.77479330
H      79.94599175      77.28130706     102.78579688
C      79.48867799      76.49518092      98.73233393
O      80.52046856      77.83310715      97.10338985
N      78.82160459      74.13869221      98.25990236
H      78.01469146      73.18815987      99.70365326
C      78.73089774      73.08989410      95.66908758
H      80.41842333      73.82877709      94.74879087
C      79.11640191      70.04743475      95.90341364
H      77.40997905      69.17816064      96.66308362
C      79.48678825      68.82100236      93.31259887
H      81.18376249      69.51075246      92.36962544
H      77.84272637      68.94383458      92.07860759
H      79.54914923      66.77253905      93.50913041
C      81.52958241      69.44650178      97.57960088
H      81.06659946      69.95294842      99.52223953
H      83.05648127      70.64080881      96.88418160
C      82.60861612      66.74608287      97.80636804
H      81.06659946      65.55555530      98.48100034
H      84.30181090      66.76875958      98.97988808
H      83.02246619      66.19239307      95.86750884
C      76.18732611      73.72295242      94.39541205
O      74.25791556      72.38691592      94.53525179
N      76.28748161      75.82999725      92.99701457
H      77.90319761      76.84667002      93.02158102
C      74.18988541      76.68793300      91.42854174
H      73.60218052      75.22906430      90.09817441
H      74.88719442      78.30553872      90.36273609
C      71.71623365      77.28508652      92.67576110
O      69.91343475      77.46838998      91.25846637
N      71.44600279      77.70271604      95.17208956
H      72.91620987      77.92192428      96.36828632
C      68.91943872      77.83121743      96.25301301
H      67.71001388      76.42337133      95.35917247
C      69.04982983      77.10367279      98.96666000
H      69.94744984      78.53797507     100.14206976
H      69.86808132      75.23284374      99.24633949
C      66.54216301      76.65391794     100.26490197
N      65.33273818      74.26530388     100.38017528
H      65.72013207      72.50407895      99.75656560
C      63.19167827      74.70938956     101.75211658
H      61.76304517      73.29398455     102.09793650
N      62.92711658      77.22272556     102.30391667
H      61.25659852      77.94271127     102.87650374
C      64.99069772      78.46049629     101.33448707
H      65.34785598      80.46927536     101.39495831
C      67.73647005      80.53919523      95.75790472
O      68.70023047      82.36278112      96.88796105
N      65.64076357      80.85100008      94.42186821
H      64.67889288      79.22961489      94.13462982
C      64.46346408      83.37945389      94.10250447
H      65.90721498      84.57376091      93.25023790
C      62.28460964      82.87300723      92.18821171
H      61.05439781      81.36878508      92.87040291
H      63.09530222      82.05664547      90.48178885
C      60.64999638      85.16524524      91.17720814
H      59.87520859      86.00617346      92.89118990
C      62.22224867      87.05875101      89.72211887
H      64.01370920      87.51417506      90.63296696
H      61.30006223      88.89367526      89.55393323
H      62.56428913      86.43703106      87.78703913
C      58.51082619      84.52273830      89.47645445
H      57.21825339      83.25284221      90.45344296
H      59.20246602      83.62889775      87.75491378
H      57.44313082      86.15357210      88.80560161
C      63.24270088      84.28841224      96.64418636
O      62.27327128      82.64246062      98.10683453
N      63.03483098      86.84521194      96.78213638
H      64.13465170      87.88078196      95.61806497
C      61.78005271      88.14345392      98.76823873
H      60.64054774      86.74505644      99.76223478
C      63.59796942      89.36988629     100.67308286
H      62.41878020      90.07097476     102.20943035
H      64.54850176      90.88166735      99.64507174
C      65.50659300      87.61999972     101.96943511
H      66.44011780      86.62600369     100.42552871
C      67.67032962      88.95414651     103.46042917
H      68.97802024      87.48204971     104.06514159
H      66.78215826      90.17113025     104.86638555
H      68.89676200      90.23349121     102.40974134
C      64.26315308      85.69625834     103.63239426
H      62.70412888      84.56998146     102.89162155
H      63.92111262      86.45214886     105.51834112
H      65.70501426      84.32620676     104.16529708
C      59.84119351      89.91979664      97.56637280
O      57.63966236      89.50972603      98.31848387
N      60.50826690      91.51094621      95.72955882
H      62.33185279      91.58275581      95.16831011
C      58.69035018      93.26461223      94.68642990
H      56.99715541      92.12510725      94.40864013
C      58.05540215      95.45669474      96.61395074