 %block lattice_cart
   139.252   0.000   0.000
   0.000 142.425   0.000
   0.000   0.000   162.84
 %endblock lattice_cart

 %block positions_abs
N      93.42237859      41.16207218      81.31795478
H      92.81955590      40.51389604      83.01114955
H      95.32722273      41.24899958      81.35952876
H      92.57578122      40.31358506      79.83074017
C      92.71184150      43.86627053      81.01181912
H      93.76441906      45.17207140      82.20990560
C      93.29576693      44.96231178      78.33407693
H      92.05232703      43.90028560      77.08118838
H      95.22517751      44.69208092      77.66889327
C      92.46806681      47.79312180      78.21124473
H      90.48574390      47.89327730      78.76493453
H      92.54176613      48.39405478      76.24403963
S      94.10268007      50.11181600      80.24647996
C      93.30332584      52.88215476      78.62509478
H      91.25675225      53.06545821      78.48714476
H      93.91559717      52.85758832      76.65788969
H      94.08378280      54.44495842      79.71357714
C      89.89425958      44.22153907      81.37653629
O      88.52420800      42.41685044      81.03260611
N      89.12136151      46.25866403      82.65966046
H      90.24385894      47.79501154      82.80138993
C      86.49842139      46.45330585      83.91632846
H      85.34757806      45.12293852      82.84296391
C      86.70818101      45.42907419      86.64131380
H      87.55666812      43.55257595      86.63186517
H      84.81089579      45.29301390      87.43310913
C      88.18972644      47.18085048      88.27025788
O      87.24864274      48.96286240      89.29637927
N      90.61235558      47.02778265      88.40820790
H      91.57800571      48.52444589      89.08850938
H      91.40037144      45.31758034      88.09829279
C      85.63103702      49.17829119      83.80105516
O      87.04077284      50.93951612      83.23980644
N      83.12525992      49.59970017      84.22624357
H      81.98575496      48.12949308      84.64954227
C      81.95740905      52.14894096      83.81239351
H      82.18417622      52.89349312      81.90565966
C      79.15305521      51.95618887      84.27915591
H      78.47464346      50.56912976      82.91477351
C      78.44818729      50.91117022      86.90965494
H      79.52155185      49.19151928      87.27626184
H      76.44318767      50.44818727      86.81327890
H      78.67306472      52.24342728      88.46300997
C      77.58647210      54.41094336      84.15821343
H      78.05323449      55.80934082      85.59629515
H      75.65139236      53.74386997      84.38876004
C      77.81323926      55.63170655      81.46346370
H      76.35437054      56.98475059      80.93056088
H      77.46363988      54.13315359      80.09530185
H      79.54989774      56.69940191      81.16866640
C      83.03833250      54.03488782      85.77959860
O      83.31045309      56.19862444      84.98213411
N      83.90193744      53.26010002      87.99813729
H      83.57123534      51.44218331      88.47623805
C      84.73908619      55.09691401      90.00502665
H      83.37281407      56.63137178      90.15998421
C      85.07545748      54.01977000      92.64308457
H      85.79733293      55.62414764      93.70889021
H      86.59857688      52.63271090      92.66765101
C      82.62637218      53.19018015      93.75991283
C      81.24876170      54.94006672      95.12996440
H      81.80623095      56.89782318      94.97878630
C      78.99620792      54.21441182      96.19954949
H      77.97764545      55.74886958      97.07638250
C      78.12882354      51.72375254      96.13907826
H      76.37704726      51.28533604      97.09150031
C      79.61036898      49.99087350      94.83894655
H      78.89605244      48.08602939      94.66509173
C      81.88937892      50.69952088      93.61062444
H      83.02510442      49.37482273      92.55237771
C      87.28643726      56.39704570      89.13953199
O      87.56989620      58.67416592      89.20945186
N      89.05144164      54.81534478      88.27592706
H      88.76420323      52.93128766      88.17010240
C      91.40604063      55.62603737      87.14209128
H      92.46995653      56.84491085      88.41765654
C      93.00852854      53.17884179      86.81138917
H      92.35657295      52.06579299      85.20701153
H      92.73640794      51.79556213      88.30994214
C      95.88469198      53.83835629      86.33706787
H      95.98673720      55.32746061      84.91977313
H      97.06388121      52.31145741      85.61141296
C      96.99585106      54.79455780      88.89764702
O      97.16214698      53.26954867      90.67776921
O      97.39836277      57.17372323      89.07339157
C      91.06777962      56.96396361      84.60229911
O      92.15248252      58.95195569      84.21679494
N      89.28765742      56.00398263      83.03004682
H      88.37680934      54.36181047      83.36641810
C      88.66404775      57.09435471      80.56395398
H      90.21362332      57.14537732      79.20335103
C      86.54755428      55.63170655      79.39043394
H      84.89593347      55.84146617      80.60741768
H      87.05211120      53.63804529      79.28271954
C      85.47230000      56.52743682      76.78450135
H      86.76865226      55.67517025      75.42578813
H      85.48741781      58.58723851      76.80339862
S      82.39582556      55.28966608      76.07585399
C      82.57345983      55.24431266      72.72914869
H      84.03232855      53.99142412      71.98459653
H      82.95140510      57.14726706      72.03750886
H      80.64593899      54.86447766      72.11498763
C      87.89492914      59.84579623      80.87386909
O      88.98152176      61.63914650      79.98191828
N      86.38692754      60.28232300      82.82217692
H      85.57434523      58.83479266      83.76137090
C      85.46096164      62.88447614      83.54027292
H      85.02443486      63.87847218      81.78849663
C      83.15171609      62.66337816      85.27504168
H      82.76999137      64.49452295      86.14431578
H      83.64493465      61.63914650      86.98902345
C      80.63271091      61.83945750      84.02404286
H      80.70452052      59.92516473      83.26626261
C      78.67495446      61.60702115      86.13108770
H      76.98364940      60.86057926      85.22212934
H      78.07969066      63.43438649      86.87375014
H      79.44029360      60.38814768      87.60318450
C      79.52533130      63.80855230      82.21368505
H      79.57257445      65.64914574      83.13587149
H      77.61103854      63.35501799      81.60519318
H      80.74609449      63.86902355      80.55261562
C      87.54344005      64.57956065      84.62497584
O      87.58123456      66.89069593      84.24703056
N      89.18939166      63.45328376      86.13864660
H      88.94372724      61.60324171      86.55249668
C      91.25486252      64.75719491      87.44633721
H      90.44416993      66.51275066      88.15309485
C      92.27720446      63.06022069      89.43054984
H      92.78743055      61.29332659      88.51025313
H      90.70873162      62.94683711      90.76280689
C      94.63936234      64.08256262      90.60218015
H      94.38613901      66.10268005      90.91209527
H      96.25885780      63.65359476      89.40031422
C      95.16848572      62.86179943      93.16653876
H      93.96473005      63.76886805      94.57060541
H      97.14324971      63.26809058      93.58416828
N      94.92471101      60.09335037      93.06071409
H      95.86012554      59.19573037      91.66042690
C      93.74174235      58.56456178      94.73879105
N      92.28476335      59.33745986      96.50946461
H      91.20383990      58.15071172      97.54314490
H      92.22618185      61.12703068      97.16708937
N      93.94205333      56.17216828      94.41375813
H      92.90648332      54.88526466      95.36995964
H      95.25163367      55.43517501      93.23834836
C      93.15592718      65.61891012      85.40165334
O      94.59022946      67.35367887      86.05927810
N      93.22584707      64.36035239      83.16799684
H      91.96350989      62.93360902      83.03004682
C      94.84534251      65.13325045      81.01370884
H      96.40814618      66.22362254      81.79416581
C      95.70894743      62.62369390      79.69090042
H      94.06110610      61.52198347      79.14099007
C      97.14891889      63.26053167      77.23614594
H      95.99240639      63.91059753      75.66011420
H      97.65158608      61.53899100      76.22514236
H      98.82510612      64.33767567      77.76904876
C      97.22639767      60.67538608      81.45401508
H      97.23773603      58.83479266      80.53182863
H      96.34578520      60.62814293      83.31728522
C     100.04775906      61.22340671      81.63164935
H     100.66003037      59.82311952      83.01114955
H     100.42948376      63.10935358      82.36675288
H     101.10789551      60.91538132      79.89310114
C      93.36001763      67.10990417      79.36019832
O      94.48251507      69.08088872      78.76304480
N      90.99785974      66.61668561      78.74981672
H      90.36102197      65.01986688      79.58129630
C      89.36135676      68.34578518      77.08874729
H      90.45928775      68.68782564      75.37665525
C      86.81022623      67.10234528      76.63710270
H      85.16427462      68.26830640      77.05473222
H      86.56645153      65.52820325      77.94101386
C      86.45495769      65.95906086      74.00093449
O      86.22819053      63.63280776      73.95936052
O      86.95006598      67.17226514      72.00916296
C      88.85302037      70.99140202      78.25092897
O      89.12325123      72.81687764      76.76938354
N      88.29177166      71.29564797      80.79639032
H      88.33334564      69.81221281      81.99825626
C      87.71540513      73.72583599      81.98691789
H      88.11791683      75.19793279      80.60363823
C      84.75798345      74.01685385      82.36486316
H      84.34980258      72.78853175      83.96735107
H      83.90949635      73.11356467      80.71891154
C      83.67894974      76.74183919      83.01870846
H      84.57468001      77.35600024      84.77048475
H      81.72119327      76.27696652      83.46090442
C      83.83957646      78.69203674      80.91922253
O      85.60647056      78.87722992      79.44712574
O      82.05378511      80.34176782      80.75670606
C      89.40671019      74.23228265      84.43978265
O      90.37991923      76.33743776      84.67221899
N      90.25519729      72.30476181      85.87786437
H      89.65804378      70.58322114      85.30716703
C      91.97106880      72.45593992      88.05671881
H      93.90992798      72.75262694      87.42555022
H      92.19027704      70.53597799      88.76725590
C      91.32856184      74.10189153      90.43021506
O      89.82811915      75.83099111      90.39053081
N      92.43216201      73.40080307      92.61284895
H      93.86268484      72.14602480      92.47489893
C      91.66682285      74.35889432      95.06382398
H      89.71473557      73.78630724      95.38885691
C      93.24663405      72.65814063      97.09150031
H      95.24029531      73.12112357      96.85906398
H      92.80632783      70.66636909      96.80237219
C      93.01230799      73.16080783      99.94120759
H      93.73040399      75.01084989     100.48922822
C      90.33645553      72.56176459     100.86339403
H      90.02276097      70.59266977     100.35316793
H      88.93616833      73.78252778      99.97522267
H      90.17204935      72.89435642     102.89107037
C      94.70550277      71.21627945     101.29236192
H      94.62235480      71.65091650     103.30303070
H      96.54609619      71.27486097     100.37206519
H      93.90803826      69.34922985     100.93331391
C      92.31121953      77.25584475      95.41531308
O      94.57322193      78.01173527      95.48523296
N      90.29488155      78.84321485      95.71388983
H      88.55822308      78.12511885      95.38129800
C      90.51220008      81.36410976      96.71733450
H      92.48885380      81.85354888      97.03291880
C      89.29899578      83.20659292      94.87107190
H      88.52420800      84.80341164      95.91231109
H      87.73808185      82.22015577      93.96022381
C      91.30588513      84.00783687      92.93977160
H      92.33578597      82.37133388      92.23112424
H      92.64759082      85.27962267      93.84495051
C      90.23441031      85.45725694      90.75713771
H      91.89736946      86.34542831      89.91998896
H      88.97018341      86.84809551      91.59995565
N      88.65081965      83.80752587      89.18488542
H      87.94595175      82.16913316      89.85951771
C      88.22941070      84.06074920      86.75847683
N      89.12703070      85.81441522      85.42621979
H      88.54499498      85.82008440      83.60641334
H      90.55566379      86.84431607      86.15754387
N      86.60046661      82.47904828      85.66810475
H      86.06756379      82.72471271      83.85396749
H      85.66883154      81.24883645      86.79249191
C      89.12325123      81.64756870      99.27980338
O      86.82345431      81.59843582      99.59916713
N      90.73518778      82.17480234     101.18275778
H      92.57011203      82.43747430     100.72544401
C      90.04354796      82.63589556     103.78491091
H      88.44294977      81.51339813     104.43497677
C      92.31121953      81.91213038     105.44220089
H      91.77075780      82.46204074     107.35649365
H      93.87024374      83.19714427     105.05480701
C      93.14458884      79.14746080     105.32692760
H      93.55276972      78.62211687     103.38050948
C      95.44816521      78.72416209     106.81414219
H      96.83711404      79.99972735     105.98455234
H      95.93193515      76.76073645     106.43052775
H      95.07777885      79.17202724     108.79079592
C      91.23974470      77.32387489     106.25667293
H      91.21706800      77.50717835     108.30891571
H      91.66682285      75.35478009     105.82959478
H      89.28576771      77.66213590     105.69920367
C      89.29710606      85.42135215     104.17230481
O      88.27098467      86.00149812     106.27368047
N      89.88292122      87.29029147     102.50367647
H      90.77298230      86.72526330     100.90874747
C      88.97774232      89.81118637     102.69075938
H      88.14626273      90.03228436     104.56158843
C      91.09612551      91.91445176     102.65107513
H      90.59912748      93.88543630     102.97610805
H      91.89547974      91.95980520     100.75190018
C      93.41859915      91.37399003     104.34993908
H      94.14614378      89.49749180     103.93041984
H      92.91593195      91.37021058     106.34737979
C      95.55587961      93.15033277     104.17041508
H      95.09856583      94.68290080     105.46676734
H      95.47273165      93.83063424     102.22588671
C      98.24118069      92.07129904     104.62772886
H      98.79676023      90.78628516     103.11594780
H      98.18637864      90.93935298     106.34737979
N     100.12712755      94.05362194     104.65796447
H      99.75863093      95.57863108     105.74644684
H     100.33310772      94.86431453     102.94398270
H     101.89591139      93.39032801     104.93386451
C      86.89148446      90.34975837     100.70276730
O      87.18628176      89.48237399      98.56359711
N      84.95829445      91.94846683     101.33015643
H      84.85435950      92.60231213     103.11972726
C      82.63015162      92.67979091      99.73711715
H      81.54544872      90.97525778      99.33649517
C      80.83302191      94.63187819     101.14685298
H      82.08968991      96.20224076     101.59471812
C      78.81857365      95.58052080      99.31759791
H      77.37860220      96.49892780     100.47033096
H      78.04945505      94.09330620      98.11762170
H      79.58202309      97.21702379      98.32738132
C      79.60092034      93.61331571     103.59215883
H      81.05034043      92.51916418     104.56536789
H      78.14961053      92.31507373     102.92508544
C      78.57857842      95.57296190     105.34204540
H      80.09224918      96.89577033     105.78991053
H      77.59214127      94.78872549     106.96721002
H      77.06301791      96.66144425     104.46899184
C      83.61847848      93.76449383      97.25779624
O      85.22852531      95.45579887      97.21433252
N      82.77944000      92.84230738      95.13941303
H      81.43395488      91.49304279      95.01280137
C      83.49375656      93.61898489      92.56560579
H      84.41972244      95.45579887      92.68654829
C      85.55544796      91.91823121      91.43365973
H      87.02754476      91.67256679      92.85095447
H      86.33779466      92.75537997      89.72156769
C      84.58979781      89.32930616      90.61918769
C      83.84335591      89.16678970      88.06994690
H      83.99831348      90.78628516      86.83595561
C      82.53755503      86.94258183      87.33295363
H      81.74764943      86.67046124      85.47346294
C      82.36370021      84.95270002      89.19622379
O      81.39049116      82.71337434      88.55749628
H      80.37948758      82.73794078      87.05327414
C      83.39738051      85.21726170      91.58861729
H      83.63548603      83.63745051      92.85851338
C      84.41027382      87.46414629      92.36340508
H      85.22474586      87.82130456      94.20399851
C      81.19962881      94.12165210      90.93288226
O      79.10014287      93.03128001      91.34295287
N      81.28655621      95.55028518      88.86363195
H      82.74353521      96.78238674      88.85229359
C      79.45541142      95.85075167      86.87941933
H      77.59781046      95.55217491      87.71467835
C      79.39305046      98.66266442      85.94967397
H      77.96252763      98.81573226      84.47379772
H      81.29033567      99.29572274      85.46968349
C      78.69574145     100.58262636      87.96790167
H      80.30578826     100.86608530      89.22267995
H      76.98553913      99.89665571      88.89386757
C      77.84347487     103.15076441      86.90587549
H      77.44285289     104.46790366      88.43466408
H      75.85737252     103.14131578      86.36163431
C      79.46674978     104.31861527      84.81016900
H      79.33635867     103.15643359      83.11508450
H      81.47363913     104.17310636      85.24669579
N      78.81479420     106.92832731      84.24136138
H      79.81445941     107.70878428      82.81650774
H      79.26076961     108.05460420      85.71912736
H      76.96475213     107.19666845      83.85207776
C      79.79178271      94.15377744      84.69678543
O      81.87615082      94.09519592      83.56672909
N      77.79812144      93.05962590      83.89743120
H      76.17673626      93.21647319      84.89520669
C      77.69985568      91.61209555      81.56172947
H      79.14171685      90.14377820      81.43700755
C      75.06935664      90.28361795      81.80550417
H      73.57836259      91.69713323      81.91510829
H      75.00510596      89.49560209      83.70845857
C      74.84447922      88.08775597      79.93656484
O      73.08136457      88.21814709      78.41155571
O      76.17673626      86.10921252      80.18033954
C      77.76032692      93.23348072      79.12209280
O      77.61103854      95.53705711      79.29216818
N      77.86237213      92.04295315      76.92812055
H      78.03433724      90.14188848      76.86764931
C      77.31057205      93.36954102      74.53383731
H      78.69763116      94.87376316      74.30518043
C      77.40127892      91.47225580      72.35120342
H      77.41639672      92.63443748      70.64856002
C      79.88815874      90.12866039      72.16412053
H      80.13760261      88.74916018      73.67590157
H      81.26198977      91.65933870      72.25671712
H      79.99398342      89.04206776      70.41801341
O      75.39816902      89.73748704      72.41167468
H      74.06591198      90.56707690      71.49893686
C      74.76511071      94.81329193      74.38265921
O      74.28323051      96.50459697      72.82552473
N      72.89617139      93.74370683      75.69223954
H      73.33458789      92.12799083      76.60686708
C      70.33748196      94.83218918      75.93034506
H      69.90662436      95.85075167      74.19179685
C      68.18886314      92.78372586      76.44624034
H      66.29535738      93.59252872      76.44246089
H      68.74444267      91.88988532      78.21880364
C      68.10949464      90.61998923      74.54706540
H      67.24777944      89.02317050      75.52405390
H      70.08992782      90.10976313      74.31462906
C      66.68842044      91.29840099      72.16034107
O      67.62194525      92.98970603      70.75438469
O      64.76278934      90.07007887      71.55184919
C      70.25433401      96.97891828      77.82007137
O      68.25122412      98.20913011      78.05817689
N      72.36893775      97.62142522      78.98981197
H      73.84481400      96.51404560      78.49470367
C      72.62594053      99.47713647      81.08740817
H      71.63950339     101.23269222      80.66033002
H      74.55913054     100.13476122      81.36330821
C      71.57147324      98.71557676      83.62153115
O      71.77934314      99.95145777      85.61330269
N      70.41496073      96.48003053      83.65743595
H      70.42440938      95.26304679      82.18911861
C      69.43797223      95.23848034      85.90243081
H      68.13784054      96.57829630      86.76792547
C      67.79957953      92.85931491      85.04260534
H      66.78101703      91.88232641      86.54304803
H      69.10160096      91.71036132      83.92766682
C      65.64340180      93.26749580      83.43822770
C      64.39996188      91.22659138      82.27226657
H      64.93475444      89.29718081      82.67666800
C      62.49133830      91.50627087      80.54883617
H      61.67686627      89.93401858      79.53027369
C      61.58426968      93.93645891      79.91010868
O      59.87217763      94.27849937      78.03927963
H      59.18809672      95.95846607      78.06195634
C      62.51590476      96.04350375      81.39165411
H      61.70143271      97.91244307      81.27638080
C      64.63995712      95.73925782      82.86564063
H      65.47521615      97.42111423      83.66121542
C      71.32013965      94.66400354      87.93577633
O      73.38750022      93.84764177      87.31594610
N      70.70597860      95.06840497      90.32439039
H      69.09215231      96.04728320      90.59840070
C      72.38594528      94.37109596      92.62607704
H      74.33803256      94.95313167      92.31616192
C      71.65840066      95.93767908      94.93154314
H      72.60137409      95.10808923      96.56426667
H      69.64773185      95.73736809      95.33594457
C      72.46909325      98.76470964      95.03547808
C      70.46409363     100.62231061      95.60239599
H      68.52334469     100.12531259      95.98601042
C      71.14250537     103.16399250      95.55515282
H      69.68930583     104.57183860      95.82349396
C      73.71442289     103.86508096      95.13185413
O      74.23220789     106.30282791      95.35484183
H      72.92640700     107.44044314      95.89530356
C      75.62871563     102.06795124      94.67454036
H      77.60725909     102.40999170      94.31738209
C      75.00888541      99.55650497      94.46667046
H      76.37326781      98.14487941      93.90353202
C      72.59759464      91.63288255      93.03236819
O      70.67574297      90.22881589      93.16842850
N      74.83125114      90.64644540      93.49535115
H      76.27500203      91.89555449      93.45944634
C      75.47753754      87.93657787      93.32527577
H      73.75788658      86.86888251      93.71266968
C      76.39405479      87.16556953      90.62485687
H      78.38960578      87.57564014      90.31683148
C      76.01233007      84.34042869      90.05415952
H      73.99599210      83.92846837      90.12596912
H      76.88160418      83.14801139      91.49035152
H      76.71908772      83.87177657      88.17766129
O      74.87282512      88.55451838      88.86741140
H      75.62682592      90.19858026      89.00725115
C      77.45419126      87.07108322      95.33972402
O      78.76944077      88.65089441      96.40363994
N      77.73953993      84.61632874      95.98978987
H      76.54523289      83.39178608      95.14130276
C      79.71241420      83.70170120      97.65463875
H      81.50009529      84.38956158      96.89874823
C      79.07179698      84.56152667     100.52324330
H      78.14394136      86.39645092     100.62906797
C      77.11404051      82.86644217     101.93297913
H      76.52066645      83.82453341     103.65640953
H      78.10992629      81.16001931     102.51501483
H      75.48887588      82.40345922     100.75001046
C      81.63048640      84.78262465     101.86494898
H      82.92872838      86.07708718     100.92386528
H      82.59802627      82.99494356     102.19943054
C      81.38293225      85.91835018     104.53324253
H      80.14138207      87.56052234     104.60505213
H      83.21785650      86.53440095     105.23433100
H      80.78388901      84.44814309     105.84471259
C      80.04689576      80.88033981      97.52424764
O      78.54078388      79.49894989      96.24112347
N      81.96118852      79.76729102      98.55414848
H      83.23297432      81.01451038      99.24011914
C      82.37692831      77.06120294      98.88485058
H      80.63082119      76.07476580      99.34405408
H      83.68272918      76.80797961     100.45521315
C      83.42761613      75.98783839      96.29403582
O      84.82790332      77.23127830      94.86918217
N      82.55456258      73.76363052      95.63263161
H      81.71363436      72.66380981      96.94599139
C      82.56401120      72.91892286      92.89630791
H      83.93973196      74.04331001      91.85317897
C      83.36903462      70.10889983      92.71489417
H      82.20496321      69.08277845      94.06982795
C      83.07801677      69.08466817      90.06549788
H      83.90382716      70.20149643      88.54615793
H      81.05978906      68.97317433      89.66487590
H      83.68083946      67.12313226      89.88597388
C      86.14882202      69.83866897      93.54070457
H      86.25842614      70.46416838      95.50224048
H      87.32612152      71.11423423      92.42954550
C      87.33179069      67.26675146      93.24401754
H      89.20261974      67.13069117      94.09439439
H      87.55855786      66.95683634      91.22012066
H      86.15827065      65.66615327      93.78636899
C      80.05256493      73.48206131      91.72089813
O      78.09291874      72.43515292      92.42198659
N      80.10358755      75.45115612      90.08817460
H      81.82890767      76.09366307      89.57983822
C      77.86048242      76.39035010      88.72568193
H      77.08002544      74.92770194      87.50302900
H      78.37826742      77.83977018      87.35563035
C      75.57202384      77.29552900      90.31116230
O      74.00166129      78.31409148      89.04882512
N      75.31502106      76.99128306      92.78670377
H      76.77955897      76.18625966      93.70700049
C      72.94341454      77.47883245      94.20210878
H      71.66973902      76.26562816      93.13252369
C      73.24766049      76.66625014      97.05937497
H      74.79156688      77.77362976      97.85117029
H      73.82969618      74.69148614      96.97433728
C      70.99510671      77.02907759      98.69965741
N      69.16774137      75.12045401      98.79603345
H      69.55324555      73.29308867      98.39919092
C      67.43486234      76.14846513     100.32293231
H      65.65096071      75.16769718     100.47411041
N      68.08303846      78.38590109     101.03913858
H      66.89062116      79.47816289     102.05014216
C      70.30157716      79.25706492      99.91664115
H      71.12171839      81.12600424      99.97522267
C      72.16484730      80.28129657      93.96967245
O      73.38561050      82.07464684      94.90508697
N      70.22409838      80.76128706      92.56749552
H      69.60237843      79.12289434      91.81538446
C      68.90884887      83.23115935      92.23490369
H      70.31669497      84.68057943      91.83239199
C      67.10227051      82.87400108      89.91054032
H      66.10449501      81.11277615      90.28848559
H      68.32492343      82.48282774      88.29860378
C      65.14073459      84.97726646      89.35307106
H      63.74044740      84.99238427      90.86296239
C      66.20087107      87.67390591      89.04315595
H      67.08526298      88.30318477      90.79493224
H      64.64184685      88.99671433      88.78993262
H      67.29502260      88.02728473      87.33295363
C      63.73477822      84.38767185      87.01547961
H      65.04057911      83.46926486      85.71534791
H      62.85227604      86.07708718      86.23313292
H      62.21165881      83.07998124      87.48602146
C      67.61060689      83.91146082      94.79926230
O      66.60905195      82.12944891      95.95955426
N      68.19075287      86.26983927      95.59105762
H      69.26222768      87.26194557      94.35895607
C      67.06825543      87.60776549      97.76613261
H      66.75078142      86.07708718      99.10783829
C      69.01656327      89.39355685      99.09461020
H      68.03768504      90.29117685     100.67253168
H      69.40962634      90.95636052      97.81337576
C      71.44864104      88.30129505     100.30403505
H      72.38594528      87.53784562      98.63540671
C      73.19663787      90.31574330     101.34338452
H      72.55602065      91.09431054     103.13862451
H      73.29490365      91.92012094     100.05648091
H      75.09959227      89.63166237     101.74778595
C      71.21620469      86.32464133     102.28257849
H      69.90284490      84.77695547     101.93675858
H      70.44141691      87.22604078     103.96443491
H      73.08892348      85.67079603     102.83248885
C      64.42452832      88.84931568      97.20299418
O      62.43653624      88.00649774      98.11573197
N      64.54358108      90.68235020      95.57782955
H      66.23866559      91.17556878      94.84650545
C      62.36850610      92.11287302      94.71233489
H      60.84538670      90.74282144      94.50257526
C      61.48411419      94.03094523      96.68331943