 %block lattice_cart
   139.252   0.000   0.000
   0.000 142.425   0.000
   0.000   0.000   162.84
 %endblock lattice_cart

 %block positions_abs
N      93.11813266      42.77684330      82.11163984
H      92.14870306      41.21214992      81.60141373
H      93.84945674      42.55385561      83.85963667
H      94.56944246      42.77306385      80.87008965
C      91.41359952      45.04073544      81.81306308
H      92.40948529      46.35031576      83.05461327
C      91.30777485      46.32574932      79.15232843
H      90.54621514      45.14278065      77.64810629
H      93.21639842      46.69046650      78.47202695
C      90.00386369      48.85231340      78.91989209
H      87.96673873      48.55562637      78.80461879
H      90.65959872      49.59308611      77.11520347
S      90.61802474      51.10864662      81.31228560
C      94.08189308      51.28250145      81.45590480
H      94.77920208      52.43523449      83.01114956
H      94.68471577      52.15933445      79.69090042
H      94.84345278      49.40222377      81.81306308
C      88.88892517      44.43035383      83.00548038
O      88.29744083      42.21370486      83.02248791
N      87.57178593      46.20102738      84.13553672
H      88.21618260      47.98870847      83.94467435
C      84.88837456      45.81363349      84.79883065
H      83.93784223      44.74782785      83.31728523
C      84.65971768      44.28484490      87.22901870
H      85.76898702      42.55574532      87.07406113
H      82.73219684      43.76139071      87.72790643
C      85.51765342      45.53017455      89.59684577
O      86.21874189      47.76383104      89.69511152
N      85.69717742      44.14500515      91.57160975
H      86.49275220      44.77239429      93.18543603
H      84.78066016      42.49527408      91.86829678
C      83.36525515      48.27216742      85.06528206
O      84.61247452      50.20157800      85.00670055
N      80.95774383      48.11720986      85.30338757
H      80.14894097      46.45236098      84.84229436
C      79.41572716      50.39055062      85.17866564
H      79.95240943      51.16722814      83.34563112
C      76.63027057      49.49671007      84.93867040
H      76.58302742      48.04540026      83.47791195
C      75.66084098      48.20791673      87.32728446
H      73.92229277      47.22714877      86.81327891
H      75.21675529      49.42112102      88.93166210
H      76.61704249      46.53550894      88.05860854
C      74.59503534      51.45635626      84.49269498
H      74.55157163      52.58830233      86.21234594
H      72.67318368      50.83085686      84.09396273
C      75.27344708      53.23647845      82.31006110
H      73.60292902      54.29661491      81.73369457
H      75.97453554      52.25004131      80.64332248
H      76.80601512      54.39866014      83.04705436
C      79.65005322      52.44657285      87.29137965
O      79.62359705      54.69345743      86.90776522
N      80.22264030      51.42801036      89.58550740
H      80.62704173      49.56474023      89.69511152
C      81.06923768      52.94924005      91.82861253
H      79.56123609      54.10197310      92.63363595
C      81.85914328      50.98203495      93.86195804
H      82.57723928      52.01004607      95.50035077
H      83.35958598      49.78394848      93.11929560
C      79.61036897      49.34364224      94.59895131
C      77.46363988      50.56062600      95.77814054
H      77.53355975      52.53350027      96.29214608
C      75.21864502      49.08097028      95.91231110
H      73.52733997      49.87087588      96.72867286
C      75.03534157      46.66212060      94.82949792
H      73.13427690      45.94780406      94.60273076
C      77.15750422      45.48671084      93.67676488
H      77.00065693      44.01272431      92.27269821
C      79.49698539      46.89077750      93.65786761
H      81.22041579      46.11221026      92.88874899
C      83.31045309      54.70857524      91.21067203
O      83.52588189      56.76459748      92.31994137
N      84.82034442      53.82607306      89.47968273
H      84.30633886      52.25004131      88.53859902
C      87.28454753      54.96179857      88.69733604
H      87.79288391      56.48491798      89.98612938
C      89.44072525      53.05884417      88.51403258
H      89.04388272      51.68123369      87.03626661
H      89.72607392      52.19334953      90.36029519
C      91.83878794      54.44023411      87.91687906
H      91.95595097      56.28838645      88.82205798
H      91.88225165      54.80873074      85.89298218
C      94.25385817      53.10230789      88.70111549
O      96.03587008      54.45724164      89.22267995
O      94.33889585      50.77416506      88.81260934
C      87.03321393      56.33940905      86.14053634
O      87.99886407      58.41054910      85.88164382
N      85.75386921      55.29439041      84.28482510
H      85.51198425      53.40844354      84.43789292
C      85.12836980      56.51326387      81.85463706
H      86.86124883      56.82506872      80.78505197
C      83.03455305      54.98636501      80.48458547
H      81.44340349      55.10541777      81.78660690
H      83.63548602      53.01727020      80.36742244
C      81.89693781      55.71957882      77.91077824
H      83.41627776      55.27171369      76.59363900
H      81.54166926      57.73780652      78.12242758
S      79.14738602      54.15299571      76.85064177
C      79.22675453      54.40621903      73.32819194
H      80.52310678      53.10041815      72.40033632
H      79.64438404      56.38098303      72.92190078
H      77.30490287      54.07740665      72.66489799
C      83.98130593      59.20612387      82.13809600
O      84.77121153      61.04293784      81.00048076
N      82.29000088      59.40076568      83.99380724
H      81.75520834      57.84174147      84.95189848
C      81.12215002      61.86307907      84.84229436
H      80.29067044      63.04226828      83.37019756
C      79.02077436      61.13553443      86.77359465
H      78.31968590      62.83628812      87.69956054
H      79.60469979      59.84485136      88.27214761
C      76.59058632      60.06216989      85.52637529
H      77.13671723      58.38787238      84.46056964
C      74.65928603      59.61430475      87.69956054
H      73.92040304      61.38308858      88.45545107
H      75.61926700      58.65810324      89.24913611
H      73.13994607      58.48424842      86.88697823
C      75.01077512      61.66276808      83.68578185
H      74.16039828      63.24257927      84.69300598
H      73.28923445      60.67255150      83.13020231
H      75.89138759      62.45645313      82.00392543
C      83.03833250      63.54493548      86.23880210
O      82.79833726      65.80504816      86.17644114
N      85.04711157      62.60007234      87.39909406
H      85.24553284      60.70089738      87.37452762
C      87.15415641      64.15720681      88.43466408
H      86.44928850      65.86929885      89.34173270
C      88.54310525      62.71723537      90.56249590
H      89.53143211      61.19978513      89.58172795
H      87.05589064      62.13897911      91.86640707
C      90.20417468      64.62585893      92.13096874
H      88.89648407      66.12441191      92.66576130
H      91.80666259      65.24757890      90.99524324
C      91.24541388      63.26525599      94.46856020
H      89.98307670      61.95000648      95.42665143
H      91.87280302      64.56916714      95.93498781
N      93.51497518      61.84229207      93.74479501
H      94.04031910      61.90843251      91.90987076
C      95.04376377      60.47790969      95.13752332
N      94.78109181      60.28137814      97.55259353
H      96.02453173      59.23824922      98.55792794
H      93.30332583      61.09207074      98.45210327
N      96.96372570      59.38942732      94.17943206
H      98.21661425      58.66566214      95.42098225
H      97.31332507      59.34596362      92.30293384
C      89.00608820      65.10018024      86.28037609
O      90.01142260      67.10329014      86.38242131
N      89.22718618      63.63942180      84.20167714
H      88.39192715      61.92166058      84.18089015
C      90.79565902      64.41987878      82.05683777
H      92.54554558      65.11151861      82.88831734
C      91.62902832      62.15787638      80.44301150
H      89.92071573      61.01270222      80.30695120
C      92.46617708      62.74558125      77.68590080
H      91.31533375      64.02114651      76.55017530
H      92.60979628      61.03537894      76.54828556
H      94.39180819      63.46934643      77.74637205
C      93.59812314      60.57050627      81.89243158
H      93.13891965      60.51759394      83.89932093
H      95.39903232      61.45867764      81.43700755
C      93.82489030      57.87008736      80.91733281
H      95.59178440      57.25781604      81.78471719
H      93.80599303      57.54505444      78.88398729
H      92.30177089      56.83451735      81.84140898
C      89.46907115      66.56093868      80.64521221
O      90.65581927      68.34673005      79.74759221
N      86.94061734      66.58361540      80.52804918
H      86.08268159      65.07561380      81.32173424
C      85.59135275      68.42420882      79.17122570
H      86.64015085      68.95144246      77.48181037
C      83.02132497      67.36029292      78.19990637
H      81.63993503      68.83049999      77.77093849
H      82.24464745      66.07338929      79.60775247
C      83.42950585      65.63308306      75.85097655
O      85.34946778      66.16409615      74.46202772
O      81.78355423      63.95689582      75.35019908
C      85.16994378      70.81282289      80.70757319
O      84.85813894      72.87451429      79.56050931
N      85.20017940      70.65597560      83.34374139
H      85.67261098      68.96278082      84.08640383
C      84.46507587      72.69121085      84.96890601
H      84.54255465      74.36550836      83.76892982
C      81.93662206      72.07138061      86.12352879
H      82.04622619      70.28936869      87.15531936
H      80.79711709      71.66508946      84.45867992
C      80.56090131      74.08393913      87.54649271
H      81.32624046      74.63573922      89.37763750
H      78.68440308      73.40552738      88.06616744
C      80.15083070      76.72955597      86.18588976
O      80.38137731      78.71565832      87.36885843
O      79.85603339      76.79947585      83.76892982
C      86.40960424      73.40174794      87.01170017
O      86.50220083      75.58816128      87.89609207
N      88.21807233      71.71611207      87.73357562
H      88.50909018      69.95299741      87.06272277
C      90.19850550      72.52680465      89.54393343
H      91.09801523      74.35605972      89.24535667
H      91.76130916      71.19265787      89.68188345
C      88.97207312      72.46822314      92.13285848
O      87.07100845      71.16809143      92.61662841
N      90.09457055      73.74756785      93.95455463
H      91.56288790      74.71510772      93.21378193
C      89.45962251      74.03858571      96.59639203
H      87.41304892      73.99323227      96.82126945
C      90.76731312      71.71800179      97.97400250
H      92.80254836      71.55170587      97.69999219
H      90.06433493      69.93410015      97.22567088
C      90.53865624      71.61784629     100.87473239
H      91.69516874      73.06348692     101.77424213
C      87.68327978      71.44399148     101.65140991
H      86.97463241      73.34316642     101.28102355
H      87.52454277      70.97911880     103.65263007
H      86.76109334      69.92087206     100.61395017
C      91.71973518      69.12529729     101.76857294
H      93.67371219      69.04781852     101.12039681
H      90.70873161      67.62107515     100.78969471
H      91.47596049      69.02703152     103.81136709
C      90.31377881      76.47066347      97.76802234
O      92.49074352      76.93742586      98.12896007
N      88.55822306      78.13551236      98.47477997
H      86.76109334      77.87661984      97.87951620
C      88.80388748      80.40318392      99.91097197
H      90.68794462      80.54680312     100.72922347
C      88.39570660      82.84660005      98.35005804
H      88.65459910      84.54168456      99.49145273
H      86.44739877      82.75400346      97.68676411
C      90.15504180      83.10738228      95.96900289
H      90.42149321      81.27245803      95.07327262
H      92.00886331      83.88594953      96.41308857
C      89.00230875      84.69853183      93.87140669
H      88.62058403      86.49944102      94.80115202
H      87.15604614      83.89728788      93.43676963
N      90.50086171      85.00655722      91.45633645
H      91.62524887      86.54668417      91.44310837
C      90.59912748      83.19053023      89.52503616
N      89.57489582      80.96065318      89.64786838
H      90.01709178      79.70776464      88.27403735
H      88.46562647      80.65262780      91.17098777
N      91.98429687      83.51367344      87.71278863
H      92.01642222      82.22299037      86.30494253
H      92.90837303      85.15584560      87.41043242
C      87.09557490      80.31436679     102.21076890
O      85.38159313      78.78746793     102.41863879
N      87.86847296      81.88850881     104.10805411
H      89.22151700      83.13761790     103.60349719
C      86.98786050      81.80158139     106.72721479
H      85.56111713      80.34838186     107.03901963
C      89.20073001      80.73388603     108.40151231
H      88.36169153      80.72065794     110.28178998
H      90.89014533      81.91118552     108.31458489
C      90.17015961      78.18275551     107.42452379
H      90.35913224      78.29613908     105.37417074
C      92.53231750      77.08104506     108.74733222
H      92.77987165      75.09683243     108.24844447
H      92.34145514      77.16608276     110.79768526
H      94.23307118      78.13929180     108.25978283
C      88.05744559      76.19476343     107.87238894
H      88.76042378      74.31448574     107.40562654
H      86.34913300      76.75034297     106.86138536
H      87.31856260      76.16074835     109.79424059
C      86.06378433      84.37538863     107.53790738
O      84.82412387      84.48688248     109.49944328
N      86.60613578      86.34637319     106.02612633
H      87.56044757      86.00433272     104.40663087
C      85.64048564      88.85970918     106.32281335
H      84.72963755      89.06190989     108.15773760
C      87.63792635      90.86659853     106.31147499
H      86.44550904      92.54467548     106.34926953
H      88.91160188      90.67195671     104.70520763
C      89.37458483      90.73431767     108.53190341
H      90.19661578      88.88805507     108.93441512
H      88.25208740      91.42973697     110.10982488
C      91.52887283      92.72986866     108.38639449
H      90.64637064      94.58935935     108.30135681
H      92.57389148      92.39538710     106.64406683
C      93.57544642      92.54467548     110.43674755
H      94.67904659      90.84959099     110.05502283
H      92.82522508      92.28767271     112.33970193
N      95.33289189      94.75754500     110.22131874
H      94.32377804      96.32412811     109.81880703
H      96.55932427      94.28322370     108.83614936
H      96.12846667      94.98620188     111.94285941
C      83.64493465      89.04490236     104.30269592
O      83.68650863      87.69563777     102.41674907
N      81.85536383      90.85526017     104.69008983
H      81.76276724      91.99098568     106.22265787
C      79.91461491      91.62437877     102.85705530
H      78.86581680      89.91228673     102.39785180
C      77.94552009      93.64827565     103.83782325
H      78.72786678      95.39060331     104.61072132
C      76.20130270      94.33046685     101.57582085
H      75.36226422      92.59569810     100.85016595
H      77.34836657      95.36981633     100.21710763
H      74.64794767      95.51532525     102.23155589
C      76.41106232      92.20830421     105.91841192
H      77.63371525      91.33336092     107.32625802
H      75.33580805      90.70030261     105.01134329
C      74.47220313      94.00921338     107.16752102
H      72.91695837      94.20385520     105.83337424
H      75.35281559      95.85547598     107.40373680
H      73.86182153      93.29489684     109.00433499
C      81.30545347      92.13460487     100.28702752
O      83.21218732      93.52355372     100.33616040
N      80.39082594      91.22753624      98.08360663
H      78.96975175      89.95197099      98.09116553
C      81.11081166      91.99665486      95.47767404
H      82.03299810      93.81457156      95.76680218
C      83.13281882      90.04456758      94.60084104
H      84.62948206      89.96330934      96.01246660
H      83.74131069      91.11415267      92.94922023
C      82.31834678      87.31202332      93.66542652
C      82.39393583      86.55613281      91.10673708
H      82.83802151      87.82602888      89.57227932
C      81.93095288      84.02767900      90.45289178
H      81.91772480      83.40028985      88.51214286
C      81.37348362      82.23243899      92.38230234
O      81.13537810      79.68130847      91.97412146
H      81.12215002      79.31092211      90.19777873
C      81.48875693      82.99021925      94.93721232
H      81.08057604      81.72410261      96.48300844
C      81.87804055      85.62827719      95.58349872
H      81.81567958      86.17818753      97.54692435
C      78.74109487      91.91161718      93.71644912
O      76.58869660      91.94563224      94.82571846
N      78.86014762      92.17995830      91.24468710
H      80.60436501      92.62026454      90.60406989
C      76.84380965      92.45207889      89.45511629
H      75.02589294      92.70530222      90.38675136
C      77.29923369      95.02588613      88.13041814
H      75.77989373      95.25832247      86.76036656
H      79.18896000      95.10525465      87.31027693
C      76.87593500      97.24631455      90.08817461
H      78.44440784      97.28977826      91.42421111
H      75.08447445      97.06490082      91.08972955
C      77.07246653      99.71807657      88.42521544
H      75.67028961      99.38548474      86.95122893
H      78.81857365     100.30389172      87.50113927
C      76.25421504     102.06322692      89.89731224
H      77.44285289     102.53565851      91.50924879
H      74.31913529     101.79677551      90.55304728
N      76.39783424     104.13058752      88.09829279
H      75.02589294     103.99074776      86.77926382
H      78.06835230     104.27042726      87.18555499
H      76.03311706     105.86157681      88.82394769
C      76.87971445      90.40172585      87.42366050
O      78.78077912      89.62693805      86.43344391
N      74.62905041      89.54567982      86.77737411
H      73.17018170      90.45463818      87.60318451
C      73.99410237      88.34192416      84.37553195
H      75.26210872      86.72053899      84.33017853
C      71.29935265      87.37816374      84.57017376
H      69.96520587      88.93907769      84.76481558
H      71.23699168      85.91362585      86.01770412
C      70.53401349      85.95897928      82.25525903
O      69.76300515      87.17596303      80.35230463
O      70.69652995      83.56847550      82.11541929
C      74.30023803      90.17117923      82.14565490
O      73.91851332      92.45396863      82.49336454
N      74.89550182      89.32836131      79.73625386
H      75.07691555      87.43674526      79.56239903
C      75.01644430      91.30879447      77.63676792
H      76.35814999      92.74876593      78.25092897
C      76.04445542      90.13338472      75.12532165
H      76.38460615      91.72642400      73.86487421
C      78.54645306      88.75577422      75.48814910
H      79.54800800      88.44963857      73.71180638
H      77.96630708      87.00588767      76.41222527
H      79.82768750      89.49843667      76.91867192
O      74.36259900      88.59892695      73.79873378
H      75.13738679      87.73343230      72.40600549
C      72.61838161      92.86214951      76.97158426
O      72.78278780      94.96919435      76.05128755
N      70.46598334      92.15350215      78.02416181
H      70.57936692      90.35448270      78.64966122
C      67.98666242      93.39505232      77.93912413
H      67.63706305      94.33802576      76.14199441
C      65.97410390      91.18974173      78.24714952
H      65.78135181      90.87604715      80.27293614
H      66.66763345      89.43229625      77.42133913
C      63.30770007      91.71697536      77.13599045
H      62.38740335      93.33647081      78.01471319
H      62.28157868      90.09936964      77.88999125
C      63.19242676      91.97397815      74.31651880
O      63.58360011      94.11314832      73.31496384
O      62.36094719      90.10692855      73.14110902
C      67.86194048      95.58902457      79.78538675
O      66.20654023      97.21418920      79.46791272
N      69.82347640      95.83657872      81.47102262
H      70.91384848      94.27755452      81.32362396
C      70.12772233      97.91716739      83.40043318
H      69.11293930      99.56122928      82.68422691
H      72.09303770      98.49164419      83.61397225
C      69.07136532      97.31434470      86.04605001
O      69.72710035      98.62581477      87.88475372
N      67.70320347      95.17139506      86.23691238
H      67.08904242      94.48731414      84.56450459
C      66.56747796      94.33235658      88.65198261
H      65.80213880      96.01043354      89.57038959
C      64.59649341      92.25932681      88.29671405
H      63.43998091      92.43696108      89.98990883
H      65.50167232      90.42062311      88.08695443
C      62.71810546      92.19507611      86.01581440
C      61.75623477      89.82157987      85.20134236
H      62.60661161      88.13027483      85.96479178
C      60.14051877      89.45875241      83.17177630
H      59.80225776      87.49532677      82.72202143
C      59.00101380      91.58658424      82.15888299
O      57.24545806      91.47886985      80.22002380
H      57.00357309      93.08891666      79.41689012
C      59.85328037      93.92417570      82.92422214
H      58.87062269      95.45107456      81.99447681
C      61.68442517      94.37015111      84.85930189
H      62.25890196      96.22019316      85.50369857
C      68.85593652      93.39127287      90.28470613
O      70.69652995      92.37837957      89.31149708
N      68.46476318      93.61237085      92.76402706
H      66.74889168      94.27377506      93.27614289
C      70.46031416      92.59758783      94.53092116
H      72.32358431      93.16639544      93.85817859
C      70.17307576      93.84291746      97.11039758
H      70.90817930      92.85648032      98.76390810
H      68.13595080      93.71441608      97.38440790
C      70.71353749      96.66049940      97.07071332
C      68.66696389      98.36314280      97.49212230
H      66.75456086      97.65071599      97.46188667
C      69.11860848     100.93317059      97.92109017
H      67.46131850     102.12180844      97.96455388
C      71.56202460     101.89315156      97.96644360
O      71.97398494     104.35168549      98.14785732
H      70.53590322     105.40237332      97.81337576
C      73.50655298     100.23208213      97.55637300
H      75.43218409     100.87647881      97.75479426
C      73.19285841      97.56756802      97.07638250
H      74.76700043      96.31845893      96.72300369
C      70.35637922      89.71953464      94.90886642
O      68.30980562      88.67829545      95.25279661
N      72.57491791      88.53089680      95.24334798
H      74.11693458      89.64016614      95.40964389
C      72.99065770      86.03456834      95.96522343
H      71.21242524      85.48276825      96.84394617
C      73.80890919      84.48499277      93.58227855
H      74.43440860      82.63873016      94.24935195
C      71.68863627      84.01067145      91.86262761
H      70.69652995      85.70197651      91.23334875
H      70.72487585      82.36094038      92.62985649
H      72.65806586      83.19241996      90.23935270
O      75.80446018      85.52245251      92.21411671
H      76.07280131      87.13249932      93.00402231
C      75.08636418      85.81536008      97.98912032
O      76.36192944      87.65595351      98.49367724
N      75.40194847      83.52501179      98.96799855
H      73.94307976      82.31936640      98.72233413
C      77.28789533      82.66518632     100.78780499
H      79.08880451      83.64406455     100.60450153
C      76.62082194      83.34359806     103.59215883
H      75.86871087      85.24466274     103.83404380
C      74.43818805      81.68819781     104.56914733
H      73.75410713      82.68975276     106.23399622
H      75.07313609      79.89106809     105.34771457
H      72.91317892      81.14017718     103.29736152
C      79.02644354      83.28123711     105.38739883
H      80.81034518      83.39084123     104.36316718
H      79.10392232      81.57103478     106.53635243
C      78.97164148      85.47142989     107.27712514
H      78.71085925      87.26100071     106.28879828
H      80.76688147      85.70386623     108.26167255
H      77.62048716      85.08403601     108.78323701
C      77.73198102      79.84193521     100.33993985
O      76.06146295      78.46810419      99.31381846
N      79.88059983      78.81392410     101.29236191
H      81.19206989      79.72099273     102.34304975
C      80.34736223      76.16074835     101.43787083
H      78.59180649      75.35572495     102.15029766
H      81.65316311      75.89807640     103.01012313
C      81.48686720      75.00045640      99.03413897
O      82.87014686      76.21366070      97.68109492
N      80.37003895      72.80081497      98.19699021
H      79.32691002      71.72934014      99.38184860
C      80.37003895      72.01090937      95.63641105
H      82.01977002      72.79136633      94.67831982
C      80.61003419      69.12151784      95.42098225
H      78.79211748      68.47145199      96.13529880
C      80.76499175      68.14830878      92.66954075
H      79.16817301      68.81160273      91.55649195
H      80.83680135      66.10740437      92.38986125
H      82.52999612      68.82105135      91.84562007
C      82.88337494      67.98579233      96.93087359
H      82.45440707      68.20500057      98.93209375
H      84.48019368      69.23679114      96.56993586
C      83.78099494      65.25135834      96.64363518
H      85.42883629      65.03781928      97.85872921
H      84.18917583      64.91876652      94.65186364
H      82.52432695      63.73012867      97.23889898
C      77.99654270      72.95388280      94.48745745
O      75.95752801      71.89374634      94.72178353
N      78.01543996      75.26501808      93.46322579
H      79.57068472      76.31759564      93.80526625
C      75.85548279      76.44042785      92.04404134
H      75.54934712      75.19698793      90.43021506
H      76.27122258      78.34149251      91.36185013
C      73.23065294      76.84860873      93.27992234
O      71.56769378      77.53457939      91.82105363
N      72.74877273      76.53491417      95.85183986
H      74.23409761      76.49522991      97.04992634
C      70.34882031      76.78057859      96.99890372
H      69.15451328      75.59383046      95.81404534
C      70.34504086      75.89051749      99.83538293
H      71.57903214      77.11694986     100.93898309
H      70.98187863      73.94031994     100.03569391
C      67.65785004      76.04358532     100.98622625
N      66.14795872      73.99701172     100.96165981
H      66.63739783      72.40397244     100.03002474
C      63.98989127      74.44487686     102.23911480
H      62.45732323      73.16175270     102.65296485
N      64.11650293      76.90152106     103.07437383
H      62.67653148      77.96165752     103.74522666
C      66.39551286      77.93142190     102.32604220
H      67.17785956      79.80225096     102.54525046
C      69.39828797      79.49611529      96.81371054
O      70.65495597      81.17608198      97.73022782
N      67.19486709      79.88350920      95.71766928
H      66.12339227      78.36038978      95.28681169
C      65.84938196      82.25700543      95.38129800
H      67.22132326      83.64028511      94.71422462
C      63.95776592      81.74299989      93.16086959
H      62.19654100      80.99277853      93.91676011
H      64.68342082      80.49767024      91.68877278
C      63.27746445      84.27145368      91.79270773
H      64.94042360      85.37127440      91.27870218
C      61.70710188      83.65918236      89.49858000
H      62.63495750      82.16251913      88.42710518
H      61.29892100      85.26167028      88.27403735
H      59.99689957      82.67274522      90.08061570
C      61.82615464      86.27645331      93.35740112
H      60.22177700      85.52623196      94.40997867
H      61.35561279      87.77500627      92.02514407
H      63.26234664      87.19108085      94.51769308
C      64.60216259      83.22832476      97.80203742
O      63.16408087      82.00378211      99.10783829
N      65.11616815      85.63583608      98.43509572
H      66.15929707      86.70164173      97.24267843
C      64.25634268      86.86793764     100.65363441
H      63.72155013      85.51111416     102.10683395
C      66.36716697      88.50633036     101.79691883
H      65.50734150      89.91039700     103.03279984
H      67.33848629      89.36993528     100.19632065
C      68.38728440      87.11360206     103.47499580
H      68.75767075      85.34292851     102.49044839
C      71.03290124      88.29846047     103.39940676
H      72.30846650      87.41595827     104.75623025
H      70.92329711      90.33558543     103.68286570
H      71.61682667      87.77878573     101.49267291
C      67.75611581      86.55046362     106.23399622
H      65.74733674      86.18574644     106.51556544
H      68.34004124      88.06791386     107.49633339
H      68.69719951      84.79301815     106.74233259
C      61.88662588      88.62160366     100.15852613
O      59.79847830      88.10003919     101.10338928
N      62.17764373      90.42440256      98.39352174
H      63.84816179      90.58313958      97.48267366
C      60.13107014      92.11003843      97.53180654
H      58.51157469      90.85337044      97.35039283
C      59.56415224      94.09992024      99.55570343