 %block lattice_cart
   139.252   0.000   0.000
   0.000 142.425   0.000
   0.000   0.000   162.84
 %endblock lattice_cart

 %block positions_abs
N      90.59440317      41.78190240      81.68078224
H      89.98024212      40.18508367      80.83796430
H      90.20134010      41.51545099      83.52893457
H      92.49546784      41.63261402      81.63164935
C      89.69867290      44.17240619      80.60174851
H      90.49235795      45.62560572      81.82818089
C      90.69833812      44.65050694      77.86353508
H      90.08984625      43.04801903      76.72214039
H      92.74491172      44.48421103      78.02983100
C      89.98402157      47.19029911      76.77883218
H      87.92799935      47.20163747      76.60497736
H      90.61896962      47.34903612      74.82674490
S      90.95723063      49.92095363      78.63832287
C      89.63064275      52.41539236      76.59930818
H      89.50781054      54.05756453      77.83518919
H      87.85618975      51.83902584      75.73003408
H      90.84195732      52.74042529      74.96658465
C      86.78282520      44.46153431      80.83040540
O      85.34852293      42.66062514      80.30128203
N      85.86819766      46.72920589      81.57873702
H      87.08140196      48.19941296      81.70345895
C      83.31517742      47.38872037      82.06628640
H      82.21535670      46.41740105      80.61686632
C      82.42700605      46.48354147      84.79694093
H      82.69345746      44.44830623      84.97079575
H      80.39177081      46.76511069      84.96323684
C      83.73658638      47.88571839      86.85485288
O      83.49092196      50.15527969      87.16476800
N      85.13876331      46.55724079      88.46678943
H      85.98158124      47.58903136      89.83306155
H      85.57717981      44.70530901      88.34584694
C      82.43456495      50.18173586      81.67133360
O      84.02004533      51.81634912      81.12898215
N      80.02327418      50.58802702      82.01148434
H      78.87998976      49.17073229      82.57840223
C      78.81762879      53.13159864      81.80361445
H      79.35242134      53.89315834      79.96680047
C      75.89044273      52.69885131      81.93211584
H      75.36887827      51.23053397      80.58852043
C      74.80762955      51.67084020      84.45867992
H      74.73393023      53.26387948      85.76259107
H      76.02272357      50.13071325      85.07662042
H      72.86688063      51.10770176      84.06372712
C      74.36354387      55.01187632      81.21590956
H      74.52039116      56.64082040      82.46690838
H      72.38877987      54.43173034      81.14976914
C      75.10809604      56.15327101      78.61942561
H      73.63221979      57.51387396      78.15266321
H      75.51060774      54.71707901      77.19646170
H      76.89010795      57.07734718      79.07107020
C      79.87209607      55.02510440      83.66499486
O      80.41255780      57.12836979      82.81083857
N      80.37665300      54.42795089      86.10841099
H      80.35208656      52.59113691      86.62619600
C      81.50481961      56.32712583      87.74113452
H      80.05917898      57.79166373      87.82239275
C      81.80717582      55.09880373      90.32250067
H      82.81062049      56.42728133      91.53381523
H      83.01093148      53.42639594      90.38297191
C      79.34297271      54.56590091      91.58483784
C      77.82552248      56.47641421      92.39930988
H      78.37354311      58.43795012      92.26891877
C      75.46903376      56.02099017      93.43299018
H      74.31630071      57.64237535      93.89030394
C      74.49204526      53.55111788      93.61440390
H      72.57397305      53.13537809      94.17187317
C      76.05106947      51.56312580      92.95866887
H      75.20636181      49.70930428      92.91142571
C      78.43590408      52.08469026      91.83239199
H      79.69635153      50.58802702      91.25980492
C      84.14665699      57.08112663      87.00981044
O      84.83451737      59.26187080      87.39153515
N      85.81906478      55.57501476      85.79471642
H      85.40521472      53.71552407      85.92888699
C      88.30594461      56.19862444      84.79694093
H      89.43411122      57.26631981      86.15187469
C      89.53993589      53.66072200      84.25458947
H      91.37674987      54.06890289      83.41933044
H      88.68011042      52.48342251      82.79761049
C      89.98213185      51.96374778      86.50903297
H      90.64164633      50.11181599      85.88731301
H      88.21712747      51.78989296      87.55216189
C      92.08539723      53.33190963      87.98679894
O      94.34550990      52.44562799      88.08317498
O      91.64698073      55.36336541      89.02047924
C      88.11697198      57.70284659      82.30250219
O      89.77426195      59.31478313      81.82440144
N      86.04205249      57.29655543      80.91922253
H      84.64176529      56.28177240      81.73369457
C      85.64520996      58.43606040      78.37754064
H      87.43289105      58.17527817      77.38543433
C      83.51359868      56.88459509      77.11709319
H      81.73536622      57.03010402      78.14321458
H      83.88776449      54.86069821      77.03961441
C      82.78794377      57.41749792      74.38454894
H      84.08807548      56.31578747      73.22614671
H      83.19045548      59.40360027      74.01227286
S      79.59052685      56.67672520      73.50015703
C      79.59619603      56.88459509      69.95314074
H      81.28939081      56.30444912      68.93079880
H      79.27683229      58.88770499      69.59598246
H      78.03150264      55.94729084      68.99504950
C      84.99136466      61.28576768      78.74036809
O      86.17244360      62.84479189      77.43456721
N      83.39643565      61.84701639      80.60741769
H      82.41188824      60.39948604      81.36897739
C      82.82195885      64.36791129      81.41055137
H      82.13409847      65.34301007      79.73058468
C      80.63932496      64.29043252      83.30594687
H      80.40499889      66.11212868      84.24136139
H      81.16277915      62.89959395      84.73457996
C      78.15622458      63.56288789      82.01715352
H      78.52472121      61.91315681      80.83985403
C      76.09264345      62.99408026      84.09585246
H      76.51027296      64.04854755      85.81550341
H      76.31185170      61.00041900      84.56072514
H      74.25582947      63.34556936      83.23791672
C      77.20947170      65.51119571      80.08207378
H      78.67400959      66.12913622      78.77060371
H      76.29862362      67.11179390      81.00803967
H      75.59186597      64.86301959      78.98414279
C      84.97435712      65.65292519      82.52926935
O      85.24647771      68.06799542      82.09463230
N      86.75258958      64.36035239      83.92010792
H      86.75258958      62.45361854      83.79916543
C      89.01081252      65.72473479      84.85552244
H      88.30783433      67.39336312      85.83440067
C      90.29771614      63.93894342      86.80194054
H      92.27814932      64.50397159      86.84162480
H      90.21834764      62.01709176      86.06305756
C      89.11663720      64.15437222      89.49291081
H      87.14565265      63.56855706      89.42110121
H      88.98813581      66.15370266      89.98046020
C      90.52259357      62.56511239      91.43554946
H      89.69489345      63.34178991      93.15331068
H      92.52381374      62.96762410      91.15398024
N      89.73079825      59.90248802      91.43743919
H      90.66432305      58.73463716      90.25447052
C      88.50247615      58.59101796      93.28937098
N      87.71823973      59.48863795      95.48523295
H      86.84140672      58.57212069      96.91008659
H      88.14531787      61.32356220      95.79514807
N      87.78438015      56.30822857      92.80371131
H      86.85274507      55.22541539      94.07171767
H      88.66310288      55.63359628      91.24846656
C      90.80227307      66.62046506      82.78249268
O      92.15342738      68.42137424      83.27382152
N      90.86085458      65.60946148      80.52804919
H      89.81961539      64.01075302      80.44490123
C      92.20633972      66.74518700      78.40021736
H      93.81638654      67.81666182      79.11453390
C      93.25324810      64.64759079      76.45946843
H      91.58084031      63.54965980      75.96813959
C      94.21322906      65.80032384      73.91589682
H      95.34895458      64.46239761      72.84064254
H      95.20155592      67.57288712      74.28439345
H      92.69388911      66.00063483      72.53828633
C      95.29415251      62.85046107      77.68779054
H      95.35273403      62.94872683      79.74381277
H      97.19899664      63.37391525      77.10575483
C      95.05793672      60.28610246      76.53316776
H      95.65697997      60.28043328      74.56407294
H      93.12285698      59.62280852      76.78828081
H      96.18988279      58.82912347      77.44968502
C      90.62274907      68.78231196      76.96969454
O      91.49580262      70.69282526      76.01160330
N      88.07728772      68.46672767      77.12276237
H      87.24769787      66.97951306      77.98825702
C      86.31606280      70.25629849      75.86420464
H      87.28549240      70.90636434      74.16723042
C      83.91422066      68.95616678      75.27838949
H      82.43267523      70.32810809      74.87209833
H      83.32273632      67.81099264      76.88465685
C      84.09941384      66.98329251      73.24126452
O      82.33629919      65.36379706      73.10898368
O      85.68300449      67.22517748      71.39500191
C      85.70568120      72.58255158      77.40244186
O      84.76837695      74.40613747      76.26860608
N      85.84174150      72.59011048      79.82318127
H      86.30661417      70.91014379      80.59985879
C      85.32773594      74.76518547      81.50503769
H      85.00270301      76.38846037      80.27671559
C      82.96368832      74.29464362      82.82784611
H      82.68778828      75.79508631      84.21301550
H      82.99392394      72.52963924      83.88798257
C      80.56373590      74.25873882      81.18378422
H      79.11431582      73.38379553      82.35730426
H      80.77349552      72.96049684      79.59830384
C      79.58107822      76.85333304      80.16333201
O      77.51749709      76.95348854      79.04650376
O      80.82451814      78.83376622      80.46001904
C      87.44611914      75.20171225      83.39098455
O      88.42310764      77.32009544      83.62342089
N      88.38153366      73.18915372      84.63631419
H      87.46123695      71.52052539      84.49458472
C      89.85552019      73.36300854      86.86430151
H      91.66776772      74.15480387      86.28226581
H      90.23724490      71.54509183      87.75436261
C      88.68577960      74.85022315      89.10740665
O      86.43889501      75.14502046      89.24913612
N      90.25047298      75.77807877      90.95366925
H      92.10051505      75.52296572      90.55682673
C      89.50592082      76.44704189      93.51424841
H      87.51036983      76.25806926      93.99423889
C      91.05738612      74.61022791      95.21500209
H      93.03215012      74.87101014      94.68398900
H      90.48668877      72.67892762      94.79170340
C      90.77770663      74.85589233      98.04014293
H      91.55060469      76.65113233      98.69398823
C      87.94689661      74.79353136      98.92831429
H      87.13998347      73.09466741      98.09116554
H      87.08518141      76.62278643      98.53714095
H      87.82784385      74.41180665     100.94843172
C      91.98713147      72.48428581      99.28547257
H      93.98079273      72.43515292      98.78280537
H      91.04415804      70.69849444      98.86973278
H      91.75280540      72.81120846     101.30559000
C      89.97079349      79.29296971      94.21722660
O      92.13830957      80.18114108      93.91676011
N      88.12453088      80.58554251      95.40586445
H      86.50314571      79.59910538      95.58916790
C      88.55916793      82.79463257      97.04614689
H      90.57928536      83.18013674      97.17275855
C      87.09463004      85.14167265      96.00301796
H      86.85841425      86.62888726      97.40897434
H      85.08774070      84.79396301      95.69877203
C      88.37586448      86.13944815      93.54070458
H      90.42432781      85.90323236      93.51424841
H      87.85996920      88.09531488      93.14575178
C      87.55383354      84.48593762      91.17098778
H      85.78315998      83.47493405      91.45822618
H      88.97490772      82.99494356      91.20689258
N      87.26659514      85.79173850      88.80505044
H      88.09429526      87.51327918      88.77670454
C      86.24236347      84.84309590      86.61863709
N      85.21057291      82.66613118      86.40698774
H      85.51103939      81.81008516      84.72513133
H      84.34885771      81.73449611      87.82995166
N      86.33496006      86.22637556      84.58340185
H      85.41655308      85.36466036      83.14909958
H      87.04738688      87.99704911      84.58907103
C      87.47635476      82.35432634      99.68420482
O      85.73969628      80.82364803      99.95065623
N      88.52515286      83.64878887     101.72888869
H      89.87441745      84.93758221     101.33393589
C      87.54627463      83.45036760     104.21198907
H      86.01937577      82.07275712     104.11372330
C      89.73268797      82.70203598     106.02234687
H      89.07506322      83.16879838     107.91774237
H      91.22746149      84.05319030     105.58959955
C      90.75125046      79.95248420     105.67274751
H      92.09862532      79.66146635     107.20153609
C      88.66499261      78.07976542     105.84849205
H      89.46812629      76.23350281     106.28690856
H      87.40832461      77.84543936     104.23277606
H      87.43100133      78.82620732     107.31680940
C      92.48601921      79.64067936     103.40507593
H      93.13041589      77.69048180     103.23122111
H      94.04504342      80.96915695     103.61294582
H      91.36919096      80.10744176     101.74022705
C      86.07039838      85.70481109     105.19653648
O      85.18033729      85.48560284     107.29224296
N      85.71135038      87.66256755     103.62617391
H      86.51826352      87.70225181     101.89518461
C      84.27137893      90.04362271     103.99844999
H      83.16777876      89.82819391     105.72565984
C      86.11386209      92.32074292     104.45198431
H      87.52926709      92.43412650     102.96099025
H      87.11163758      91.78595037     106.17352498
C      84.97435712      95.06651525     104.87906245
H      83.43611990      94.83029946     106.22643732
H      84.37720360      95.84130304     103.06681492
C      86.92455467      97.04316897     105.87872767
H      88.07917745      97.38331971     104.20820961
H      88.03004457      96.33641133     107.46798750
C      85.47513459      99.42044467     106.50611681
H      84.33185017      99.18233916     108.19931159
H      84.23358440      99.81539747     104.91307753
N      87.10218895     101.66543953     106.96343058
H      88.61208027     101.62575528     105.79746944
H      87.82595413     101.62953473     108.72843495
H      86.21401758     103.34540623     106.81036275
C      82.48180811      90.54628991     101.79124966
O      82.56684580      89.37843905      99.70310208
N      80.48247767      92.07318877     102.04636271
H      80.05162007      92.63632721     103.81892599
C      78.45858079      92.53995117     100.12451105
H      77.84441974      90.63510705      99.63696166
C      76.36476404      94.35597816     101.24511875
H      77.29828884      95.95090716     102.15596684
C      74.33519798      95.13076594      99.25712667
H      73.26372316      93.49048350      98.62217863
H      75.33675292      95.94712771      97.65085931
H      72.91790324      96.54050177      99.74467606
C      74.88321861      92.84230738     103.38428894
H      76.14744551      92.31507374     104.92252616
H      74.32952880      90.93935298     102.81926077
C      72.74026897      94.26716102     104.61639050
H      71.03762556      94.35597816     103.46176772
H      73.25616425      96.20979967     105.06614536
H      72.18468943      93.17111976     106.26990102
C      79.75682277      93.93456919      97.76613261
O      81.68623333      95.19690636      98.00990731
N      78.98014525      93.41111500      95.50790967
H      77.29828884      92.51160527      95.45877678
C      79.88532416      94.37676514      93.09094971
H      80.53161056      96.29294763      93.47645388
C      82.09819367      92.72514435      92.02703380
H      83.71579939      92.66467311      93.30070933
H      82.63487594      93.95913563      90.46800959
C      81.36497986      90.21180835      91.10673709
C      80.31240230      89.75827404      88.68599768
H      80.03272281      91.35320304      87.44444749
C      79.79650702      87.39422642      87.82806193
H      79.09163911      87.11454692      85.93644589
C      80.07807624      85.34198364      89.57227932
O      79.09352883      83.07053261      88.81260934
H      78.83652605      83.08754015      87.01925907
C      80.95679898      85.81252549      92.02892353
H      81.03994694      84.14200743      93.19866411
C      81.84119089      88.21625736      92.83961611
H      82.62353759      88.42223753      94.71422462
C      77.71969780      94.80951247      91.26169464
O      75.82619204      93.45835816      91.36751932
N      77.98614921      96.63687782      89.49102109
H      79.48848163      97.80850813      89.60818412
C      76.18335031      96.82962990      87.26303376
H      74.22370412      96.63876754      87.86774618
C      76.12665852      99.43745221      86.09518290
H      74.99849191      99.33918644      84.37553196
H      78.04095128      99.88720707      85.48669103
C      75.06085288     101.47268745      87.93766606
H      76.34397705     101.97913410      89.46834437
H      73.61143280     100.60719280      89.11685528
C      74.33519798     103.95956728      86.52037132
H      73.09742724     103.44367199      84.95945739
H      76.02083385     104.77970850      85.66054585
C      72.93113133     105.71323330      88.23246336
H      74.04984930     106.22156967      89.88408416
H      71.12644270     104.85151810      88.72568193
N      72.13555655     107.98846378      86.91721385
H      73.41490126     109.38686125      86.70178505
H      70.89400636     108.82561253      88.10018252
H      71.12644270     107.61429797      85.34118210
C      76.55373667      94.72258506      85.32606429
O      78.63432534      94.38243432      84.30372236
N      74.46558909      93.89110548      84.31506072
H      72.78940185      93.94401782      85.22590880
C      74.35220551      92.58719433      81.85652678
H      75.84130985      91.16234069      81.83007061
C      71.78028800      91.16989959      81.88298295
H      70.08331377      92.33019155      81.97746927
H      71.93146611      90.11543231      83.64609760
C      71.33242287      89.35576233      79.78160729
O      69.56174931      89.76961239      78.17345020
O      72.92168269      87.66256755      79.35074969
C      74.36165414      94.32385281      79.31106544
O      74.30496236      96.66900316      79.34319079
N      74.54873705      92.98214713      77.13788018
H      74.38433086      91.09053109      77.31362473
C      74.47125827      94.29928637      74.57352157
H      75.80162560      95.87153866      74.59241884
C      75.07219124      92.32074292      72.47970482
H      73.35631975      91.23037083      72.15089244
C      76.11154071      93.36198211      69.96069964
H      75.03817617      95.03061045      69.41456874
H      75.96603178      91.95980519      68.45836722
H      78.04662046      94.00637879      70.23470996
O      76.91656412      90.53117210      72.88788570
H      76.33830787      89.47481509      74.24470919
C      71.80296472      95.61075643      74.19368658
O      71.58564619      97.40599642      72.86898844
N      69.82253154      94.66589327      75.45791349
H      69.97748910      93.03128001      76.42923281
C      67.36210788      95.92445100      75.62798886
H      66.76495437      96.70490796      73.81574132
C      65.36088772      94.01960687      76.23459100
H      63.73950254      94.94179331      77.10764456
H      65.93914397      92.78183614      77.77660767
C      64.41224511      92.49081828      73.92912490
H      62.85133117      91.25493728      74.46769690
H      65.96371041      91.22659138      73.43590633
C      63.52974292      94.11787264      71.73137320
O      64.62956363      93.81551643      69.63188726
O      61.70048785      95.62209479      72.01105269
C      67.51139626      98.02960611      77.60842203
O      65.66702338      99.17666998      77.97502894
N      69.57875685      98.51337604      78.87075921
H      71.19069339      97.67811701      78.28305433
C      69.92457676     100.21601945      80.97780405
H      69.14411979     102.01314918      80.34096628
H      71.97870926     100.19145301      81.16299723
C      68.62066561      99.55839470      83.50247840
O      68.95136771     100.93789490      85.37708690
N      67.58131613      97.39843752      83.74058392
H      67.05786195      96.65955453      82.06061723
C      66.36055294      96.41389011      85.88164383
H      65.17569454      97.88976636      86.69989532
C      64.51051088      94.20102060      84.85174299
H      63.50517648      93.24103963      86.36919322
H      65.54419117      92.65900393      83.95790244
C      62.58487976      95.03816935      82.91666324
C      61.61167071      93.03128001      81.38409521
H      62.01607214      91.13588452      82.02471243
C      59.71249577      93.48481433      79.54350178
H      58.92259017      92.03350452      78.34730502
C      58.71472027      95.87342838      79.30161681
O      56.84011177      96.28349899      77.62165012
H      56.18059729      97.96913487      77.72180561
C      59.87123278      97.93700952      80.62631495
H      59.10778335      99.79838994      80.28427449
C      61.88190157      97.54016699      82.42722413
H      62.60566675      99.14265491      83.46279415
C      68.23894089      95.41044544      88.03593183
O      70.00583499      93.98181235      87.47657284
N      67.55108051      95.65988931      90.44722260
H      65.78985559      96.29483735      90.82705759
C      69.30474653      94.72825424      92.33127974
H      71.20392148      95.41233516      91.92498858
C      68.64901150      96.04161403      94.81438011
H      69.77906784      95.14399403      96.28647691
H      66.65723997      95.56729272      95.05059590
C      68.78507180      98.91777748      94.78981367
C      66.72715984     100.64120787      94.38352251
H      64.82609517      99.90232488      94.43265540
C      67.04652359     103.24525073      94.32305127
H      65.43836649     104.46601393      94.03203342
C      69.46915272     104.16176799      93.95833409
O      69.96237129     106.64297864      93.40653401
H      68.35421420     107.46500959      93.54448403
C      71.68391196     102.58951570      94.35139716
H      73.60009444     103.19800757      93.99423889
C      71.25305436     100.00625983      94.86918217
H      72.75349705      98.76281992      95.48145350
C      69.31986434      91.85209079      92.60340033
O      67.45281474      90.64644540      93.12118534
N      71.49871878      90.64266595      92.81882912
H      73.02183819      91.79350928      92.83205721
C      72.22437368      88.00838747      92.89819763
H      70.51039192      86.87077223      93.00402230
C      73.30151768      87.33564490      90.22801435
H      75.13833166      88.22759572      89.95211431
C      73.43568825      84.56530613      89.58172795
H      74.61109802      83.62800188      90.98768433
H      74.39755894      84.31019308      87.77892905
H      71.50816741      83.91335055      89.25102585
O      71.61399209      88.19358065      88.44978189
H      72.21114560      89.83764254      87.96034277
C      74.24260139      87.51894835      94.78414449
O      75.67690366      89.22915067      95.47956377
N      74.36354387      85.18324663      95.74790491
H      73.13711149      83.86421767      95.11484660
C      76.22870374      84.34231842      97.64141068
H      77.78961768      85.68024465      97.70377164
C      74.77550421      84.48404790     100.17175421
H      73.99693697      86.37566394     100.40797000
C      72.50972236      82.66235173     100.33805012
H      70.93935979      83.19903400      99.11917665
H      71.83131061      82.50361472     102.27690932
H      73.06908135      80.83309666      99.57271097
C      76.55184694      84.01728550     102.42241825
H      77.47214366      82.22771468     101.98967092
H      75.40667280      83.81697451     104.12317193
C      78.63621506      86.02795429     102.93453408
H      80.14043721      85.95803442     101.52668798
H      79.57918850      85.93346798     104.76378915
H      77.89922180      87.95169568     102.89484983
C      77.27183267      81.84032078      97.06315442
O      76.02083385      80.41735687      95.67609531
N      79.56407068      81.13356314      97.91920044
H      80.66389140      82.55652706      98.55792794
C      80.25760024      78.46715932      98.08171691
H      78.60031027      77.41836121      98.71099577
H      81.53127578      78.30275313      99.69365345
C      81.28372163      77.25773448      95.61373434
O      82.92589380      78.35377574      94.40241978
N      80.41822698      74.93526084      95.13941304
H      79.09163911      74.19259840      96.29592554
C      80.42767561      73.93370589      92.53159073
H      81.95268474      74.98061427      91.62641182
C      81.20057367      71.11045478      92.40686879
H      79.71146934      69.84055870      93.04181683
C      81.69001279      70.56432387      89.52503616
H      83.12998424      71.80587406      88.73702029
H      80.13476803      71.25407398      88.36285448
H      82.12464984      68.63680304      88.94489018
C      83.58162883      70.83455474      93.96589300
H      83.40777401      71.50162813      95.90853165
H      85.14821194      71.77752817      93.01536066
C      84.45657211      68.03020089      93.92620874
H      86.34629842      67.90169950      94.73312188
H      84.90254752      67.51430561      91.98168037
H      82.89565817      66.95305689      94.73501161
C      77.93134715      74.61778682      91.16720833
O      76.14177633      73.27041195      91.17098778
N      77.81229439      76.73805974      89.64219919
H      79.40533367      77.78874757      89.74235469
C      75.82052286      77.56764959      87.93577633
H      75.53517419      75.96327195      86.67532888
H      76.69735587      78.93959089      86.67343916
C      73.12199368      78.22527435      88.87686004
O      71.57241811      78.47660795      87.21012143
N      72.53428880      78.85455321      91.28437136
H      73.82497187      78.72983127      92.68843801
C      69.90567950      78.58243262      92.45033249
H      68.88144784      77.29930845      91.20500285
C      69.97748910      77.35222079      95.04492672
H      71.19825230      78.52007165      96.22411594
H      70.78440223      75.46060475      94.91831506
C      67.41690994      77.06876184      96.14852689
N      65.66891311      75.29808829      95.44932815
H      65.96371041      73.93748534      94.14163754
C      63.48249976      75.77240959      96.84205645
H      61.62300907      74.95415810      96.65497354
N      64.02485121      77.76985031      98.33305051
H      62.67747635      78.78274361      99.22689105
C      66.45314953      78.61077852      97.85306002
H      67.37533597      80.19058971      98.75445947
C      68.63578342      81.19781384      92.49190647
O      69.55230068      82.82864765      93.93943683
N      66.47015706      81.50961868      91.15775970
H      65.85788574      80.09799312      90.03148281
C      65.08498767      83.89256356      91.22956930
H      66.40968582      85.38166789      90.70800483
C      63.19148191      83.76217244      89.05638404
H      62.05197694      82.05197013      89.18488543
H      64.37634031      83.70737038      87.36885844
C      61.66458305      86.28495707      88.98835389
H      60.65735892      86.61187972      90.75524799
C      63.15935656      88.69624785      88.31561132
H      61.90268856      90.31952275      88.48190724
H      64.31775879      88.55262865      86.61863709
H      64.57098212      89.00994242      89.78392867
C      59.80131290      85.73693644      86.84729398
H      58.94715661      83.89823274      87.21390088
H      60.93136924      85.74071589      85.12575330
H      58.36701063      87.20336406      86.66776998
C      63.89446010      84.38389240      93.83172243
O      63.06487025      82.50739417      95.08083152
N      63.65446486      86.69313796      94.75012942
H      64.63523281      88.10287379      93.91487039
C      62.24472903      87.42257231      97.06693388
H      61.92158583      85.67079602      98.10061417
C      64.04941765      89.20647395      98.59761219
H      63.10266477      89.64866991     100.37395492
H      64.33287660      90.90722763      97.47700449
C      66.44937007      88.04807172      99.44231985
H      67.29407773      87.13344419      97.80014769
C      68.32586830      90.17968300     100.03569391
H      67.70792780      91.08675163     101.77991130
H      68.43358270      91.55729349      98.51068478
H      70.20614598      89.40678494     100.36639602
C      66.36811184      86.29818516     101.70054280
H      65.18136372      87.14289282     103.15752178
H      68.29941213      86.02606457     102.35816755
H      65.87678300      84.38956158     101.08827147
C      59.74084166      88.60743071      96.25057211
O      57.57332558      88.03862309      96.97244756
N      60.08666158      90.61809951      94.76902668
H      61.85733513      90.79384406      94.08305603
C      58.16669964      92.59475323      94.02258479
H      56.39224663      91.70091269      93.47267443
C      57.41458857      94.28605828      96.32427144