 %block lattice_cart
   139.252   0.000   0.000
   0.000 142.425   0.000
   0.000   0.000   162.84
 %endblock lattice_cart

 %block positions_abs
N      91.25391765      40.70853786      78.35391906
H      93.06994465      40.34760013      77.88715666
H      90.21078873      39.31580957      77.57346209
H      91.19722586      40.39484329      80.23608647
C      90.39409219      43.31824990      77.92873064
H      91.13486489      44.80924396      79.13626575
C      91.32572726      44.34437128      75.39460765
H      90.38464355      43.34281634      73.86014989
H      93.36285222      44.39728362      75.08847199
C      90.54149084      47.11093061      74.91083772
H      88.51192477      47.44919162      74.80879249
H      91.20856423      47.50966286      73.00221414
S      91.84729171      49.35214601      77.02166201
C      90.27314970      52.13004369      75.62326454
H      90.90998747      52.26043481      73.66739780
H      90.87786212      53.86859190      76.54356125
H      88.21523774      52.16783822      75.69507414
C      87.40265543      43.50344308      78.39171358
O      85.94756618      41.86127091      77.50543194
N      86.58251422      45.59159065      79.79200078
H      87.91477126      46.94085524      80.02254739
C      83.82162406      46.03756606      80.36647758
H      82.67833964      44.94341453      79.04933834
C      83.54005485      44.89050219      83.00642524
H      84.34507826      42.99510670      83.05933758
H      81.51237851      44.65239667      83.29366364
C      84.74570024      46.35881953      85.06622692
O      85.77560107      48.39972395      84.75253235
N      84.73814133      45.14561524      87.17327176
H      86.02882440      45.40261802      88.55655142
H      83.82540352      43.47320745      87.08634435
C      83.10730752      48.89105279      80.07545973
O      84.58885295      50.55968113      79.38759935
N      80.67334003      49.46552959      80.54789131
H      79.39777476      48.07658075      80.84079889
C      79.77383031      52.13004369      80.53088377
H      80.48436740      53.08057603      78.84713763
C      76.80129082      52.27555262      80.49875842
H      76.14555578      51.13037847      78.91516777
C      75.60887351      51.36470454      83.05177867
H      73.56607936      51.42895523      82.80800398
H      75.90556055      52.74609447      84.55033164
H      76.22114484      49.49576521      83.67160890
C      75.83186122      54.91361055      80.18884331
H      76.69735587      55.99453400      81.71574217
H      73.78528762      54.97975097      80.40427211
C      76.41767637      56.05311552      77.65283060
H      75.67312420      54.75676327      76.23742559
H      78.44913216      56.34602310      77.48842441
H      75.39155498      57.81623017      77.35992302
C      81.03049830      53.78166449      82.56422928
O      81.66166689      55.97185729      82.16927648
N      81.54639359      52.55901157      84.82623168
H      80.96813733      50.74298458      84.76576044
C      82.64621431      53.80812066      86.97107104
H      81.39899494      55.42194693      87.26208890
C      82.54983825      52.00532176      89.17260220
H      83.57595964      52.80656571      90.76942093
H      83.40966373      50.19496395      88.70017062
C      79.97603102      51.23431342      90.14770098
C      78.49259586      52.92939792      91.50452447
H      79.22580967      54.77377081      91.98073550
C      76.22114484      52.27933207      92.68560342
H      75.16478783      53.60214049      93.82699811
C      75.27439195      49.85481321      92.32088624
H      73.53962320      49.21797545      93.18638089
C      76.68790723      47.99532252      91.13791756
H      76.11532016      46.03567633      91.06610797
C      79.05762404      48.69830071      90.02486877
H      80.04784063      47.39816901      88.80032612
C      85.34285374      54.91927973      86.18305517
O      85.98914014      57.05656019      86.95784296
N      86.82061973      53.63426584      84.70528920
H      86.19889976      51.88059982      84.27632132
C      89.20167489      54.49598104      83.57334313
H      90.34306958      55.69595725      84.79788578
C      90.94778199      52.32468550      83.19539787
H      92.52570347      52.91050066      82.01053947
H      89.76103387      50.96975174      82.19006347
C      91.97957256      50.91305995      85.51976124
H      92.61452060      48.99876719      85.09646254
H      90.31661340      50.59936538      86.69139155
C      93.91654204      52.46452525      87.00319639
O      93.24568919      54.00087274      88.60757403
O      96.02736633      52.58357801      85.96006747
C      88.98057691      56.19295527      81.16772154
O      90.60763126      57.78032537      80.69340023
N      87.07006361      55.71485451      79.64838158
H      85.71324010      54.45251733      80.10191590
C      86.54660942      57.24175337      77.40338672
H      88.12642060      57.42505682      76.09380639
C      84.29027620      55.96996756      76.02199679
H      82.62164786      55.82256891      77.21819354
H      84.80995092      54.00654192      75.65916934
C      83.59296719      57.10947253      73.42362311
H      85.22002154      56.42728133      72.36537637
H      83.48903223      59.16738448      73.48031490
S      80.69790647      56.08713059      71.96664412
C      81.62198263      56.00209291      68.59726210
H      83.52115758      55.20840786      68.67474088
H      81.64654909      57.91638566      67.83948185
H      80.19523928      54.85691876      67.65239895
C      85.84552095      60.16138052      77.90227447
O      86.61841902      61.89048010      76.54923043
N      84.28838647      60.57523059      79.77877270
H      83.76493228      59.02565501      80.76143038
C      83.59674664      63.23407551      80.41750019
H      83.27738288      64.17137976      78.61092184
C      81.17222777      63.18683235      82.08990798
H      80.72247291      65.08411757      82.75131219
H      81.65977716      61.76197871      83.49397463
C      78.87243086      62.01898149      80.48930979
H      79.31651654      60.12547572      79.81278777
C      76.50082434      61.54088073      82.09179770
H      75.41801116      63.25864195      82.43572789
H      76.91278467      60.77554158      83.95695758
H      75.14589057      60.54877442      80.89749067
C      78.15055541      63.53643172      78.17628478
H      79.28250146      63.13580974      76.50387700
H      78.25826980      65.56599778      78.50887662
H      76.28350581      62.98085218      77.51677030
C      85.63387160      64.65892915      81.75353669
O      85.83607231      66.94549799      81.41716541
N      87.35163282      63.28509812      82.92894646
H      87.10407867      61.39726153      83.02910196
C      89.56639205      64.40948528      84.27443160
H      88.97112827      66.04598826      85.37614204
C      90.77959635      62.54810486      85.90715513
H      91.40509576      60.97207311      84.73741454
H      89.40198587      61.76386844      87.22240464
C      92.87719255      63.80099340      87.70239513
H      91.91532186      65.22962650      88.83056174
H      94.25669276      64.52475858      86.35502027
C      94.11685302      61.68261021      89.25008098
H      95.70422312      62.52353842      90.25541538
H      94.73290379      60.30877918      87.84034515
N      92.44444524      60.55822305      91.13035866
H      91.64509100      58.92172006      90.55777159
C      91.87752735      61.42560743      93.39803024
N      92.91120763      63.46084267      94.30320914
H      92.43310687      64.19783593      95.99829364
H      93.93165984      64.72506957      93.30165419
N      90.08228734      60.25775657      94.46005642
H      89.42088313      60.72451897      96.18726627
H      89.20734407      58.83857211      93.53031108
C      91.35974233      65.29576692      82.31856486
O      92.69577883      67.17982405      82.90815947
N      91.37863959      64.25830717      79.96585560
H      90.41298944      62.65015008      79.60869733
C      92.80538295      65.17671416      77.82479569
H      94.48912911      65.90614852      78.76587939
C      93.68221596      63.19628098      75.96530500
H      91.97957256      62.13047534      75.51555014
C      94.67810173      64.19594620      73.42551283
H      96.09161701      65.67182245      73.69952315
H      92.93199463      64.91026275      72.60159216
H      95.51902994      62.73518776      72.24254416
C      95.63430326      61.39726153      77.21063464
H      95.07683398      60.97207311      79.14760411
H      97.44088161      62.39125757      77.14827367
C      95.76658409      58.80266731      75.87081868
H      96.57160751      58.88581526      73.97542319
H      93.89008587      57.95984937      75.78011182
H      97.05726716      57.80300209      77.12370723
C      91.45989782      67.45572409      76.62670921
O      92.58428498      69.39080384      76.18073380
N      89.05805568      67.11557336      76.11648310
H      88.21901720      65.45828338      76.55489961
C      87.47446503      69.20750038      74.84847675
H      88.42121791      69.88780186      73.15150252
C      84.79294339      68.45349959      74.18896226
H      83.74036584      70.14669436      73.67117725
H      83.89721312      67.65603508      75.86514950
C      84.89498862      66.73762809      71.98743111
O      86.14031825      67.15147816      70.07691781
O      83.69123296      64.72695930      72.32380239
C      87.33651502      71.66414459      76.27144066
O      87.63887123      73.68615175      75.14705350
N      86.75636904      71.61123225      78.72052596
H      86.46724090      69.84433815      79.38004045
C      86.32740116      73.82221204      80.32301388
H      86.19323060      75.59666505      79.27988495
C      83.76871173      73.28930922      81.83668465
H      83.93689738      74.45527036      83.52798970
H      83.79516790      71.33533221      82.48675050
C      81.46513536      74.18126004      80.43072828
H      79.78705838      73.92992644      81.60046886
H      81.24781683      73.07010097      78.70918760
C      81.44812782      77.11600500      80.14537960
O      81.24781683      78.50306412      82.05589290
O      81.75237375      78.00039692      77.97030462
C      88.49302751      74.17748059      82.09368743
O      89.55505371      76.24295145      82.38848474
N      89.31127901      72.18570905      83.43728284
H      88.16421514      70.67392800      83.63381438
C      91.03659914      72.55042623      85.53487905
H      92.47090141      73.97527987      85.15315433
H      92.01925682      70.75329651      85.76731538
C      89.62875302      73.08521878      87.91026502
O      87.30816911      73.00018109      87.94994927
N      91.08384229      73.26852223      89.99085369
H      92.97734805      73.07010097      89.85857285
C      90.03693392      73.78063806      92.62324245
H      87.98658086      73.84110930      92.43615954
C      90.47346069      71.28997878      94.10289815
H      92.45011442      70.99707120      94.60745508
H      90.13142022      69.63646826      92.92181920
C      88.75569948      70.89691571      96.46316631
H      86.77715602      71.27486097      96.03797789
C      89.01648171      68.27964476      97.47605962
H      88.65743371      66.82266578      96.06632379
H      87.55005408      67.87146388      98.86311873
H      90.96101008      68.04153925      98.11478711
C      89.11474748      72.67703790      98.67981528
H      88.08862609      74.44771145      98.41336387
H      91.16321079      72.80553928      98.54186526
H      88.49869670      71.76430009     100.42214294
C      90.81550115      76.08799389      93.84589537
O      93.16632069      76.56609465      93.78920358
N      89.01837142      77.48450164      94.93248800
H      87.31950747      76.65680151      95.18571133
C      89.60796604      79.86744652      96.14947175
H      91.60729647      80.32098083      96.33844438
C      88.81050154      82.16913317      94.55643247
H      88.68388988      83.94736563      95.58444358
H      87.10218894      81.85354887      93.45094257
C      90.86652376      82.65479283      92.55332257
H      91.19722586      80.85766310      91.60467996
H      92.69766857      83.26895388      93.26952885
C      89.86496881      84.58231367      90.57099967
H      89.36230161      86.36999476      91.46106076
H      88.26437062      83.96059371      89.43338443
N      91.88130680      85.47237476      88.84567955
H      92.27814931      87.33942436      88.81166447
C      92.51058565      84.36877459      86.66493538
N      91.34651424      82.35999552      85.87880924
H      92.22712671      81.26962344      84.58245699
H      90.04827226      81.50017005      86.98240940
N      94.33039209      85.50827956      85.49708452
H      95.24312991      84.51995270      84.14215075
H      95.20911483      87.01250171      86.27376204
C      88.06783909      80.12822875      98.69493309
O      85.80394698      79.66335607      98.80075776
N      89.45111875      80.61766786     100.72449915
H      91.27281493      81.09954807     100.42214294
C      88.42310765      80.69136719     103.23783515
H      86.75636904      79.48572180     103.36066736
C      90.28070861      79.51973687     105.32220327
H      89.10907830      79.47816290     107.01539805
H      91.79815883      80.88600900     105.59621359
C      91.27659438      76.77585427     104.89701485
H      92.03437462      76.72294193     102.98272209
C      93.30993989      76.04075073     106.71493156
H      94.59117432      74.88045878     105.59810331
H      92.61263087      75.34911090     108.52717910
H      94.41731950      77.73394551     107.10610491
C      89.15443172      74.81998753     104.81575662
H      88.11886171      74.63290463     106.58643017
H      90.15220722      73.05876261     104.42080382
H      87.81083632      75.16958690     103.29641666
C      87.42533214      83.35966074     103.82931948
O      86.74881013      83.98138070     106.06675544
N      87.18344717      84.94514112     101.87723220
H      87.81461576      84.15712525     100.25962648
C      86.51826352      87.67201619     101.84699658
H      85.39387636      88.06129981     103.52885300
C      88.88609059      89.24993766     101.68070067
H      88.32295215      91.23037084     101.64668559
H      89.92732978      88.80774170      99.95915999
C      90.77581690      88.54884920     103.83876811
H      91.43155194      86.64211535     103.42302833
H      89.66465783      88.28806697     105.55652933
C      93.09829054      90.20235972     104.10144007
H      94.22456743      89.88488570     102.41013502
H      93.97701328      89.50127126     105.83242937
C      92.56160827      92.92545534     104.30553051
H      92.26114179      93.17111976     106.32753767
H      90.75314019      93.33363622     103.40791052
N      94.50235718      94.65644464     103.34743927
H      95.99146153      94.85486590     104.52473877
H      93.89764476      96.46491272     103.21893788
H      95.05793673      94.11787264     101.60511161
C      84.78160503      88.22003682      99.47916951
O      84.46602074      86.77817564      97.67826033
N      83.46446579      90.34408920      99.84577642
H      83.88776449      91.44768936     101.34621911
C      81.37253877      91.13021534      98.26218576
H      80.19901873      89.48615345      97.84266652
C      79.60375493      93.17489921      99.42814690
H      80.70357565      94.81518165     100.01396206
C      77.67434438      94.29550692      97.66503225
H      76.54428803      92.96513959      96.56899099
H      78.50204449      95.43501188      96.16269983
H      76.32885923      95.36131256      98.80453722
C      78.22425472      91.95413601     101.79030479
H      79.40722340      90.61809951     102.81264673
H      76.77105520      90.73526254     100.98339166
C      77.18679499      93.88354658     103.70837700
H      76.39122020      93.05017728     105.41291013
H      75.83375095      95.07785361     102.71060151
H      78.67589931      95.11564814     104.42269355
C      82.32307110      92.01460726      95.62223811
O      83.93689738      93.66433833      95.55798741
N      81.31206753      90.94124271      93.63613575
H      80.17823173      89.40867467      93.70038645
C      82.20779780      91.47981471      91.01130590
H      83.24714726      93.24481909      90.79776683
C      84.31862209      89.64300073      90.26675373
H      85.27293388      89.28017328      92.05632455
H      85.74347572      90.62565842      89.15181521
C      83.75737338      86.97470718      89.35023647
C      83.81217544      86.54573931      86.69139155
H      84.25815085      87.96303404      85.29299408
C      83.42289181      84.02295468      85.92983185
H      83.44556854      83.66390668      83.92294250
C      83.06195410      82.10677220      87.69105677
O      82.46102113      79.66902525      87.12602860
H      82.23047451      79.35533069      85.35535505
C      82.95801914      82.56597569      90.33667361
H      82.58385334      80.99939258      91.59334161
C      83.26982399      85.10765758      91.11146140
H      82.97691640      85.61599396      93.06732813
C      80.06484815      91.58185993      88.97985012
O      77.90867044      91.48926334      89.79999134
N      80.55995646      92.25082305      86.60824359
H      82.35708618      92.44168540      85.99597227
C      78.63432533      92.79884368      84.59001589
H      76.85987234      92.62120940      85.61991673
C      78.95746854      95.46335778      83.88703770
H      78.25071089      95.84508249      81.99164221
H      81.01160105      95.62776397      83.82467673
C      77.84630947      97.39843752      85.78432292
H      78.71747330      97.14143474      87.63247525
H      75.82430231      97.00915390      85.78999210
C      78.24882118     100.03838518      84.70339947
H      77.12632374     100.15932767      82.97996907
H      80.21224682     100.49569895      84.28388023
C      77.03372715     102.14920947      86.39659425
H      77.78772795     102.14354029      88.31277673
H      75.03250698     101.66354981      86.34746136
N      77.35309089     104.55105162      85.00764541
H      77.03939634     105.92488265      86.29454902
H      76.10776125     104.93088661      83.61113766
H      79.15022063     104.70411945      84.38214600
C      78.44346298      90.97903724      82.39982309
O      80.27838723      90.32519193      81.20929552
N      76.14555578      90.11165286      81.67227846
H      74.74904804      90.68612966      82.83823960
C      75.50871801      88.90411774      79.34224592
H      76.82207781      87.33942436      79.07579451
C      72.74404843      87.95169568      79.47452676
H      71.42124001      89.52772743      79.52365965
H      72.37555179      86.87077223      81.18850853
C      72.07130586      86.32275160      77.18039902
O      73.05963272      84.25539101      76.78922567
O      70.66157003      87.16367981      75.49854260
C      75.98303932      90.69746802      76.97063940
O      75.86965575      93.03694919      77.35614356
N      76.32130034      89.51260962      74.78233633
H      76.31374143      87.60776549      74.63871713
C      76.46680926      90.96958860      72.48820858
H      77.41545186      92.70246763      73.07213401
C      77.86898618      89.59953703      70.32825141
H      77.75371288      90.64455568      68.55757785
C      80.57696399      89.45024865      70.95753027
H      81.38576685      91.32863660      70.70997612
H      81.45568673      88.28806697      69.50055128
H      81.03616748      88.53373139      72.74521136
O      76.90144630      87.12399556      69.93329861
H      77.59497586      86.75549893      68.30057507
C      73.92890682      92.13366001      71.47531528
O      74.07630547      93.44324035      69.56480198
N      71.77461883      91.87665724      72.80001342
H      71.63477907      90.34597892      73.93195949
C      69.52773423      93.60386709      72.70741683
H      69.37088696      94.41455967      70.81958025
C      67.14478936      91.81429627      73.15717170
H      66.84054341      91.73681749      75.19240694
H      67.51706544      89.90000351      72.49387776
C      64.70893213      92.84797656      72.05735098
H      64.72593968      94.90777824      72.08002770
H      63.08187779      92.28483812      73.18362787
C      64.12500671      91.98059218      69.36827044
O      64.20626494      93.59441845      67.60704552
O      63.60911143      89.69591307      69.06213478
C      69.49938834      95.73925782      74.73509317
O      67.82698056      97.37009163      74.73887262
N      71.32675368      95.77894207      76.37726533
H      72.64389293      94.41455967      76.16939544
C      71.91067911      97.95590678      78.03455531
H      70.93558033      99.60752758      77.28433396
H      73.94024518      98.29038834      77.93817927
C      71.03195639      97.52882864      80.70284886
O      71.61588181      98.85919596      82.51131695
N      69.32742325      95.60319752      81.17905990
H      69.03073621      94.46180283      79.67672748
C      68.29752240      94.87943235      83.66593972
H      67.50194762      96.60286274      84.46718368
C      66.29630224      92.75537997      83.34090680
H      65.24750413      92.53806144      85.09835227
H      67.45281474      91.06974410      83.08957320
C      64.32342798      93.12765605      81.18661880
C      63.37289563      90.98470642      79.94695834
H      63.89257037      89.07230339      80.44395636
C      61.31120422      91.40611538      78.25376356
H      60.51373973      89.92079050      77.10480996
C      60.15847118      93.77961163      77.94384845
O      58.07221332      94.15188772      76.54167152
H      57.18593168      95.69012493      76.92150651
C      61.24317408      95.87342839      79.08335341
H      60.52129863      97.71024236      78.55423005
C      63.40691071      95.51060094      80.52899404
H      64.45192936      97.14143474      81.16583181
C      70.44803096      93.69457395      85.30622216
O      72.33019835      92.64010667      84.25742406
N      70.15323365      93.79850890      87.85924241
H      68.49594366      94.45802338      88.53954388
C      72.01461407      93.02939029      89.73385091
H      73.77772871      93.35064376      88.71717816
C      71.60265372      94.64321656      92.15081087
H      72.56263469      93.77394245      93.75140906
H      69.61466164      94.59786313      92.69316232
C      72.60987785      97.29828203      92.18671567
C      70.97904404      99.47335701      92.35301158
H      68.95514716      99.21635423      92.39080611
C      72.14878463     101.89598615      92.44749790
H      70.97148513     103.56083503      92.44371845
C      74.73015077     102.20590126      92.26986363
O      75.75438243     104.59262560      91.98829441
H      74.45803018     105.86252168      92.00719167
C      76.26649826     100.02137764      92.23017937
H      78.27338762     100.01948792      91.85979302
C      75.22336934      97.60441769      92.21884102
H      76.54617776      96.06807020      91.98073550
C      71.75383183      90.25716178      90.53887432
O      69.69025070      89.28584246      90.72028805
N      73.92134791      89.13277463      91.11335112
H      75.50493857      90.19291109      91.22673470
C      74.15756371      86.27361872      91.53476009
H      72.43224358      85.50827956      92.35490131
C      75.19124399      84.98860482      89.15559466
H      74.97203574      82.95714904      89.39747963
C      73.71536774      85.42702133      86.77642923
H      73.74560336      87.37721888      86.11502502
H      71.70469895      85.18135691      87.14303614
H      74.37488222      84.10043346      85.34590642
O      77.57418888      85.71992891      88.40159386
H      77.39088542      87.39989560      87.74018965
C      76.05673864      85.72370836      93.69660699
O      77.19057444      87.42635177      94.80587634
N      76.06807701      83.29918950      94.46761533
H      74.78495283      82.05197013      93.80432139
C      77.89922180      82.08409548      96.19860463
H      79.69824125      83.08754015      96.18348682
C      76.74270929      82.22015578      98.94626669
H      76.45736062      84.22515539      99.32988113
C      74.24638085      80.75372816      99.29397633
H      74.38622059      78.73739018      99.68514968
H      72.97270531      81.15623986      97.72550349
H      73.24860535      81.70615022     100.82465465
C      78.36976365      81.46237552     101.12701086
H      78.72503221      79.44225810     100.96827385
H      77.26616348      81.84410024     102.82587481
C      80.91711473      82.71526407     101.31031431
H      81.78071965      81.76662146     102.92036113
H      80.96435788      84.71270478     101.80731233
H      82.11709093      82.42802567      99.66058324
C      78.39810954      79.22304984      95.53531070
O      76.93546138      77.73394551      94.56399137
N      80.56940508      78.27062778      96.35923137
H      81.77882992      79.43847864      97.26063082
C      81.37442850      75.63068012      96.30442930
H      79.72469743      74.63290463      97.03386366
H      82.85219446      75.13935128      97.65180417
C      82.33818892      74.76140602      93.55865697
O      83.70257132      76.24673090      92.41348283
N      81.21002230      72.71483242      92.51930750
H      80.20468791      71.72650556      93.80810085
C      81.25159629      72.00618505      89.79999134
H      82.70101637      73.05876261      88.78331858
C      81.76560183      68.97695377      89.52787075
H      80.07240706      68.10012077      90.31399689
C      81.86386760      68.47617630      86.69706073
H      81.72591759      66.43905134      86.41549151
H      83.61375417      69.44182645      86.20195244
H      80.36531464      69.33789150      85.57834275
C      84.30539400      68.37224135      90.92626822
H      84.10886247      68.79931950      92.93126784
H      85.84363122      69.57410729      90.27431264
C      85.15955030      65.66993273      90.67493462
H      83.68934323      64.60601681      91.65192312
H      86.92266494      65.32033336      91.68404847
H      85.27293388      65.37702515      88.64158911
C      78.83463633      72.99262219      88.75308296
O      77.03750661      71.46761305      88.46395483
N      78.55117739      75.50217873      88.56600005
H      80.07240706      76.51318231      89.12346932
C      76.75593738      76.80797962      86.89737172
H      76.92034358      75.81587330      85.09835227
H      77.68379300      78.60510934      86.49674974
C      74.00260615      76.95159882      88.07656094
O      72.23760176      77.31064681      86.56100043
N      73.44513688      76.60955835      90.45005719
H      74.90211587      76.08610416      91.56499571
C      70.98093377      76.91002484      91.58200325
H      69.72237605      75.79886576      90.39336540
C      70.84865293      75.60800341      94.20494337
H      71.99193734      76.43948298      95.70160661
H      71.53462359      73.66914421      94.13313377
C      68.26350733      75.85933701      95.37846341
N      66.30953032      74.10189154      95.23106476
H      66.43803171      72.36145360      94.45438724
C      64.35177386      74.97683482      96.67481566
H      62.59999758      73.95071343      96.88646501
N      65.03396506      77.26151393      97.55164867
H      64.01351286      78.29897368      98.78563995
C      67.52840380      77.76607086      96.88835474
H      68.57909162      79.44792727      97.37968358
C      70.00583500      79.64256908      91.53476009
O      71.16801667      81.31308715      92.72528767
N      67.98760730      80.03185271      90.10423727
H      67.39423322      78.50495384      89.12346932
C      66.53062830      82.43369485      89.85479340
H      67.99705592      83.72815737      89.21417618
C      64.42925264      82.28440647      87.91215475
H      63.11778259      81.11466588      88.98551929
H      65.15868700      81.44347826      86.17927572
C      63.17825382      84.77695548      87.33578822
H      62.29008245      85.37599872      89.09701315
C      64.81097736      86.88589004      86.39848397
H      66.09032208      86.06196937      85.00953513
H      66.06764535      87.53973535      87.89325749
H      63.62989841      88.27672861      85.44228246
C      60.93325897      84.48215817      85.60857837
H      61.47938987      83.87366630      83.71696233
H      59.82209990      86.20936802      85.46873863
H      59.72383412      82.93636205      86.23029833
C      65.47427129      83.45036761      92.46072598
O      64.21004439      82.07842630      93.70038645
N      66.14701386      85.73882617      93.10701238
H      67.34699008      86.67424070      91.95238961
C      65.13601028      87.05029623      95.12712981
H      64.11933752      85.74638508      96.35545192
C      67.17880443      88.52050330      96.67481566
H      66.52495913      89.85653981      98.09777958
H      68.51106148      89.45402810      95.41058876
C      68.95892661      86.69313796      98.15069191
H      70.06630623      85.57253026      96.82410404
C      70.66157003      88.39956082      99.85711477
H      71.89178186      89.83008364      99.03130437
H      72.09965175      87.33375518     100.87567726
H      69.52395479      89.29340137     101.32354239
C      67.61911066      84.75238904      99.94593191
H      68.92113208      84.05319030     101.38023418
H      66.92936056      83.10832714      98.91414134
H      66.05063782      85.62544259     100.95693549
C      63.03652435      88.90600747      94.27864270
O      60.80097813      88.53373139      94.75485373
N      63.76784843      91.15289206      93.26385967
H      65.60844187      91.30973934      92.78575891
C      62.11811736      93.38843829      92.81032535
H      60.29453147      92.52861281      92.39269584
C      61.99150571      95.07785361      94.99295924