 %block lattice_cart
   139.252   0.000   0.000
   0.000 142.425   0.000
   0.000   0.000   162.84
 %endblock lattice_cart

 %block positions_abs
N      91.93894345      40.69719951      82.97241017
H      92.17704896      40.65940498      84.86780566
H      93.53765190      40.54602139      81.94250933
H      90.85613026      39.21565408      82.44517652
C      90.52542815      42.99132724      82.01431892
H      91.15281730      44.77144943      82.84390877
C      90.91660150      43.34659579      79.09847122
H      89.78087600      41.81780720      78.31045535
H      92.85735042      42.95731217      78.53533279
C      90.17204933      45.97709482      78.11581355
H      88.12358602      46.15283937      78.23486630
H      90.64826036      45.94874893      76.11270365
S      91.56855709      48.75121305      79.34224593
C      90.42716240      51.09825312      76.94607296
H      91.57611599      52.80278626      77.05756680
H      88.41271414      51.41572715      77.23142162
H      90.54243569      50.39716467      75.01288293
C      87.77020720      42.63794843      82.70973821
O      86.91416118      40.54791112      82.29588814
N      86.53810563      44.73743436      83.46751847
H      87.57556539      46.32102500      83.69428562
C      83.85091482      44.83758986      83.79444112
H      82.90794139      43.52611979      82.51320667
C      83.11203184      44.04579453      86.58178742
H      83.68839836      42.15039904      87.14870533
H      81.08813495      44.09681713      86.96540186
C      84.21941145      45.72954067      88.61324322
O      84.34035393      47.99154307      88.24096712
N      85.42316712      44.87916383      90.63525036
H      86.11858639      46.24543596      91.77097589
H      85.47985890      43.07447520      91.24941141
C      83.01565579      47.60036972      83.14626498
O      84.52932656      49.26710834      82.78721699
N      80.46452526      48.07469103      83.18783896
H      79.41383744      46.53078462      83.58657123
C      79.25699016      50.51810715      82.96107181
H      79.44029360      51.23620315      81.03922016
C      76.35814999      50.10992626      83.27854583
H      75.88760813      48.61515275      81.93872988
C      75.36793341      49.23120354      85.89203732
H      76.62460140      47.88571839      86.81800322
H      73.56513449      48.32035545      85.48763590
H      75.23943202      50.96219283      86.99941695
C      74.80857442      52.41728210      82.33179294
H      75.33958750      54.12559468      83.35035544
H      72.81680288      52.04878546      82.70406904
C      74.99565731      53.13348837      79.54822609
H      76.82302266      53.90260697      78.98508764
H      73.42340502      54.38826663      79.09847122
H      74.79156688      51.45730113      78.37281633
C      80.26232455      52.61192390      84.74497346
O      80.56468076      54.72274819      83.91727332
N      80.98608974      52.07335190      87.10713134
H      81.30734320      50.27433246      87.65704170
C      81.91394536      54.15016112      88.69828090
H      80.55523214      55.68839834      88.51308772
C      82.08780018      53.16939317      91.39492035
H      82.72463794      54.77566054      92.51552804
H      83.30667364      51.50832374      91.40625870
C      79.76910599      52.10169781      92.56466094
C      78.08535984      53.57946377      94.01030156
H      78.43117975      55.59013257      94.07266254
C      75.84792389      52.62515199      95.02886405
H      74.54590246      53.79867203      96.07577242
C      75.22620392      50.05134476      94.62446261
H      73.38938996      49.29356449      95.08366610
C      76.77577951      48.55090205      93.20338843
H      76.47720274      46.54401271      92.98606990
C      79.05289971      49.60725906      92.17159786
H      80.15461016      48.37137805      90.97918055
C      84.59735671      55.06478866      87.78743281
O      85.06600884      57.32679106      87.81955816
N      86.05811515      53.25443085      86.78965733
H      85.30789380      51.50832374      86.60446415
C      88.65081965      53.86859191      85.84290444
H      89.52576293      55.09124483      87.25264026
C      90.20228496      51.50643401      85.44039273
H      92.02020168      52.22453001      84.79599606
H      89.12514096      50.47275371      84.02120827
C      90.55188433      49.75087826      87.67971841
H      90.54810488      47.78556291      87.06744708
H      89.00986765      50.08913927      89.00252683
C      93.09356622      50.38204685      88.74552406
O      93.34112036      52.33791358      90.29509964
O      94.84345279      48.98931857      88.38647606
C      88.43917031      55.27643801      83.38626024
O      89.58434446      57.30600406      83.05744785
N      86.66282757      54.38448718      81.83857438
H      85.80489182      52.72341775      82.22407854
C      86.00142336      55.70918534      79.42728361
H      87.53777085      55.79422302      78.05912176
C      83.82067921      54.33913376      78.14793890
H      82.08402072      54.42795089      79.25153905
H      84.35169229      52.34925195      78.03455532
C      83.24998185      55.39738049      75.55145494
H      84.67105605      54.71896874      74.22297733
H      83.30289419      57.45718217      75.53822686
S      80.28122182      54.52054748      74.34203010
C      80.88404450      54.58290845      70.90272820
H      82.09724880      52.94262600      70.63060762
H      81.94607070      56.28744158      70.44541444
H      79.18140110      54.29567004      69.78212050
C      85.05844993      58.38314807      80.11703371
O      85.55922741      60.12169628      78.70729789
N      83.86414290      58.74219607      82.33746213
H      83.37092434      57.33057050      83.52232052
C      82.81156534      61.31978276      83.06500676
H      82.15583032      62.18527740      81.31512019
C      80.57034995      61.17616356      84.80922415
H      80.27555263      63.10368440      85.46873863
H      81.42072678      59.97618734      86.25297504
C      78.08158038      60.33334563      83.44862119
H      78.38393659      58.81778512      82.08801826
C      76.01044035      59.62658798      85.30055298
H      76.27311231      57.68583906      85.94305994
H      74.27000241      59.63225716      84.19695282
H      75.98398418      60.87002790      86.94083542
C      77.13104806      62.41582401      81.61369694
H      77.28033644      64.25641744      82.53021422
H      75.12982788      62.36669113      81.12992701
H      78.23842767      62.36480140      79.87892820
C      84.87514648      63.16226592      84.16293774
O      84.57090055      65.51119571      84.27443160
N      86.73085772      61.99630477      85.40826738
H      86.18850628      60.18594696      85.67849825
C      88.66971692      63.46273240      86.78020868
H      87.72863322      65.15970662      87.47751769
C      89.90559792      61.94150271      88.78331858
H      91.93894345      62.18149795      89.01386519
H      89.95662053      59.95917981      88.22584932
C      88.38058879      61.94717189      91.23996278
H      86.42094260      61.40293071      90.92437850
H      88.52420800      63.93138452      91.77853479
C      89.38403346      60.26720520      93.22984460
H      88.29177165      60.54688470      94.95327499
H      91.34178993      60.62814293      93.76085768
N      89.32734167      57.69528768      92.45883625
H      90.76542341      57.17939241      91.31366211
C      88.28043329      55.65627299      93.56999533
N      86.66282757      55.70918534      95.38224286
H      86.30377957      54.12181523      96.38190808
H      86.50787002      57.17750267      96.59166770
N      88.76420323      53.42261649      92.67426506
H      88.23507986      51.86737174      93.64369465
H      90.28354319      53.19395961      91.54420873
C      90.80132821      64.26397635      84.96418170
O      91.78587561      66.32755748      85.08701391
N      91.07911796      62.94683711      82.83068070
H      90.19472605      61.25553206      82.77965808
C      92.95750592      63.59312350      80.69151050
H      94.55432465      64.67782641      81.40960650
C      93.74174235      61.07600806      79.33279728
H      92.12980580      60.01020243      78.62037047
C      95.21194941      61.86402394      76.90449897
H      96.71239210      63.11124331      77.57157237
H      94.03464992      62.89203505      75.56090356
H      95.84500772      60.14626272      75.95774610
C      95.47084191      59.45462289      81.11291948
H      94.07811362      58.52865700      82.31289569
H      96.88057775      60.58089976      82.10880525
C      96.83900378      57.11514170      79.98286315
H      98.51330129      57.79733291      79.00020546
H      95.76374949      56.35169228      78.40116221
H      97.08088874      55.69217780      81.45307021
C      91.50430639      65.32978200      78.99642600
O      92.69105451      67.10234528      78.06101148
N      88.97585259      65.15214771      78.76398966
H      87.88548049      63.67816120      79.28933359
C      87.47163044      67.30076654      77.72086075
H      88.10279902      67.68060153      75.79900908
C      84.75798345      66.57511163      77.30512096
H      83.53722025      68.22484271      77.47708606
H      84.04744636      65.25419294      78.72241569
C      84.04555663      65.67749163      74.71430618
O      85.52899178      65.68883000      72.88883057
O      81.82323848      65.01041824      74.38360407
C      87.79855309      69.59678401      79.31578975
O      88.59223815      71.48462060      78.22163822
N      86.90282282      69.63457854      81.62881476
H      86.07701242      68.08122350      82.37147720
C      86.63259196      72.11200973      82.91382866
H      87.30722424      73.62945996      81.70062436
C      83.73375179      72.69782489      83.37681159
H      83.57690450      73.70882847      85.16638241
H      82.80211672      70.86668008      83.52043080
C      82.59046738      74.30598198      81.10347085
H      80.54956295      74.03008193      81.15827290
H      83.25376131      73.53308392      79.31578975
C      83.40871886      76.93081183      81.53999763
O      82.04244673      78.37834219      82.77398891
O      85.44395410      77.77174004      80.70851805
C      88.40137578      72.36334333      85.22685366
O      89.38592320      74.47794708      85.48007699
N      88.66026829      70.46794784      86.83879021
H      87.62280854      68.92215171      86.41360178
C      90.05110686      70.42070468      89.31433168
H      91.76508863      71.55831991      89.23118372
H      90.71062133      68.52341947      89.77542490
C      88.43917031      71.48651032      91.48562721
O      86.91227144      73.04742426      91.07933605
N      88.92860942      70.85534174      93.87235155
H      90.25897675      69.48717989      93.92715361
C      87.34690850      71.39391373      96.04742652
H      85.38726231      71.68493159      95.48050864
C      87.55666812      69.17159559      97.99951380
H      89.35757729      69.35300932      98.98784068
H      87.61524963      67.42737820      96.90725201
C      85.39860068      68.91648254      99.98183672
H      85.39104177      70.63991293     101.11189304
C      82.73597630      68.62735441      99.04453247
H      81.55867681      68.82388595     100.72071970
H      82.47519407      66.83967331      98.05242614
H      82.19173512      69.92937584      97.54408976
C      85.95229048      66.73573837     101.65991368
H      84.52554711      66.51841984     103.13012074
H      87.73052294      66.95872608     102.68036589
H      85.98063637      64.95750591     100.62812311
C      88.22563124      73.85244766      97.20393903
O      90.43094185      73.97905933      97.82754872
N      86.53621591      75.64579794      97.43637537
H      84.70318138      75.33021364      97.00173832
C      87.30344479      78.27062779      98.28486248
H      89.32545194      78.65991141      98.31320837
C      86.21307272      80.01484516      96.26852450
H      85.83134799      81.94992491      96.85811911
H      84.26287515      79.48572180      95.87168199
C      87.62658799      79.70870951      93.83077757
H      87.46407153      77.76985031      93.15047609
H      89.60891090      80.10744176      94.20872282
C      86.72329881      81.64945843      91.84278549
H      86.80455704      83.50894913      92.72339794
H      84.71640948      81.36599949      91.48751694
N      88.07067367      81.64945843      89.34078784
H      89.88103148      82.24283250      89.27842688
C      87.17872285      80.81230968      87.10713134
N      85.07923693      79.72382732      86.94272516
H      84.22886009      79.23627793      85.30433243
H      84.14949157      79.19848341      88.52442608
N      88.38247852      81.13167343      84.96418170
H      87.60580100      80.31909110      83.42216504
H      90.16638015      81.80630572      84.97740978
C      86.01087200      78.77707444     100.88701561
O      83.83390729      78.29141478     101.40858008
N      87.52076332      79.89201295     102.61422547
H      89.24797317      80.41924660     101.99439524
C      86.92738926      80.27940686     105.26740120
H      85.35324725      79.11722518     105.90990816
C      89.22151701      79.44981700     106.88311720
H      89.00797793      79.80697527     108.89945518
H      90.69739326      80.74616925     106.26895616
C      90.24763839      76.64924260     106.59587881
H      91.41548926      76.34688639     104.92725047
C      91.91815646      75.74406371     108.63489350
H      90.80510766      75.78374796     110.36588281
H      93.61702041      76.90813512     108.59709897
H      92.56066340      73.87323466     108.05852698
C      88.13681410      74.73683958     106.53729730
H      88.83790257      72.92081260     105.86833418
H      86.83479267      75.26596294     105.03118542
H      87.15037696      74.65369161     108.34576538
C      86.17527818      83.05541480     106.09888079
O      85.01876569      83.34832239     108.11143932
N      86.75920361      84.88278016     104.40568602
H      87.89492914      84.34987734     102.96571457
C      86.09213023      87.52839700     104.43970108
H      85.03955268      87.98571075     106.14990339
C      88.35413263      89.19891506     104.26962571
H      87.55666812      90.98659615     103.62522904
H      89.50497595      88.42979645     102.74461658
C      89.86591368      89.73370759     106.78485144
H      90.73707751      87.93846760     107.29885699
H      88.58656896      90.37810427     108.26072769
C      91.72351464      91.85209080     106.21793354
H      90.71440079      93.62276435     105.92124652
H      93.00852854      91.35131333     104.68914495
C      93.34301010      92.28672785     108.48749485
H      94.36913147      90.54062074     108.85788121
H      92.06933456      92.73459299     110.04462932
N      95.36123779      94.26905075     108.03396054
H      96.06988516      93.91189248     106.29919177
H      96.83144487      93.86464932     109.17913468
H      94.62802398      96.02460650     108.20025645
C      84.21185254      88.09342516     102.22305212
O      84.50287040      87.09187022     100.16891961
N      82.27488307      89.52772743     102.75028577
H      82.01977002      90.22881589     104.50584151
C      80.44751773      90.41400908     100.83032382
H      79.46297032      88.80396226     100.00451342
C      78.45385648      92.17901345     102.20415486
H      79.51588266      93.81551644     102.86177961
C      76.38649588      92.79884368     100.15380181
H      77.23498299      93.06340537      98.29620084
H      74.92951690      94.10275483     100.79819847
H      75.24132173      91.14911260      99.70026749
C      76.97042132      90.91856600     104.40379628
H      78.40850303      90.20613918     105.69636909
H      75.86115197      89.28395273     103.82365031
C      75.47186834      92.91978617     106.02140200
H      74.84825867      92.09964495     107.80341393
H      73.97898456      93.54717530     104.74961619
H      76.80223567      94.38054460     106.60910689
C      81.78922342      91.73870722      98.65713856
O      83.24053323      93.50371159      98.93870778
N      81.10703222      90.80329270      96.24773752
H      80.12437453      89.17245888      96.10789777
C      81.63804530      91.57997021      93.71928371
H      82.37692829      93.50371159      93.67204055
C      83.57879424      89.90945215      92.44182872
H      85.11325199      89.69024390      93.80243167
H      84.47263477      90.99604478      90.93571686
C      82.45818653      87.40178533      91.79554233
C      82.22952964      86.69502768      89.32567004
H      82.91927975      87.89311417      87.82144788
C      81.03144316      84.52940134      88.58300759
H      80.91616985      84.11555127      86.58934633
C      80.14894097      82.81541956      90.36312978
O      78.89038325      80.68002884      89.80943996
H      78.49543045      80.55719663      88.04443560
C      80.67428488      83.39745527      92.95772400
H      80.04122657      82.08598521      94.38635709
C      81.85158438      85.71614946      93.70038644
H      82.19362484      86.22826529      95.64869427
C      79.18896001      91.72547914      92.15081087
O      77.13293777      91.08297219      92.93126783
N      79.46297032      92.61554023      89.80755024
H      81.15427537      93.05206700      89.03654191
C      77.34269739      93.00482385      87.91782392
H      75.59092111      92.69868819      88.95339394
C      77.25388026      95.72791946      87.09012380
H      75.96130747      95.97925307      85.50653315
H      79.15872438      96.29483735      86.54399291
C      76.20697189      97.46079850      89.16126385
H      77.40694809      97.39654780      90.83745108
H      74.33047365      96.85419635      89.74896872
C      75.89138759     100.11208450      87.98018490
H      75.26777791      99.57918169      86.08856886
H      77.67717895     101.12686754      87.83278624
C      73.90528524     101.62764501      89.46173032
H      74.55913054     103.55516585      89.15559466
H      74.03378663     101.30639154      91.49318612
N      71.24455058     101.14954426      88.72851651
H      71.42596431     100.40499209      86.98051968
H      70.28456962     102.79927533      88.73040625
H      70.48866007      99.90421462      89.96061808
C      77.69796594      91.23981946      85.63503454
O      79.62359706      91.38343866      84.22340898
N      75.89138759      89.66378773      85.08134473
H      74.31724557      89.92834941      86.12825312
C      75.93296156      87.87988609      82.96485126
H      77.73765019      86.89533868      83.07256567
C      73.80135029      85.97126250      83.43350338
H      71.95319796      86.58353383      82.75698137
H      73.66528999      85.62733232      85.46117972
C      74.12449348      83.45036760      82.05967236
O      76.31090683      82.55085788      81.98786276
O      72.17429594      82.32031128      81.30567157
C      75.68540742      89.13088491      80.31167551
O      75.67217934      91.45335855      80.16805632
N      75.57958275      87.64744975      78.29344782
H      75.50210398      85.76150288      78.57123759
C      75.98776363      88.54695948      75.62326454
H      77.77355500      89.57119114      75.62326454
C      76.50932810      86.32086188      73.80345809
H      74.80857442      85.17001855      73.64472109
C      77.45986043      86.99549418      71.17106935
H      75.76855538      87.80996622      70.32825141
H      78.01543997      85.30607885      70.12983014
H      78.87904489      88.48459851      71.25421730
O      78.39716469      84.81852946      74.91839663
H      79.90138683      85.83142276      74.94485280
C      73.89583660      90.33464057      74.80690277
O      74.37204764      92.13743946      73.37260050
N      71.52989927      90.28361795      75.79900908
H      71.03668070      88.71325538      76.76654895
C      69.65529075      92.41711897      75.49098370
H      69.99544149      93.37332047      73.69763342
C      67.09849105      91.23037084      75.01855212
H      66.04024433      91.33808524      76.78355649
H      67.23077190      89.35765207      74.17006500
C      65.35616339      92.86876356      73.52188888
H      65.40529628      94.86998372      74.00754854
H      63.42675284      92.23570523      73.85826016
C      65.45253944      92.52105391      70.65328433
O      67.08526298      93.89866439      69.45330813
O      64.16752554      90.84864613      69.60826568
C      69.70253392      94.26905075      77.68684568
O      68.09815628      95.96224553      77.90605393
N      71.43163349      94.11031374      79.50476238
H      72.76578026      92.79317450      79.15138357
C      71.87193973      95.86586949      81.52299009
H      71.68296710      97.75748553      80.73497421
H      73.71820234      95.37643037      82.29210869
C      70.15795796      95.67311740      83.87380961
O      70.13906069      97.53449782      85.29866326
N      68.61972074      93.71725067      84.21018090
H      68.70097896      92.34341964      82.88926222
C      67.46320823      93.36954103      86.68950183
H      66.47110192      95.11375842      87.15437450
C      65.66229906      91.16612015      86.33045383
H      64.98766677      90.74471118      88.22962878
H      66.68653072      89.42946167      85.91093459
C      63.67619670      91.08864137      84.23285762
C      62.07181906      88.89277938      83.81333838
H      62.18331292      87.38666751      85.18527969
C      60.24823317      88.91734584      81.80833875
H      59.09927957      87.23359969      81.74597779
C      59.99312011      91.11887698      80.28521936
O      58.21866711      91.20580440      78.30478618
H      58.65519389      92.62120941      77.25598808
C      61.35183334      93.30340061      80.83890916
H      60.98522644      94.95124195      79.69184528
C      63.08282265      93.30340061      82.82690124
H      63.97477346      95.07407416      83.30689173
C      69.46631813      92.63065804      88.73796515
O      71.18596908      91.13777425      88.32789454
N      69.23955097      93.73236848      91.00185727
H      67.94319871      95.00037484      91.59523133
C      70.79290600      93.05962591      93.09378431
H      72.79223644      93.16734031      92.60434518
C      70.13528125      94.86998372      95.16870379
H      69.89339628      93.84764179      96.93937734
H      68.16240697      95.39532764      94.89091403
C      71.75288696      97.16978064      95.59578193
C      70.76267037      99.54894607      96.18915601
H      68.75200159      99.83996391      96.37434918
C      72.34815076     101.61063748      96.66725676
H      71.52989927     103.37375213      97.29275617
C      74.91439908     101.54827651      96.09089023
O      76.34492191     103.62319600      95.97183748
H      75.25832927     105.07639554      95.98506556
C      75.99721227      99.13320628      95.55798742
H      78.00599134      98.94045420      95.25374147
C      74.38716544      96.95057239      95.43515521
H      75.29612381      95.15911184      95.05909966
C      70.52078540      90.34786865      93.97628649
O      68.41185085      89.46536647      94.44682835
N      72.65239669      88.88333076      93.98006595
H      74.16984691      89.86976790      93.37535353
C      72.64294806      86.11488171      94.22195090
H      70.92329711      85.54607409      95.20271887
C      72.77711862      84.88089043      91.63491558
H      73.07569538      82.88533944      92.04120675
C      70.43574772      85.06986305      89.94172081
H      71.20108688      84.04374166      88.32789454
H      69.93308053      87.05218595      89.69983584
H      68.91829749      84.00594715      90.84123053
O      74.96542170      85.74071590      90.44060856
H      76.02177871      86.70447632      91.55743681
C      74.77833879      85.13789320      95.81499020
O      76.56979933      86.56274685      96.34411356
N      74.51566683      82.95336959      97.04898148
H      73.00199606      81.85732832      96.67103622
C      76.43184931      81.76095229      98.71572008
H      78.34236261      82.51495309      98.55887280
C      75.54367794      82.07842631     101.51440475
H      74.90306072      84.03618277     101.55408901
C      73.32702898      80.23594315     102.10966855
H      73.71820234      78.25362025     101.71471575
H      71.74154860      80.89734736     100.97205329
H      72.89617139      80.28318631     104.12222707
C      77.47497824      81.75150366     103.61578041
H      77.95118927      79.76729103     103.90301881
H      76.58491714      82.55463734     105.29007792
C      80.05256493      83.09131961     103.32287283
H      81.22797470      82.68691818     104.96504499
H      79.97508615      85.13789320     103.11122349
H      81.28844595      82.34865717     101.85266577
C      76.81924322      78.92825253      98.07132340
O      75.45864026      77.95126404      96.47072522
N      78.42173113      77.59977495      99.41680855
H      79.54422855      78.50873329     100.66591763
C      79.03400244      74.84644370      99.02941466
H      77.49387551      73.59922434      99.58310446
H      80.67050543      74.40235802     100.19915524
C      79.68784776      74.17181142      96.33844439
O      81.58513297      75.15257937      95.42759630
N      77.93607146      72.93970986      94.82099415
H      76.34681163      72.17437070      95.55420796
C      77.79812144      73.21938935      92.05254511
H      79.19840863      74.67825807      91.66137176
C      78.80345583      70.70605336      90.81099492
H      77.65072278      69.23962574      91.68026901
C      78.25732493      70.87612873      87.98585407
H      76.22964860      71.12179314      87.74018965
H      78.85447845      69.20183121      86.94461488
H      79.16817302      72.43893239      86.99752721
C      81.57190489      70.29031357      91.21539634
H      81.81945903      69.78764637      93.19771925
H      82.67550506      71.90036038      90.56155104
C      82.72085849      67.89414060      90.02486877
H      84.49342176      67.44816519      90.97351137
H      83.38604215      68.33255711      88.12380409
H      81.34513774      66.36346228      90.05510438
C      75.13360733      74.07354565      91.43271487
O      73.40261803      72.50696253      91.39681007
N      74.89739156      76.41113710      90.59178667
H      76.50743837      77.42969958      90.70328051
C      72.56546927      77.42592013      89.39747963
H      72.02689728      76.34688639      87.72696157
H      72.83758987      79.40446358      88.88536380
C      70.24299565      77.45993519      91.06232851
O      68.18508368      77.49017081      90.05888384
N      70.47732171      77.02529815      93.54164944
H      72.18752402      76.70971385      94.32966530
C      68.35326932      77.01018034      95.34822780
H      66.91140816      75.91791853      94.36557010
C      69.29813248      75.67036438      97.79353364
H      70.70597858      76.95537827      98.57588033
H      70.33181278      73.94693398      97.34377878
C      67.01534309      75.35100062      99.39035237
N      65.46198806      73.30442704      99.16925439
H      65.70576277      71.87390422      97.93148367
C      63.45887817      73.80520451     100.40324567
H      62.00945809      72.36712279     100.46371692
N      63.59115901      76.13901651     101.49928694
H      62.06048070      77.01395978     102.22872130
C      65.86449977      77.15190981     100.84544164
H      66.49188892      79.08698956     100.97583275
C      67.47454659      79.84854926      95.66003263
O      68.87483380      81.25261590      96.99039996
N      65.58104083      80.69136719      94.27108380
H      64.78735578      79.45170673      93.05787950
C      64.43964614      83.33698403      94.39202628
H      65.66418878      84.73727123      93.50574464
C      61.89040533      83.35210183      93.21661651
H      60.76790791      82.20125852      94.50352014
H      62.13984921      82.37322361      91.41948679
C      60.64129624      86.01094676      92.78197945
H      59.92886943      86.69124824      94.59044754
C      62.03402454      88.03673337      91.38736145
H      63.81414673      88.44302452      92.34167322
H      60.90585792      89.76016377      91.48940666
H      62.54236091      87.62855249      89.43338443
C      58.25079245      85.54985355      91.15303538
H      57.06026489      83.94547591      91.65003340
H      58.71944458      85.45914667      89.14992549
H      56.95066076      87.09187022      91.56499572
C      64.04658306      84.23838348      97.08299655
O      62.97321851      82.92691342      98.57965978
N      64.59460369      86.57219548      97.61023019
H      65.43175245      87.50194083      96.16458955
C      64.02768579      87.90256281      99.93270383
H      63.21321375      86.69124824     101.38590336
C      66.57881632      88.90033829     100.96638412
H      66.35393888      90.21936727     102.53485696
H      67.29880205      90.25149261      99.58877363
C      68.47988100      86.89911813     101.59944244
H      68.76711940      85.61221450     100.01585178
C      71.03857042      88.28239779     102.17580896
H      71.54501708      89.23670958     100.42025322
H      72.35004048      86.81597018     102.77863165
H      70.99699645      89.75260487     103.61955987
C      67.77690280      85.46103641     104.01262293
H      65.94386827      84.59176230     103.65924412
H      67.38572945      86.66479207     105.63967730
H      69.06947561      83.91146083     104.41702437
C      62.12473140      90.05496108      99.48105924
O      60.25201262      90.31007412     100.79630876
N      62.78613561      91.92767985      97.87101243
H      64.49066874      91.75382502      97.03008421
C      61.08160247      94.03661442      97.10567327
H      59.19754535      93.22025265      97.27952809
C      60.96066000      96.21546885      98.98028177