 %block lattice_cart
   139.252   0.000   0.000
   0.000 142.425   0.000
   0.000   0.000   162.84
 %endblock lattice_cart

 %block positions_abs
N      92.92538058      43.06124711      82.87981358
H      94.76597401      43.39383895      82.51887586
H      92.20539486      41.62316539      81.85369220
H      92.44916955      42.76456008      84.70528920
C      91.07533852      44.98309877      82.14848950
H      91.56477764      46.65739629      83.24075131
C      91.50619612      45.72387149      79.39137880
H      91.79532425      44.11193494      78.14415944
H      93.46584231      46.34937090      79.47641649
C      89.76764791      47.64005397      78.30289645
H      87.83634762      46.93140660      78.42383893
H      90.29110210      47.93485128      76.33191190
S      89.76575819      50.76944075      79.57846172
C      92.82144563      52.04122655      79.51421102
H      93.46017313      52.20563274      77.56401346
H      94.18204858      50.92817776      80.58946528
H      92.65892917      53.93473232      80.30789606
C      88.37302989      44.20453153      82.81367316
O      87.61902909      42.13339149      82.03888538
N      86.92738926      45.89205713      83.94183976
H      87.68894897      47.58903136      84.36324874
C      84.20051419      45.66528997      84.10435624
H      83.47107984      44.60326379      82.49619914
C      83.42194695      44.05146370      86.38714562
H      84.50664986      42.30346686      86.48541138
H      81.39427062      43.69430543      86.32856410
C      83.81312030      45.31380088      88.84378982
O      84.89215402      47.24132172      89.15937411
N      83.11014211      44.02689726      90.82044354
H      83.55233807      44.54468227      92.60623492
H      82.60180573      42.18630383      90.76375176
C      82.85691879      48.30523763      83.99664183
O      84.35358203      50.11181599      83.87380963
N      80.25854510      48.58302740      84.10057678
H      79.18518056      47.02589292      84.34624120
C      78.97542094      50.99242845      83.99097266
H      79.50454431      52.00721148      82.27699089
C      75.99910200      50.59936538      83.85869182
H      75.65328208      49.22553435      82.36391829
C      74.91817854      49.42962479      86.28321067
H      76.12571366      48.06524239      87.24130192
H      73.10593101      48.60192466      85.76164621
H      74.41362162      50.95274420      87.57767319
C      74.63094014      53.15427535      83.43161367
H      75.06935665      54.50542967      84.92638718
H      72.60326381      52.79522735      83.37681161
C      75.54934713      54.25787552      80.85402698
H      75.82524717      52.75743283      79.47074732
H      77.29545425      55.34635788      80.96363110
H      74.04512499      55.55800722      80.31734470
C      79.71052447      52.89349312      86.12636338
O      80.11303618      55.09880373      85.58779139
N      80.02988822      51.95051969      88.45639593
H      79.56123610      50.12504407      88.76442131
C      81.10136304      53.34135826      90.48974144
H      80.03744713      55.02888385      90.99618810
C      81.08057605      51.80690049      93.05221033
H      82.05756455      53.07301712      94.35234203
H      82.36370022      50.19496395      93.08433568
C      78.57479896      50.97920037      93.95549951
C      77.32191041      52.77633009      95.40869904
H      78.13827218      54.60180571      95.82632856
C      75.05990802      52.13382314      96.56521154
H      74.07914006      53.40749868      97.82376927
C      73.99788183      49.64883304      96.26285533
H      72.17429594      49.46930904      97.15858561
C      75.13738680      47.93296155      94.62257289
H      74.36637846      46.08669894      94.22006118
C      77.45419126      48.71908770      93.35834598
H      78.25921467      47.43407380      91.99207387
C      83.75453878      54.42795089      90.04943521
O      84.29877996      56.48964229      91.05665934
N      85.34001916      53.05600958      88.64914802
H      84.62381289      51.49698538      87.81199925
C      87.79855309      54.02732891      87.82900679
H      88.51853882      55.11770099      89.42204607
C      89.85268560      51.98642449      87.30366288
H      89.41048964      50.83369144      85.65204209
H      90.02276096      50.62393182      88.83812065
C      92.35468323      53.35836579      86.86146693
H      92.02020168      54.94384617      85.58968111
H      93.45261422      51.92973270      85.85991197
C      93.79087523      54.26165497      89.26330907
O      95.96783994      53.32624045      89.67337968
O      92.88569633      55.91138604      90.73918532
C      87.57178594      55.93217303      85.57645303
O      88.63192240      58.00898225      85.42716466
N      86.03165899      55.19517977      83.69806507
H      85.23230476      53.49253636      84.03632609
C      85.48930754      56.46885531      81.26976677
H      87.18061259      56.43295051      80.09624673
C      83.44651339      54.94195644      79.63893296
H      81.53788982      55.04778112      80.40427211
H      84.00209293      52.97475135      79.39515826
C      83.25754076      55.79989219      76.82324074
H      84.86380813      55.11014209      75.73475840
H      83.09313457      57.85213497      76.81568185
S      80.34925197      54.64904887      75.35870285
C      80.78577875      55.36714486      71.97042358
H      82.17661731      54.16338920      71.03689877
H      81.39993980      57.29277598      71.56602215
H      79.06990725      55.05345030      70.87627205
C      84.49531150      59.26753997      81.73274971
O      85.63859592      61.23474507      80.95040302
N      82.53377559      59.63981606      83.21996431
H      81.68528847      58.12047610      83.99664183
C      81.49253639      62.16260069      84.05711307
H      80.81979382      63.11313302      82.35635939
C      79.28722578      61.66938212      85.76353593
H      79.04912026      63.38714334      86.87280527
H      79.82012860      60.07067366      86.95217379
C      76.80601513      61.12892039      84.43694806
H      77.02711311      59.71918456      82.94973346
C      74.97298061      59.89114966      86.35879973
H      73.27033720      59.37336465      85.31945025
H      74.58747644      61.36135673      87.75341775
H      75.97831501      58.26976448      87.12602860
C      75.66839989      63.39281252      83.06500676
H      76.76444115      63.37391525      81.32078938
H      75.66651016      65.12191209      84.18750418
H      73.70308453      63.04321315      82.55856010
C      83.52966135      63.53076254      85.47440780
O      83.90004771      65.76630877      84.87536457
N      84.94695609      62.21551302      87.04099092
H      84.74475537      60.32011753      86.95595324
C      86.91794063      63.59690296      88.51308772
H      85.79544320      65.15970662      89.25197070
C      87.94406202      61.91504654      90.62013255
H      88.38058880      60.10657846      89.73385092
H      86.38125836      61.40104098      91.85601357
C      90.06244522      63.25675222      92.20939239
H      89.49930678      65.18049361      92.67993423
H      91.80288315      62.94305765      91.15492510
C      90.49141309      61.69394856      94.61123453
H      88.69617309      62.01709176      95.56554632
H      92.29232227      62.16638014      95.49562644
N      90.82022547      58.96518376      94.20872282
H      91.91059755      58.45306793      92.72906713
C      89.75253010      57.11325198      95.62034838
N      88.66782720      57.30789379      97.75006993
H      87.78910446      55.84146617      98.59855706
H      88.61869431      58.95762486      98.70816118
N      89.78087600      54.80967560      94.81154553
H      89.01175739      53.44529320      95.90002788
H      91.04699263      54.59991598      93.40180969
C      89.02876492      64.61357571      86.84445938
O      89.95095136      66.70739247      87.29232452
N      89.58623419      63.27753921      84.68828167
H      88.83412311      61.52576292      84.58434672
C      91.43249679      64.26208662      82.87036495
H      93.04254361      65.24663403      83.69428562
C      92.50964079      61.95095134      81.40960650
H      90.95250631      60.84735117      80.63292900
C      93.88347182      62.74085694      78.89060134
H      92.44727982      63.35690772      77.54889565
H      94.97195418      61.23096561      78.00620942
H      94.86235005      64.54932503      79.02666163
C      94.49574315      60.20106477      82.81934233
H      95.35178917      58.75731387      81.62503531
H      93.34867928      59.20706873      84.20640145
C      96.49696331      61.81678077      84.22340898
H      97.25096411      63.27375976      82.97996908
H      97.99551628      60.63570183      85.00386596
H      95.49729809      62.52542814      85.87880924
C      90.52731789      66.24629925      81.22441334
O      92.01642222      67.83177964      80.37214676
N      88.07823259      66.25574789      80.55733994
H      86.97085297      64.86490931      81.24897978
C      86.91038173      68.08122350      78.90004996
H      88.13303465      68.46861739      77.28622369
C      84.32712586      66.96061581      78.16494643
H      82.76432220      68.21539408      78.64682663
H      84.11169706      65.24852376      79.29122331
C      84.06067445      66.21417390      75.39649739
O      82.51109887      64.43594144      75.00721376
O      85.12836981      67.43115765      73.70708206
C      86.61369470      70.70227389      80.10758508
O      86.76676253      72.59577966      78.78855612
N      86.06756379      70.77975267      82.59068545
H      85.95418021      69.02986612      83.33901708
C      85.14537735      72.85278245      83.92672196
H      85.11514173      74.50251352      82.69462040
C      82.39393584      72.39168922      84.73930427
H      82.28244199      71.24273562      86.44383741
H      81.50387475      71.33722194      83.20484651
C      81.17128291      74.95415811      85.21551530
H      82.35992076      76.34121722      86.16793737
H      79.69729639      74.99573208      86.65359703
C      79.93918136      76.14657540      82.82501151
O      77.60725909      76.77963372      82.85524714
O      81.27521786      76.34310694      80.93150575
C      86.72140910      73.47828186      86.31722575
O      86.79699815      75.78941714      86.88603337
N      88.16516000      71.66414459      87.35657521
H      87.93272366      69.86134569      86.76698061
C      89.82622943      72.09122274      89.61101870
H      91.13958922      73.63512913      89.24441180
H      90.97896248      70.42448414      89.97573589
C      88.49397238      72.91514341      91.95616907
O      86.17905764      73.25718387      92.14136225
N      90.00386370      73.30820648      93.96683785
H      91.88036193      73.07388042      93.71928371
C      89.25553208      74.12834770      96.48584303
H      87.22029684      74.02252304      96.76930198
C      90.34401444      72.17815015      98.36612071
H      92.40381612      72.24429058      98.42092278
H      89.95473082      70.25440876      97.73873158
C      89.45017389      72.73372968     101.05898071
H      89.74119174      74.75006766     101.35944720
C      86.69495293      72.33499743     101.24606361
H      85.60458084      74.04897920     100.90213342
H      86.22819053      71.79075625     103.17547419
H      86.23196998      70.77975267      99.97994698
C      90.93738850      71.35233976     103.02051662
H      90.70873162      69.31710451     102.79941865
H      90.26464593      71.66603431     104.94236829
H      92.94427784      71.70760829     102.71249124
C      90.10212947      76.83254605      96.90536228
O      92.34523460      77.42969958      96.63135196
N      88.27287440      78.61455797      97.58377402
H      86.47574467      78.06275788      97.92203503
C      88.87002791      81.26206454      98.53430636
H      90.84479191      81.50394951      99.06909891
C      88.33145591      83.16690866      96.46505605
H      87.99508463      85.02639935      97.27952809
H      86.62692278      82.44503320      95.56365659
C      90.35346307      83.15368057      94.56777082
H      91.02809536      81.32064605      93.91770497
H      91.95595098      84.11744099      95.43137576
C      89.33868004      84.78262466      92.37190886
H      91.04699263      85.13789320      91.27775732
H      88.52798745      86.43424545      93.29598502
N      87.67194143      83.39556554      90.70328051
H      86.98597078      81.74394474      91.37035391
C      86.82156459      83.96059371      88.43182949
N      87.59446265      86.00716730      87.19594847
H      86.56834126      86.70825577      85.74652840
H      88.75097516      87.27706339      88.03120750
N      85.24175339      82.41479759      87.26019917
H      84.91861019      82.57920377      85.38748040
H      84.63137179      80.85577337      88.18049588
C      87.26376055      81.71370913     100.94181768
O      84.88648485      81.46804470     100.97016358
N      88.41460387      81.94047628     103.08098786
H      90.31755827      82.03496259     102.97138374
C      87.13147971      81.94236600     105.57164715
H      85.54599933      80.63845485     105.73794306
C      89.09679507      81.03907684     107.51995497
H      88.17271890      81.33009469     109.33787169
H      90.79565903      82.20503797     107.47838100
C      89.65048488      78.10622159     107.28751863
H      89.88481094      77.78307839     105.26551148
C      92.07500374      77.25584475     108.49127430
H      92.10145991      77.27285230     110.55107599
H      93.50363683      78.58432235     107.83553926
H      92.54365587      75.34722117     107.87522352
C      87.60013183      76.39035010     108.42513388
H      87.66627225      76.05775827     110.45847940
H      87.53210168      74.70282450     107.24405494
H      85.69150825      77.04608513     108.01317355
C      86.31133849      84.56908558     106.38611919
O      84.46318615      84.87333152     107.73916322
N      87.29588589      86.66857151     105.15779708
H      88.85491010      86.31141324     104.12033733
C      86.03165899      89.10631846     105.06897994
H      85.17750270      89.40678494     106.91713229
C      87.96484901      91.11509753     104.59276891
H      86.95195571      92.90844781     104.48694424
H      88.72829844      90.82218995     102.70304261
C      90.12669591      91.04706738     106.56753292
H      91.40037145      89.45024865     106.31619932
H      89.36324648      90.92234544     108.47804622
C      91.98996606      93.33552596     106.46359796
H      92.74774631      93.25804718     108.37789073
H      91.16226593      95.18745773     106.11210887
C      94.25385818      93.13143550     104.55308467
H      93.59056424      92.49459774     102.70871178
H      95.32533300      91.52705786     105.27496011
N      95.71272689      95.37454064     104.43970108
H      97.35111961      95.21769335     103.47027149
H      96.15870230      95.85831057     106.23116164
H      94.60912673      96.72569495     103.66680303
C      83.93406278      89.04962667     103.09610567
O      83.98319567      87.73815662     101.20448964
N      82.14260224      90.68235021     103.37389544
H      81.92339399      91.73681748     104.94992719
C      80.37570814      91.17934822     101.28196841
H      79.40060936      89.42001303     100.84733137
C      78.40283387      93.21458347     102.13801444
H      79.19084974      95.08919196     102.47627544
C      76.47342330      93.70780203     100.03663878
H      75.64572317      91.93334902      99.39035237
H      77.52222140      94.49392818      98.44737894
H      75.01455459      95.06462552     100.55442379
C      76.76444115      92.27916894     104.44914972
H      78.24031740      91.81429626     105.80597321
H      75.65328208      90.66345294     103.81798112
C      75.04479021      94.29172747     105.78140677
H      73.20230705      94.01960687     104.90268403
H      75.81768827      96.19279213     105.60944167
H      74.88794292      93.84953150     107.78640638
C      81.68528847      92.18657235      98.88012628
O      83.32557091      93.85331096      99.15413659
N      80.85002944      91.46091745      96.60111634
H      79.74453955      89.90756242      96.69560265
C      81.71741382      92.39255252      94.13691323
H      82.71140986      94.17456444      94.43737971
C      83.47674902      90.47825976      92.90670139
H      85.13781845      90.24393370      94.10100843
H      84.18539638      91.33619551      91.17004292
C      82.37314885      88.00460802      92.10734716
C      81.43206515      87.68902372      89.52220157
H      81.34702746      89.21214313      88.16726780
C      80.67050544      85.30985829      88.69072199
H      79.90327656      85.18513637      86.80099567
C      80.34736224      83.29163059      90.39525513
O      79.67839913      80.85577337      89.63936460
H      79.17195247      80.78018432      87.90081639
C      81.32435075      83.61288407      92.88780414
H      81.52844119      82.09165438      94.23139954
C      82.34669268      85.95992415      93.79676249
H      83.23108460      85.94480634      95.63546619
C      79.47808814      93.10308961      92.64591917
O      77.29734397      92.45869294      93.03142333
N      79.94485054      94.56006860      90.58044831
H      81.65505285      95.37265092      90.34045306
C      78.18740507      94.94368305      88.53765416
H      76.31657602      94.21613841      89.00063711
C      77.70174540      97.79716977      88.45639593
H      79.48186759      98.52282467      87.71751295
H      77.35403576      98.61731099      90.31399690
C      75.69485606      98.68345142      86.53265455
H      74.01866882      98.28093971      87.66082116
H      76.04256570      97.65544030      84.78087826
C      75.76099648     101.50481281      85.96762638
H      74.19063391     101.88464780      84.69017139
H      77.66962006     101.83929435      85.26464818
C      75.46241972     102.86541575      88.42616030
H      77.13671724     102.88242328      89.62424680
H      74.03000718     101.73724913      89.38614127
N      74.54401273     105.50725313      88.13703219
H      75.49643480     106.59951494      89.37858238
H      72.67129396     105.68488740      88.47340346
H      74.78589770     106.29715873      86.41927097
C      78.78077913      93.65677942      86.09234832
O      80.86514725      93.61898489      85.16827215
N      76.96097269      92.15633673      85.13425707
H      75.35470532      91.97114355      86.15281956
C      77.21419601      90.56140772      82.84390878
H      79.17762165      89.93968777      82.81556288
C      75.67028962      88.15956557      83.22941295
H      73.64639274      88.46570124      82.98374853
H      76.21264107      87.41123396      85.07189611
C      76.51121783      86.04685156      81.27543594
O      75.82524717      86.31708242      79.02288218
O      77.88882831      84.21381704      81.97085523
C      76.60192469      92.32452237      80.44584608
O      75.82902663      94.57329669      80.68584133
N      76.65483703      91.29462154      78.18762315
H      77.08569463      89.43702056      78.17061560
C      76.68885210      92.58152516      75.80656799
H      77.80190090      94.31629390      75.77822209
C      77.77166528      90.95069134      73.54078614
H      76.45641576      89.39166714      73.24787857
C      78.24220713      92.48892856      71.29012210
H      76.41862124      92.37932444      70.33958976
H      79.57068473      91.66689761      69.94652669
H      78.69763117      94.42211858      71.83814273
O      80.08469028      89.64866991      74.08691705
H      79.78422380      87.98949021      74.75588017
C      74.03000718      93.67567668      75.02422129
O      73.81457838      95.54272628      73.70330261
N      72.04768427      92.83285875      76.29411738
H      72.21586992      91.18123796      77.23520108
C      69.48899485      93.90433357      76.09947557
H      69.26789687      94.44479530      74.12471157
C      67.66918841      91.75760447      76.55678933
H      65.80780799      92.63065803      76.69095990
H      68.22854740      90.84486667      78.31612454
C      67.12116778      89.85087062      74.45919313
H      66.11394365      88.17090393      75.09603090
H      68.86538516      89.13844381      73.62393410
C      65.20309557      90.99226533      72.47309078
O      66.11016420      92.17334426      70.61171036
O      62.74078218      90.74660091      72.65072505
C      69.14695438      96.07373938      77.94195873
O      67.06069653      96.99214636      78.45407456
N      71.27478621      97.14899365      78.95485203
H      72.86215632      96.10964417      78.73942322
C      71.29746293      99.30139192      80.83323999
H      70.31669497     100.84151886      79.87892820
H      73.32324954      99.54327688      81.11669893
C      69.91040381      98.71935622      83.31445064
O      69.08648314     100.49758868      84.59568508
N      69.68930584      96.34397025      84.02876718
H      70.39606348      95.05517689      82.81556288
C      68.64995636      95.61642561      86.52131618
H      67.90351447      97.34363547      87.35657521
C      66.26512176      93.83252397      86.17549628
H      65.26734626      93.64544106      87.96695682
H      67.22132327      92.03539424      85.86747088
C      64.29791667      94.46180283      84.15159938
C      63.89729469      92.96324986      81.99920112
H      65.11616816      91.35887222      81.67227847
C      61.89985397      93.50371159      80.27766045
H      61.46710665      92.23759496      78.73753350
C      60.39374210      95.69768385      80.79544545
O      58.36984522      96.10964417      79.40082743
H      57.39663617      97.56473343      79.87892820
C      61.13262509      97.46268821      82.65493614
H      60.11406261      99.19178779      83.02343279
C      63.05447675      96.79561483      84.41616107
H      63.84627208      98.01826775      85.84668390
C      70.47543198      94.29739664      88.39970415
O      72.14972950      92.97080877      87.64948280
N      69.95764697      94.85297617      90.80154629
H      68.33626180      95.79405988      91.15492510
C      71.27289649      94.03472468      93.01819525
H      73.24010158      94.25015348      92.44938763
C      70.64928680      95.61453588      95.38413260
H      71.72076162      94.78494603      96.93748762
H      68.62916937      95.62209479      95.78664430
C      71.72832053      98.25070410      95.25941066
C      69.90473464     100.18011465      95.24807230
H      67.89973502      99.84752282      95.44460384
C      70.72865531     102.67833284      94.85689895
H      69.37183182     104.20145225      94.87768594
C      73.34781598     103.14509524      94.52052767
O      74.00544074     105.57906274      94.16525913
H      72.55035147     106.62975056      94.42037218
C      75.17140187     101.16466206      94.81721469
H      77.18018094     101.51993061      94.81910443
C      74.40984217      98.70045895      95.01374624
H      75.80823964      97.21891353      94.91170102
C      70.97998891      91.12832561      93.53409053
O      68.87105434      90.07196860      93.54353916
N      73.12671800      89.72425896      94.07077280
H      74.68952166      90.81841051      94.08400090
C      73.48198655      87.03328869      93.96683785
H      71.69052600      86.13377897      94.42982080
C      74.28134078      86.03929265      91.35145665
H      76.18051572      86.68557906      90.87902507
C      74.31346612      83.06297371      91.11335113
H      72.35004048      82.45070238      91.11524085
H      75.36982313      82.07842630      92.58355819
H      75.13171762      82.51117362      89.30299332
O      72.47854187      86.74794002      89.62046734
H      72.28767952      88.49782658      90.06077357
C      75.28667518      86.31897215      96.12301558
O      76.73987471      87.91768061      96.96772325
N      75.32446970      83.92090945      96.99606913
H      73.81268865      82.86266273      96.50663002
C      77.33891795      82.82486819      98.66469747
H      79.05667917      83.94358618      98.46438649
C      76.80034595      83.29352033     101.48416914
H      76.33925273      85.29851994     101.60133217
C      74.50432848      81.72315775     102.51595969
H      73.63316465      82.60377021     104.16191131
H      75.10526145      79.80697527     102.97894264
H      73.09648238      81.59276664     101.01929645
C      79.08880452      83.04407645     103.41735916
H      80.84624999      83.77540053     102.63123301
H      79.06423808      81.10899670     104.12411679
C      78.57479896      84.53129105     105.81542185
H      80.22264030      84.59554175     107.04941313
H      76.83814048      83.75461354     106.61288634
H      78.12504410      86.51361396     105.48283001
C      78.08724957      80.10555203      98.27352412
O      76.97609050      78.73361073      96.77497116
N      80.03555740      79.09643818      99.56609693
H      81.16939319      80.24539178     100.57899023
C      80.72341778      76.35255557      99.72672367
H      78.99809765      75.39068488     100.31253882
H      82.06134401      75.81398358     101.19693073
C      81.58324325      75.38312597      97.14346779
O      82.97219209      76.56798438      95.72995250
N      80.64404927      73.25151469      96.38190808
H      79.79178271      72.00240561      97.54597950
C      80.40594376      72.24807003      93.72117343
H      81.77599533      73.13246193      92.46639516
C      80.76310203      69.32844288      93.87802072
H      79.37604292      68.73884827      95.28208738
C      80.44184856      67.96028101      91.25886006
H      78.70141062      68.80120923      90.54643323
H      80.45129719      65.92882524      91.57822380
H      81.93473234      68.49129411      89.94172081
C      83.36903462      68.64436194      94.85122978
H      83.62225794      69.75741074      96.56332181
H      84.88459512      69.42292918      93.69660699
C      83.62414767      65.88158207      95.76963677
H      81.99520359      65.39214297      96.92992871
H      85.41749794      65.69071972      96.76363281
H      83.79044358      64.33767567      94.41659273
C      77.74709883      72.96994548      92.63269109
O      75.88004924      71.69249049      92.97473154
N      77.60347964      75.18848417      91.31366211
H      78.81101475      76.64357342      91.56688544
C      75.33013888      75.83666030      89.77920435
H      75.01833404      74.21149567      88.55088224
H      75.59281084      77.65079755      88.84190009
C      72.87916385      76.17114184      91.10390249
O      70.91762794      75.61178286      89.95494890
N      72.67885286      76.95726799      93.47172957
H      74.30968667      77.39190504      94.36368039
C      70.19197304      77.15379953      94.88902430
H      68.95987148      75.78185823      93.96683785
C      70.71731695      76.17681103      97.63479664
H      72.13461169      77.39757422      98.49651184
H      71.41462596      74.24551073      97.45905208
C      68.46854264      76.25051035      99.29964552
N      66.74322251      74.16425251      99.58688392
H      67.01723283      72.46160910      98.76863242
C      64.72499481      75.05053415     100.69804299
H      63.07148429      74.01685385     101.30653485
N      65.12561679      77.55820096     101.43314653
H      63.79902892      78.52952028     102.40068640
C      67.42919317      78.27818669     100.42025322
H      68.17185561      80.17547190     100.54686488
C      69.08270369      79.79941637      94.71894894
O      70.22409838      81.40190429      96.03419845
N      67.25533835      80.43625413      93.09567402
H      66.69786908      79.14368135      91.80688069
C      66.17063544      82.97604630      92.88024523
H      67.67863704      84.19869922      92.19427458
C      64.04280361      82.97604630      90.83367164
H      62.60472189      81.71748858      91.59712107
H      64.74956125      82.05385986      89.13291796
C      62.93353427      85.52906655      90.06077357
H      62.04914235      86.42290709      91.69349711
C      64.59460370      87.70981072      88.93638642
H      65.16908050      87.06919350      87.06555736
H      66.36338753      88.09909433      89.91526465
H      63.51368025      89.45780755      88.80221585
C      60.95499082      84.87711097      87.93105202
H      61.74111696      84.45003282      86.07534078
H      59.90619271      86.63644618      87.70995404
H      59.69265364      83.34265321      88.46962401
C      65.10294007      83.89067384      95.47672919
O      63.99745018      82.36566471      96.94315681
N      65.28246407      86.36810503      96.08522106
H      66.42196904      87.34131408      94.90036266
C      64.52657355      87.57941960      98.44737894
H      63.97288374      86.02228511      99.67759077
C      66.72810470      89.14222326      99.41491881
H      66.22543750      90.30251521     101.04197318
H      67.14951367      90.62187897      98.04675697
C      68.93719476      87.48871274     100.32387718
H      69.57781198      86.28306735      98.77997078
C      71.08770331      89.21214313     101.27629924
H      71.61493695      90.43668579      99.70593668
H      72.63916861      87.90067307     101.62967805
H      70.88928205      90.34030974     102.98839127
C      68.01878778      85.75583370     102.47438572
H      66.87361363      84.27617800     101.60511161
H      67.07392462      86.83486744     103.95215169
H      69.65718049      84.76750684     103.23594543
C      62.07181907      89.04584722      97.80676173
O      60.16697495      88.64333551      99.10311398
N      62.34582938      90.71069610      96.01719091
H      63.80091864      90.61054060      94.78886880
C      60.36728593      92.57963542      95.47294974
H      58.48889798      91.72925858      95.47106000
C      60.42208800      94.90588851      97.24551302