 %block lattice_cart
   139.252   0.000   0.000
   0.000 142.425   0.000
   0.000   0.000   162.84
 %endblock lattice_cart

 %block positions_abs
N      93.64064199      41.72899007      81.01559857
H      95.39430801      41.70820308      80.26348751
H      92.58428498      40.26067272      80.40143753
H      93.63308308      41.57025306      82.91666324
C      92.21956780      43.96453630      80.40521698
H      93.21923302      45.33836733      81.57306783
C      92.76191925      44.79412615      77.61220148
H      91.73957732      43.55635541      76.31962868
H      94.78581614      44.44641651      77.46858228
C      91.97201366      47.50777313      76.86764931
H      89.93110924      47.77233482      76.83741370
H      92.58428498      47.62871562      74.90233395
S      93.39686730      50.26488383      78.56462354
C      96.67365272      49.96063789      78.11108924
H      97.49568367      51.38171208      79.35263941
H      96.96467057      50.56157086      76.16278141
H      97.53725765      48.13894172      78.53060848
C      89.44355985      43.67729790      80.90788417
O      88.39854120      41.72143116      80.18978817
N      88.33806996      45.67662834      82.18911861
H      89.17332899      47.37549229      82.43478304
C      85.66977640      45.70497423      82.89209680
H      84.58507350      44.46909322      81.64865689
C      85.30505922      44.45586514      85.49613966
H      86.28771691      42.64739706      85.39787390
H      83.29628015      44.07225070      85.74369380
C      85.89843329      46.01488935      87.84506946
O      86.21401758      48.18807461      87.64097903
N      85.97024289      45.17018169      90.09951297
H      86.30472444      46.50054901      91.42610083
H      85.39576609      43.47131773      90.75524799
C      84.65121392      48.37893696      82.71068307
O      85.98158124      50.19496395      82.36864261
N      82.14354710      48.69263153      82.94311941
H      80.99459350      47.18840939      83.18689410
C      80.98325515      51.29289494      83.07917971
H      80.98703460      52.01288066      81.14976914
C      78.20913692      51.12092984      83.68011268
H      77.48726147      49.91150500      82.17589052
C      77.59497587      49.61670770      86.03660138
H      77.81796357      50.90361132      87.62775095
H      78.79684180      47.94996909      86.19911785
H      75.60131461      49.10459187      86.04227056
C      76.58397229      53.48686719      83.50814758
H      77.26238403      54.63015161      85.08039987
H      74.62432610      53.00876643      83.91632846
C      76.43657364      55.13470853      81.15921778
H      74.47125827      55.71107506      80.96079651
H      77.18679498      54.16149948      79.50381752
H      77.72725671      56.72585809      81.37275684
C      82.04717106      53.31301237      84.84985327
O      82.15677519      55.60714011      84.17711069
N      82.80117186      52.50798896      87.08728921
H      83.26982398      50.66172635      87.19878306
C      84.26570975      54.18606592      88.82394769
H      83.16777876      55.89626824      89.16031899
C      84.46035156      52.95207464      91.44688783
H      85.42789143      54.38070773      92.56938525
H      85.65465859      51.29289494      91.19933367
C      81.87331624      52.34169304      92.66198184
C      80.58263317      54.55645228      93.50668950
H      81.46324563      56.33657447      93.04559628
C      78.19023965      54.38637691      94.68776844
H      77.17545662      56.14760184      94.87485136
C      77.15844909      52.02232930      95.14130277
H      75.33486320      51.90138681      96.04837140
C      78.52094176      49.82457759      94.36651498
H      77.78394850      47.97642526      94.81438012
C      80.83396677      49.88504884      93.02858875
H      81.98292036      48.25421503      92.59584141
C      86.76581766      55.07234757      87.96034277
O      87.52548764      57.19262049      88.24758117
N      88.21334802      53.25065140      86.98902344
H      87.36486090      51.54233881      86.91154467
C      90.68888949      53.66072201      86.00825549
H      91.79248966      54.59613653      87.47468312
C      92.17610410      51.24754151      85.50558829
H      91.22179231      50.48409208      83.84451886
H      91.82650473      50.12693380      87.19689335
C      94.97289904      51.63115595      84.94056012
H      95.28281416      53.26198976      83.72168665
H      95.77414300      49.94363035      84.07128603
C      96.61696093      52.16216904      87.32539474
O      95.70044367      52.21508138      89.47023409
O      98.94699348      52.40972319      87.08162003
C      90.40354082      55.46730036      83.73491473
O      91.73768759      57.25498146      83.33429276
N      88.59885219      54.91927973      82.07384530
H      87.82406440      53.18451098      82.24770012
C      87.87697673      56.40271489      79.86853471
H      89.46056739      56.35925118      78.55139546
C      85.64709969      54.95518453      78.59674889
H      84.22035632      54.93439754      80.08585322
H      86.19323059      52.98042054      78.37943036
C      84.77782558      55.57123531      75.93979369
H      86.16866415      54.80967561      74.62643390
H      84.82695847      57.54788904      75.36909635
S      81.74481485      54.31645704      75.14988809
C      82.15299573      53.94607068      71.82396979
H      83.99169944      53.26387948      71.19658065
H      81.50292988      55.48997708      70.62777303
H      80.76404689      52.55712184      71.19658065
C      87.40454516      59.15226668      80.40710670
O      88.06028019      60.82467446      78.79517015
N      86.33684979      59.82689897      82.61997622
H      85.68300449      58.42472204      83.73680447
C      85.76237299      62.48196444      83.47224278
H      85.30127977      63.74997079      81.91699802
C      83.19234521      62.43472128      84.95756766
H      83.02982874      64.29421197      85.82684176
H      83.37753838      61.08734642      86.50525351
C      80.88120992      61.72796364      83.33618248
H      81.27049354      60.06689421      82.18344943
C      78.63999452      61.17427383      85.19378345
H      78.33385885      62.45550827      86.77926382
H      78.70613494      59.21651737      85.82117258
H      76.92412302      61.55599855      84.11663945
C      80.24815161      63.97862768      81.60519318
H      81.71835868      63.88414136      80.16522173
H      80.50137494      65.71528616      82.68422691
H      78.37165338      63.81800094      80.77371360
C      87.98091168      63.58745433      84.83473545
O      88.15476650      65.93071496      85.10118686
N      89.74213661      62.02087122      85.64542804
H      89.50781054      60.15760107      85.31094648
C      92.16854519      62.90715286      86.75280765
H      91.93799858      64.61735517      87.87908454
C      93.33639605      60.71507034      88.31750105
H      95.39241828      60.74719568      88.20222774
H      92.81294186      58.90660225      87.47846257
C      92.29704658      60.84735118      91.13508297
H      90.26181134      60.52231825      91.15020079
H      92.72601445      62.66337816      92.00435709
C      93.65387007      58.89337417      92.86607229
H      93.32883715      59.23352491      94.87107191
H      95.61540599      59.26187080      92.36151535
N      93.25324810      56.16460937      92.10829204
H      94.67810174      55.26698938      91.21634121
C      91.42021357      54.66227696      92.99646340
N      89.70245235      55.49753599      94.59328214
H      88.81428099      54.24275771      95.72522819
H      89.52103863      57.35513695      94.98634520
N      91.23502039      52.30200879      92.46734004
H      89.91221197      51.13037848      93.18921549
H      92.38964317      51.76910597      91.04815557
C      93.96756464      63.85390574      84.66843954
O      95.65886969      65.29576692      85.09362795
N      93.62363445      62.92416040      82.30250219
H      92.45011441      61.42182798      82.20045698
C      95.12785660      63.61580023      80.05372789
H      96.94577331      64.43027227      80.57718206
C      95.47178679      61.19128137      78.39832763
H      93.64253172      60.33145589      77.99392620
C      96.26358211      61.89425956      75.82452040
H      94.91809698      63.01486726      74.73981749
H      96.73979314      60.42594221      74.46013799
H      98.01157895      62.96951383      75.95491150
C      97.46166859      59.26376053      79.23169694
H      97.30104186      57.54788904      78.10353033
H      96.65286573      58.83857211      81.07606981
C     100.14319023      60.10846819      79.48869971
H     101.20143697      58.44550903      80.08585322
H     100.18854366      61.70528692      80.78883142
H     101.06726640      60.67349636      77.73881314
C      93.69922351      65.80599302      78.58352081
O      94.90864835      67.57099740      77.61220148
N      91.16699025      65.83622864      78.59485917
H      90.22023736      64.26964553      79.12965171
C      89.60040713      67.80532346      77.38543433
H      90.67377168      68.45349959      75.75271079
C      87.01904099      66.61290616      76.72025067
H      85.77371135      68.22484270      76.41222527
H      86.57495531      65.41481968      78.33596667
C      87.11919648      65.14269909      74.23526057
O      85.25214689      63.81611122      73.69101939
O      89.03159951      65.30143610      72.90111379
C      89.18844680      70.07488476      79.03138594
O      89.08640158      72.18759878      77.96558031
N      88.74058166      69.94638338      81.52582467
H      88.93711320      68.28531395      82.44423166
C      87.72957808      72.08555356      82.98658312
H      87.64831985      73.66914421      81.66944387
C      85.03860781      71.38068565      83.99758669
H      84.83451737      69.90858885      85.42244034
H      84.31673236      70.51708072      82.27226658
C      83.26793426      73.61623187      84.54371760
H      84.12587000      74.60077928      86.13675688
H      81.35742096      73.09655714      85.10874577
C      83.01471093      75.49273010      82.26470767
O      84.53405089      77.36922833      82.09274257
O      81.41033329      74.88234850      80.64521221
C      89.67599618      73.08710851      84.80638956
O      90.34117985      75.30564720      84.63253474
N      90.60763126      71.49595895      86.44289255
H      89.71001126      69.84244843      86.76981520
C      92.49546784      72.28964400      88.30238324
H      93.93921875      73.44426678      87.39342487
H      93.42143374      70.59455950      89.02614841
C      91.41832385      73.64646750      90.63052605
O      89.08829130      74.22661347      90.75146853
N      92.84506721      73.90913945      92.65631267
H      94.58172569      73.14569002      92.46545030
C      92.03437462      74.73872930      95.12996441
H      89.98024212      74.71605259      94.97878630
C      92.60507197      72.68837626      97.04236743
H      94.57605651      72.17059125      96.74379067
H      91.84729172      70.92337188      96.29970499
C      91.96823420      73.14946948      99.85428018
H      93.34962414      74.47605735     100.60639126
C      89.36230162      74.21338539     100.30214532
H      88.09618499      72.64869200      99.87128773
H      88.93522347      75.81209385      99.07382322
H      89.03915842      74.64235326     102.29202713
C      92.12130203      70.60400813     101.18653724
H      94.08283795      69.98795735     101.05425639
H      90.50180658      69.47395180     100.59883235
H      91.93988831      71.04998354     103.18964714
C      92.71845555      77.43347903      95.84050149
O      94.96911959      78.19125928      95.46822542
N      90.84951623      79.09832791      96.54158996
H      89.06939404      78.44448260      96.33749951
C      91.10651900      81.68914268      97.73022782
H      93.02270149      82.00850643      98.40863956
C      90.56605728      83.76028272      95.77625080
H      90.00291884      85.52906655      96.67576052
H      88.93711320      83.38611691      94.57249515
C      92.93577407      84.01917523      94.09439438
H      93.39875702      82.36944416      92.95110997
H      94.64597639      84.38200268      95.18287674
C      92.22334725      86.25472146      92.40497906
H      93.90520367      86.96147910      91.45255700
H      91.39186768      87.80051758      93.48401279
N      90.50558604      85.32119666      90.47556850
H      89.84229210      83.55619228      90.76091716
C      89.78560031      86.65156398      88.47812778
N      90.63408743      88.85876432      88.19466883
H      90.20511955      89.82252474      86.60162955
H      91.39564713      89.69024389      89.73290606
N      88.52704259      85.73882617      86.61674737
H      88.66499261      86.66101261      84.95000875
H      87.89209455      83.93980672      86.64320353
C      89.53615644      81.79307763     100.10939325
O      87.62186368      80.57609389     100.19254119
N      90.40354082      83.15934976     101.98967092
H      91.99469037      84.18925060     101.76857294
C      89.35663244      83.09320933     104.54836034
H      87.99980895      81.54363376     104.62394940
C      91.50714098      82.57731405     106.34360034
H      90.71912511      82.17102289     108.20498076
H      92.66743294      84.27428828     106.22265787
C      93.34017551      80.26050959     105.81069752
H      94.39464279      80.83876584     104.13451029
C      95.35651348      79.98838900     107.99711088
H      96.33539171      78.21582572     107.60404779
H      94.48723938      79.97138147     109.86227074
H      96.70955752      81.53229540     107.84404303
C      91.96823420      77.74528387     105.34204540
H      93.41765428      76.29586379     105.12661661
H      91.00447378      77.92291814     103.52979787
H      90.63030797      77.28041120     106.83492918
C      87.93933770      85.40245489     105.41574472
O      86.50881488      85.08876032     107.23933062
N      88.07539800      87.53595590     104.18364317
H      89.45111875      87.66634701     102.86650393
C      86.54282996      89.77150212     104.65040558
H      85.91733055      90.07196861     106.59115449
C      88.03571375      92.13177029     104.19309180
H      86.98502592      93.69835340     105.02268165
H      87.93366852      92.54751008     102.17864356
C      90.77392717      92.33775046     105.29669197
H      92.13453012      91.12076671     104.34615963
H      90.66999223      91.67256680     107.24311008
C      91.79248966      95.11375841     105.44031116
H      90.35818738      96.17200515     106.47021201
H      92.03059517      95.86209003     103.53546704
C      94.38708388      95.03061045     106.56658805
H      95.25446826      93.20891429     106.15462772
H      93.94866738      95.04950772     108.58103630
N      95.82138615      97.29828203     105.70487285
H      96.38830405      97.06206624     103.89829449
H      97.40497681      97.65921976     106.70642779
H      95.06927508      99.04627887     105.84660232
C      84.08429602      89.59575758     103.06870464
O      84.12209055      88.41845808     101.08449201
N      82.21913615      91.26438591     103.47688553
H      82.08685531      92.09775522     105.19086730
C      80.34830710      91.93145930     101.52668797
H      79.35620079      90.36298646     100.63473715
C      78.08819443      93.70780203     102.40730043
H      79.10486719      95.35375365     103.11405808
C      76.25327018      94.09708566     100.34182957
H      76.57452366      92.69112928      98.87162251
H      76.39122020      96.00004005      99.56515207
H      74.33897743      93.82496507     101.05425639
C      76.80695999      92.44735458     104.75245079
H      78.09197389      91.77272229     106.21698868
H      75.80918450      90.73337282     104.20254044
C      74.99093301      94.12921100     106.12250237
H      74.56574459      93.09931016     107.85538139
H      73.25049507      94.35030898     105.04535836
H      75.93957562      95.90177428     106.57414696
C      81.98292036      93.21836292      99.52924727
O      83.51926786      94.93801386     100.09805488
N      81.64465935      92.46814157      97.16708937
H      80.63554550      90.88266120      96.84016672
C      82.88054036      93.58119037      94.92398424
H      83.59485691      95.47091668      95.33783429
C      85.06695371      91.78595037      94.09628412
H      86.25559156      91.49115307      95.75168436
H      86.27070937      92.53806145      92.60151060
C      84.32429127      89.24237876      92.89630790
C      83.64965897      89.02694996      90.34517738
H      83.65721788      90.62943787      89.08284020
C      83.15266095      86.72337358      89.28315119
H      82.46669030      86.61943863      87.36318926
C      83.30005960      84.58420340      90.81005006
O      82.55172798      82.27684757      89.88030470
H      81.77694020      82.44314348      88.24947090
C      83.92933847      84.74294041      93.36873948
H      83.90666175      82.98360521      94.40430950
C      84.28082756      87.10698802      94.51958280
H      84.67200091      87.36399080      96.50568516
C      80.90577637      94.09141648      92.68654828
O      78.66267123      93.34875404      93.11929560
N      81.70135114      95.39154818      90.67776921
H      83.50037059      96.02838595      90.55682673
C      80.00626664      95.62398452      88.46489969
H      78.02016429      95.35375365      88.94677990
C      80.04028171      98.30361643      87.48602146
H      79.47336382      98.26771163      85.50558829
H      81.98103064      98.99336653      87.52759545
C      78.35086639     100.13287150      89.15653952
H      79.07841102     100.65065651      91.01225077
H      76.44413254      99.35997344      89.29826901
C      77.97292113     102.76148080      87.69200163
H      77.30017856     102.53282392      85.75692190
H      79.63777001     103.94255975      87.42177077
C      75.92634753     104.38286598      89.05638404
H      75.77327970     106.14031145      87.99057840
H      76.67845860     104.96868113      90.88374938
N      73.33931221     103.15832333      89.08472993
H      73.25616425     101.69756489      90.31494176
H      72.81585802     102.38731499      87.41988104
H      71.95603255     104.40176324      89.51936699
C      80.78672361      93.73614793      86.42966447
O      83.02604929      93.68134587      85.74936299
N      79.02927814      92.58152515      85.00292110
H      77.20947170      92.85931492      85.51314719
C      79.40344395      91.10375918      82.81461802
H      81.21947093      90.16834465      83.07917971
C      77.17356690      89.18568697      82.60674812
H      75.34431183      90.10031450      82.36108370
H      77.21703060      88.16712449      84.39442922
C      77.32474500      87.30729901      80.39198889
O      75.88666328      87.68713400      78.55139546
O      79.01793978      85.74449535      80.24081079
C      79.88532416      92.74782107      80.37876080
O      79.43178984      95.01171319      80.42978342
N      80.61475851      91.48926334      78.29439268
H      80.81695923      89.59008840      78.35864337
C      80.48436740      92.62876831      75.60531213
H      81.19112504      94.56384805      75.62420940
C      82.43267523      91.20013522      73.87432283
H      82.13787792      91.90311341      71.96003008
C      85.15010167      91.56107294      74.84564216
H      85.44300924      90.64644541      76.66544860
H      85.50159076      93.55095475      75.25760249
H      86.42188747      90.93179408      73.35086864
O      82.08874504      88.51294440      73.90077901
H      82.28338685      88.08208680      72.14900271
C      77.82174302      93.01427248      74.47336608
O      77.65355738      94.40133159      72.62143430
N      75.76005162      92.34719909      75.91522725
H      75.96414206      90.96769888      77.21724868
C      73.10309642      93.58874928      75.48247993
H      73.03128682      94.53361243      73.65700431
C      71.03195638      91.79161955      75.85664574
H      69.15923760      92.64577585      75.87743273
H      71.27006190      90.89588928      77.69723916
C      70.66345975      89.73181787      73.76849816
H      69.15545815      88.49782659      74.43746128
H      72.40389768      88.63577661      73.65700431
C      70.27606586      90.61809951      71.00004911
O      69.40679175      92.68546010      70.46336684
O      70.79574059      89.05907530      69.25016254
C      72.65901074      95.89610511      77.38921378
O      70.75605634      97.23781079      77.37409597
N      74.58275212      96.42333875      79.01437841
H      76.20980648      95.43312216      78.93123045
C      74.67534871      98.46613289      80.92300198
H      74.28228564     100.33318249      80.14821420
H      76.65200244      98.70045895      81.45023563
C      73.13711149      97.85953074      83.32106468
O      72.99916147      99.29761247      85.16543755
N      71.97492981      95.61264616      83.44767633
H      71.59131537      94.62620902      81.85841651
C      70.43669259      94.64321656      85.58306708
H      69.05341293      96.06240102      86.14242606
C      69.13656089      92.27916894      84.58151212
H      68.08398333      91.74626612      86.27092744
H      70.57275289      90.88833038      84.08073465
C      67.21092978      92.61931968      82.46123920
C      66.46448788      90.63321732      80.93811980
H      67.24116540      88.75104992      81.06284174
C      64.93758902      91.04139821      78.76682426
H      64.87900751      89.57875004      77.34197062
C      63.76406898      93.38465884      78.49659339
O      62.49228317      93.90055412      76.48592461
H      62.24850848      95.66744822      76.15333277
C      64.13256561      95.37643037      80.30884094
H      63.20470999      97.16789091      79.99136691
C      65.96748986      95.12698650      82.09841176
H      66.22449264      96.84285799      83.17366602
C      71.96170173      94.02149660      87.89798181
O      74.16323288      93.27316498      87.76003178
N      70.81841731      94.22180759      90.19588900
H      68.91168346      94.28794801      90.15431502
C      72.04862914      93.63032326      92.60340032
H      73.99693697      94.29550692      92.65631267
C      70.58031179      95.18556801      94.78036503
H      71.14911941      94.34275008      96.56804612
H      68.56019436      95.13832485      94.37974306
C      71.34943040      97.90866363      94.94666095
C      69.66379453      99.91555297      95.26224525
H      67.68525108      99.55272552      94.92209451
C      70.35165491     102.45345541      95.56649118
H      68.90601428     103.88208850      95.35484184
C      72.89711625     103.00336577      95.51357884
O      73.61332252     105.45245107      95.59105762
H      72.24138122     106.35951970      96.36206596
C      74.70369461     101.16844152      95.15264113
H      76.67467915     101.69189571      95.11673633
C      73.90434038      98.60030346      94.89374861
H      75.35565019      97.22836216      94.47044992
C      72.07508531      90.80707214      93.11551615
O      70.13433638      89.52394798      93.16464903
N      74.32952880      89.85842954      93.66731623
H      75.79973587      91.07730301      93.62574226
C      75.02305835      87.13344419      93.74290529
H      73.30151768      86.07708718      94.14541700
C      76.20980648      86.61565918      91.11996516
H      77.98803894      87.64556002      90.99902268
C      76.72570176      83.82453342      90.48312741
H      74.94746930      82.78518395      90.44344315
H      77.96725195      82.98360521      91.89664268
H      77.82552248      83.91146083      88.74268946
O      74.79062202      87.63044221      88.98835389
H      74.74715831      89.42757194      89.21512104
C      77.03372715      86.62321809      95.72900764
O      78.48692669      88.35987657      96.38663241
N      77.37198816      84.29318554      96.60206120
H      76.22114484      82.82297847      96.20332895
C      79.28628092      83.58453818      98.39541148
H      80.93412226      84.82041918      98.43131628
C      78.15244513      83.85665877     101.02591050
H      77.46647448      85.78795906     101.24133930
C      75.79784614      82.27306811     101.72132978
H      76.34397705      80.28885549     101.62306401
H      74.37866168      82.44503321     100.23978435
H      74.87565970      82.78518395     103.49011361
C      80.13476803      83.75083409     103.13295534
H      81.78260938      84.77317603     102.43375660
H      80.64310441      81.79874681     103.54680540
C      79.34486243      85.38166790     105.48188515
H      78.23937254      84.24027321     106.79146549
H      78.30740269      87.11643665     105.08126316
H      81.18923531      85.78606933     106.30391610
C      80.21035708      80.90868572      97.75668398
O      78.93479182      79.44981700      96.38096322
N      82.26448959      80.08854450      98.87729168
H      83.46257607      81.45103717      99.47066574
C      83.09029998      77.43725848      98.89807867
H      81.45190727      76.26940762      99.34216435
H      84.49625636      77.08387966     100.36261656
C      83.98603026      76.66813987      96.28458718
O      85.80205724      77.77551949      95.26413497
N      82.68967801      74.69904505      95.17531783
H      81.14577161      74.23606211      96.19765978
C      83.03738765      73.32332430      92.75646815
H      84.60586049      74.23039293      91.77758993
C      83.69312268      70.49629373      93.04748600
H      82.00370735      69.52686413      93.72589776
C      84.52271253      69.48906961      90.38864108
H      84.88931943      67.46328300      90.39808971
H      86.31984225      70.33188754      89.83684100
H      83.02226984      69.68371142      88.99024361
C      85.84174150      70.05409777      94.99768356
H      85.33718457      70.45471975      96.95355029
H      87.48391366      71.23895617      94.61406912
C      86.84707589      67.24974393      95.10728768
H      85.49025240      66.13102595      96.18254196
H      88.38720284      67.21005967      96.47355981
H      87.57839998      66.46928696      93.34795249
C      80.60153043      73.71449764      91.23901792
O      78.98959388      72.00618506      90.98957405
N      80.16878310      76.05775827      90.59651099
H      81.38954630      77.44103793      91.08028092
C      78.09764307      76.85144332      88.85796278
H      78.06551772      75.21305061      87.60696395
H      78.33007940      78.62211688      87.83184138
C      75.58052762      76.99695225      90.22801434
O      73.70591911      77.40135368      88.94866963
N      75.58619680      76.93459128      92.82638802
H      77.18301553      76.89301730      93.87329640
C      73.18624438      77.03096732      94.14541700
H      72.05996750      75.57587806      93.21945110
C      73.66245541      76.33554804      96.87040233
H      74.42212539      78.01362501      97.79447851
H      75.02116863      74.78786219      96.93465303
C      71.16801668      75.74784316      98.23289501
N      69.86410552      73.40647225      98.43320600
H      70.32708847      71.76430009      97.57904970
C      67.77406822      73.84866821      99.86372882
H      66.29441251      72.58255158     100.46655151
N      67.74005314      76.22783364     100.45332343
H      66.46070843      77.04230568     101.61361539
C      69.66190480      77.49395027      99.24767804
H      69.93402539      79.50650879      99.45743766
C      71.96926063      79.62556155      93.88085531
O      72.99538202      81.54552348      94.78981366
N      69.84142880      79.82398281      92.54292908
H      69.21403967      78.32731957      91.54515359
C      68.32208885      82.14834618      92.30860302
H      69.74883221      83.48627241      91.66609607
C      66.19992620      81.73260639      90.35840547
H      65.38167471      80.00161709      91.11996516
H      66.86133041      81.20537275      88.48001751
C      64.23272111      83.67146559      90.06549788
H      63.49005867      84.15145607      91.92687831
C      65.34199045      85.90701181      88.66899015
H      66.80652835      86.67235097      89.89731224
H      63.86611420      87.34131409      88.59529081
H      66.18102894      85.20970281      86.92099330
C      62.04252831      82.63589557      88.33450859
H      60.40791505      83.88500466      88.43844354
H      61.49072823      80.85577338      89.21134159
H      62.93825858      82.56786542      86.48257679
C      67.30541609      83.13478331      94.90508697
O      66.80274889      81.74583447      96.69843725
N      67.10510510      85.72370836      95.05248563
H      67.97815866      86.90100786      93.82794297
C      65.97504877      87.11454693      97.29181130
H      65.24561441      85.66512685      98.56170739
C      67.91957714      88.81719034      98.86028415
H      66.78007218      89.89811379     100.19632065
H      68.84932249      90.11165286      97.55637300
C      69.77339866      87.10131884     100.12262132
H      70.10032131      85.41190352      98.98878554
C      72.42468467      88.41845808     100.28702752
H      73.78717735      87.30351956     101.35661261
H      72.11099011      90.04362271     101.51723935
H      73.08797861      88.96647872      98.41619847
C      68.94002935      86.22448584     102.67375184
H      68.17469020      84.33286980     102.40163125
H      67.74383260      87.46414630     103.80380819
H      70.49527411      85.49694120     103.80758764
C      63.78863542      88.71325539      96.32427143
O      61.63434743      88.12177105      96.86473316
N      64.34799441      90.82030023      95.00335275
H      66.15646249      91.28139345      94.60651021
C      62.32031808      92.17712372      93.69944158
H      60.83310347      90.79762351      93.33472441
C      61.21671791      94.18968224      95.38129800