 %block lattice_cart
   139.252   0.000   0.000
   0.000 142.425   0.000
   0.000   0.000   162.84
 %endblock lattice_cart

 %block positions_abs
N      89.22907591      41.17246566      80.19262276
H      88.43161141      40.85121220      81.89715590
H      91.13769949      41.15167867      80.12081316
H      88.55066416      39.88367232      78.96052121
C      88.13303465      43.66879412      79.35169455
H      88.74341625      45.11821422      80.68206188
C      88.91160189      44.39444904      76.62481948
H      88.20295452      43.13022213      75.16217132
H      90.96951384      44.43224355      76.66828319
C      87.96862846      47.07408094      75.93317965
H      85.99197474      47.12699328      76.51143590
H      88.21618261      47.59375568      73.95652593
S      89.47474033      49.83497108      77.69062512
C      87.63225718      52.35586599      76.25632285
H      87.74375103      54.11709091      77.31834904
H      85.60647057      51.98170018      76.27522011
H      88.31633810      52.58074343      74.32502256
C      85.35135752      43.55163109      79.83735421
O      84.24019844      41.57875682      79.33090756
N      84.15138131      45.41868069      81.04110988
H      85.11703145      46.85298297      81.84235383
C      81.45285213      45.53962318      81.31700992
H      80.46452527      44.34531614      79.96207615
C      80.83491163      44.86877034      84.11947404
H      81.70418573      42.99983101      84.15726857
H      78.81668393      44.54184769      84.37080764
C      82.05567483      46.42023564      86.22462915
O      82.16527895      48.67089968      86.12825311
N      82.71896876      45.35631972      88.43560894
H      83.08368594      46.70558432      89.73574064
H      82.67361533      43.48738041      88.81922338
C      80.41350266      48.21547563      80.73875367
O      81.85725356      49.97481083      80.12459261
N      77.89449749      48.51783185      81.10158112
H      76.73609526      47.01549943      81.30945101
C      76.39783425      50.94046099      81.14693455
H      76.52255618      51.80973508      79.28555413
C      73.61993657      50.34519719      81.59857914
H      73.09837210      49.15655934      79.99609123
C      73.06813648      48.83530587      83.88892743
H      71.19352798      47.99626739      83.71696234
H      73.38183105      50.16945264      85.42527492
H      74.24165652      47.14211109      83.82845619
C      72.11760415      52.80184139      81.60235859
H      72.43129871      53.92622856      83.30122255
H      70.10126617      52.39932969      81.48897501
C      72.29901787      54.79928211      79.45751923
H      74.16417774      55.23958835      78.70540815
H      71.32958827      56.50570498      80.08868781
H      71.18218962      54.16244434      77.84747241
C      77.43907344      52.98325512      82.82123206
O      77.26899808      55.14888148      82.20329156
N      78.42362085      52.34641735      85.11913926
H      78.76377159      50.53605955      85.62180646
C      79.11337096      54.30417381      86.87658473
H      77.58080292      55.68178431      86.90115117
C      79.33824839      53.17789693      89.58078308
H      80.00910123      54.54794852      90.96217302
H      80.78199929      51.71146932      89.67526940
C      76.81735349      52.06106869      90.41037294
C      75.02400322      53.59741617      91.77664506
H      75.53233959      55.43611988      92.50229996
C      72.66940423      52.58074343      92.53253559
H      71.27667594      53.77127100      93.43393504
C      72.21209046      49.98614920      92.31143761
H      70.54724158      49.15089016      93.14291718
C      73.93741059      48.48570651      90.84500999
H      73.58970094      46.55818567      90.27053319
C      76.15405955      49.55151214      89.92093382
H      77.28033643      48.43657362      88.63403020
C      81.49064666      55.60619525      85.90526541
O      81.64371449      57.92488943      86.08667913
N      83.51643327      54.30228409      85.13425707
H      83.51454354      52.40688859      85.34590642
C      85.79166375      55.41722262      84.26120351
H      86.56078236      56.67955980      85.69739551
C      87.77776610      53.36686957      84.02309800
H      87.27320918      52.05162006      82.52265531
H      87.93272366      52.36342490      85.81455854
C      90.45361856      54.14921626      83.40704722
H      90.51975898      54.77660539      81.44740103
H      91.63658723      52.46358039      83.41271640
C      91.75375026      56.14665697      85.03032212
O      93.70772727      57.09152013      84.12703295
O      91.07155907      56.77782557      87.14303614
C      85.51765343      56.94034202      81.89148672
O      86.46062686      59.04360741      81.60802777
N      83.77532577      55.97280215      80.30411661
H      83.16494417      54.19079024      80.61214200
C      82.86447769      57.06128451      78.06668066
H      84.52176766      57.07073314      76.84780719
C      80.78577874      55.32651576      76.92906542
H      79.40816826      54.91455542      78.40494167
H      81.53033091      53.49537095      76.34136054
C      79.84280531      56.53972005      74.53478218
H      81.18073154      56.18823096      73.00977305
H      79.49320595      58.56739639      74.57068698
S      76.91372953      54.91833486      73.80723755
C      76.74932334      55.43234042      70.53801103
H      75.23943202      54.29283547      69.71975954
H      78.55968115      54.95423967      69.68196501
H      76.48854111      57.44678868      70.18841166
C      81.95173988      59.65965818      78.52777388
O      82.59991600      61.39631668      77.13126613
N      80.35681087      60.06594934      80.45529472
H      79.95618889      58.51448405      81.49653392
C      79.17951138      62.45456341      81.07323522
H      78.53700443      63.28226353      79.30067194
C      76.72097744      62.02370580      82.60958272
H      76.54145345      63.62052455      83.89837606
H      76.94396515      60.25114252      83.63570410
C      74.27000242      61.78749002      80.92961602
H      74.24732570      60.45712270      79.35925346
C      72.04579455      61.30749953      82.73619438
H      72.24799526      62.61141070      84.31600558
H      72.28201034      59.47635474      83.65082191
H      70.20709084      61.53048724      81.83479493
C      73.34403652      64.31783355      79.81089805
H      72.54090284      65.43655152      81.34157636
H      71.89839589      64.13453010      78.35391906
H      74.91817854      65.30427069      78.92272668
C      80.90672123      64.28759793      82.43761762
O      81.07679660      66.51747497      81.80833876
N      82.64904889      63.14620324      83.96073703
H      82.45440708      61.30938927      84.44828642
C      84.75609373      64.59562331      85.05488857
H      83.76020796      66.16220644      85.94494966
C      85.86347335      62.91187718      87.18083067
H      87.02187558      61.41899339      86.36257917
H      84.40460463      61.87063798      88.19750342
C      87.32801124      64.38397398      89.19905837
H      86.09779941      65.44411043      90.47084418
H      88.53365663      65.70489267      88.17671643
C      89.10624370      62.87408265      90.67493462
H      88.27287440      61.35285296      91.78420397
H      90.04354795      64.05894104      92.07522182
N      91.03943372      61.60985574      89.10835151
H      90.72384942      59.91666096      88.28821029
C      93.30710529      62.54338054      88.52631580
N      94.35023422      64.41043014      89.81510915
H      96.17193038      64.78270622      89.37858237
H      93.40537106      64.86585419      91.40814843
N      94.59778837      61.61363520      86.61580250
H      96.12846668      62.61896960      86.07723050
H      93.98551704      60.12831032      85.58590166
C      86.67227621      65.71245157      83.19539787
O      87.38281330      67.88563683      83.59413013
N      87.41304892      64.33484108      81.27165649
H      86.76298307      62.54149082      81.20551607
C      88.87191764      65.25702752      79.10791986
H      90.68605490      65.94299817      79.79955969
C      89.58434446      63.08573200      77.26165725
H      88.05177642      61.72890850      77.05567708
C      90.24007949      64.04760269      74.51777464
H      91.21895772      62.56605725      73.47086627
H      91.71973519      65.46678714      74.72186509
H      88.55633334      64.45578357      73.40472585
C      91.99752496      61.69867289      78.33880125
H      92.04665784      61.39631668      80.37592621
H      93.70205809      62.78148606      77.93439982
C      92.51342024      58.77337654      77.36748192
H      93.12380184      58.89809848      75.40405628
H      90.82778437      57.60930513      77.56968264
H      93.85512592      57.60363597      78.40494167
C      87.27698863      67.16565110      77.69251485
O      88.19728534      69.20655552      76.88749144
N      84.74853482      66.88030244      77.40905590
H      83.93973196      65.33450630      78.18195396
C      83.05534005      68.75113149      76.11837283
H      83.73375179      69.56560353      74.35147873
C      80.78388902      67.09384151      75.28878298
H      79.26265934      68.36751703      74.73509317
H      79.80123134      65.93165982      76.67584209
C      81.34135828      65.62363443      72.90394837
O      79.81256969      64.09295611      71.97798248
O      83.54288943      65.73701801      72.14427839
C      82.22575019      71.26824692      77.51488058
O      80.74231504      72.73278483      76.41505986
N      83.09880375      71.78603194      79.80333914
H      83.86981209      70.35361940      80.79922491
C      82.09157963      73.80803909      81.35291472
H      81.84024603      75.35950439      80.02065767
C      79.68406830      72.81404306      82.56233956
H      80.22453003      71.30982091      83.86436099
H      78.70896953      71.64619219      81.17150099
C      77.72820157      74.56203989      83.77365412
H      78.58235786      75.10628107      85.56889412
H      76.08224995      73.58505139      84.53143438
C      76.83625075      76.74467379      82.09746689
O      75.34903614      76.31570591      80.40994129
O      77.62993580      78.95943303      82.81367316
C      83.92839360      74.68676183      83.50720271
O      83.57879423      76.76546078      84.47096313
N      85.85969389      73.30348216      84.07601033
H      85.98819528      71.53091889      83.37870133
C      87.75319966      73.87795897      86.03565652
H      88.38625798      75.82248735      85.79755101
H      89.33679031      72.57593754      85.81833800
C      86.71007074      73.71733223      88.70772953
O      84.74664510      72.52302521      89.12724877
N      87.90815722      74.88518310      90.51619761
H      89.51820404      75.78658254      90.03431740
C      87.13903861      75.27635643      93.19205007
H      85.13781844      74.84171939      93.42826586
C      88.65081966      73.30159245      94.83611196
H      90.61613502      73.91386377      94.75107428
H      88.45806757      71.47044765      93.91392552
C      88.08957094      73.18820887      97.68392951
H      88.58845869      74.98911804      98.54942417
C      85.28710682      72.45499506      98.43604059
H      83.95673950      73.98567336      98.08833095
H      85.29466573      72.20177172     100.48072446
H      84.56145192      70.74479275      97.54597949
C      89.83756778      71.19643734      99.13523932
H      90.20984387      69.54670626      97.95793983
H      89.06278000      70.60306327     100.95126631
H      91.53832147      72.11106487      99.84955587
C      87.52832223      77.95598835      94.32399613
O      89.60891090      78.80069601      94.42982080
N      85.48741781      79.10872141      95.31610244
H      83.76587714      78.44920691      94.82666333
C      85.56867604      81.68252864      96.28553204
H      87.55099894      82.11338624      96.62757251
C      84.50664985      83.37005423      94.19171529
H      83.57312506      85.00466750      95.03264350
H      83.02321470      82.29291023      93.25063158
C      86.73841663      84.26011533      92.52875613
H      87.94784147      82.63495070      92.14325197
H      87.93839284      85.49788606      93.65692274
C      85.99197474      85.43741482      89.92849273
H      87.77776610      85.76622721      88.95906313
H      84.73152729      87.05691028      90.11557563
N      84.65404851      83.47020973      88.40159387
H      83.63737575      82.15307050      89.33511866
C      84.21185255      83.81036047      86.05833324
N      85.02821432      85.62071828      84.72985564
H      84.46696560      85.95708956      82.93839509
H      86.18472682      86.90195271      85.54810713
N      82.83802152      82.21732119      84.62781042
H      82.31456733      82.62739179      82.83634987
H      82.70007150      80.44664764      85.32322970
C      84.30633887      81.89039854      98.90091326
O      81.99331386      81.47843819      99.29775579
N      86.02032063      82.38739656     100.64891010
H      87.87225242      82.74077537     100.35222307
C      85.12270063      82.10015816     103.28885776
H      83.79611276      80.52790587     103.37200572
C      87.29399617      81.43686422     105.15401763
H      86.50409057      81.12316965     107.03051586
H      88.45995730      83.13383845     105.22393750
C      88.97585258      79.09549331     104.44348054
H      89.70717667      79.41674679     102.54430559
C      90.95628576      78.74778367     106.51462058
H      90.09457056      78.29424937     108.33064756
H      91.91248728      80.54113395     106.85666104
H      92.36035241      77.30781222     106.07620407
C      87.45840236      76.68609227     104.24694900
H      86.03921789      76.57648815     102.75973439
H      86.73652690      76.27035248     106.13100613
H      88.70940117      75.09683244     103.85955511
C      83.55044834      84.39428591     104.17324967
O      82.11992552      84.00689200     105.94770268
N      83.56556615      86.50888965     102.80508782
H      85.09246501      86.83392258     101.70526711
C      81.81945904      88.74254615     103.09043650
H      80.82357327      88.68207491     104.89134567
C      83.15927499      91.38249380     103.12445157
H      82.00087276      93.02466598     102.66902753
H      84.81467524      91.22564653     101.90746782
C      84.41216354      91.91539662     105.59810331
H      85.36647533      90.32424707     106.49194386
H      83.19895925      92.61459537     107.10610491
C      86.51164947      93.91094761     105.27684984
H      85.81056101      95.53800197     104.22805174
H      87.84768598      92.95474609     104.03152020
C      87.84012707      94.56101347     107.82798036
H      88.04421751      92.96608445     109.11677371
H      86.72140909      95.99720547     108.78796133
N      90.33456580      95.58524513     107.16657615
H      91.57989544      94.21897301     106.70170348
H      91.20006046      96.65671994     108.48749485
H      90.00953288      96.55089527     105.55274988
C      79.86737176      88.80301739     100.98150193
O      80.17350742      87.66351242      98.97650231
N      77.80757007      90.28267310     101.29519650
H      77.60914881      91.18596227     102.96193511
C      76.28823012      90.99509991      99.18815166
H      75.50588343      89.16206539      98.67981528
C      74.11504486      92.75254538      99.96293945
H      74.98431896      94.54589566     100.49017309
C      72.28390006      93.40639068      97.86345351
H      71.10660057      91.79445415      97.35322741
H      73.43096393      93.74465169      96.18537655
H      71.18785880      95.10714437      98.24706796
C      72.69963985      91.70185756     102.30242062
H      73.92418250      91.17840337     103.87467292
H      71.77367396      89.98598606     101.63345751
C      70.70597859      93.31379409     103.60444205
H      71.45242048      94.94462791     104.61922508
H      69.51923047      92.00421377     104.66079906
H      69.39639826      94.17739902     102.26840555
C      78.04000641      92.18562748      97.04331229
O      79.48375731      94.02055173      97.53275141
N      77.44663235      91.53934108      94.64147015
H      76.02177871      90.30912925      94.31643723
C      78.35181125      92.62026454      92.19994375
H      79.14171685      94.45518879      92.71016986
C      80.37948759      90.88927524      91.11335112
H      81.91583508      90.70408205      92.47395407
H      81.18262127      91.72831372      89.41259744
C      79.18896001      88.38727760      90.41415239
C      78.81290447      87.77311654      87.78365336
H      79.26454906      89.16584485      86.36257917
C      78.12504410      85.28245727      87.03343201
H      78.13260300      84.96309353      85.01898377
C      77.98520435      83.33036999      88.83056174
O      77.51844195      80.86994633      88.15403972
H      77.56757483      80.48066270      86.38336616
C      78.33102426      83.94453104      91.40058952
H      77.67339951      82.51778767      92.70450068
C      78.69385172      86.46353622      92.18293622
H      79.02644355      86.87360682      94.15392076
C      76.14272119      93.13615982      90.31966607
O      74.09236814      92.24231927      90.85823807
N      76.69452128      94.25298807      88.05955340
H      78.31023727      95.23753548      87.80444035
C      74.84258949      94.35692302      85.92794212
H      72.94908372      94.23787026      86.72918608
C      74.84258949      96.98931178      84.63914878
H      73.59159067      96.82490559      83.01020469
H      76.71719799      97.18584331      83.80766920
C      74.08480924      99.22485800      86.51186755
H      75.45297109      99.09257716      88.04821504
H      72.21398019      98.75809560      87.24130191
C      74.01866882     101.79677552      85.11158035
H      73.80324002     103.36902781      86.42305042
H      72.86971522     101.97252006      83.41082667
C      76.65672675     102.59046057      84.42560970
H      77.19529875     101.37725628      82.85146768
H      78.04378586     102.40148794      85.93739075
N      76.69263155     105.30788700      83.90026579
H      78.43873866     106.02409328      83.61680684
H      76.09547804     106.16771248      85.49708452
H      75.40383820     105.97873985      82.66438478
C      75.18840941      92.28956243      83.77554385
O      77.31435151      91.87760209      82.85335741
N      73.11915909      91.02344580      82.86469577
H      71.46942802      91.49965683      83.69995480
C      73.27033720      88.94285713      81.12614756
H      74.71975728      87.63516652      81.78377232
C      70.67763270      87.66351242      81.24520032
H      69.33781674      89.11104277      80.65371598
H      70.15795796      87.23265482      83.19161842
C      70.53779295      85.12938944      79.87136929
O      68.55924950      84.77601061      78.61659102
O      72.22342882      83.51745289      79.78822133
C      73.93930031      89.67040177      78.32368344
O      74.26811269      91.90594799      77.64905114
N      74.20575172      87.80524189      76.63426811
H      73.64261328      86.08748067      77.24464971
C      74.31346612      88.32302691      73.85637043
H      75.69485606      89.79134425      73.43496147
C      75.16195324      86.04212724      72.41450926
H      75.02400322      86.28590193      70.37360484
C      77.83213652      85.21442712      73.07969292
H      79.23998262      86.69408283      72.80757233
H      78.46897428      83.72910223      71.80412766
H      77.87748995      84.58514826      75.04122883
O      73.37049269      84.11271668      73.04756757
H      73.84859345      82.75211373      71.94774686
C      71.85871164      89.38127364      72.70741684
O      71.95319796      90.39416694      70.65895351
N      69.73087981      89.08836607      74.02833553
H      69.76300516      87.86949258      75.49476315
C      67.32147876      90.50377106      73.66928753
H      67.35171438      91.07635815      71.69074408
C      65.14262433      88.41562350      73.83747317
H      63.28880281      89.30001541      73.99243073
H      65.37884011      87.40461992      75.61570563
C      65.14262433      86.45219786      71.64161120
H      63.71399123      84.97632161      71.77200231
H      66.96054104      85.49032716      71.74932560
C      64.90640854      88.09625974      69.15284164
O      65.76434428      87.15139659      67.18752628
O      63.53068778      90.01433195      68.82213954
C      66.92841569      92.79411937      75.38137957
O      64.78924550      93.53867153      75.70263304
N      68.96932011      93.85614555      76.52466399
H      70.55857994      92.98498172      75.92751047
C      68.98254819      95.86681434      78.38604441
H      68.64050773      97.70551804      77.52621893
H      70.81180326      95.92350613      79.33279729
C      67.53123838      95.65705472      80.95796192
O      67.73532883      97.52032488      82.34502103
N      66.06292104      93.61426059      81.44929076
H      65.70198331      92.34247477      80.07357000
C      64.65129548      93.55567906      83.95884730
H      63.90296386      95.46430265      84.16293775
C      62.27779923      91.82846922      83.68672671
H      61.13829427      91.87004319      85.40259821
H      62.91085755      89.88583056      83.41838558
C      60.57704555      92.50121179      81.55133598
C      60.24634345      90.76077384      79.59357952
H      61.20632442      88.97498248      79.82412613
C      58.76479802      91.38816299      77.45251961
H      58.41141920      90.20519431      75.82735498
C      57.76513280      93.76732842      77.11425860
O      56.63696619      94.50054223      74.98075759
H      56.37051478      96.28255413      74.77288770
C      58.02591503      95.54367114      79.22886234
H      57.35317246      97.45607417      79.00587464
C      59.56226252      94.91439228      81.30756129
H      59.77580160      96.38270962      82.71162794
C      66.30669573      92.88671595      86.22273943
O      68.32492344      91.72075481      85.91471404
N      65.54891548      93.63882703      88.50552881
H      64.00122963      94.72164020      88.78331858
C      67.04746845      93.09458585      90.93760658
H      68.99388655      93.72764416      90.70328051
C      66.10638474      94.84258268      93.02953361
H      67.29124314      94.51754976      94.68304413
H      64.16563582      94.41361481      93.56621588
C      66.33693135      97.63748791      92.50985887
C      64.10138513      99.25698335      92.45694653
H      62.34771911      98.39526815      93.04843087
C      64.60972150     101.88559266      92.01853003
H      63.04691784     103.19517298      92.05254510
C      66.98699721     102.93817021      91.48751693
O      66.90384925     105.45339594      90.90359150
H      65.20309557     106.02976245      91.15492510
C      69.07892424     101.29410831      91.26263950
H      70.90251013     101.97629951      90.65225790
C      68.71609678      98.73541889      91.79365260
H      70.39417375      97.57323720      91.84845466
C      67.11171914      90.26944500      91.53287037
O      65.13317569      88.95986468      91.82199849
N      69.35293455      89.16395511      91.66515121
H      70.91006903      90.24298884      91.45161213
C      69.92930108      86.51644855      92.16970813
H      68.35326933      85.39206140      92.88024523
C      70.74944230      85.33914906      89.56377555
H      72.40673227      86.38794717      88.93071723
C      71.52800954      82.62361234      89.73196119
H      73.37427214      82.46676507      90.63147091
H      71.81335821      82.02834856      87.78176363
H      70.05780247      81.38962107      90.48407226
O      68.75389131      85.47520936      87.87058077
H      68.97687901      87.15706576      87.23185328
C      72.14217059      86.09692931      94.16336939
O      73.69174617      87.77878573      94.44682834
N      72.34248158      83.90106733      95.36901478
H      71.25588895      82.47999315      94.70194139
C      74.15283939      83.11305146      97.23417465
H      75.88382869      84.19586463      96.97150269
C      73.16262280      83.66674127      99.87034286
H      72.62594052      85.64528472     100.04608741
C      70.79668545      82.24944654     100.65079983
H      70.14472988      82.68219386     102.55564395
H      71.08392385      80.21421130     100.50529090
H      69.38505990      82.68597332      99.21649755
C      75.41139711      83.39651040     101.89612947
H      77.01766448      84.56058182     101.33866020
H      75.96130747      81.41229778     101.81109178
C      74.99376759      84.15995983     104.70237304
H      74.43629833      86.14228274     104.65701961
H      76.68696237      83.64217483     105.75684032
H      73.51411189      82.99210898     105.53574235
C      75.05801829      80.47877297      96.77119171
O      73.68040781      78.91974877      95.77719567
N      77.24632136      79.66808040      97.70282678
H      78.48787155      80.82648263      98.57588033
C      78.03244751      76.99978684      97.48550825
H      76.47720275      75.84705379      98.19604535
H      79.56501555      76.58215732      98.79508859
C      78.73920515      76.36861824      94.69816194
O      80.40972321      77.55914583      93.46606038
N      77.58458237      74.29936793      93.83077756
H      76.63027058      73.46599864      95.25752093
C      77.69040704      72.90097047      91.46484022
H      79.00376683      73.98000419      90.30076881
C      78.61070376      70.08905771      91.91081563
H      77.08569462      68.93632465      92.67804451
C      79.26832851      68.97978836      89.26708852
H      80.49098144      67.32060867      89.31244195
H      80.34925197      70.35739885      88.18616507
H      77.47119879      68.60562255      88.33167399
C      81.03522262      69.90953372      93.49251655
H      80.92561849      71.16242225      95.12335036
H      82.70952013      70.56148928      92.48529243
C      81.56812544      67.11084905      94.39202628
H      81.00498700      66.89919969      96.36112110
H      83.45218257      66.36062770      94.03108855
H      80.54956295      65.78804063      93.18449116
C      75.26399846      73.23545203      89.93416191
O      73.75410713      71.51391136      89.74707900
N      74.61582233      75.60705855      89.07433643
H      75.74776839      77.14340603      89.07622616
C      72.27067198      76.13618192      87.81388898
H      71.93430069      74.97400022      86.14337092
H      72.30279733      77.97488562      86.88414364
C      69.85938120      76.16263808      89.44472279
O      67.90162474      76.07193122      88.24663631
N      69.89717573      76.49900937      91.94294098
H      71.56391434      76.76357104      92.83489180
C      67.53690756      76.71065871      93.41692750
H      66.31236491      75.22155438      92.68938287
C      67.99989051      76.13051273      96.29120122
H      68.90695914      77.83126641      97.01118695
H      69.38505990      74.63195977      96.58410880
C      65.44875999      75.70721403      97.64613499
N      64.23177624      73.41686574      97.77085693
H      64.88373182      71.85217237      96.89402392
C      61.90363342      73.81559799      98.65524884
H      60.33327086      72.51924575      98.48706320
N      61.78080121      76.22688877      99.25240235
H      60.17264412      77.06025808      99.85333532
C      64.02957553      77.42119580      98.74784543
H      64.49255847      79.40540843      98.79886804
C      66.22354778      79.16352346      92.98229045
O      66.97943830      81.08915458      94.17848720
N      64.23933515      79.39218035      91.38169226
H      63.54769532      77.73489037      90.74296477
C      62.87873220      81.79402250      91.24752169
H      64.09193650      83.39084123      90.77886957
C      60.90963738      81.50489437      89.16315357
H      59.69076391      80.03846674      89.94927972
H      61.81481629      80.89451277      87.41515673
C      59.21833233      83.74610978      88.56411033
H      58.42086783      84.31491740      90.37635786
C      60.79247435      85.91740530      87.35657521
H      62.43086707      86.49566157      88.46584456
H      59.70588172      87.59737201      86.86146692
H      61.54080597      85.31458262      85.53865850
C      57.07916215      83.10738228      86.81233404
H      56.14563735      81.37639297      87.41893618
H      58.02591503      82.81069525      85.00764541
H      55.63163179      84.56814073      86.71217854
C      61.65418955      82.46865479      93.85912346
O      60.68475995      80.78301892      95.14602708
N      61.63529229      84.92151954      94.51863794
H      62.40063144      86.16118001      93.28275693
C      60.70932639      85.94197175      96.88457528
H      59.99123040      84.33948384      97.96360901
C      62.85794521      87.36304594      98.19226589
H      61.92442041      88.27767348      99.78530517
H      63.61950492      88.85592973      96.99606914
C      64.98766677      86.08559095      99.54153048
H      65.89095595      84.92907844      98.09400012
C      67.17030066      88.03767823      99.97238808
H      66.49944782      89.81591070     100.76796286
H      67.79202062      88.35515226      98.03352888
H      68.63861800      87.09848425     101.07220879
C      64.12217212      84.34704275     101.76573835
H      65.71143195      83.31147272     102.56509258
H      62.95999043      82.76912128     101.13268004
H      63.22644184      85.46198126     103.24539405
C      58.36417604      87.71453504      96.54442455
O      56.59161276      87.44241444      98.09777958
N      58.29047671      89.54567983      94.68115440
H      59.81737558      89.69874767      93.54353916
C      55.93209828      90.74376631      93.71361453
H      54.37496379      89.47009077      93.27330830
C      54.83605701      92.60136728      95.69782716