 %block lattice_cart
   139.252   0.000   0.000
   0.000 142.425   0.000
   0.000   0.000   162.84
 %endblock lattice_cart

 %block positions_abs
N      91.83028419      42.11449424      79.45090518
H      90.49613740      40.82003170      79.02004758
H      92.05894106      41.97087503      81.34063150
H      93.42710292      41.77056405      78.46824750
C      90.97801761      44.84325903      79.06162156
H      92.09862531      45.92040302      80.41466560
C      91.33328615      45.64450299      76.38009993
H      90.31094422      44.41240142      75.08563740
H      93.30993989      45.59348037      75.79806422
C      90.52637302      48.39972394      75.76215942
H      88.46846106      48.49043082      75.72814435
H      91.40509575      49.02144390      74.00660368
S      91.44666974      50.66361608      78.18289883
C      90.38842300      53.45285211      76.36309239
H      90.87219293      55.28588663      77.17189525
H      88.41554873      53.21852604      75.82263066
H      91.38052931      53.40560895      74.56029349
C      88.27759872      44.89995081      80.06128678
O      87.11919649      43.00266560      79.71924632
N      87.50281093      47.01455456      81.11197461
H      88.60830082      48.48854109      80.61875605
C      84.99514411      47.29612378      82.31762000
H      83.76304254      45.91473385      81.42188973
C      85.15199139      46.44763666      85.05583343
H      85.56017227      44.43885760      85.24102661
H      83.33596440      46.82369221      85.94967397
C      86.77526629      47.88193895      86.78304328
O      86.32362170      50.11559544      87.32917418
N      88.78215564      46.78589768      87.77892905
H      89.82717429      47.79123207      89.02236896
H      89.34529407      45.05868782      87.19500361
C      83.95390491      50.04756529      82.09652202
O      85.13309412      52.02043956      81.57117811
N      81.49726071      50.23086875      82.60107895
H      80.60530988      48.55657123      82.81839747
C      80.14232693      52.80656571      82.49336455
H      80.19145982      53.46608019      80.54127727
C      77.16411826      52.51554786      83.16988657
H      76.39688939      51.45163195      81.58251647
C      76.92790247      51.29478467      85.80605477
H      78.21669582      49.70363510      86.03093221
H      74.94557958      50.73731540      85.85518766
H      77.25104568      52.71207939      87.26492349
C      75.84130985      55.10258319      82.98091394
H      76.35531540      56.48208339      84.42277511
H      73.85898694      54.81723451      83.46090442
C      75.88477356      56.37814845      80.23325188
H      75.15155974      55.16872360      78.73469891
H      77.80284575      56.59546696      79.51326615
H      74.93802067      58.20551379      80.21057516
C      81.15899970      54.72841737      84.33395798
O      81.23647847      57.03955266      83.90499010
N      81.93378748      53.96307822      86.56005557
H      81.57851894      52.10925670      86.83595562
C      83.14132259      55.58257366      88.43277435
H      81.94134639      57.21907666      88.79182235
C      83.41911236      54.20307346      91.12185489
H      83.96524326      55.51454351      92.61473868
H      84.98569547      52.87459586      90.94800007
C      81.20435313      52.70829995      91.95333447
C      79.11809528      53.80245147      93.12685451
H      79.11053637      55.71485450      93.83928133
C      77.10175729      52.26232453      93.97912108
H      75.68257284      53.33568907      94.97689657
C      76.94679973      49.73765017      93.44243881
H      75.26683304      48.61704247      93.74668474
C      78.96502745      48.71719797      92.01191599
H      78.75337809      46.74243397      91.54515359
C      81.17033804      50.07969064      91.46578508
H      82.71802389      49.14616584      90.52281165
C      85.75292436      56.75231426      87.33106391
O      86.41999774      58.90282279      87.66365574
N      87.03982798      55.35391679      85.71912736
H      86.41810802      53.55111788      85.70589928
C      89.62308384      56.01154153      84.57206349
H      90.71723539      57.32490132      85.72101709
C      91.21234367      53.63237611      84.19222850
H      90.22779626      52.53633484      82.75414678
H      91.35407315      52.59491637      85.96857124
C      93.99780026      54.29000087      83.24736535
H      93.83339408      55.14037770      81.37653630
H      94.78959559      52.39460537      83.08673861
C      95.64942106      56.06823333      84.88575806
O      97.47300695      57.18317185      83.84829831
O      95.17698949      56.40838406      87.31216665
C      89.19222625      57.39293147      82.09274257
O      90.65109496      59.14659750      81.54661167
N      87.27037458      56.69940192      80.58852042
H      86.22724566      55.21218731      81.17622531
C      86.31039362      58.26598503      78.52682902
H      87.87508701      58.41527341      77.19457197
C      83.83485214      57.05089101      77.33630144
H      82.19456972      58.19606515      77.82763028
H      83.71390966      55.12903936      78.06573580
C      84.14854672      56.77688070      74.35242359
H      85.16144002      54.98542015      74.30895989
H      85.27671333      58.35480217      73.66456321
S      81.13254352      56.49909092      72.81796583
C      82.13409846      55.01187632      70.00794280
H      80.65255304      53.67206037      69.50338587
H      84.00870697      54.22763990      70.34620381
H      82.25126149      56.35169227      68.44702886
C      85.66599694      60.94561694      79.49058944
O      86.88298069      62.72384941      78.64021260
N      84.33373990      61.10624368      81.67889251
H      83.78193981      59.57178591      82.66910910
C      83.64398980      63.62524886      82.56517415
H      83.07707189      64.94994700      81.09307735
C      81.54072440      63.51753446      84.50781280
H      81.56718058      65.39403268      85.35252046
H      81.94701556      62.09457055      85.94022534
C      78.81951851      62.91660149      83.34185166
H      78.99337334      61.23852453      82.15699326
C      77.03939633      62.21551302      85.52448555
H      76.98081482      63.86335436      86.75658711
H      77.63843956      60.46184701      86.42399528
H      75.20258236      62.03409929      84.60985802
C      78.05795882      65.17671415      81.72613567
H      78.21669582      66.88124730      82.87319954
H      76.06618728      65.07655866      81.21213011
H      79.11998500      65.21450868      79.96302102
C      85.92110999      64.99341071      83.89743120
O      85.67922504      67.24974392      84.10530109
N      87.98658085      63.71973517      84.56261486
H      87.77682123      61.83378830      84.74969777
C      90.26748051      64.87624768      85.79093696
H      89.63442220      66.42393352      86.99658235
C      91.73201841      63.01675699      87.51247764
H      92.44444523      61.55032937      86.25203018
H      90.51692439      62.34401441      89.03370732
C      93.84851188      64.34712430      89.06961212
H      93.03403984      65.91748688      90.12218967
H      95.31682922      65.18238333      87.88853317
C      95.28848333      62.72951859      90.90642609
H      94.09228658      61.92260545      92.37663317
H      96.66231436      63.96162013      91.81727418
N      96.90986850      60.84735118      89.55905123
H      96.08216838      59.86658321      88.14553595
C      99.22289352      60.11791682      89.91243005
N     100.57404783      60.75097513      91.88341460
H     102.33905221      60.02532023      91.87585569
H      99.80492922      61.16671493      93.58038883
N     100.47011288      58.83479266      88.27592707
H     102.18787410      58.25086721      88.87497031
H      99.61595658      58.32456655      86.64887271
C      91.92854994      66.38235954      83.92955655
O      93.04159874      68.35334409      84.58151212
N      91.88130680      65.47529092      81.65243634
H      91.19722587      63.69516873      81.59196510
C      93.20411520      66.26519651      79.48114081
H      95.06360591      66.86046031      80.13120666
C      93.60473719      64.09390097      77.64432683
H      91.94177803      63.00163918      77.10764456
C      94.67810174      65.14080936      75.23492578
H      96.08216838      66.60912670      75.57696624
H      93.16254123      66.06488552      74.19368658
H      95.38107992      63.68383036      73.95936052
C      95.35462376      61.99252532      78.62131533
H      94.93699423      61.68827939      80.61497659
H      97.24623980      62.80699737      78.60052834
C      95.59272927      59.50186603      77.05473222
H      93.66898789      58.76298305      77.04906304
H      96.68688080      58.30377955      78.32651803
H      96.62074039      60.08012230      75.36720662
C      91.64887046      68.49129410      78.33974611
O      92.67688157      70.53597799      77.99770565
N      89.26214612      68.02642144      77.86542481
H      88.58373438      66.27653488      78.21124472
C      87.63698149      69.72906484      76.57852119
H      88.76136865      70.61534649      75.09697576
C      85.32206676      68.33255709      75.52405391
H      83.94823572      69.74418266      74.92879012
H      84.67767008      66.95305690      76.90922329
C      85.65465858      66.96817470      73.00882818
O      84.63798583      64.80443808      72.68190553
O      87.10029922      67.85067688      71.29295669
C      86.97557728      71.94004464      78.25659815
O      86.17433332      73.74473325      77.08307811
N      87.04549715      71.96272135      80.80583895
H      87.09274031      70.26952658      81.69212059
C      86.22913539      74.10189153      82.34218644
H      85.72835792      75.57965751      80.99670131
C      83.59485691      73.36300854      83.40799208
H      83.95768437      72.11578918      85.00670054
H      82.68400883      72.02508232      82.13431655
C      82.07362722      75.78941713      84.11286000
H      83.08274108      76.93081183      85.49802939
H      80.33129956      75.24706568      85.06906151
C      81.09096955      77.34655161      81.99069735
O      78.96313771      76.85711249      81.15354859
O      82.28527658      79.20793203      81.14221023
C      88.18878158      75.11667456      84.34907579
O      88.39287201      77.31442626      84.87819916
N      89.57017150      73.32710375      85.49424993
H      89.47946465      71.48084114      85.02559781
C      91.24824847      73.96205178      87.63530985
H      92.54082127      75.47005338      87.08539949
H      92.46712195      72.41058648      88.22490446
C      89.92355033      74.72928067      90.18455064
O      87.67477601      74.52141078      90.57572399
N      91.43533139      75.74973288      91.94955502
H      93.26080699      75.95571304      91.43365974
C      90.80983198      76.03508156      94.59328213
H      88.82939880      75.52485545      94.83516710
C      92.70522747      74.32865870      96.15608579
H      94.59684351      75.09210812      95.87262684
H      92.76947816      72.38035086      95.49090213
C      91.88508624      74.27007717      98.84327661
H      91.73201841      76.15602404      99.65396920
C      89.36608107      72.98884274      99.37995888
H      89.14876255      72.72428106     101.41141467
H      89.50214136      71.15580821      98.44832381
H      87.76737260      74.16614223      98.83382798
C      93.85040161      72.94159957     100.51946385
H      94.14897837      71.08966779      99.66152810
H      93.20978439      72.60711801     102.44509496
H      95.47934570      74.20015731     100.54780974
C      90.94022308      78.77896415      95.29437059
O      92.98868641      79.73327595      95.36995965
N      88.82183989      80.11500066      95.87262684
H      87.17210882      79.16635806      96.02380495
C      88.96356937      82.86077300      96.54725914
H      90.88542102      83.41446280      97.04236743
C      87.82406439      84.39901022      94.51013417
H      87.19100608      86.26983927      95.09594933
H      86.21779703      83.42202171      93.66920596
C      89.87252771      84.69191779      92.44088386
H      90.66432305      82.89667780      91.80782555
H      91.35974232      85.86543783      93.24590727
C      88.88609059      86.04118238      90.07872597
H      90.35251820      87.15990036      89.15842925
H      87.19856498      87.03517842      90.71745346
N      87.80516714      84.26106019      88.21356610
H      87.52737737      82.49227636      88.87686003
C      87.53871573      84.47270953      85.78526779
N      87.89776373      86.47959889      84.39442922
H      87.65398902      86.37944339      82.50470291
H      88.20011994      88.10854296      85.34874101
N      86.99069510      82.35999553      84.52293061
H      87.07951223      82.29385509      82.61619676
H      86.79983273      80.76884596      85.55850063
C      87.64831985      83.15746003      99.08705130
O      85.34096403      82.94959013      99.32704654
N      89.17143925      83.37855801     101.14307353
H      91.05927585      83.56942036     100.92197555
C      88.38342338      83.41446280     103.70365269
H      86.81873000      82.07842630     103.80758763
C      90.66243331      82.53951953     105.38172965
H      89.89898389      82.58676268     107.29602241
H      92.01925682      84.03051358     104.96598986
C      91.81894582      79.84476980     104.91307753
H      92.37641508      79.74839375     102.93264435
C      93.77292282      79.27785191     106.90484906
H      92.93010489      79.59154648     108.75867057
H      95.33950594      80.51940210     106.40596131
H      94.56660788      77.38812560     106.70075862
C      89.86874826      77.70937906     105.20031593
H      88.31350352      78.03819144     103.89451504
H      89.31316874      77.63190029     107.18263883
H      90.65487441      75.89902125     104.60883159
C      87.22880061      85.88811454     104.71843572
O      85.43922979      85.68213438     106.19242224
N      88.00358840      88.05752035     103.64507117
H      89.61741467      88.15200667     102.63028814
C      86.61841900      90.48770839     103.71310132
H      85.90599219      90.51227483     105.64629134
C      88.46279190      92.65522447     103.45231909
H      89.95567568      92.02216615     102.18431273
H      89.41332422      92.81963067     105.27023580
C      87.55572327      95.14399402     102.44131551
H      85.74725517      95.45012970     103.37861976
H      86.93400331      94.85486590     100.49867686
C      89.43600094      97.37954025     102.63217787
H      89.80260785      97.62142522     104.64284666
H      88.67066178      99.15966244     101.92730995
C      92.07027942      96.90710868     101.19976532
H      91.51281016      96.75971003      99.22122187
H      92.70522747      95.03816935     101.79502911
N      94.11118383      98.77037882     101.88573597
H      95.68154641      98.33385205     100.88796048
H      94.44944484      98.74959184     103.76412393
H      93.52536868     100.53727292     101.46621673
C      84.38476250      90.49526730     101.75723458
O      84.79105366      89.83575282      99.58593905
N      82.27393821      91.50816061     102.53958128
H      82.29850465      92.03350452     104.37072607
C      80.16500364      92.25271276     100.89362966
H      79.30328846      90.52928237     100.16041585
C      78.08819443      93.89110548     102.34304974
H      79.06707267      95.52382902     103.12728616
C      75.78650778      94.51471516     100.64607551
H      76.33452841      95.59941806      98.98122663
H      74.33330825      95.67311740     101.53613660
H      74.84542408      92.78750532     100.03758364
C      77.00538126      92.33397100     104.52379391
H      78.62487670      91.84453188     105.69542422
H      76.09264344      90.61054060     103.86616915
C      75.10998577      93.80795753     106.20942978
H      74.62999527      92.73081353     107.90073483
H      73.30340741      93.96858427     105.23244127
H      75.83375094      95.66744821     106.71776615
C      81.04183665      93.75504519      98.59194301
O      82.38921153      95.69390438      98.82437935
N      80.29539476      92.92734506      96.34505842
H      78.97825553      91.56107293      96.15419606
C      81.11742571      94.09708566      93.86951695
H      81.89599295      95.98681197      94.12651973
C      83.35675140      92.49648747      92.92654352
H      84.78160504      92.06185041      94.35139716
H      84.66444201      93.45457871      91.65475771
C      82.70479582      89.94724666      91.73979540
C      82.85219446      89.46347674      89.12630391
H      83.28305206      91.08297219      87.96034277
C      82.04906078      87.12210583      88.05104963
H      82.00370735      86.63644616      86.06872673
C      81.27616273      85.26639459      89.73101633
O      80.62231741      83.06675316      88.75591755
H      80.62798660      83.13100386      86.94178029
C      81.22891957      85.66890629      92.37285371
H      80.94924006      84.08531564      93.63708062
C      81.80528609      88.03106419      93.35362167
H      81.79961692      88.30129505      95.37940828
C      78.94046099      94.01582742      91.80782555
O      76.97514563      92.87443273      92.24624205
N      79.38832613      95.07785361      89.54015397
H      81.12876406      95.79594961      89.21701077
C      77.59308613      94.89455016      87.30838719
H      76.52350104      93.14844304      87.52948517
C      75.88855301      97.34930463      87.31405637
H      74.46369936      97.04883815      88.77292509
H      75.13455221      97.35686354      85.39787389
C      77.15466964      99.88153789      87.70145027
H      78.54172875     100.34830030      86.25203018
H      78.22236501      99.87586871      89.46456492
C      75.14778029     102.05661289      87.49924955
H      73.83631023     101.70512378      89.04882513
H      74.19346850     101.88842723      85.68133284
C      76.40255856     104.75892151      87.73357561
H      75.08352959     106.19511350      87.06272277
H      78.17512185     104.76648042      86.69044669
N      77.14522100     105.57528328      90.26958833
H      78.19212938     104.20523169      91.08595009
H      75.63721940     105.94000046      91.38074740
H      78.40944791     107.00769582      90.25636024
C      79.12187472      94.59786313      84.80072038
O      81.24592710      95.30840022      84.69678543
N      77.96914168      93.39599718      82.95823722
H      76.39122020      92.47192103      83.49869895
C      79.11809528      92.59475323      80.62253550
H      80.86609211      93.64733078      80.34663546
C      79.90422141      89.83575282      81.17244586
H      78.28850543      88.61121017      80.80772868
H      80.47491877      89.50883017      83.12264341
C      82.08874503      89.09309038      79.39610312
O      81.60497510      88.25216217      77.18890279
O      84.23925359      89.57119114      80.11986830
C      77.28695047      93.01238274      78.29439268
O      75.94713451      94.84730699      78.38132009
N      77.14711073      91.18879686      76.52938830
H      78.48503695      89.84520145      76.74292738
C      75.89800163      91.41934346      73.89133037
H      77.22647923      92.16389564      72.50427126
C      75.23281797      88.81152115      72.79339938
H      73.85142803      89.10820818      71.29484642
C      77.69324163      87.53028672      71.76349854
H      77.76505123      88.16901420      69.80574208
H      77.20002307      85.54418435      71.99215543
H      79.36564942      87.94413678      72.89355488
O      74.05740821      87.14478254      74.55462431
H      75.31407620      86.45125298      75.66389365
C      73.37899647      92.77427723      73.50771593
O      73.24104643      93.98748153      71.52161357
N      71.43257836      92.44546485      75.05540178
H      71.69714004      91.39288729      76.62576435
C      68.93436017      93.59819791      74.71714077
H      69.19892186      94.58652476      72.92945968
C      66.82731534      91.64800034      74.72658940
H      65.00750890      92.55506897      74.39966675
H      66.88400712      90.65778377      76.52938830
C      66.92936055      89.49371235      72.79717884
H      65.52151446      88.04240255      73.18835218
H      68.77940262      88.67735058      73.19213164
C      66.88778658      90.27038986      69.99471471
O      65.92969533      92.34152991      69.36732558
O      67.58509559      88.63010743      68.37899872
C      68.53373820      95.71658111      76.72025066
O      66.49472350      96.85230662      76.97914317
N      70.38189052      96.16822568      78.29061323
H      72.09965174      95.41233517      77.94290359
C      70.17213090      98.04472392      80.19734708
H      69.11577389      99.71524197      79.60964219
H      72.10721065      98.63431852      80.58852042
C      69.10254581      97.24536969      82.71635225
O      68.18980801      98.89699049      84.07506547
N      68.86444030      94.91344741      83.40799208
H      69.56930822      93.54528557      82.27793575
C      67.70792779      93.86653904      85.74558353
H      66.52306939      95.41611461      86.40320829
C      65.86733437      91.75382502      85.28449031
H      64.54830539      91.32296743      86.80571999
H      66.74038792      89.89244460      85.15409920
C      64.16091151      91.91067231      82.93745023
C      63.52218402      89.77150212      81.45023562
H      64.29319234      87.92523952      81.84896788
C      62.05953584      89.82063500      79.26571201
H      61.69292894      88.19169093      78.08652279
C      61.03908363      92.13932920      78.46824750
O      59.42525737      92.19980044      76.50482186
H      58.42559214      93.71158148      76.41222527
C      61.57954537      94.28416855      79.93089567
H      60.94270760      96.07373938      79.18067432
C      62.95337639      94.18401307      82.19667752
H      63.22171752      95.88098729      83.29838796
C      69.42001984      93.23348073      87.99624757
O      71.15289886      91.85964970      87.48602147
N      68.84932248      94.02338633      90.39808972
H      67.41690995      95.16100157      90.94422062
C      70.62377549      93.40166636      92.43521468
H      72.46625865      93.86086986      91.63963990
C      70.23827132      95.14966320      94.49501636
H      71.12833242      94.53361243      96.24490293
H      68.22004362      95.09486114      94.89563834
C      71.34565094      97.71780127      94.13596836
C      69.79040620      99.86453035      94.13596836
H      67.78918602      99.60374812      94.44210403
C      70.84487347     102.29849784      94.20777796
H      69.58631575     103.89720632      94.06415876
C      73.48860059     102.59329516      94.68020954
O      74.66401035     104.76081124      95.21500209
H      73.39978344     105.93433128      95.77436108
C      74.97959464     100.41444071      94.74634996
H      76.99782235     100.51837566      95.01847055
C      73.95536298      97.95023760      94.64997392
H      75.15533920      96.30239626      94.75390887
C      70.56897344      90.61054060      93.12874424
O      68.54318682      89.50316098      93.13063396
N      72.82152719      89.73937677      93.92809847
H      74.26716783      90.98470642      93.84495051
C      73.61899170      87.16556954      94.28714647
H      72.06374694      85.98449059      94.94099177
C      74.53550896      86.14889677      91.75113376
H      75.55596117      84.37633349      91.99301872
C      72.53806825      85.45725694      89.77259031
H      71.61210235      83.73949572      90.43021506
H      73.57174854      85.09253976      88.02837292
H      71.17368586      86.95203046      89.39464504
O      76.00193659      88.02728473      90.58328289
H      77.32663472      88.52617249      91.71522896
C      75.60131460      86.81597016      96.22600566
O      76.85231343      88.56963618      96.88174070
N      75.77705915      84.48026844      97.15764074
H      74.80385011      83.16879839      96.16742415
C      77.86709645      83.70548066      98.74312111
H      79.47525354      84.93758222      98.37651421
C      77.01105043      84.00027796     101.55503387
H      75.96225233      85.75772344     101.31881808
C      74.95502820      82.04630096     102.49989702
H      74.24638083      82.51684280     104.37639525
H      75.63155023      80.11122121     102.29958603
H      73.32041495      82.07842630     101.24511875
C      79.33730353      84.08720537     103.42775264
H      80.62420714      85.41190352     102.51501483
H      80.44090370      82.35054688     103.50901088
C      78.87243086      85.18135691     105.92597083
H      77.72347726      86.87833113     106.11305373
H      80.65066332      85.51205902     106.91240796
H      77.52883544      84.21192731     107.15051348
C      78.79684180      81.09576861      98.12140116
O      77.48537174      79.60666428      96.89307905
N      81.03238802      80.26428904      98.93776292
H      82.18512108      81.46048579      99.88073635
C      81.98858954      77.70370988      99.10972802
H      80.49192630      76.68325767     100.09049597
H      83.70824049      77.74150441     100.24356381
C      82.60841977      76.82498716      96.35450705
O      83.79327818      78.22716408      94.96933767
N      81.81851417      74.52330050      95.69310284
H      80.73192155      73.57465790      96.94599139
C      81.78449911      73.62190105      92.99835312
H      83.13754314      74.61400737      91.80404609
C      82.18512108      70.83077529      92.83394693
H      80.59586125      69.95394228      93.80526626
C      82.27582795      69.74985184      90.09762323
H      82.05095052      67.70327823      90.05982871
H      83.79516789      70.62290540      89.01292033
H      80.57129481      70.47739646      89.20000323
C      84.70034681      70.10323066      94.22478550
H      85.78315997      71.72650556      94.88807944
H      85.91166136      69.03931474      92.94355106
C      84.39421114      68.27775503      96.49056735
H      84.01626587      66.38613900      95.76680217
H      82.79928213      68.81632704      97.68109493
H      86.07795728      68.27019614      97.67731547
C      79.24281720      74.53652858      91.91553994
O      77.30962719      73.23828660      92.45978112
N      79.12943363      76.83821524      90.84406513
H      80.67711948      77.95504349      90.80438087
C      76.89955658      77.83221128      89.61952247
H      76.73892985      76.88545840      87.79782631
H      77.31718610      79.73705539      88.95433881
C      74.43535346      77.96638185      90.92910281
O      72.54751688      78.41991615      89.57794850
N      74.17835070      77.48828108      93.35551140
H      75.69769064      77.07632075      94.43454512
C      71.60832290      77.35222079      94.67643009
H      70.46125904      76.10878087      93.49724087
C      71.82753116      76.00295621      97.34661337
H      72.92546215      77.23316804      98.58249438
H      72.66279019      74.15480387      96.98945510
C      69.20648077      75.79886577      98.24612309
N      67.25817294      74.26440799      96.93843248
H      67.52651407      72.76585502      95.78758916
C      65.18136372      74.71794232      98.18376213
H      63.35210865      73.84110931      97.96077442
N      65.53096308      76.71538302      99.80703703
H      64.04563820      77.56387014     100.66119332
C      68.02351208      77.45048655      99.91664115
H      68.64334232      79.00951077     101.08071256
C      70.23638160      79.96382255      94.53092116
O      71.15289886      81.75528311      95.76869190
N      68.08965251      80.19436916      93.28370180
H      67.39423322      78.83943539      92.13474820
C      66.72904956      82.50361473      92.90197708
H      68.20870526      83.86421766      92.44655304
C      65.00750890      82.22582495      90.63997468
H      64.24594919      80.31153219      90.67210003
H      65.81442202      82.65101338      88.79371208
C      62.65102019      84.07019784      90.55493700
H      61.57387618      84.17035332      92.30671329
C      63.05542162      86.84998524      89.68377317
H      61.33766040      87.84398128      89.13575254
H      63.96249024      86.67235097      87.84506947
H      64.33287660      87.94035732      90.87808020
C      60.95971513      82.96659766      88.42332572
H      59.20793884      83.99460878      88.77103536
H      60.96727403      80.91057543      88.54237848
H      61.74584127      83.47115460      86.58651174
C      65.58387541      83.32375595      95.46255623
O      64.24405946      81.91213038      96.74190095
N      65.76528914      85.78228988      95.99356933
H      66.66101941      86.91990512      94.75012941
C      64.56342320      87.01061198      98.12896006
H      63.98894642      85.65000903      99.56137261
C      66.43992144      88.62065879      99.50846027
H      65.42324869      89.70725142     100.92953446
H      67.06353112      90.16078574      98.28769707
C      68.75861563      87.31863737     100.72733374
H      69.66001507      85.98638032      99.44043012
C      70.79007141      89.13655408     101.68164553
H      70.18724872      90.50471592     103.09705054
H      71.64611744      90.00015901     100.02057610
H      72.45114084      88.16712449     102.42052852
C      67.87422371      85.72937753     102.95910052
H      66.34543512      84.44058419     102.46021277
H      67.17124552      86.81974962     104.55969871
H      69.45214519      84.68435888     103.76979311
C      62.18047832      88.61876906      97.32960583
O      60.28508283      88.31830258      98.60895055
N      62.59432839      90.34975837      95.40586444
H      64.25350810      90.22314671      94.47044992
C      60.60822604      92.01082781      94.40997868
H      58.96983332      90.79195433      94.14352727
C      59.81454099      93.92512056      96.53970023