 %block lattice_cart
   139.252   0.000   0.000
   0.000 142.425   0.000
   0.000   0.000   162.84
 %endblock lattice_cart

 %block positions_abs
N      95.19021756      40.75578101      78.96808011
H      94.15086809      39.64084250      77.81912651
H      95.35462375      39.99422131      80.71040777
H      96.99301647      40.91451802      78.36147796
C      94.14519891      43.28234509      78.96808011
H      95.02392165      44.52956446      80.35324950
C      94.59117432      44.55035145      76.38293451
H      93.73134885      43.68485681      74.72186508
H      96.51680544      44.54657201      75.65727961
C      93.57072211      47.22620391      76.43017767
H      91.53926633      47.53422930      76.56245851
H      94.14897837      48.08602938      74.65194521
S      94.57794624      49.05545899      79.07768424
C      94.88030245      51.93162244      77.39204836
H      93.07183437      52.62137253      76.68718045
H      96.13508072      51.33635864      75.87081868
H      96.03870468      53.38104251      78.28399918
C      91.38619850      43.02534231      79.89026655
O      90.32228258      41.02979133      79.37815072
N      90.45078397      44.81302341      81.48897501
H      91.41832384      46.44952639      81.66282983
C      87.82973358      44.99065769      82.66249505
H      86.43511556      44.06280206      81.47007775
C      88.00925758      43.94752877      85.34401669
H      88.95223101      42.12205315      85.19661804
H      86.04016276      43.81524792      85.94117020
C      89.29427147      45.58592147      87.17138203
O      88.20389939      47.37171283      88.26553357
N      91.78493075      45.34592624      87.45295125
H      92.67121239      46.45141613      88.73418569
H      92.67499184      43.95508767      86.49486001
C      86.78660465      47.76666564      82.87036495
O      88.20389939      49.54867755      83.07067593
N      84.31862209      48.07091157      83.15382389
H      83.25470617      46.48921066      83.08768347
C      82.99581367      50.45574619      83.18783897
H      83.61942335      51.47997785      81.50976200
C      79.99870773      49.92851254      83.00264579
H      79.61131384      48.54712260      81.52487981
C      79.12754390      48.87026581      85.61613728
H      80.09508378      47.12226896      86.10935585
H      77.13766210      48.35437053      85.48196671
H      79.17667679      50.21575094      87.17516149
C      78.32063077      52.29256015      82.36391829
H      78.65889178      53.84024600      83.68105753
H      76.34208732      51.82957722      82.71351766
C      78.79684180      53.29033565      79.79389051
H      80.61853796      54.19551455      79.48208567
H      77.48348201      54.78132971      79.24398015
H      78.64755342      51.64438404      78.56367868
C      83.79894735      52.33980331      85.30433244
O      83.68367404      54.56401118      84.86402621
N      84.70601598      51.36281482      87.56255538
H      85.16899893      49.55056727      87.94616982
C      85.61308461      52.92939792      89.61101870
H      84.38098305      54.57345981      89.42771525
C      85.25592634      51.74642926      92.27364308
H      85.90032301      53.06545823      93.72117343
H      86.70534642      50.28756054      92.36812939
C      82.63865539      50.83180171      92.85945824
C      80.98514487      52.22264028      94.40147491
H      81.47836344      54.15016112      94.86067840
C      78.65511233      51.08502505      95.25752093
H      77.44568749      52.37948756      96.26852450
C      78.04473073      48.50932808      94.75296400
H      76.32507978      47.62682589      95.41247849
C      79.77760976      47.13171759      93.15236581
H      79.42990011      45.21175566      92.56655066
C      81.95646419      48.35626025      92.21506156
H      83.25659590      47.28289571      91.05854906
C      88.38720284      53.76465695      89.18394056
O      89.53804616      54.97030235      90.75430312
N      89.40387559      53.05789932      86.95784296
H      88.60641109      51.74831898      85.82589690
C      91.94555749      53.97441657      86.11691475
H      92.77514734      55.12903935      87.60601909
C      93.86551942      51.97508613      85.17016187
H      93.41576456      51.67461966      83.18405951
H      93.89008586      50.18362560      86.18683462
C      96.64341710      52.93506711      85.30811189
H      96.70010889      54.87392630      84.61647206
H      97.89819537      51.78611350      84.14404048
C      97.40119735      52.63649034      88.05955340
O      98.20055158      50.56535030      88.95339395
O      97.37663091      54.65660777      89.28976523
C      91.20100532      55.68461889      83.93428086
O      92.11374313      57.81056099      83.92483223
N      89.45489820      54.81723451      82.20329156
H      88.87475223      53.00309726      82.31667514
C      88.94467210      56.22697034      79.84113367
H      90.63408742      56.26665459      78.66194445
C      86.85463480      54.72652764      78.38226495
H      85.06695371      54.74542492      79.40082743
H      87.27604377      52.72341775      78.17439506
C      86.08740591      55.76587712      75.72908921
H      87.78815960      55.67517025      74.56879725
H      85.55450309      57.74631030      75.92562075
S      83.49470141      53.80245148      74.43651641
C      83.34730276      55.06289893      71.18240770
H      84.75703859      54.03299809      70.08636644
H      83.39076647      57.11703144      71.04256795
H      81.68812306      54.22952962      70.28856715
C      88.17555349      59.02943447      80.18506385
O      89.29616119      60.67916553      79.04177944
N      86.50881488      59.50375577      82.07856962
H      85.68867366      57.96173909      82.84768823
C      85.83985177      62.12858561      82.71351766
H      85.78882916      63.22273715      80.97119000
C      83.14510205      62.19850549      83.83790482
H      82.66511156      64.03342975      84.64103850
H      82.96179859      60.93994776      85.45928999
C      81.13443325      61.69772801      81.77999286
H      81.82985253      60.18405724      80.56867830
C      78.82896715      60.54121551      82.86469577
H      77.57418887      59.91571611      81.35480444
H      77.81796357      61.93205408      83.99853155
H      79.37887750      58.87258719      83.93995004
C      80.68845784      64.06177564      80.16805632
H      82.30984302      64.48885379      78.97374929
H      80.37476327      65.65859438      81.42850377
H      79.09163910      63.67249201      78.92650613
C      87.85807947      63.53076255      84.11002541
O      88.16043568      65.82111083      83.78121303
N      89.33962490      62.27976373      85.78621265
H      89.24702831      60.37302988      85.86936060
C      91.48446426      63.48540911      87.14870532
H      90.57928536      65.12191209      88.01231024
C      92.23090616      61.77331708      89.37669264
H      93.05482683      60.08579148      88.52442607
H      90.53582166      61.27064987      90.42738047
C      94.18866262      62.88258641      91.08122578
H      93.56127348      64.78743055      91.54231900
H      95.91965192      63.16604537      90.00030232
C      94.45700375      61.22340671      93.47739874
H      92.86774393      61.48418894      94.76619209
H      96.15397798      61.69961774      94.54320438
N      94.70455790      58.46629602      92.91992948
H      96.00846906      58.01465143      91.60090051
C      94.01102835      56.47263477      94.33722421
N      92.51247538      56.63893067      96.32143684
H      92.31594384      55.15549552      97.50251579
H      91.97390338      58.36425080      96.92803899
N      95.12218742      54.36181047      93.81377002
H      94.10173521      52.88782395      94.46950505
H      95.76847382      54.29189059      92.02041975
C      93.59717828      64.39436747      85.23630229
O      94.98234767      66.15748211      85.62936536
N      93.83339407      63.12636112      83.08957320
H      92.61263087      61.67883075      82.83823960
C      95.47178679      63.69138927      80.98441809
H      97.41820489      64.12980579      81.49842364
C      95.80626834      61.25931152      79.36492264
H      93.93543929      60.43350111      79.12303767
C      96.85317672      61.78465542      76.71363662
H      95.24312990      62.76353365      75.87648786
H      97.30104186      60.11035792      75.60247755
H      98.63896809      62.79565900      76.87426335
C      97.35017474      59.06722900      80.66316461
H      97.33694666      57.43072600      79.41216579
H      96.29570746      58.18850626      82.20140183
C     100.07138063      59.21273791      81.20929552
H     100.19610257      60.95317585      82.30722650
H     101.13718627      59.28265779      79.45185005
H     100.46255398      57.60080137      82.43383817
C      94.42865786      65.82489029      79.49720348
O      95.70044367      67.68816044      78.91705750
N      91.92099104      65.65103547      78.72619514
H      90.99502515      64.00130440      78.98697737
C      90.66621277      67.39525285      77.10669969
H      91.74713622      67.61824055      75.36437203
C      87.99791922      66.33889584      76.59647359
H      86.56928612      67.81666182      76.47742083
H      87.59540751      65.22395732      78.28399918
C      87.60674587      64.81955588      74.23053624
O      85.95134562      63.27187003      74.09258622
O      88.81239126      65.32600254      72.26711060
C      90.27881888      70.07299504      78.31612453
O      90.12575105      71.97405971      76.95741131
N      89.92732978      70.26196767      80.78977628
H      89.90843252      68.64247221      81.79700040
C      88.91632621      72.61278721      82.09935661
H      88.56105766      74.13590661      80.76332011
C      86.25559156      71.84177886      83.04988895
H      86.43322583      70.74006843      84.78465770
H      85.24080853      70.56432387      81.79322095
C      84.55672760      74.05842784      83.76609522
H      85.61875379      75.31320611      85.00764541
H      82.88054036      73.31009622      84.70339947
C      83.60997472      75.71760753      81.56834352
O      82.07173750      74.81998753      79.99987068
O      84.44901320      77.92669759      81.47385720
C      90.67188195      73.62001132      84.32923366
O      90.77581690      75.87067536      84.71473783
N      92.19122191      71.91925765      85.39125985
H      92.04004380      70.04842860      85.03788103
C      93.76725365      72.63168446      87.51342250
H      95.16943057      74.03008193      86.95595323
H      94.89353053      71.10289588      88.31088700
C      92.37263563      73.48962022      89.80566051
O      90.19567092      72.75073722      90.15903933
N      93.51780978      74.89179714      91.58578270
H      95.22234291      75.65524656      91.18705045
C      92.49546784      75.18848417      94.07644198
H      90.48479905      74.75951629      94.11612623
C      93.78615091      73.38001608      95.93026349
H      95.80815807      73.65969558      95.64113537
H      93.24379946      71.42792880      95.57121550
C      93.57072211      73.85622711      98.67414610
H      94.18677289      75.75540206      99.17492357
C      90.87975184      73.54442228      99.55853802
H      89.81205648      75.08076976      98.68926391
H      91.10840873      73.63134969     101.60322189
H      90.42243808      71.63390897      98.93870779
C      95.39997719      72.21027550     100.21805250
H      95.46422788      72.92459204     102.14746306
H      97.37474118      72.26129810      99.63412707
H      94.81983121      70.23362178     100.24450867
C      93.00758367      77.84921882      94.80965579
O      95.22045319      78.65235250      94.86067840
N      91.20100532      79.43091974      95.62601756
H      89.39253724      78.82998677      95.75073950
C      91.56194304      81.96126327      96.79953760
H      93.54993512      82.27495785      97.23606438
C      91.01770187      84.01350604      94.85500922
H      91.35407315      85.76717206      95.88302034
H      89.03726869      84.04563140      94.29565023
C      92.88853092      83.81130534      92.53253558
H      92.89420009      81.96315300      91.62546695
H      94.88408190      83.88878411      93.03142333
C      92.31027466      85.80685632      90.55021268
H      94.10929411      86.46637080      89.79054270
H      91.36163205      87.41501342      91.41948679
N      90.68322031      84.74105067      88.47907264
H      90.15031749      82.91557506      88.62836102
C      90.29204696      85.90701182      86.28887985
N      90.87408267      88.19924984      85.92983185
H      91.10651900      88.73215265      84.11191513
H      91.74335677      89.14033353      87.34334713
N      89.25269749      84.92435414      84.36891791
H      88.84073715      86.06763856      82.90060057
H      88.75947892      83.09887851      84.11947404
C      89.88386608      82.24661194      99.20326947
O      87.57273080      82.18047153      98.95004614
N      91.02904022      82.57920377     101.35755747
H      92.90742818      82.75872777     101.05898071
C      89.98780102      82.56408597     103.97293868
H      88.52893231      81.11088643     104.01829211
C      92.23090616      81.88945367     105.82298074
H      91.53359715      82.26361948     107.72404541
H      93.53859677      83.46926487     105.62266975
C      93.64253171      79.31564644     105.57353687
H      94.17165508      78.71471347     103.67436193
C      96.18610333      79.23627792     106.88689666
H      96.05004304      79.20982177     108.94291889
H      97.16309184      80.91057544     106.19525683
H      97.26135760      77.51851672     106.51462057
C      92.02681572      77.19159405     106.53729729
H      91.34840397      77.61300302     108.43647223
H      93.05293710      75.40580270     106.50517194
H      90.22023736      77.19915296     105.55274988
C      88.66310288      84.91868496     104.65512988
O      86.93022385      84.86955206     106.27084588
N      88.95412073      87.10320857     103.41735915
H      89.97835239      86.87266197     101.82620959
C      87.34218419      89.50316098     103.74428180
H      86.63542655      89.51827880     105.68125127
C      88.80294263      91.93523876     103.64601603
H      87.48391366      93.51316022     103.74428180
H      89.52103863      92.13554975     101.72794382
C      90.73424292      92.47570047     105.79652457
H      92.06083079      90.90911737     105.60566222
H      89.76481332      92.35853744     107.61066184
C      92.11374313      95.06084608     105.71526634
H      90.79093471      96.61231138     106.00628420
H      92.82994940      95.64666123     103.87467291
C      94.20189070      95.33485640     107.74294268
H      95.56816283      93.79661918     107.80719337
H      93.18143849      95.34430502     109.53251350
N      95.56249365      97.67622730     107.37255632
H      94.31527428      99.10297065     107.14200971
H      96.57727668      97.67244783     105.75495060
H      96.88719179      97.61764577     108.74260790
C      85.13309413      89.38221850     101.82054041
O      85.33907429      88.33531012      99.74751065
N      82.90132735      90.40833989     102.57076176
H      82.74448007      91.28328317     104.25828736
C      80.83585649      91.07352355     100.82276492
H      80.18768037      89.24426848     100.13679427
C      78.56062601      92.54373062     101.93203426
H      79.07841102      94.40700078     102.63501245
C      76.75782711      92.79128477      99.77018736
H      76.47247843      90.99037560      98.81020640
H      77.47592311      93.97614318      98.24328850
H      74.81896791      93.35631294     100.17269907
C      77.20758197      90.67857075     103.78585578
H      78.57763355      89.99826928     105.16346626
H      76.26460854      89.05718558     102.93358921
C      74.97392547      91.99759973     105.28062929
H      75.65233721      93.70591230     106.21226436
H      74.13866644      90.54440019     106.47493632
H      73.52639511      92.69490873     103.99183595
C      82.06795805      92.49270802      98.54186526
O      83.28683152      94.50148708      98.89902353
N      81.79583746      91.52516814      96.23261970
H      80.75459826      89.93779804      96.03230872
C      83.02982874      92.36609635      94.03297828
H      84.04839122      94.10464457      94.45438724
C      85.13498385      90.62565842      93.16559390
H      86.27448882      90.30251521      94.85311950
H      86.35385732      91.67445652      91.87491083
C      84.44145430      88.31452314      92.01097112
C      84.15043644      88.37688411      89.35779538
H      84.29972482      90.08330697      88.25041576
C      83.76493228      86.10732280      88.18805479
H      83.57029047      85.89567345      86.16793736
C      83.55328293      83.87933548      89.49196595
O      83.12053560      81.69292214      88.06144313
H      83.31517741      82.18614070      86.32667437
C      84.11075219      83.75461354      92.15648005
H      84.44334402      81.93291738      93.01441579
C      84.63042693      86.08086663      93.43393504
H      84.93278314      86.14511733      95.45216274
C      81.00215241      92.96702932      91.98262523
O      78.77605481      92.11665247      92.34167323
N      81.55773194      94.23881513      89.86802148
H      83.21313219      95.18556802      89.85479340
C      79.84375018      94.57896587      87.70617458
H      77.87654508      94.16700552      88.14459109
C      80.25948997      97.41166560      86.95028406
H      82.12464984      97.63276358      86.10368667
H      80.02894336      98.44345617      88.71717816
C      78.20913692      98.50392741      85.24764065
H      76.38933048      98.64187743      86.19628326
H      77.62143203      97.17544981      83.78499248
C      78.93290209     101.13253672      84.01553909
H      77.78772795     101.49914363      82.34313130
H      80.87743047     101.12308808      83.33712734
C      78.41889654     103.47390762      85.77865374
H      78.98770416     105.09529280      84.63914877
H      79.43745902     103.43422336      87.57011429
N      75.61832214     103.71579259      86.42305041
H      74.56574458     104.13909128      84.89237210
H      75.45013650     105.14631540      87.67593896
H      74.78495284     102.23802661      87.29421424
C      80.57507426      92.94057315      85.51031260
O      82.60275059      93.16356086      84.38403572
N      78.83841578      91.27005510      84.93772553
H      77.39277515      91.04328793      86.16604764
C      78.83652605      89.58630894      82.69084095
H      80.85097430      89.22726094      82.45651488
C      77.36064980      87.18824625      83.41838558
H      75.43312896      87.63611140      83.99475210
H      78.31496159      86.12433035      84.89993101
C      77.37954706      85.21348226      81.26031813
O      75.26872277      84.68813834      80.35324950
O      79.41856176      84.24783211      80.57812693
C      77.90489098      91.02628040      80.26632209
O      76.57074420      92.92923479      80.23419674
N      78.79495207      89.93779804      78.13849026
H      79.96469266      88.49404714      78.57879649
C      78.61164862      90.88455092      75.48342479
H      80.25382079      92.04862234      75.05445692
C      78.60219999      88.40334028      73.97164374
H      77.07530113      87.27517366      74.77288769
C      78.30173351      88.85309514      71.17295907
H      76.41200719      89.62221374      70.86871313
H      78.46424997      87.09942911      70.10526370
H      79.79083784      90.05685080      70.42273772
O      81.00593186      87.32052710      74.26077186
H      80.81506950      85.60843506      73.69574370
C      76.15689414      92.36042717      74.77855687
O      76.27594690      94.15377745      73.39716694
N      73.81552324      91.52327841      75.47775561
H      73.81552324      90.24204398      76.89127089
C      71.37966602      92.56073817      74.52911300
H      71.65934551      93.31284924      72.63182778
C      69.20648076      90.49715702      74.39494243
H      67.45848392      91.44390992      73.85259098
H      69.26695200      89.55229388      76.22419750
C      69.72048632      88.56018755      72.33703048
H      68.19736691      87.21092298      72.02900509
H      71.48927015      87.59453742      72.77166753
C      69.93024594      89.86409871      69.70464172
O      71.30596669      88.91734584      68.01522640
O      68.54129710      91.76705311      69.31724783
C      70.65212139      94.90210907      76.20718997
O      68.83231495      96.10775446      75.56657275
N      71.98248871      95.42178381      78.32179371
H      73.53206429      94.34841925      78.61848074
C      71.51383659      97.51938001      79.91861244
H      69.93780484      98.56061920      79.09847122
H      73.06530189      98.83085006      79.58602061
C      71.02817693      96.86931415      82.56611901
O      70.24960969      98.44723563      84.02498772
N      71.54218248      94.63187820      83.38814996
H      72.33019836      93.42434309      82.13526141
C      70.21559461      93.45268898      85.67093934
H      69.09687663      94.96824949      86.49863947
C      68.28618405      91.48737361      85.07945501
H      67.24872430      90.79195433      86.71784772
H      69.35387941      89.89622406      84.32734393
C      66.43425226      92.09019632      82.89871084
C      65.90323917      89.99448983      81.27543594
H      66.66479887      88.13310941      81.62503531
C      64.19492658      90.44046524      79.16272192
H      63.71115664      88.90033829      77.91550255
C      63.06109079      92.81963067      78.78666638
O      61.47750014      93.09931017      76.75899005
H      60.83499319      94.75471042      76.39616260
C      63.58643471      94.86998372      80.48364061
H      62.59432839      96.61798056      80.14160015
C      65.19081235      94.44101584      82.55478065
H      65.50828637      95.86775921      83.97774457
C      71.85965650      92.68546009      87.90459584
O      73.57741772      91.07919273      87.65515197
N      71.23793655      93.42812254      90.27620237
H      69.57875684      94.30117610      90.63147091
C      72.79318130      92.76293888      92.32655542
H      74.70747406      93.33930541      91.83144712
C      71.80485444      93.91567192      94.67170577
H      73.02939709      93.17300948      96.15136147
H      69.96426101      93.06151563      95.02130514
C      71.91634829      96.75593057      94.88146539
C      69.74316303      98.28093972      95.14035790
H      67.99138674      97.26426695      94.87957566
C      69.91134868     100.86608530      95.31799217
H      68.25594843     102.05850261      95.25374147
C      72.29996274     102.04527452      95.35389697
O      72.32830863     104.56616942      95.20460859
H      70.70692345     105.37308257      95.29720518
C      74.51094252     100.50136812      95.05909966
H      76.39877911     101.25725866      94.92303937
C      74.28417536      97.93700952      94.89280375
H      75.96792151      96.78427647      94.88902430
C      72.74215869      89.85842953      92.70072123
O      70.81652758      88.66223277      92.55899175
N      74.87188025      88.66223277      93.02953360
H      76.36098458      89.83197336      93.26574939
C      75.51438719      85.97504197      92.85000960
H      73.87599448      84.80341164      93.28653638
C      76.20224757      85.44591859      90.06266329
H      77.89355262      86.48904751      89.51653239
C      76.87499014      82.58676268      89.67904885
H      75.45013650      81.36222003      90.52186679
H      78.76471645      82.18992015      90.40092430
H      76.97325591      82.27684756      87.64381361
O      74.07441574      86.03740294      88.44127812
H      73.63599924      87.77973060      88.68127336
C      77.69135191      85.20214390      94.62068316
O      78.92156374      86.95203046      95.53531070
N      78.03150264      82.80219148      95.41625794
H      76.90333603      81.41513237      94.74729482
C      79.88532416      82.25228112      97.30976370
H      81.51048878      83.51083884      97.19071095
C      78.74959864      82.92880315      99.98372644
H      78.12598896      84.89222879      99.96671890
C      76.48003734      81.19781384     100.51284980
H      75.82241258      81.86110777     102.34777405
H      77.09041894      79.24005739     100.70560189
H      74.99282273      81.71181939      99.18437221
C      80.74137018      82.80408121     102.09833018
H      82.57440470      83.53162583     101.50495612
H      81.24592710      80.95781860     102.85800016
C      80.03272281      84.35176705     104.39812710
H      78.39999927      83.44469842     105.26551148
H      79.34864188      86.18480159     103.74995098
H      81.71646895      84.43869446     105.57920605
C      80.92278390      79.52729578      97.16425478
O      79.50737889      77.75473250      96.24017861
N      83.28116234      79.08132038      98.02219052
H      84.31295291      80.62900622      98.45682758
C      84.19201042      76.65680151      98.36612071
H      82.83329720      75.34344173      99.19004138
H      85.61497434      76.52074122      99.84955587
C      84.99136465      75.33966227      95.80554156
O      86.52204297      76.46215971      94.44115916
N      83.82918297      73.16080783      95.27641819
H      82.74636979      72.45216047      96.67859511
C      83.84430078      71.98917751      92.75930274
H      85.26348524      72.91514342      91.58578270
C      84.66066255      69.19427230      92.68938287
H      83.26982398      68.03398035      93.66826110
C      84.90632697      68.03964953      89.96817698
H      86.62030873      68.77475306      89.09134397
H      83.30761851      68.38924889      88.71906788
H      85.28994141      66.01953210      90.06266329
C      87.14754238      68.87112910      94.24462762
H      88.25870145      70.60778758      94.26541461
H      88.47979943      67.71650632      93.18260144
C      86.71668478      67.57477685      96.82977322
H      86.15165661      68.92026198      98.28297275
H      88.53649122      67.03431513      97.62723772
H      85.63765105      65.82489029      96.71827937
C      81.25348601      72.60711803      91.56310599
O      79.64910837      70.99140202      91.40058952
N      81.00782159      75.00518071      90.71083942
H      82.25315123      76.32609940      91.29854430
C      79.00282197      75.89524180      88.90237134
H      79.02549868      74.55920531      87.33389850
H      79.77949948      77.61111331      88.06711231
C      76.34964622      76.20326719      90.02864822
O      74.46180964      76.25995898      88.65292746
N      75.97737014      76.35255557      92.56844038
H      77.49104092      76.12011924      93.70983508
C      73.40545263      76.28263571      93.74573988
H      72.14500518      74.97872455      92.76686165
C      73.86654585      75.26785268      96.45938686
H      75.28384058      76.50184395      97.30220480
H      74.68479734      73.38190581      96.35356219
C      71.40612219      75.14879991      97.98250627
N      69.94158430      72.95860711      98.47950429
H      70.20047680      71.28808906      97.59133292
C      68.07831415      73.55765035     100.15947098
H      66.77818245      72.26507756     101.05520126
N      68.38256009      75.99350757     100.88890534
H      67.20904005      76.88734813     102.09644045
C      70.40645697      76.93459128      99.50184623
H      71.29651806      78.72227238      99.92514492
C      72.16201271      78.85833267      93.65125356
O      73.02183819      80.50617401      94.89847293
N      70.35543436      79.20793203      91.91081563
H      69.55230068      77.80575511      90.89792232
C      68.79829988      81.63812008      91.51397310
H      70.05307815      83.22171072      91.11335112
C      66.72527011      81.11466588      89.52031184
H      65.44025622      79.84288007      90.50674898
H      67.38289487      80.06586778      87.87624995
C      65.15301782      83.33698402      88.52253635
H      64.28374372      84.41601775      90.04565576
C      66.78196190      85.16434938      87.01075530
H      68.18791828      85.82953303      88.36001988
H      65.71048708      86.70825577      86.17171681
H      67.93469495      84.20814785      85.59535029
C      62.96849420      82.36755444      86.76698060
H      63.74328199      81.23938782      85.22685366
H      62.15780161      84.06830811      85.93172157
H      61.66647277      81.19025493      87.84034515
C      67.48305036      82.41857704      94.03864746
O      66.70070367      80.68191855      95.34066889
N      67.22226813      84.83742673      94.64147015
H      68.02540182      86.19425021      93.56621588
C      66.06953508      85.77284124      96.89024446
H      65.38167470      84.18925060      98.01085217
C      68.08020388      87.16179008      98.39446661
H      67.34132089      88.31263341      99.93459355
H      68.96081634      88.63388688      97.25496164
C      70.11921857      85.50261038      99.57365583
H      70.89967554      84.31586225      98.08266177
C      72.09965175      87.15990036     100.91158206
H      72.87443953      88.48459850      99.53964075
H      73.49615949      85.95614470     101.82809932
H      70.98282349      88.30885396     102.20415485
C      69.09876636      83.70548066     101.59944243
H      68.18224910      82.16913317     100.58087995
H      67.70225862      84.58231367     102.83532344
H      70.59165015      82.85321409     102.73138850
C      63.75839980      87.24682777      96.13057448
O      61.67970086      86.62132836      97.07354791
N      63.98894641      89.19135615      94.48273314
H      65.60466241      89.17245888      93.46417066
C      61.86489403      90.90155845      93.92715360
H      60.08099240      89.90189324      93.69471727
C      61.36789601      92.96513959      96.10411832