 %block lattice_cart
   139.252   0.000   0.000
   0.000 142.425   0.000
   0.000   0.000   162.84
 %endblock lattice_cart

 %block positions_abs
N      93.99496568      42.90156524      78.52493929
H      93.69638891      42.54818642      80.37498135
H      95.80532349      43.20770091      78.00715428
H      93.28631831      41.43135817      77.53472270
C      92.69294425      45.30151766      78.21313445
H      93.57166699      46.62999526      79.51704560
C      93.38647381      46.28228562      75.52783336
H      92.71940041      44.99727173      74.06329546
H      95.44060630      46.35031577      75.40500115
C      92.40948529      48.88443875      75.01571753
H      90.37802952      48.90900519      74.67745652
H      93.15970664      49.50237926      73.19969054
S      93.37702516      51.27494254      77.20213087
C      92.87435798      54.15110599      75.69412927
H      91.13958922      53.99236898      74.59430856
H      94.34645477      54.42889575      74.28061399
H      92.77420248      55.66855622      77.08118839
C      89.79977325      44.86499088      78.67422767
O      88.88325599      42.68802617      78.62698451
N      88.28232303      46.75471720      79.35452914
H      88.91349161      48.55562637      79.44334628
C      85.62725757      46.46369934      80.04238952
H      84.75609372      45.20514162      78.66477904
C      85.42883629      45.05207379      82.58785086
H      86.97841188      43.79162634      83.08673861
H      83.73375179      43.88233320      82.51982072
C      85.25498147      46.68290760      84.95945739
O      83.23108459      47.13077273      86.01014522
N      87.35635713      47.15722890      85.98368905
H      87.32423178      47.73926461      87.79971603
H      88.88325599      46.71692267      84.92922176
C      84.34413340      49.10553673      80.08585322
O      85.75953841      51.02738839      80.03672034
N      81.90638645      49.25482511      80.62064577
H      80.98986919      47.58052760      80.67733756
C      80.30011909      51.58485765      80.96457596
H      80.56468076      52.66767083      79.23169693
C      77.43340427      50.75715753      81.28204998
H      76.83625076      49.71213888      79.61153192
C      77.04601038      49.07908056      83.59318526
H      76.70019045      50.34708692      85.17866564
H      78.76566131      48.07752562      84.11474972
H      75.60225947      47.62777075      83.36263865
C      75.58903138      52.91711470      81.42188973
H      75.84981361      53.91489020      83.20579137
H      73.74087905      52.01193580      81.55417057
C      75.87438005      55.05250544      79.39421339
H      75.25454982      54.35897588      77.55550969
H      77.78111390      55.79516788      79.15799760
H      74.84636894      56.70790569      80.06317651
C      81.28088704      53.42734081      83.19445301
O      81.19018017      55.69501238      82.87130981
N      82.35803104      52.44090367      85.22212934
H      82.46196599      50.53983900      85.34874101
C      83.21785651      54.10764228      87.27626185
H      81.78733370      55.58540826      87.41988104
C      83.23675377      52.58830232      89.67243481
H      83.98886484      53.72591757      91.21256176
H      84.43861971      50.96880687      89.25102584
C      80.70641025      51.62832136      90.47556849
C      78.58235787      53.27427298      90.65320277
H      78.48220237      55.24336779      90.12407940
C      76.15783900      52.20846734      91.19366449
H      74.58747643      53.48214287      91.47145426
C      75.70808414      49.62521147      91.43177001
H      73.89394688      48.90711547      92.03270297
C      77.73198103      48.04162082      91.43932891
H      77.53167003      46.02150339      91.64719881
C      80.21697112      49.02049905      90.75335826
H      81.73820080      47.69202145      90.46234041
C      85.75008977      55.38131782      86.48446652
O      86.03543844      57.62253322      86.90398576
N      87.39037221      54.07551693      85.28260058
H      87.04266257      52.20468788      85.15598892
C      89.80922190      55.02038009      84.18277987
H      90.49897200      56.30917344      85.63408968
C      91.57422626      52.90577635      83.59318526
H      90.90715288      52.34641736      81.72613566
H      91.36068719      51.15022060      84.64765254
C      94.32377805      53.73347647      83.47224278
H      94.62613426      55.51926784      82.49336455
H      95.40470150      52.32185091      82.43478303
C      95.56343852      53.70891003      86.00636576
O      97.89725051      53.88465458      86.18966922
O      94.20850474      53.69757167      87.96979140
C      89.27820879      56.86286324      81.97746926
O      90.23630003      58.98313617      81.99069735
N      87.65871334      56.07484737      80.16333200
H      86.95384544      54.30039436      80.09908131
C      86.89526391      57.63954076      77.96747003
H      88.46751621      57.90599217      76.66166914
C      84.59546700      56.18634122      76.70513285
H      83.00809689      56.22980493      78.01849264
H      84.85246978      54.19079024      76.26293689
C      83.95673949      57.46757567      74.25604755
H      85.44773356      57.19167562      72.86331926
H      83.75264906      59.51225954      74.39777702
S      80.90105206      56.33751933      72.98615147
C      80.82924245      57.10663794      69.68102014
H      80.62515200      59.13809373      69.39567147
H      79.02455382      56.41121866      68.97993168
H      82.25220637      56.18256177      68.51127956
C      85.92961378      60.38720282      78.72336055
O      86.81778514      62.24291406      77.75015150
N      84.15327103      60.49869667      80.56584371
H      83.86603264      59.01904097      81.73558430
C      83.10825238      62.90809772      81.29338834
H      82.64148998      64.10429448      79.68145179
C      80.62137255      62.39787162      82.65777074
H      80.22264030      64.19122189      83.58373663
H      80.87837533      61.00892278      84.15632370
C      78.35559070      61.75536467      81.13654105
H      78.91683943      60.30783431      79.78160729
C      76.14839037      61.02970977      82.96768585
H      75.79501156      62.48290930      84.38498059
H      76.65105758      59.33462526      84.02971204
H      74.25677433      60.63286724      82.25525903
C      77.45419125      64.04382323      79.53405314
H      78.76377160      64.40476096      77.98636729
H      77.15750422      65.75024610      80.64899167
H      75.63816427      63.54304576      78.70068384
C      85.00553761      64.50113700      82.87697899
O      84.65782796      66.72723460      83.22468863
N      86.95762489      63.34084505      83.97679970
H      86.95573515      61.43789065      83.85396749
C      89.16860467      64.45200412      85.24291633
H      88.46940593      66.02425641      86.37486239
C      90.35346306      62.72101482      87.22901869
H      92.15815169      63.66020879      87.54271326
H      90.63692202      60.84829604      86.41454665
C      88.75664434      62.64731549      89.58739713
H      86.90660227      62.09740513      88.85985250
H      88.69239364      64.61641031      90.18077119
C      89.66938214      60.72168438      91.71900841
H      88.35413263      60.84451659      93.29692988
H      91.58934407      61.25458720      92.25002150
N      90.15882125      58.08362644      91.08217064
H      91.57989545      57.81339558      89.83873073
C      89.29710607      55.91233091      92.05726942
N      87.60769074      55.81028569      93.85817859
H      87.06344956      54.10764228      94.53092116
H      87.38470304      57.40143524      94.88429998
N      90.28165347      53.80528607      91.31082752
H      89.96984862      52.15555500      92.22356533
H      91.48540913      53.61442371      89.84439990
C      91.14903785      65.48190496      83.24547562
O      92.75341549      67.01258327      83.76515036
N      91.00163919      64.64286648      80.80772868
H      90.05677603      63.03281966      80.40710670
C      92.48129489      65.59906799      78.70446329
H      94.28409380      66.29637700      79.42066956
C      93.14836829      63.44855945      76.79583971
H      91.37202555      62.85140593      75.94357315
C      94.69794386      64.56916715      74.62076473
H      95.09100693      63.03092993      73.30929467
H      96.51019139      65.27214534      75.30106620
H      93.78898550      66.04315367      73.50582620
C      94.45605889      61.17899814      77.98636729
H      94.61857535      59.72012943      76.54261639
H      93.06522032      60.55727819      79.37342640
C      97.01852777      61.69489343      79.34319078
H      98.23551152      62.58684425      77.94101386
H      97.80087446      59.96957330      80.14821419
H      96.62168525      62.85329566      81.00048076
C      91.10935359      67.73634845      77.38165487
O      92.19594623      69.69788436      76.66166914
N      88.65837856      67.31304976      76.95457672
H      88.02154079      65.52914812      77.19646169
C      87.12958997      68.92876575      75.31807374
H      88.16516000      69.50513228      73.63432759
C      84.36681010      67.87240874      74.70013323
H      82.98164073      69.38796925      74.53005786
H      83.62036821      66.71022706      76.22703209
C      84.43484025      66.64975582      72.07719311
O      83.59202232      64.43121713      71.84475677
O      85.12648008      67.93854917      70.23093050
C      86.83101322      71.45532983      76.65222051
O      87.15415642      73.50757261      75.43334704
N      86.28488232      71.39296887      79.18256405
H      85.91827542      69.67142819      79.92522649
C      85.41938766      73.64552263      80.51860055
H      85.17750269      75.27824617      79.28838872
C      82.75865301      73.29592326      81.54661166
H      82.80400644      71.94098950      83.09618724
H      81.59458161      72.25846352      80.19923680
C      81.44718295      75.75256747      82.30061246
H      82.84935988      76.85427791      83.33051330
H      79.78233407      75.18942903      83.37208728
C      80.39460539      77.16230330      80.10475049
O      80.78955819      79.48099749      79.79294565
O      78.94518532      76.16830726      78.64966123
C      87.29588589      74.40330288      82.40076796
O      88.06122505      76.59916486      82.57840223
N      88.16893945      72.50034849      84.06750657
H      87.56422703      70.70132904      83.84451886
C      89.98118698      72.81971223      86.15754387
H      91.73107355      73.56993358      85.37141772
H      90.55188433      70.96400099      86.84918370
C      88.73018816      74.34661109      88.42710517
O      86.41149398      74.65463648      88.48001751
N      90.29866100      74.95321324      90.38864108
H      92.14870307      74.47889193      90.37730272
C      89.41237936      75.35194549      92.98323531
H      87.35824686      75.19887766      93.00969148
C      90.59723776      73.34694587      94.64997392
H      92.62113464      73.36773286      94.26258002
H      89.97173835      71.40808668      94.35328689
C      90.08890138      73.82315690      97.49779147
H      90.46684665      75.77335446      98.04392238
C      87.41682837      73.19198832      98.33494023
H      86.87258721      71.20966541      98.18754158
H      86.12425558      74.40708233      97.28236267
H      87.33557014      73.46599863     100.37395492
C      91.85390577      72.21499981      99.07571294
H      93.61513068      72.10161623      98.01368676
H      91.14903785      70.27992007      99.13051501
H      92.19594623      72.80081497     101.02024132
C      90.35346306      77.97299589      93.94699573
O      92.60412711      78.34527197      93.76936146
N      88.61491487      79.58115298      94.69532735
H      86.80833650      78.98022001      94.60462049
C      89.02498547      82.06992253      95.86128849
H      90.98463165      82.27779243      96.46222145
C      88.47885457      84.22232080      93.92809847
H      88.21618261      85.98921491      94.95610958
H      86.77999062      83.72343306      92.87174146
C      90.81455629      84.39239617      92.11963039
H      91.25297280      82.61983289      91.16720832
H      92.31688870      84.89884282      93.43299017
C      90.29677127      86.48621293      90.10518214
H      92.05988593      86.73376707      89.06772239
H      89.84323696      88.38349815      90.77225552
N      88.41838333      85.24277301      88.38931064
H      87.95729010      83.41729740      88.69733603
C      87.72296404      86.10826766      86.19155894
N      88.20484425      88.40995431      85.46212458
H      87.85335516      88.76522286      83.61964143
H      89.24986290      89.63260724      86.49013570
N      86.59101797      84.57003045      84.84985326
H      86.23763916      84.82325377      82.99036257
H      86.15449120      82.83904114      85.52637528
C      87.44706400      82.04346637      98.25935118
O      85.09057528      82.04157664      98.17809294
N      88.81711558      81.81291976     100.32293231
H      90.70117271      81.82236839     100.00923774
C      87.60958046      81.82992729     102.86083475
H      85.83323773      80.78490864     102.85327584
C      89.28387797      80.86427715     104.90929807
H      88.25964631      80.77734974     106.69319971
H      90.75408505      82.30802805     104.87339327
C      90.53676652      78.31503635     104.23466578
H      90.96762412      78.14496098     102.22777643
C      93.02742581      77.68575749     105.35716321
H      94.31999860      79.12761866     104.65607475
H      93.81166222      75.90563530     104.68442064
H      92.90081413      77.82559724     107.40751626
C      88.63192240      76.21932987     104.90929807
H      89.30088552      74.36361863     104.31214456
H      86.89904336      76.46310456     103.82081572
H      88.27476412      76.22877850     106.93886413
C      86.46818576      84.38294754     103.57515129
O      85.14726708      84.50955920     105.38550910
N      87.04833174      86.23298960     102.13706957
H      87.85524488      85.86260324     100.44576452
C      86.18850628      88.89561398     102.22966616
H      85.29088627      89.11293250     104.06836986
C      88.35602235      90.82502454     102.34493946
H      87.42249756      92.59002892     102.86083475
H      89.29899578      90.88738551     100.51757412
C      90.33645553      90.23354021     104.48033020
H      91.40037144      88.50822008     104.10427466
H      89.43316635      90.00299360     106.31903390
C      92.33578597      92.14216378     104.49544801
H      91.77264754      94.08291271     104.10238494
H      93.77575742      91.56957671     103.14051424
C      93.47907040      92.16861995     107.27523542
H      94.93226992      90.70975124     107.24688952
H      92.15248252      91.89649936     108.82859044
N      95.08155830      94.47030660     107.72121083
H      96.48184550      94.69140458     106.44186611
H      95.87146390      94.48164496     109.45786931
H      94.08378282      96.09736096     107.69853411
C      84.09846898      89.30001541     100.27190970
O      83.94162169      87.96964808      98.46911080
N      82.70007150      91.27666913     100.61772961
H      83.11770101      92.34814395     102.14084902
C      80.67995407      92.43129191      98.95477046
H      79.57446418      90.90628277      98.12329088
C      78.86203735      94.08291271     100.57993509
H      79.96563753      95.51532525     101.57015168
C      76.92128844      95.40761085      98.96421909
H      75.79501156      94.05078736      97.90219290
H      78.12315437      96.57546171      97.76424288
H      75.67028962      96.63971241     100.04136309
C      77.59781046      92.37271039     102.69831829
H      79.04723053      91.38816298     103.78113146
H      76.32980410      90.99132046     101.84794144
C      76.12760338      94.02244146     104.56536788
H      74.64416822      95.06179094     103.59215883
H      77.49198578      95.47753072     105.07748371
H      75.43974300      92.94718719     106.18297361
C      82.10858716      93.69929826      96.59450229
O      84.14193267      94.79722925      96.87418179
N      80.90483151      93.79189485      94.33627935
H      79.46674978      92.58624947      93.99423889
C      82.13504334      94.32668740      91.93065775
H      82.93061811      96.21452399      92.14419683
C      83.99264429      92.27633435      91.13319325
H      85.10947255      91.79067469      92.79426268
H      85.19639996      93.02844542      89.63841974
C      83.00242772      89.74410109      90.26391915
C      82.02921867      89.42473734      87.77137014
H      82.08402072      91.00265882      86.47879734
C      81.14482674      87.10226371      86.87563987
H      80.58735748      86.99076985      84.91788341
C      81.36970418      84.99521887      88.47812778
O      80.59491639      82.66140687      87.64664820
H      79.79178271      82.94486582      86.04605002
C      82.19929403      85.30702371      90.89319801
H      82.07079264      83.83303718      92.30104411
C      83.03455306      87.63327680      91.89286323
H      83.17250308      87.87894122      93.91487038
C      80.14516152      94.77644226      89.92943759
O      78.13638245      93.62181949      90.09195405
N      80.83302191      96.37893018      88.08695443
H      82.65660779      96.93828916      88.09262361
C      79.15872440      96.84947203      85.74936298
H      77.18207066      96.81734668      86.33328841
C      79.68217857      99.52343476      84.63064501
H      78.39338524      99.96374099      83.08673861
H      81.66639120      99.73886356      84.12419835
C      78.71085926     101.47552204      86.44856172
H      79.43651415     101.18072474      88.35340584
H      76.73798498     101.08812815      86.88508850
C      78.82235310     104.28176562      85.44133760
H      77.68662760     104.15893341      83.72546610
H      80.74798423     104.90537530      85.07473069
C      77.39183028     106.08078507      87.19689334
H      77.92095366     105.88803298      89.17921624
H      75.46997863     105.33434317      87.16287827
N      77.55245702     108.78876287      86.31817060
H      79.28344632     109.52764586      85.99313768
H      76.79845622     109.83000207      87.72790643
H      76.33736300     108.97017660      84.85741216
C      79.65194296      94.82557515      83.76137090
O      81.67206039      94.89360529      82.55572552
N      77.74520910      93.22686669      83.38342564
H      76.10303694      93.51788454      84.30939153
C      77.69796596      91.34280955      81.43511781
H      79.49887512      90.35259296      81.54661166
C      75.42651492      89.68362985      82.02849187
H      73.66151054      90.74754576      82.03038160
H      75.68918688      88.88616535      83.91065928
C      75.08258473      87.48209869      80.21624434
O      72.95475290      86.88116573      79.26193255
O      77.13104806      86.38416771      79.77404838
C      77.54489811      92.59380837      78.76115508
O      77.78867281      94.83691350      78.34541529
N      77.55812621      91.08580677      76.82796506
H      77.47119879      89.22064690      77.22480759
C      77.92284338      91.70374728      74.13132561
H      79.66895049      92.79411936      74.05384683
C      78.61070377      89.51544421      72.37954932
H      77.17640148      88.05468577      72.61009593
C      78.80534557      90.12204635      69.58464410
H      79.52344156      88.64239065      68.34309392
H      79.69351693      91.92862471      69.14055842
H      76.84569938      90.25243747      68.96103442
O      80.96341301      88.53845570      73.02205627
H      80.74042532      87.17407331      74.19746603
C      75.64572318      93.28166875      73.13921930
O      76.08602941      95.21863822      71.88255130
N      73.32702898      92.59002892      74.04628793
H      73.39505913      90.75510467      74.56407294
C      70.96487110      93.99598530      74.15022287
H      70.55857994      94.64227169      72.23593012
C      68.93341531      91.96075006      74.90989285
H      67.19297737      92.97742281      75.33319155
H      69.69497501      91.22942597      76.67867668
C      68.09815628      90.00488332      73.00504873
H      67.55958428      88.29090156      74.01416258
H      69.70442364      89.57591545      71.78806498
C      65.94575801      90.95352593      71.62932797
O      64.02201662      89.51166475      71.55940810
O      66.15740736      92.97364336      70.38210861
C      70.74188340      96.34302538      75.87176355
O      68.85215708      97.70551805      76.10419988
N      72.94719401      96.93828916      77.06985003
H      74.61393261      96.05767670      76.75615546
C      73.28545501      98.99998057      78.82540577
H      72.55035147     100.70451371      77.93345495
H      75.32069025      99.13982032      79.11264417
C      72.02122811      98.76187506      81.43700754
O      71.70753354     100.64026301      82.77115431
N      71.32202937      96.42806306      82.10219120
H      71.85304246      95.08635738      80.85119238
C      69.78190242      95.82901982      84.36419360
H      68.64050773      97.50709678      84.71379296
C      68.09626655      93.55567906      83.81806269
H      66.87550336      93.20041052      85.43755814
H      69.38505990      91.94752197      83.82184214
C      66.26512175      93.54056125      81.58251646
C      65.31269969      91.22186707      80.61497659
H      66.09504638      89.44552433      81.24047600
C      63.46832681      91.25210269      78.65722013
H      62.89385001      89.43985515      77.91266796
C      62.33071157      93.50465645      77.93723441
O      60.33894004      93.56323797      76.20813483
H      59.42620223      95.12982108      76.10986906
C      63.22266239      95.84791708      78.88020784
H      62.29480677      97.60914201      78.43234270
C      65.16530105      95.88193216      80.86819992
H      65.91741211      97.58646529      81.69967950
C      71.26344786      95.27721974      86.71690286
O      72.95286318      93.69929826      86.51281241
N      70.47354225      96.16350138      88.91276483
H      68.98443793      97.35780841      88.90898538
C      71.87005000      95.22997658      90.99524323
H      73.86560098      95.63815746      90.68910757
C      71.09715193      96.97608369      93.33850386
H      71.33903691      95.84224790      95.03925754
H      69.09215233      97.43717691      93.22512028
C      72.73554465      99.37414638      93.56905047
C      71.56580407     101.86858512      93.57282992
H      69.56836336     102.27676600      93.62385253
C      72.87727412     104.05310873      93.73345666
H      72.01555892     105.88614326      93.99045944
C      75.45675055     103.84523884      94.01691560
O      76.89483226     105.98062957      94.28336701
H      75.66839989     107.31288662      94.17754234
C      76.77577952     101.45095560      94.31927181
H      78.79400721     101.59646453      94.59328213
C      75.46997863      99.16438676      93.82794297
H      76.33925274      97.32190361      93.69188268
C      71.55635544      92.35570286      91.63019127
O      69.43797223      91.50532601      91.74546458
N      73.64072355      91.02155608      91.94199611
H      75.17896078      92.02311102      91.41476247
C      73.87882907      88.19263579      92.01002626
H      72.06469182      87.29879524      92.40308933
C      74.65928604      87.14383768      89.37007860
H      76.45830548      88.03389878      88.90898538
C      74.86337649      84.24499752      89.28504092
H      72.92640701      83.54012961      89.34362243
H      76.11059585      83.42296657      90.70233565
H      75.68918688      83.78012485      87.45578584
O      72.66184533      88.03389878      87.75247288
H      72.91317892      89.80457233      87.44444749
C      75.92351294      87.52178295      93.97345190
O      77.59781046      89.07891743      94.81815956
N      75.69863552      85.21631685      94.92587396
H      74.33236339      84.10515777      94.19077042
C      77.44285289      83.95964885      96.82315918
H      79.23809289      84.96876270      96.74379067
C      76.53011509      84.38483727      99.55192397
H      75.63438482      86.23109988      99.72010962
C      74.23976680      82.67652468     100.03191446
H      74.66117576      80.66207643      99.96577404
H      72.70152957      82.99966788      98.70154713
H      73.45175092      83.02801377     101.90274351
C      78.46141539      84.12216531     101.67408662
H      80.08280056      85.30135453     101.20732422
H      79.39682991      82.29291024     101.53802633
C      77.56001593      84.90262228     104.21387879
H      78.98486958      85.37505386     105.62361462
H      76.41862123      83.26800902     104.72977407
H      76.22397943      86.44463895     103.92853012
C      77.87371049      81.14773609      96.26568992
O      76.40728287      79.72666191      94.92776369
N      80.15461016      80.43530927      97.13307429
H      81.39049116      81.75244851      97.74912507
C      81.24120278      77.86339176      96.78536465
H      80.18484577      76.49900936      97.91164153
H      83.19517980      77.79347189      97.42787160
C      81.36214527      77.09427315      93.99234916
O      82.05378511      78.64573845      92.48434756
N      80.60247530      74.78880705      93.49157169
H      79.70674503      73.68142743      94.76335750
C      80.60247530      73.74000895      90.85162403
H      82.16716869      74.50723783      89.75936222
C      81.31679184      70.82227152      90.97067679
H      80.00343205      69.77914259      92.16876327
C      81.47363913      69.63363367      88.25891953
H      81.94040152      67.63052378      88.39120037
H      82.87203659      70.68054205      87.17043717
H      79.61414844      69.75646588      87.37830707
C      83.88492989      70.53881257      92.22734479
H      84.16460939      72.12429295      93.51046895
H      85.33812943      70.48023106      90.77414525
C      84.10413815      68.11051426      93.81849434
H      83.25376131      68.44121636      95.66475695
H      86.15071174      67.87618820      93.84684024
H      83.12148046      66.58739485      92.83961611
C      78.08535984      74.43164878      89.47590327
O      76.32602464      72.75357181      89.15087035
N      77.85859268      76.79380667      88.80882988
H      79.08502506      78.10149728      89.45889574
C      75.80446019      77.70276502      87.10429675
H      75.67595879      76.28547029      85.61708214
H      76.24665615      79.53202010      86.26525827
C      73.10971047      77.73111092      88.26458871
O      71.22754305      77.78213353      86.93233166
N      72.92829674      78.06181302      90.83839595
H      74.55535109      78.36983841      91.78892828
C      70.34126141      78.46810418      91.99301872
H      68.87105435      77.44009307      90.98201514
C      70.39039429      77.13773686      94.53659034
H      71.33714718      78.10905618      96.08994537
H      71.19541770      75.24801054      94.36840470
C      67.89406583      76.76735050      95.76302272
N      66.52401427      74.62629059      96.07293783
H      66.89251089      72.89719101      95.35862129
C      64.59460369      75.05903791      97.63196204
H      63.19431649      73.73811922      98.31793269
N      64.69286947      77.48355677      98.34060941
H      63.88217687      78.48889117      99.74467606
C      66.63739784      78.58337749      96.95544002
H      67.06636571      80.57514902      96.81937973
C      69.51734074      81.17986144      92.13663792
O      70.64172790      82.62172262      93.50668950
N      67.30258151      81.91307525      91.10484736
H      66.51456563      80.57325929      89.99935746
C      66.13851009      84.45286741      91.08028091
H      67.63706307      85.69063815      90.40375889
C      64.00311937      84.31680712      89.07150184
H      62.71999519      82.77856990      89.55527178
H      64.87239346      83.96342830      87.23846732
C      62.66141367      86.78856914      88.49702504
H      61.58049022      87.31958223      90.16754310
C      64.45476394      89.00143865      87.91309961
H      65.42041409      89.41528871      89.68566289
H      63.44376037      90.75321494      87.53704408
H      65.83426415      88.52522762      86.45990008
C      60.82837915      86.34826291      86.35218568
H      61.71088134      85.94953065      84.53426896
H      59.64352075      88.03200905      86.27470690
H      59.35439263      85.05380038      86.98713372
C      65.26356681      85.42796619      93.66353678
O      63.84249262      84.20342354      94.99957329
N      66.01945733      87.69374804      94.23801358
H      67.36494247      88.47798446      93.13630314
C      65.07459418      89.06757907      96.53403105
H      64.19965089      87.79390354      97.89463400
C      67.32714795      90.48676353      97.63196204
H      66.59204440      91.48075957      99.27791366
H      68.14161999      91.95130142      96.43576528
C      69.53623801      88.75199478      98.39730120
H      70.11260454      87.68996859      96.73056259
C      71.72832052      90.30534981      99.35728216
H      71.62627531      92.25365763      98.69209850
H      73.53300916      89.69307848      98.57493547
H      71.95508768      90.34881351     101.40385576
C      68.65373582      86.73187735     100.42875698
H      70.40551210      85.75866830     100.90118856
H      67.11738833      85.53001141      99.75979387
H      67.98666242      87.71642476     102.10872368
C      62.83715822      90.79478892      95.71955901
O      60.74334147      90.27322446      96.56048722
N      63.06770483      92.61837481      93.92998819
H      64.81948112      92.87537759      93.21756137
C      60.97388808      94.21519355      93.14764150
H      59.34494399      92.99632008      92.82071885
C      60.35216812      96.20129590      95.12807468