 %block lattice_cart
   139.252   0.000   0.000
   0.000 142.425   0.000
   0.000   0.000   162.84
 %endblock lattice_cart

 %block positions_abs
N      91.56288790      39.63706303      78.64115746
H      91.78209615      39.15707255      80.47797144
H      93.22962651      39.55769453      77.71708130
H      90.74841586      38.11205390      77.83613404
C      90.37802950      42.18063466      78.31234507
H      91.59501325      43.40895676      79.42539387
C      90.65959872      43.19163823      75.62704399
H      89.72607393      41.86127090      74.36092736
H      92.64003190      43.20108686      75.05445692
C      89.83945750      45.90528522      75.39460765
H      87.80233254      45.82780643      75.71019194
H      90.38747814      46.45141612      73.48787380
S      91.50619611      47.88571839      77.53566757
C      89.44828416      50.73920512      77.21441409
H      90.44228020      52.30578823      78.11203409
H      87.69083869      50.39527494      78.23297658
H      89.12703068      51.11148121      75.21508366
C      87.72485376      42.36771755      79.19673700
O      86.25275696      40.57814674      78.83957872
N      86.93305843      44.46909322      80.33246250
H      88.24641822      45.74087902      80.87670368
C      84.29689023      44.75255216      81.34346608
H      82.94195646      44.04201507      79.96396588
C      84.10413814      43.43541292      83.86436098
H      84.65971768      41.46253866      83.67349863
H      82.10669743      43.60170885      84.34435146
C      85.54033014      44.77900834      85.86558116
O      84.61436425      46.40228323      87.29610397
N      87.98374626      44.21586989      86.13581201
H      89.01553683      44.97553987      87.54743758
H      88.71129090      42.75700117      85.13992624
C      83.30289419      47.53422930      81.60424832
O      84.49153204      49.40316863      81.15827290
N      80.83113217      47.67406904      82.25998334
H      79.94485053      46.03756605      82.68517177
C      79.46297032      50.19685367      82.16171758
H      79.81634914      50.97731065      80.28710907
C      76.60381441      50.04567556      82.25053472
H      75.92540266      49.06868707      80.56867830
C      75.52478068      48.58113767      84.52009602
H      76.32035546      49.49198576      86.18872436
H      76.10114721      46.60826341      84.43127889
H      73.47820709      48.73987469      84.70339946
C      75.07691555      52.48531223      82.15226895
H      75.92162321      53.87426108      83.42216502
H      73.09648237      52.21886082      82.64548752
C      74.85392784      53.84969464      79.49909321
H      74.04890443      55.73186204      79.71452200
H      73.56135504      52.95018491      78.17439505
H      76.77388978      54.07646180      78.78666638
C      80.44940746      52.17728686      84.08356923
O      80.58735748      54.42417144      83.53743833
N      81.30545347      51.19084971      86.26053395
H      80.88782396      49.36915355      86.64414840
C      82.41472282      52.87081640      88.24474657
H      81.02766371      54.37881800      88.45072674
C      82.64904888      51.43084495      90.63525036
H      83.51832299      52.77633010      91.93160262
H      83.98319566      49.89071802      90.32722498
C      80.24720674      50.50109962      91.95994852
C      79.14738603      51.93351216      93.88746936
H      79.83146695      53.82134874      94.26352489
C      77.03089255      51.14171683      95.09122501
H      76.45452603      52.37003893      96.61434443
C      75.70052523      48.98175966      94.33155504
H      74.17173664      48.22208968      95.45216274
C      76.76633087      47.38305119      92.49474105
H      75.93674102      45.56324475      92.09411908
C      79.08880451      48.15028007      91.35712581
H      80.05823411      46.93896552      90.03053794
C      84.94317663      54.11425632      87.28854506
O      85.28332736      56.40271488      87.55121702
N      86.48897275      52.55145266      86.00164144
H      85.90504732      50.77699965      85.61046809
C      88.74719570      53.41316785      84.63158986
H      89.88859039      54.39393582      86.04132570
C      90.28732264      50.99242845      84.07223089
H      89.51631430      49.87937965      82.51887586
H      90.27598428      49.72820155      85.69739551
C      92.91215249      51.63871486      83.24642048
H      92.74774630      53.33190962      82.08045935
H      93.68883000      50.24031738      81.94817850
C      94.84723223      52.27177316      85.23819202
O      96.43271261      50.57101948      85.78054346
O      94.72440002      54.46763515      86.25864423
C      88.25208740      55.17817224      82.50942721
O      89.24797317      57.22285611      82.40927172
N      86.51920837      54.48464268      80.89182149
H      85.71229524      52.76121228      81.04488933
C      85.60647056      56.13815320      78.80367392
H      87.09935435      56.19862444      77.38826891
C      83.25754076      54.84180095      77.81534705
H      81.79300286      55.10069345      79.24209043
H      83.12525991      52.78766844      77.83046487
C      82.19173512      55.79044357      75.18295830
H      83.52966135      55.18951060      73.73542794
H      82.14638168      57.85024524      75.08280281
S      79.13037849      54.43928924      74.43840614
C      79.47997786      53.50387473      71.19752551
H      78.03433723      52.05445463      70.99154534
H      81.34135827      52.68373351      70.85737478
H      79.01888464      54.97030234      69.82558421
C      85.05467048      58.87636663      79.46696786
O      85.78599456      60.68483471      78.09313682
N      83.74320042      59.30911396      81.52110035
H      83.16872362      57.82378907      82.57178819
C      83.07045785      61.89803901      82.38470528
H      82.85124960      62.92416040      80.61214201
C      80.52310678      61.77709653      83.74719795
H      80.11681562      63.65170502      84.49930903
H      80.88593423      60.49397235      85.31756053
C      78.54834278      60.93238885      81.84802301
H      78.84691954      59.16738448      80.82757080
C      76.13516228      60.88136624      83.31634035
H      75.95374856      62.59912746      84.44072751
H      75.98398418      59.48674822      84.82623168
H      74.44574696      60.57334085      82.17872511
C      77.97764544      62.98274190      79.90160490
H      76.06524241      62.94872684      79.13437602
H      79.40438880      62.92416040      78.41628002
H      77.95685845      64.93671892      80.54978103
C      85.13403898      63.08667685      83.96451648
O      85.62914728      65.38458406      83.73585959
N      86.87636665      61.68261021      85.21740503
H      86.70251182      59.78154554      85.25142010
C      89.33112113      62.85801998      86.11691476
H      88.71129090      64.62869353      86.97296077
C      90.71062133      60.99474982      87.86680132
H      92.64003190      61.60135198      88.25041576
H      90.98274192      59.22785572      86.84634911
C      89.21395809      60.36925041      90.35557088
H      87.30533452      59.86280376      89.77164544
H      89.14970740      62.09079109      91.48562721
C      90.46306719      58.06756377      91.71050464
H      90.13425481      56.43861969      90.49352089
H      89.47851978      57.87292195      93.50763437
N      93.22773678      58.13748365      91.85790329
H      94.13102596      57.42883627      90.33289415
C      94.63936234      58.69306318      93.87046181
N      93.94772251      60.04232776      95.89435869
H      95.15903708      60.39759632      97.32488151
H      92.13169552      60.53932579      96.20805326
N      97.07521956      58.25086722      93.79676248
H      98.14291492      58.12614529      95.37090450
H      97.83866899      57.45340271      92.23773827
C      91.10179468      63.71784544      83.92105277
O      92.38113940      65.63024848      84.05900279
N      91.02431590      62.61235555      81.66660928
H      89.85835477      61.10624368      81.50976200
C      92.14492361      63.49296802      79.29878221
H      94.00819375      64.29799143      79.64460213
C      92.36035241      61.20073000      77.41661480
H      90.54810487      60.28043329      77.07268462
C      93.20883952      62.10968836      74.77477742
H      93.69449918      60.48452373      73.60692656
H      94.86612950      63.33234128      74.80501305
H      91.73107354      63.14903782      73.78078139
C      94.23685063      59.41871808      78.66572390
H      93.50930600      59.10124407      80.56678858
H      96.10956941      60.24452849      78.90760887
C      94.64881097      56.93183826      77.36181275
H      95.62390975      57.04522184      75.55334466
H      92.82333535      56.16271964      76.79867430
H      95.80910293      55.79800246      78.63359855
C      90.67849599      65.76252931      78.26699164
O      91.92571535      67.72595496      78.02699641
N      88.19917506      65.64536628      77.90227447
H      87.24297355      64.14870305      78.59958348
C      86.80455705      67.56532822      76.42450849
H      88.02720997      68.28153449      74.92973498
C      84.37625873      66.54109656      75.24531928
H      83.13659827      68.18515844      75.28500353
H      83.60336067      65.30899500      76.70229826
C      84.55767246      65.35623815      72.68662984
O      82.99675852      63.74619134      72.12538113
O      86.47574467      65.78331630      71.39027760
C      85.98630555      70.00496489      77.88904639
O      85.80300210      72.07610493      76.87237362
N      85.48741781      69.76874910      80.38348512
H      85.78032538      68.04153925      81.13937565
C      84.73152728      71.82477133      82.11447442
H      84.82412387      73.47072295      80.87670368
C      81.92528371      71.45627470      83.03099169
H      81.85914328      69.71961622      84.13459184
H      80.64026981      71.03486573      81.47574693
C      80.84247053      73.72205655      84.58434672
H      82.13882278      74.18126004      86.11880447
H      79.10392232      73.02096809      85.44417219
C      80.04878548      75.75162261      82.83823960
O      77.76221664      76.06909663      82.27321144
O      81.83646657      77.15002008      82.04077509
C      86.63637140      72.26696729      84.30844666
O      87.33368041      74.44960117      84.73174536
N      87.35446740      70.35456425      85.82778662
H      86.45117823      68.71428182      85.46306945
C      89.15348685      70.64369239      88.01231025
H      90.82400491      71.69249049      87.41704645
H      89.46151224      68.76908388      88.80221585
C      88.15760109      72.10256109      90.27431265
O      86.05055625      73.01907836      90.18360577
N      89.70906639      72.40302758      92.30954787
H      91.45139405      71.63390897      92.42104173
C      88.73396761      73.52363528      94.71705920
H      86.68361456      73.31576539      94.69816194
C      90.10590891      71.85122750      96.81276568
H      92.10145990      71.91736791      96.30253957
H      89.38214374      69.95394228      96.46694576
C      89.63725679      72.66003036      99.41491881
H      90.37991923      74.54408749      99.78719489
C      86.81022622      72.41625567     100.01963123
H      86.51542892      72.28964400     102.05675620
H      86.22063161      70.64180266      99.15224685
H      85.67639044      73.89969081      99.15791603
C      91.10746386      70.78164240     101.13268003
H      93.08222786      70.56432387     100.58843885
H      90.46117746      68.85412156     100.79252930
H      91.08289742      71.25785344     103.13767965
C      89.37647456      76.27129735      95.01374624
O      91.38336390      77.08954884      94.36557010
N      87.83823734      77.61300302      96.45371768
H      86.08079187      76.94026046      96.76174307
C      88.38436824      80.08665477      97.40047057
H      90.39692677      80.52318154      97.50062607
C      86.92738926      82.00661670      95.71672442
H      86.26598505      83.65445804      96.76363280
H      85.22663557      81.16946795      94.90981128
C      88.69806281      82.94392096      93.53786999
H      89.48229923      81.31497687      92.55521229
H      90.24196921      84.13255881      94.20683310
C      87.48674824      84.66546163      91.47239913
H      89.04577245      85.61410423      90.51619761
H      86.19417545      86.05252074      92.27742253
N      86.22441107      83.10076824      89.58267280
H      85.87670143      81.28852071      90.07400165
C      85.38159313      83.73193683      87.35468549
N      85.86158362      86.04874129      86.46273466
H      84.87325675      86.64211535      84.94150498
H      86.65148921      87.44902848      87.49263551
N      84.26476488      82.15023591      85.86558116
H      84.01154156      82.77762503      84.08167951
H      84.08335115      80.38334180      86.56666961
C      87.13336942      80.33609865     100.09333057
O      84.96774307      79.62745127     100.28797238
N      88.38625797      81.21860083     102.00006441
H      90.19661578      81.78362900     101.81298151
C      87.55099894      81.25639536     104.61922509
H      86.08268159      79.85043898     104.95181691
C      89.76386845      80.42113633     106.31430958
H      89.15726631      80.77640487     108.24938933
H      91.38525363      81.65512761     106.01573283
C      90.71251106      77.70559961     106.30864041
H      91.09234605      77.32576463     104.32253805
C      93.10679430      77.46938383     107.85065707
H      94.17448967      75.75162261     107.45003510
H      92.32633733      77.40513313     109.75361148
H      94.24818899      79.16635806     107.60877211
C      88.63948130      75.84421920     107.20626040
H      87.91193667      76.18059048     109.10543534
H      89.24419372      73.89213192     106.96059598
H      87.06722900      76.26751789     105.94014377
C      86.24897751      83.98516016     105.39968204
O      85.37025477      84.29129581     107.55585977
N      86.11858639      85.68591384     103.57420644
H      86.82345431      85.13222402     101.89046028
C      84.98286088      88.26727998     103.71026672
H      83.91894497      88.59987181     105.44314575
C      87.40926947      89.98504120     103.39468243
H      88.11980656      89.65622882     101.49172803
H      88.66593746      89.28017328     104.86488951
C      86.80833650      92.76860806     103.79530440
H      85.72552332      93.10686906     105.51495536
H      86.03165898      93.61520545     102.08888154
C      89.28765742      94.05740139     104.07498391
H      90.55377405      93.53394721     102.53863642
H      89.93394382      93.48859377     105.94581296
C      89.14592795      96.87498334     103.87089346
H      87.59446264      97.56851289     105.03307514
H      88.37114016      97.30773066     102.01140277
N      91.59312352      98.07118009     104.50206206
H      92.61357573      98.09574653     102.89012551
H      92.53987641      97.22836215     105.93069514
H      91.42871733      99.89287626     105.04819295
C      83.06100922      89.10064928     101.62967805
O      83.59013259      88.40334028      99.46783115
N      81.10325276      90.36109674     102.23439047
H      81.09191440      90.72770363     104.10710926
C      79.06423807      91.17934822     100.48828337
H      78.24031740      89.42946165      99.77963600
C      77.00632611      92.87821218     101.50117667
H      77.73387074      94.69045972     102.16069114
C      74.93707580      93.55851365      99.58688391
H      73.33836734      94.49581791     100.48828337
H      74.33047365      92.03161480      98.34344400
H      75.95563828      94.88699125      98.38879743
C      75.57580329      91.55918322     103.79152495
H      77.01577474      91.51571951     105.25984231
H      75.17707104      89.60142676     103.29074748
C      73.22687349      92.70057791     105.18425325
H      74.09047841      93.86086986     106.65257060
H      72.12327332      91.29084208     106.20848492
H      72.08547879      93.93078974     103.99183594
C      80.43239992      92.51160528      98.24328851
O      82.21819128      94.01204797      98.48895293
N      79.40816826      91.94657711      95.94538131
H      77.84914405      90.84486666      95.89435869
C      80.19429440      92.86309437      93.43582477
H      81.02199453      94.70557753      93.84211591
C      82.19551457      91.17178931      92.47017461
H      83.71863398      90.92612490      93.83644674
H      83.01943524      92.21491825      90.89792232
C      81.21285689      88.49026769      91.84089575
C      80.66105680      87.87043746      89.23685289
H      81.12026030      89.27828356      87.83278624
C      80.02421903      85.41568297      88.55088224
H      79.52533129      84.91679523      86.63469976
C      79.95429916      83.49950048      90.44249828
O      79.44596278      80.98616449      89.98329478
H      78.82991200      80.73483090      88.29576919
C      80.55523213      84.15145607      92.93504728
H      80.54389377      82.52818117      94.16903858
C      80.88782396      86.62888727      93.73062207
H      81.25065141      86.99549416      95.70538606
C      77.96819681      93.05395673      91.65570257
O      75.88760814      92.38499361      92.45883625
N      78.33858316      94.37487542      89.48062759
H      80.15649988      94.94746250      89.40503853
C      76.48287192      94.73959260      87.43405399
H      74.63471959      93.94401783      87.88002940
C      76.15594927      97.54772589      86.85012857
H      77.65639196      98.36219793      85.69739551
H      76.39405479      98.68912060      88.54710278
C      73.54623723      98.25070409      85.76164621
H      72.08358907      98.17511504      87.20917657
H      72.75255218      97.09986077      84.24986516
C      73.54245778     101.07584492      84.76009125
H      73.85804208     102.29093895      86.39281479
H      71.73398970     101.57851213      83.91349388
C      75.47564780     101.69945460      82.65115669
H      75.20352721     100.14609958      81.32834827
H      77.37482274     101.58985048      83.44295202
N      74.58936616     104.20334198      81.54944625
H      72.84325905     104.01625906      80.80300436
H      75.82524717     104.90632016      80.27388100
H      74.46464422     105.49024560      82.95162318
C      77.25388026      93.17111976      85.18716940
O      79.33257920      93.46969652      84.16482748
N      75.57202384      91.51194005      84.29143913
H      73.84670372      91.53461678      85.10780091
C      76.08036022      89.69780280      82.15982786
H      78.05701394      89.39544659      81.65716066
C      74.97864978      86.95958936      82.80233480
H      73.01522414      87.04462706      82.18439430
H      75.03534157      86.36810503      84.77520907
C      76.18429517      84.75805822      81.36047362
O      75.36226422      82.63022639      81.81400794
O      78.20630232      85.05663498      80.19073303
C      74.84447921      90.68801939      79.60869733
O      73.35726460      92.50215664      79.66727884
N      75.48698616      89.39733632      77.52999838
H      76.56601988      87.85909910      77.84369295
C      75.13171761      90.33275083      74.94674252
H      76.54523289      91.81051681      74.70863700
C      75.55312658      88.17657311      72.98142714
H      75.52289096      88.67357114      70.98209672
C      78.25732493      87.26761475      73.17417923
H      78.80156611      86.95580992      75.13760487
H      79.58769226      88.65278414      72.42962707
H      78.46519483      85.39111653      72.35025856
O      74.17929555      85.96181388      73.57858067
H      73.03790086      85.72181864      72.19152156
C      72.58247681      91.66878734      74.21163897
O      72.67507340      93.71347121      73.12315663
N      70.26000318      90.73337282      75.02422129
H      70.31291551      88.88899994      75.51743987
C      67.89784528      92.09019631      74.44785476
H      68.11138436      92.68546010      72.48631886
C      65.41852436      90.49337757      74.78044660
H      63.57793093      91.37210031      74.50454655
H      65.42041409      89.83953227      76.73253389
C      65.47899560      88.26161080      72.90583810
H      63.76501384      87.16556954      73.21764294
H      67.07581434      86.96903800      73.07213401
C      65.44120108      89.23670958      70.17896303
O      67.01723282      88.57719510      68.61615936
O      63.62139464      90.67101185      69.62716295
C      67.68430621      94.77738713      75.69885358
O      66.14039981      96.37042641      74.99209594
N      69.21498452      95.11375840      77.60747717
H      70.02567711      93.53016776      78.30289644
C      69.46442840      97.33229710      79.33279728
H      68.98821737      99.08785285      78.36714714
H      71.44108212      97.32851765      79.91294326
C      67.96209598      97.15655256      81.87447918
O      67.32903766      99.02927133      82.99508689
N      67.66162949      94.83596864      82.76454028
H      68.52712415      93.42245336      81.82345656
C      66.66196428      94.18023360      85.29866326
H      65.68686550      95.82240578      86.06778187
C      64.49066874      92.40200114      85.11535980
H      63.54580559      92.26027167      86.94083542
H      65.07270445      90.45558304      84.76953990
C      62.43464651      92.88766082      83.08768348
C      61.74678614      90.98470642      81.40015787
H      62.63495750      89.17812806      81.73652915
C      59.80981666      91.40989484      79.63326377
H      59.21455288      89.93023914      78.35958823
C      58.66842197      93.76449383      79.54255690
O      56.71444496      94.00259933      77.95329707
H      55.99445924      95.58241054      78.46919236
C      59.32982618      95.72414001      81.27165648
H      58.49456715      97.57796153      81.47007774
C      61.18175797      95.24981871      83.06689649
H      61.69576352      96.75782031      84.34057201
C      68.55735977      93.53583694      87.31878069
O      70.50944705      92.30562511      86.70084019
N      67.92619118      93.84764177      89.71684337
H      66.11772310      94.36542678      90.03809685
C      69.61938596      93.16356086      91.83333684
H      71.49399446      93.74748629      91.20783743
C      69.03923998      94.87376316      94.02730909
H      69.75733598      94.14621854      95.81499018
H      66.98321775      94.86620427      94.13502350
C      70.01244903      97.49103410      93.76652687
C      68.37972549      99.62642485      93.59267205
H      66.37661560      99.28060493      93.75518851
C      69.49844347     102.07173069      93.31866174
H      68.27012137     103.69689532      93.19393980
C      72.14972949     102.38542527      93.02953361
O      73.28923446     104.64364821      92.83678152
H      72.22531854     106.11196555      92.79709726
C      73.68985643     100.29349824      93.20905760
H      75.62871563     100.87742367      92.94260619
C      72.64672751      97.82173622      93.77975495
H      73.87882906      96.21546885      94.02919883
C      69.48521539      90.42345770      92.67804452
O      67.54824592      89.17056916      92.88969385
N      71.71887189      89.24048903      93.06543841
H      73.30246254      90.29684604      93.19771925
C      72.18752401      86.53818039      93.31866174
H      70.47354225      85.45725694      93.67770972
C      73.34970570      85.55174326      90.75997230
H      75.07313609      86.60243110      90.33478389
C      73.75788658      82.77384559      90.40470376
H      74.36826818      82.45826129      88.46395484
H      71.96264658      81.83276189      90.78075929
H      75.02778266      82.13133864      91.89569782
O      71.67918764      86.26794953      88.82867201
H      71.18785879      87.94980596      89.29354469
C      74.10559622      86.03173374      95.44082438
O      75.63249508      87.82697375      95.80365184
N      73.88071879      83.73193683      96.70883073
H      72.36893774      82.61510858      96.38379781
C      75.64950262      82.55652706      98.68170500
H      77.09325352      84.02484441      98.75351460
C      74.23220789      82.70581544     101.23850470
H      73.48387627      84.61632874     101.42180816
C      72.22720827      80.56475553     101.63534724
H      73.06624675      78.77518471     101.05520126
H      70.52834431      80.82175831     100.49962171
H      71.55257597      80.72160281     103.57420644
C      76.27500203      82.25795031     103.22271733
H      77.50332413      80.69136719     102.69548370
H      75.39816902      82.04252151     105.07275939
C      78.33858316      84.36121569     103.70648728
H      79.93540190      83.48816214     104.66457851
H      77.40505836      86.00338785     104.53418740
H      79.03022299      84.98482537     101.86778358
C      76.73231580      80.07531641      97.74440075
O      75.49454506      78.47660794      96.58221908
N      79.00187710      79.45737591      98.65713856
H      80.10736699      80.91813434      99.18437220
C      80.06957247      76.89490703      98.75162489
H      78.66361609      75.62879040      99.57176610
H      81.81756931      76.94403990      99.84199696
C      80.63082118      75.96705141      96.18537654
O      82.16527895      77.06498240      94.82288388
N      79.41383744      73.84110931      95.40680930
H      78.49543045      72.82443654      96.73528691
C      79.65383268      72.52019061      93.00874662
H      81.31868156      73.30064757      92.07333210
C      80.21130194      69.68749087      93.19582952
H      78.49920990      68.76719415      93.87991045
C      80.85758834      68.73128936      90.55399213
H      79.36470455      69.23206683      89.22740426
H      80.85002943      66.67715684      90.38769622
H      82.76999137      69.18671339      89.93794135
C      82.59235709      69.28119971      94.87012703
H      82.25031663      69.64213744      96.86756775
H      84.04933608      70.59266978      94.23139954
C      83.93595250      66.74707672      94.79075853
H      85.25120202      66.73762810      96.37623891
H      85.08679583      66.59589862      93.09000485
H      82.54889339      65.22395732      94.75107428
C      77.20852683      73.03608589      91.43082515
O      75.83091635      71.34667056      90.72217778
N      76.60192468      75.41525132      90.91304013
H      77.82835706      76.78341318      91.43271487
C      74.76700043      76.15980348      89.01197547
H      74.87282511      75.09777731      87.25264026
H      75.40950738      78.02496335      88.41104250
C      72.12516305      76.45838025      89.98896397
O      70.29779770      76.60577890      88.59245623
N      71.76989450      76.82498716      92.51741778
H      73.27411664      76.97616525      93.68526863
C      69.31325029      77.01962897      93.78542412
H      67.84682267      75.86878564      92.90859112
C      69.53812772      75.99161785      96.47639439
H      70.55102103      77.37678724      97.61400964
H      70.56613884      74.21149566      96.60489578
C      66.99833556      75.52485545      97.58188430
N      65.78702099      73.23450716      97.71605486
H      66.43330739      71.58666582      96.99984858
C      63.50801106      73.65213668      98.74784543
H      61.93764849      72.36901251      98.51918854
N      63.45698845      76.09177335      99.52263322
H      61.98489165      77.07443103     100.22939085
C      65.66796823      77.28797010      98.65524884
H      66.06103131      79.28919027      98.60800568
C      68.29657754      79.69737115      93.75518851
O      69.39450852      81.35277140      94.98917980
N      66.18386352      80.20948698      92.49474105
H      65.29947160      79.06998202      91.24374224
C      65.12561678      82.78707367      92.36812940
H      66.72621497      84.04563140      92.05065537
C      63.25478773      82.65668256      90.10990645
H      61.93575877      81.11277616      90.44438801
H      64.28279885      82.27495784      88.36757880
C      61.88473616      85.27584323      89.78487352
H      62.79369451      86.76116811      90.88847369
C      61.78080121      86.16212487      87.04854983
H      60.97388807      84.73727123      85.80510990
H      63.74233712      86.48148862      86.50241891
H      61.37451005      88.15389640      86.71028882
C      59.16919944      85.10576786      90.69194215
H      59.07093368      84.29318554      92.58544793
H      58.19788012      83.77540053      89.45606115
H      58.63818635      87.09564967      90.74107503
C      63.86894878      83.50705939      94.88713458
O      62.86550411      81.97449135      96.27797313
N      64.27901939      85.84276112      95.79042374
H      65.50545177      86.91801539      94.80020716
C      63.15274251      86.95958936      98.14691247
H      62.94298289      85.53851518      99.62089898
C      65.04435855      88.84364651      99.08232699
H      64.15807691      89.75827403     100.70182243
H      65.62639426      90.36865564      97.82565898
C      67.52367947      87.55485316      99.93270383
H      68.20020149      86.57219548      98.25462685
C      69.62883459      89.52772743     100.52607789
H      68.85404680      90.76927762     101.97549797
H      69.92741134      90.55384882      98.76485296
H      71.36549307      88.64900470     101.20448963
C      67.06636571      85.92968853     102.21360348
H      65.93441964      87.07675239     103.49483793
H      68.78790638      85.48182340     103.25295296
H      66.11394364      84.12877936     101.90557810
C      60.56570719      88.20113955      97.56865620
O      58.67409115      87.78917922      98.84989064
N      60.49578732      89.76016377      95.48995726
H      62.00000946      90.37054536      94.48840232
C      58.18654176      91.12643589      94.72083865
H      56.60484084      89.81496583      94.82666332
C      57.69521292      93.27883415      96.50851975