 %block lattice_cart
   139.252   0.000   0.000
   0.000 142.425   0.000
   0.000   0.000   162.84
 %endblock lattice_cart

 %block positions_abs
N      88.47696483      39.29974689      81.89621103
H      87.83445789      38.13756521      80.52426973
H      88.40137578      38.22638234      83.47224278
H      90.25141784      39.84587779      81.45212535
C      87.15793586      41.80930343      81.82818088
H      88.15949081      42.98849266      83.19067355
C      87.50186605      42.78818166      79.13154144
H      86.69684265      41.43891707      77.79739467
H      89.52954239      42.98282347      78.83485440
C      86.13370420      45.41868069      78.89532564
H      84.12303542      45.18435463      79.28082982
H      86.42283234      46.29929316      77.05662194
S      87.43005645      47.78650776      80.99292185
C      90.01520206      48.73515037      79.20902022
H      90.66337817      50.61731778      79.73625386
H      89.25931152      48.75215790      77.29283774
H      91.57989545      47.40100359      79.30539626
C      84.42728135      41.76206027      82.79194130
O      83.13470854      39.81753190      82.62186593
N      83.59013260      43.89178183      83.95412298
H      84.58979780      45.50371837      84.15821343
C      81.04845069      44.23571202      84.72324159
H      79.84280531      43.39100435      83.28138043
C      80.53822460      42.98282347      87.34618173
H      80.70641023      40.92869098      87.25547485
H      78.54834278      43.29462831      87.77703933
C      82.30133925      44.05618802      89.44944710
O      82.07268236      46.20858629      90.12407941
N      83.63548603      42.28362474      90.68721784
H      84.92238965      42.94691867      91.93443720
H      83.49186682      40.46570802      90.12218967
C      80.48342253      47.19313371      84.75725668
O      82.20307347      48.71436338      84.49458472
N      78.06079339      47.90556052      84.72324159
H      76.57357878      46.72070213      84.89142724
C      77.32191041      50.58330271      84.53804842
H      78.05701394      51.46769463      82.82973584
C      74.34937092      50.74392944      84.42277512
H      73.77111466      49.43245939      82.94500913
C      73.26088856      49.85386835      86.92477275
H      73.18907896      51.51682751      88.13797704
H      74.19819281      48.25327016      87.82050302
H      71.39950814      48.98270452      86.77926382
C      73.49143517      53.43678944      83.85018805
H      74.27567160      54.63109646      85.33362320
H      71.44297185      53.63332097      83.97868944
C      74.15283938      54.50826426      81.38031575
H      76.16161845      54.42133684      80.92678144
H      73.58214204      56.47924880      81.19701230
H      73.07569538      53.48214288      79.95357239
C      78.58424758      52.32752009      86.46745899
O      79.64627377      54.22480531      85.73802463
N      78.67306472      51.57918848      88.89953675
H      77.94552010      49.84819917      89.23779777
C      80.08658001      52.70168590      90.94988980
H      79.25699016      54.55550742      91.28626109
C      79.66517103      51.15588977      93.29315042
H      80.82168354      52.08374540      94.72367324
H      80.44940745      49.26616346      93.05882436
C      76.99687748      51.01416030      94.34572798
C      75.57391358      53.03616746      95.22445072
H      76.42806986      54.88998898      95.29626032
C      73.03601113      52.78483386      96.03325359
H      71.99477193      54.37409369      96.78725439
C      71.97209521      50.39810953      96.04837140
H      70.06914083      50.07496632      96.70788587
C      73.38750022      48.30051332      95.06571371
H      72.40673226      46.52039113      94.88996916
C      75.88193896      48.60286953      94.25880058
H      76.82680211      46.98148435      93.44810799
C      82.86069824      53.28750107      90.25069107
O      83.75642851      55.37564863      90.53981920
N      84.38948683      51.31840624      89.49858000
H      83.50509490      49.65922654      89.82550265
C      87.06344956      51.48470216      88.64631342
H      87.96862845      52.57696396      90.13919721
C      88.35224289      48.86365177      88.45734079
H      90.06622466      49.07152165      87.33106391
H      86.94061734      47.56729952      87.70333999
C      89.22718618      47.97170095      91.17098777
H      90.07189385      46.09709244      91.04059667
H      87.58690375      47.76950023      92.40119960
C      90.88447615      49.76694094      92.55615717
O      93.11057375      50.05039988      91.89853240
O      89.83000888      50.67967874      94.43832457
C      87.55666812      53.00215239      86.17644114
O      89.47663005      54.33251971      85.91754862
N      85.87103225      52.80751058      84.41143676
H      84.38759709      51.66800561      84.77993338
C      86.01276172      54.22102586      82.03983024
H      87.88737022      53.92055937      81.24614518
C      83.99075457      53.19301474      80.27482585
H      82.17283786      53.97725116      80.83229513
H      83.70540589      51.15211033      80.26159778
C      84.52365739      54.14921625      77.55550970
H      86.04866652      53.11364624      76.63521298
H      84.96018416      56.16177478      77.61031175
S      81.77977479      53.92244910      75.70357791
C      80.50231980      57.15766054      75.98514712
H      78.73920514      57.06884341      77.03961441
H      80.33224442      57.63009212      73.98581669
H      81.78733368      58.39543129      77.01315824
C      85.58379386      57.07829204      82.53115908
O      86.89148446      58.63164707      81.44078699
N      83.97374704      57.90032299      84.39442923
H      82.79455781      56.52460223      84.99914165
C      83.23486404      60.51948366      84.77804367
H      83.15171609      61.44733928      82.94122968
C      80.85002944      60.68388985      86.12163907
H      80.66105680      62.56605725      86.93800083
H      80.67617462      59.20045469      87.53704408
C      78.44440783      60.29838568      84.54560732
H      78.61070376      58.64865461      83.32484412
C      76.01421981      59.89209452      86.11030071
H      75.82902663      61.51347971      87.36696872
H      76.34303217      58.34629840      87.43121941
H      74.43440860      59.49714172      84.85174298
C      77.83402624      62.51314492      82.80138994
H      77.63182553      64.43688631      83.50625786
H      75.99343282      62.25992160      81.90565967
H      79.27777714      62.63030795      81.33874177
C      85.28332736      61.93677839      86.14620551
O      85.52899178      64.24035478      85.82117258
N      87.05589065      60.47979941      87.44255777
H      86.76298306      58.61463954      87.71845780
C      89.51442459      61.38686803      88.42710518
H      89.18750192      62.68133056      89.99557802
C      91.23218579      59.19100606      89.51180808
H      92.93671893      60.02815482      90.30927259
H      91.56666735      57.77749078      88.04915991
C      90.10968837      57.73591681      91.61129401
H      91.52509338      56.31106317      92.06860778
H      88.32200728      56.89498860      91.03114804
C      89.94150272      59.19289578      93.95455463
H      88.83601283      60.89742892      93.61251418
H      91.81044206      59.87130753      94.49690609
N      88.87758682      57.65276884      96.01246660
H      87.32423178      56.67200088      95.49279186
C      89.53899103      57.47513457      98.37651421
N      91.43627624      58.73747175      99.39885614
H      91.71784547      58.74503066     101.28669274
H      92.48885380      59.83729246      98.24234365
N      88.14437301      55.87264665      99.64263084
H      88.71318063      55.13565339     101.30747973
H      87.19384067      54.50448480      98.71288549
C      91.16982483      62.34117982      86.39564939
O      92.94616756      63.80382799      86.89264740
N      90.96573438      61.23946938      84.08262437
H      89.69016913      59.84863081      83.78782707
C      92.48129489      61.81016673      81.91699802
H      94.22929174      62.65676413      82.60107895
C      93.11057375      59.57651024      80.18411900
H      91.40037144      58.66755188      79.48869971
C      94.94738774      60.23413498      78.03738990
H      94.02520129      61.60985574      76.81473697
H      95.28564875      58.67889023      76.72780957
H      96.80120924      60.94278235      78.58918998
C      94.45227944      57.48647293      81.75637129
H      93.25041351      56.90443723      83.32106468
H      96.22484271      58.12897987      82.58974059
C      94.85857060      54.80873074      80.58474097
H      92.98774155      54.45724164      79.79672511
H      95.27997956      53.40844354      82.03794050
H      96.36846192      54.59897112      79.19957159
C      91.11502276      63.73012867      80.26726695
O      92.30177090      65.48757413      79.48869971
N      88.66782720      63.51469986      79.83262991
H      87.66816198      62.01803663      80.46757794
C      86.99163996      65.07372408      78.25470842
H      87.89492913      65.30049123      76.41789446
C      84.44239916      63.64509098      77.96747003
H      83.28210720      64.04004378      79.62287029
H      84.86380812      61.64765026      77.70857753
C      83.11014210      64.70144799      75.66767311
O      84.32145668      64.82239047      73.67023239
O      80.99553836      65.61040635      75.76593887
C      86.28110286      67.70422310      79.44712573
O      86.10346859      69.57694188      78.00526455
N      86.23952888      68.00279987      82.00770489
H      86.28677203      66.45133456      83.12075369
C      85.79922264      70.46511324      83.05083382
H      86.44928850      71.78414222      81.61086237
C      82.90794139      70.64463724      83.36452838
H      82.21252211      69.23301170      84.69300598
H      82.00843166      70.32149404      81.53905277
C      82.15772004      73.34505615      84.22435386
H      83.12148046      74.02913707      85.91187945
H      80.15649988      73.26568764      84.70812378
C      82.59613655      75.24045163      82.09841176
O      84.70696084      76.26279358      81.93022611
O      80.76688147      75.77524419      80.76804442
C      87.36013658      70.77880781      85.49236021
O      88.18972644      72.83105059      85.98368905
N      87.97051819      68.77380820      86.98146454
H      87.05022146      67.18832781      86.44856172
C      89.56733691      69.04403905      89.20567242
H      91.34745910      70.04181456      88.93733127
H      90.09646029      67.09573124      89.61763275
C      88.19161616      70.14574950      91.47901316
O      86.19039599      71.24179077      91.23334875
N      89.06844917      69.77725286      93.81093544
H      90.79376930      68.98167809      94.01313616
C      87.86847296      70.74857219      96.08805564
H      85.82378909      70.85061742      95.85183986
C      88.27854357      68.54893076      98.15541623
H      90.30433018      68.60751228      98.52958205
H      87.70595650      66.78770585      97.25212705
C      86.80644677      68.91175822     100.78780499
H      87.60013183      70.52936395     101.79124966
C      84.03421828      69.29726238     100.29836588
H      83.01187634      69.55804462     102.06714970
H      83.42572641      67.60784707      99.28925201
H      83.88492989      70.91108866      99.02846978
C      87.14659751      66.69699897     102.46399222
H      86.17338846      66.68566062     104.28001922
H      89.15348686      66.75935994     102.92319571
H      86.83101321      65.00380420     101.33393589
C      88.88514571      73.25245956      96.96677838
O      91.21139881      73.58505138      97.46377641
N      87.22785574      75.11195025      97.31070858
H      85.41371849      74.54692209      97.12929485
C      87.59446264      77.76890545      98.08738608
H      89.59568282      77.92197327      98.54847931
C      86.65337894      79.67941874      96.13907825
H      86.59668715      81.66741083      96.67953998
H      84.65971769      79.24289197      95.85561931
C      87.99319489      79.46587967      93.53503539
H      87.92138529      77.52324103      92.85662365
H      90.01709178      79.81925849      93.67109569
C      87.03888312      81.14017718      91.42232137
H      87.31667287      83.09037475      92.02703379
H      85.11514173      80.76412165      90.77981443
N      88.64704020      80.97577100      89.19055460
H      90.18716714      82.10015816      89.25102584
C      88.30122028      79.55658653      87.12130429
N      86.11102750      78.33582334      86.81705836
H      85.85024526      77.03758136      85.44322733
H      85.04522185      78.17141716      88.39120038
N      90.11535754      79.20698717      85.58495680
H      89.69772804      78.16952742      84.03916068
H      91.68949957      80.28224144      85.46779377
C      86.33968437      78.25456510     100.68009058
O      84.24208816      77.53268965     101.00323378
N      87.51887360      79.73233108     102.42241824
H      89.14025878      80.51089832     101.78747021
C      87.20328930      80.08382017     105.10771934
H      85.67261099      78.80069601     105.60849681
C      89.63158762      79.30714267     106.50800653
H      89.44261499      79.71343382     108.51867534
H      91.08667687      80.59215656     105.81825643
C      90.80699738      76.61995185     106.09982565
H      91.47973995      76.20799152     104.19876099
C      93.08033814      76.40641277     107.82325604
H      94.18204858      78.09204865     107.38672927
H      94.11779788      74.65085702     107.54168682
H      92.62302436      76.84482927     109.78479197
C      88.91727106      74.49778919     106.69697916
H      87.64737498      74.35039054     105.08126316
H      87.82689898      74.70754881     108.43174792
H      89.88670067      72.70254920     106.97665867
C      86.30566931      82.74455482     105.70109339
O      85.21340749      83.19619941     107.63428341
N      86.75920361      84.53790509     103.93797875
H      87.92138529      83.98799474     102.52446346
C      85.78977402      87.12305070     104.19120208
H      84.74664509      87.16651441     105.96565509
C      87.82878872      89.02033592     104.79591450
H      89.00986765      88.01689124     106.15462772
H      87.20139958      90.71353068     105.78613108
C      89.73174310      89.52111338     102.71532583
H      88.76609296      90.45841764     101.15441190
H      90.31188908      87.72020421     101.89896405
C      91.99374550      91.13871912     103.62806363
H      92.71751069      90.73620741     105.51590022
H      91.46084268      93.10403448     103.93986847
C      93.91559717      90.56235258     101.59093867
H      93.05388196      91.24643351      99.85050073
H      94.15937185      88.51955845     101.67975580
N      96.36846192      91.90405827     102.12006203
H      97.32088398      91.31635338     103.66585817
H      95.85256663      93.73520306     101.97455311
H      97.45883400      91.63571713     100.57615563
C      84.00776211      87.70130694     102.13517985
O      83.99453403      86.56558143     100.07348844
N      82.43173036      89.58725381     102.60005252
H      82.60936463      90.41873338     104.31025483
C      80.41728212      90.35070323     100.85961459
H      79.27966688      88.63483174     100.78024608
C      78.84691954      92.67128716     101.76290377
H      80.31523688      94.06968462     102.11439286
C      76.85703774      93.61048112      99.88262608
H      75.54367794      92.06468501      99.52735753
H      77.62615634      94.12070723      98.04203265
H      75.96130747      95.38115468     100.43064671
C      77.65639197      92.23098092     104.36505690
H      79.16817302      92.75821457     105.66329888
H      77.11593024      90.28834226     104.77512751
C      75.26021901      93.70118799     104.95465150
H      74.66684495      93.37048588     106.89729016
H      73.80512974      93.06435022     103.64129171
H      75.54178823      95.72130542     104.65418503
C      81.57001517      91.11982185      98.23667446
O      83.59958123      92.26310627      98.12329088
N      80.31145743      90.55857314      96.06726865
H      78.77699967      89.42284761      96.12585018
C      81.18640071      91.50721574      93.61251418
H      82.10480770      93.31001464      93.99990806
C      83.18006199      89.60426134      92.79993186
H      84.54444438      89.27922842      94.30793346
H      84.26287515      90.24865802      91.16909806
C      82.11047688      86.95864450      91.90420159
C      81.44151378      86.43330060      89.39842450
H      81.44907267      87.74099119      87.82995166
C      80.58924720      84.08059133      88.67276960
H      79.98264506      83.63461593      86.77737411
C      80.38893622      81.99811293      90.38864108
O      79.40060936      79.69075711      89.70078070
H      79.04912025      79.72288246      87.92065852
C      80.93695684      82.58770755      92.98323532
H      81.00498699      80.99466827      94.25691084
C      81.76843643      85.02356477      93.71455940
H      82.19362484      85.29379563      95.69310284
C      78.85258873      91.91917607      91.94577556
O      76.74932333      92.08358227      93.06260381
N      79.08313534      92.17617886      89.38519641
H      80.81412463      92.03822883      88.59718054
C      76.78522814      92.27822407      87.72034754
H      75.28667517      91.66406303      88.99024361
C      76.17295681      95.03911423      87.07595086
H      74.60070451      94.91628201      85.74936299
H      77.64505360      95.94429313      85.95534316
C      75.68162797      96.84002340      89.28882038
H      77.38805084      96.71152200      90.43588425
H      74.16606746      96.30145140      90.57572400
C      75.39816902      99.51209640      88.48568668
H      76.76444115     100.10169102      87.06461250
H      75.74020949     100.61569658      90.19021982
C      72.75633164      99.95051290      87.50491873
H      71.28612456      99.04911345      88.63119561
H      72.60137407      99.00753948      85.68133284
N      71.91918288     102.58668112      87.30838719
H      70.02189767     102.77565374      87.19500361
H      72.81113371     103.34446137      85.80227533
H      72.45964460     103.69217101      88.76158674
C      76.77577951      90.51699915      85.46779377
O      78.71463870      90.20141485      84.19411823
N      74.49299011      89.64016614      84.63253474
H      73.02656250      90.11070799      85.76070135
C      74.16984691      88.71986942      81.96802063
H      75.66839988      87.36682538      81.56928838
C      71.71509244      87.09659453      81.86408568
H      70.10504563      88.30979881      82.26848711
H      72.05713291      85.70575596      83.34563112
C      71.52423008      85.60560046      79.46791272
O      73.22309404      84.09759886      79.02193732
O      69.79890995      86.10070875      77.99392620
C      74.16417774      90.80990673      80.10286077
O      73.74087904      93.10214475      80.66410948
N      74.59314561      90.10503882      77.66133436
H      74.75755180      88.21909195      77.42889804
C      74.72164700      91.93807334      75.50137720
H      76.06713214      93.45363384      75.85475601
C      75.34714641      90.36771077      73.02394599
H      74.97676005      91.61493015      71.42712726
C      78.25165576      90.04267785      72.87087816
H      79.12659903      91.90594800      72.93890831
H      78.56912977      89.33403048      70.96414431
H      78.99809765      88.67073654      74.21447357
O      74.20953117      87.93941247      72.83497336
H      74.93329636      87.06635891      71.41956835
C      72.19319319      93.14749819      74.82863463
O      72.15917813      95.23564575      73.93479407
N      70.08425863      91.92862471      75.57885598
H      70.46598334      90.08425182      75.87365328
C      67.60115826      93.17395434      75.61854023
H      67.27990478      94.04511817      73.78172624
C      65.42419354      91.22564653      76.25726772
H      64.99144621      90.89683414      78.24525980
H      65.86072032      89.47009078      75.27649977
C      62.92408563      92.22153228      75.07996822
H      62.63684723      94.03000036      76.02672111
H      61.40663540      90.88360606      75.46547240
C      63.11683771      92.45585836      72.24537875
O      63.91808167      90.56991149      70.91501143
O      62.73133354      94.52510867      71.30240532
C      67.50100276      95.31501427      77.54795079
O      65.78891072      96.84002340      77.41755968
N      69.29246330      95.52855333      79.33185242
H      70.52456487      94.08102297      79.49058944
C      69.32836810      97.41261047      81.31039588
H      68.41752002      99.04533401      80.44490122
H      71.32202936      97.65071599      81.77526855
C      68.05469257      96.80789805      83.77081953
O      67.63139388      98.47841612      85.37141772
N      67.52178976      94.33046685      84.19789768
H      67.96965488      93.23064614      82.70123445
C      66.42007931      93.33647081      86.55438639
H      65.29569215      94.85959023      87.36318926
C      64.72121535      91.03289444      85.78337806
H      63.53635695      90.41495393      87.35185090
H      65.85316141      89.41717843      85.19189372
C      62.92030618      91.49587739      83.69712022
C      61.86961834      89.37182501      82.36675289
H      62.44787460      87.53312130      83.03193655
C      60.17453384      89.72520382      80.38254026
H      59.52068854      88.08303166      79.36775722
C      59.29203165      92.04200828      79.63609837
O      57.46466631      92.52199878      77.88243235
H      56.92987376      94.25298808      77.90888852
C      60.25201262      94.04700791      81.08362873
H      59.50935018      95.89327051      80.63009440
C      61.98867110      93.83346884      82.95823723
H      62.62550887      95.50398689      83.94656409
C      68.54791113      92.48231451      88.30427296
O      70.31102578      91.28611777      87.46712421
N      68.47043235      93.23253587      90.60406989
H      66.88117253      94.04700791      91.27492273
C      70.35259977      92.52388849      92.45600168
H      72.11004524      93.27222011      91.68310361
C      69.92930107      94.03189009      94.97878629
H      71.17274098      93.30245573      96.45088309
H      68.06414120      93.54056126      95.70633094
C      70.24488536      96.95151725      94.72367324
C      68.37405631      98.68061683      93.82983271
H      66.66574374      98.12314756      92.85851338
C      69.07514477     101.36591791      93.78825872
H      67.74855691     102.64904209      92.91142572
C      71.39383896     102.25408928      94.69910680
O      71.95886713     104.79955062      94.48178827
H      70.63416899     105.72740624      93.65597788
C      73.23632212     100.46073902      95.57593981
H      75.12604844     101.06545143      96.05215084
C      72.57302818      97.93606465      95.78003025
H      74.04512499      96.81545696      96.63985572
C      70.31858469      89.68551958      93.04559628
O      68.35326932      88.40995431      92.60151060
N      72.39161445      88.54034542      93.70889021
H      73.87693935      89.71386548      93.95455463
C      72.97742962      85.89661831      93.97345190
H      71.15195399      84.98199078      94.25124167
C      74.02811744      84.79490787      91.56594057
H      74.89928127      82.98455006      92.01002626
C      72.17807538      84.13539339      89.40598341
H      73.17774060      83.10360282      87.93010716
H      71.44486158      85.90039778      88.63686480
H      70.56991830      83.05258022      90.10140269
O      75.80823964      86.43896976      90.42454588
H      77.53544948      85.94386148      90.67965893
C      74.85014839      85.35426686      96.18443168
O      76.68318292      86.67896502      96.79481329
N      74.67251411      83.08848502      97.22756061
H      73.01144468      82.22676981      96.85150508
C      76.52066645      81.39906969      98.75445948
H      78.46897429      82.06614308      98.82059989
C      75.60414919      81.71843345     101.43598112
H      75.30557243      83.72154333     101.80447774
C      73.19096869      80.22743938     102.09738533
H      71.51478145      80.54491339     100.94276254
H      72.47476241      80.80002645     103.94175820
H      73.62560575      78.21299113     102.16730520
C      77.69607622      81.24978131     103.43153209
H      78.19685369      79.25800978     103.26145672
H      76.82869185      81.28190666     105.30047143
C      79.79934160      83.02801378     103.44664990
H      80.62893145      83.22643503     101.57204140
H      81.24687196      82.28157189     104.70898708
H      79.56123609      84.97065242     104.08915685
C      76.71341853      78.60227475      98.13273951
O      75.33958750      77.77835407      96.46411119
N      78.71841815      77.21899509      99.00768279
H      79.98264506      78.20921168     100.04136310
C      79.02644355      74.54314263      98.72611357
H      77.28978506      73.69465551      99.43854039
H      80.65727735      73.81937745      99.75979387
C      79.55934637      73.68898633      96.09750428
O      81.69284737      74.09905695      95.42476171
N      77.81890843      72.62318070      94.75579859
H      76.17106709      72.07893952      95.55137337
C      78.20630232      72.02035801      92.16876328
H      79.81067996      73.00301568      91.33350425
C      78.95841340      69.04970823      91.78892828
H      77.38427137      67.97256423      92.56560580
C      79.55178746      68.38452458      89.11118609
H      80.06768274      66.42676812      88.72568194
H      81.22608497      69.45033021      88.55938602
H      77.84158515      68.60751228      87.98679895
C      81.29789457      68.51680541      93.52558676
H      80.47019445      68.33350196      95.40208499
H      82.47141461      70.19299265      93.28937097
C      82.81534480      66.13008109      93.00591202
H      84.03421828      65.87874748      94.64808419
H      83.73753124      66.28692836      91.17287751
H      81.57946380      64.50491646      92.72434280
C      75.89138759      72.94065471      90.78548362
O      74.33047365      71.39296887      90.21289653
N      75.64383344      75.46532907      90.46045069
H      77.15183504      76.57459841      90.83272676
C      73.63505438      76.79002721      89.14142172
H      73.05868785      75.64674279      87.52759545
H      74.38527572      78.62873092      88.59340109
C      71.24644032      77.45521088      90.67587948
O      69.29246330      78.10527672      89.62519166
N      71.16329236      77.28135606      93.19866411
H      72.84325904      77.21521563      94.10573275
C      68.90506941      77.20198756      94.56493624
H      67.46887741      75.86028187      93.94699574
C      69.53434827      76.33838262      97.27102432
H      71.08581358      77.45143142      98.04581211
H      70.42629909      74.48456112      97.35039283
C      67.30447123      76.44987647      99.15508145
N      65.73221893      74.37495698      99.55948288
H      65.95331691      72.54570191      99.06626432
C      63.95020701      75.20265711     101.15441190
H      62.49133830      73.89685624     101.73833733
N      64.42452832      77.65174242     101.85927980
H      63.29069253      78.60794393     103.05925601
C      66.47299165      78.46054528     100.52513303
H      66.89062116      80.45420653     100.40797000
C      67.85249185      79.79469205      94.57438487
O      69.03357080      81.45387175      95.65908777
N      65.52812850      80.13295306      93.68810322
H      64.77979687      78.63440010      92.77158596
C      64.20909952      82.54424384      93.63519089
H      65.28057434      83.73099197      92.33883865
C      61.72221969      82.09259925      92.18010163
H      60.46177224      80.87939495      93.26669427
H      62.22110745      81.00600662      90.50202466
C      60.34082976      84.64939895      91.97790091
H      60.09327561      85.51867305      93.82983271
C      61.57671076      86.51833828      90.14297666
H      63.61194601      86.74699515      90.35273628
H      60.78869489      88.40239540      90.40753835
H      61.35183333      85.82291899      88.21545582
C      57.88607528      84.01256118      90.59840070
H      58.09394517      83.49855562      88.61418807
H      56.63318673      85.64339499      90.67587948
H      56.97711692      82.57825891      91.76625157
C      63.93886867      83.72343306      96.22033648
O      62.52913283      82.69542194      97.86628810
N      65.12372705      85.98732519      96.75701876
H      66.09504638      86.76778214      95.31137814
C      64.68909000      87.60871035      98.95477046
H      63.84816179      86.64872940     100.57237618
C      67.04179926      89.02978454      99.61806440
H      66.69408963      90.39983612     101.11661736
H      67.63895279      90.05212649      97.93431825
C      69.23388180      87.32714114     100.50434603
H      69.69308528      86.10826766      98.90752731
C      71.57525269      88.76333313     101.17330915
H      72.33681240      89.72331411      99.51790891
H      73.11726936      87.60871035     101.89896405
H      71.37494170      90.12771553     102.70398747
C      68.46476318      85.85315461     102.80981214
H      69.95008806      84.50011057     103.27279509
H      66.65818483      84.88372501     102.62083950
H      68.55358032      87.21753702     104.35182882
C      62.49700748      89.41339899      98.33116078
O      60.52413321      89.33403048      99.56515207
N      62.88251165      91.16139582      96.45466255
H      64.51523518      91.26722050      95.47389459
C      60.76223872      92.83002416      95.57027063
H      59.00668298      91.75288016      95.56838090
C      60.06681945      94.88226694      97.42976132