 %block lattice_cart
   139.252   0.000   0.000
   0.000 142.425   0.000
   0.000   0.000   162.84
 %endblock lattice_cart

 %block positions_abs
N      92.43783119      41.72993492      79.27610551
H      92.05043729      40.78885123      80.89182149
H      94.33700613      41.89812057      79.38004044
H      91.90492837      40.70381355      77.75865527
C      91.42871734      44.29240380      79.14571438
H      92.33578597      45.79473622      80.22474811
C      91.45517351      45.12766283      76.39805232
H      90.24007949      43.71036811      75.52688850
H      93.29009776      44.83097580      75.51177068
C      90.52542816      47.78461803      75.91806184
H      88.46562648      47.85075846      75.97097417
H      91.17549401      48.26838797      74.02266635
S      91.71406601      50.32818966      77.97975324
C      95.03620487      50.32629993      77.08402297
H      95.93004541      51.55651176      78.47108209
H      95.21572887      51.30139870      75.27933434
H      95.84500773      48.44980170      77.35614356
C      88.86624846      43.94280444      80.15482823
O      87.59446265      42.08709321      79.36870208
N      87.75697911      45.81930268      81.52299009
H      88.75853406      47.36509879      82.02187783
C      85.02254514      45.72859580      82.23730663
H      83.91327579      44.76861485      80.79166600
C      84.80711634      44.57964220      84.88481319
H      86.26598505      43.17746528      85.27787627
H      82.95518455      43.71792702      85.16260296
C      85.44206438      46.29929316      87.12035943
O      83.62603739      47.25171522      88.21640068
N      87.84201680      46.59220073      87.67026978
H      88.20295452      47.68635226      89.19149946
H      89.14403822      45.51694645      86.77831896
C      84.02287992      48.49893459      82.36769774
O      85.49686644      50.20724716      82.06723127
N      81.60780969      48.91467438      82.67572313
H      80.50231980      47.36509879      82.80422452
C      80.30578826      51.46769461      82.65871560
H      80.69696161      52.10831183      80.74064340
C      77.38616111      50.92534317      82.80611425
H      76.90239117      49.64221901      81.26976676
C      76.82302266      49.48159227      85.37236258
H      74.83314086      48.95624834      85.44795163
H      77.44285289      50.78361369      86.84256966
H      77.88504885      47.71658788      85.47629753
C      75.90272595      53.36686957      82.38281556
H      76.34303218      54.71802388      83.87380961
H      73.96197703      52.71869343      82.63414915
C      75.97642528      54.52149234      79.72963981
H      75.09014364      53.28372160      78.34258070
H      77.93607146      54.83707664      79.17028082
H      75.14683542      56.40554948      79.66916857
C      81.21285689      53.34986202      84.61458233
O      81.54166927      55.54194456      83.85869181
N      81.95740906      52.51838245      86.90682036
H      81.60969941      50.71369382      87.42460536
C      83.11770101      54.24181284      88.63403020
H      81.91583508      55.88587474      88.94961449
C      83.47674901      52.89632771      91.19649908
H      84.85435949      54.12087037      92.11868552
H      84.58601836      51.19368431      90.87146616
C      81.22608497      52.76215715      92.82166371
C      80.78010956      54.68211908      94.50352014
H      81.95740906      56.34507824      94.57532973
C      78.72219761      54.73503141      96.23261970
H      78.61826266      56.27326863      97.56865622
C      77.01766447      52.70546536      96.17970737
H      75.53044987      52.55428724      97.57243567
C      77.41639673      50.60597943      94.55454274
H      76.42429041      48.83152641      94.73595646
C      79.57824363      50.68345820      92.68938288
H      79.91461491      49.06207303      91.49696556
C      85.68394935      55.18478627      87.69672596
O      86.23196998      57.39387634      88.03498697
N      87.16549478      53.55773192      86.51942646
H      86.40015562      51.82296317      86.30966684
C      89.68449995      54.30039437      85.42338520
H      90.44983911      55.53060620      86.88603337
C      91.23785498      51.92122894      84.96607142
H      90.09079111      50.63243558      83.83979454
H      91.25486252      50.89321782      86.74808334
C      93.84756702      52.52972080      83.83979454
H      93.49985738      53.91489019      82.35446966
H      94.47117670      50.71369382      83.09524237
C      95.88280226      53.49915040      85.83723525
O      95.16470626      54.56306632      87.75908691
O      98.14480465      53.57473945      85.30244271
C      89.15159713      55.98603024      83.15004444
O      90.50275144      57.90032299      83.01776360
N      87.23163520      55.31706712      81.60424832
H      86.35858164      53.64843878      81.91605315
C      86.41905288      56.80806118      79.33468701
H      87.95917983      56.98947490      77.97786353
C      84.17783747      55.53627538      77.89660530
H      82.47897352      55.81028568      79.02477190
H      84.79010880      53.56718055      77.84369295
C      83.89626825      56.63798581      75.24342954
H      85.28143764      55.83674185      73.94707729
H      84.16271966      58.67889023      75.31145969
S      80.90294177      55.46257604      74.11904240
C      81.13915756      56.09185490      70.76477818
H      79.65572241      55.20557326      69.64794993
H      82.90416194      55.19612464      70.19219111
H      81.53033091      58.08362644      70.41895827
C      85.87481170      59.57273077      80.08490836
O      86.62314332      61.42844202      78.89060133
N      84.60113617      60.02437536      82.17494566
H      84.08335116      58.42188746      83.07445538
C      83.69784699      62.45834285      83.10280128
H      83.10825238      63.71123140      81.58157160
C      81.22608497      62.18055308      84.65804603
H      80.90672123      63.97768281      85.61046810
H      81.36403499      60.78971452      86.17360654
C      78.85258872      61.47001599      83.01209442
H      79.30423331      59.72768833      82.01053948
C      76.76444115      60.53838092      84.83568031
H      76.27878149      62.08795650      86.10368666
H      77.50143441      58.96234917      85.93550103
H      75.04856966      59.78438012      83.97963429
C      77.89638721      63.52981768      81.04866878
H      77.01199530      65.12852614      81.99920112
H      76.62082195      62.66243329      79.67672748
H      79.54800801      64.26870066      80.06790082
C      85.57245549      63.91532184      84.70906865
O      85.78221511      66.16220642      84.54655218
N      87.28832699      62.60196206      86.05266406
H      87.09368518      60.70278711      86.09990722
C      89.60702117      63.84729169      86.98996831
H      89.00986766      65.52914811      88.01986915
C      90.67282681      61.92166058      88.84756927
H      91.08289742      60.19445074      87.80255062
H      89.05711081      61.52670778      90.06266329
C      93.01230799      62.89675936      90.17415714
H      92.25452774      64.16665545      91.60656969
H      94.18393830      64.03248487      88.91559942
C      94.88124731      60.88798028      91.35712581
H      93.82866975      59.52926707      92.49285133
H      96.30610095      61.69111397      92.60623491
N      96.14169476      59.40643486      89.45039196
H      95.18360352      57.78504969      89.14047686
C      98.05598752      60.04705209      87.79121226
N      99.23706646      62.20511953      87.81766844
H     100.78853177      62.43566614      86.73107580
H      98.69093556      63.15187241      89.38236183
N      98.83455476      58.48991759      86.11880447
H     100.26885703      58.87920121      84.92260773
H      98.15425329      56.71168513      86.23407778
C      91.24352416      64.75436032      84.81867277
O      92.49641270      66.68566062      85.03977076
N      91.37580500      63.30116080      82.71540739
H      90.51031035      61.60229684      82.71540739
C      92.99341072      64.01547733      80.71229750
H      94.85668087      64.50113701      81.43984212
C      93.33167173      61.89142496      78.78666638
H      91.51375502      60.92577481      78.77721775
C      94.17448967      63.00825321      76.21663860
H      94.53164794      61.44544955      74.92595553
H      95.99807556      63.94555746      76.36403725
H      92.67215725      64.12697119      75.34925422
C      95.25730285      59.86563836      79.57657198
H      94.75274592      59.28549238      81.48897501
H      97.18293396      60.59129325      79.69751446
C      95.17415489      57.25592631      78.06479093
H      93.17104500      56.80995090      77.90038474
H      96.24562971      55.85752885      79.13437602
H      95.76185977      57.46568593      76.10325502
C      91.71784546      66.41920921      79.58602061
O      93.14458883      68.14641905      79.21185481
N      89.20073001      66.41354003      79.05878698
H      88.30688947      64.77136787      79.44051168
C      87.91004694      68.41853964      77.74920664
H      89.02687519      69.07427467      76.14671872
C      85.41182876      67.50013266      76.59080441
H      84.15138131      69.12718702      76.56245852
H      84.37247928      66.19622150      77.80022926
C      85.44962328      66.27936947      73.95274647
O      83.90571689      64.50491646      73.37637996
O      86.87258720      67.18643809      72.30868459
C      87.44895372      71.00368524      79.26287741
O      88.14248328      73.04836911      78.26321219
N      86.27921313      70.76935918      81.43417295
H      85.99764391      69.07427467      82.26187307
C      85.38159314      72.99734650      83.08012457
H      84.80333688      74.60928304      81.93872988
C      82.97786127      72.09216760      84.51442685
H      83.32368118      70.41409064      85.65582154
H      81.56434598      71.48178601      83.14437527
C      81.98575495      74.34094192      86.05455378
H      83.51832299      74.93053653      87.29610397
H      80.44562801      73.57749249      87.18838958
C      80.85002944      76.64073884      84.63536932
O      79.81256969      76.29113947      82.54722175
O      81.25065142      78.83660081      85.41582629
C      87.68327978      73.78158292      84.80733441
O      88.20106479      75.91130448      85.08701391
N      88.62625322      71.80303948      86.29454902
H      87.61713936      70.20622074      86.55344153
C      90.68227544      72.34161148      88.10301710
H      92.17326950      73.47166780      87.24130191
H      91.77642698      70.64085780      88.50174936
C      89.93583355      73.59638974      90.66170654
O      87.73619212      73.82504662      91.20405798
N      91.72729409      74.01401927      92.42293147
H      93.55843889      73.85339253      91.91270535
C      91.14525839      74.69998992      95.09689420
H      89.16104576      74.31826519      95.48995726
C      92.47940517      72.94632390      96.90725201
H      94.51275068      73.23545202      96.81465542
H      92.15815169      70.96778045      96.43482042
C      91.96728934      73.62662536      99.72105448
H      92.89136550      75.42942426     100.08010248
C      89.10435397      73.28269518     100.49017309
H      88.89459435      73.78347265     102.47438571
H      88.64892993      71.27769556     100.35789224
H      87.82122981      74.35417000      99.28452770
C      93.29765666      71.80303948     101.60133217
H      95.32722272      72.14696967     101.53330202
H      92.89703468      69.87362891     101.00228892
H      92.46050790      72.05815252     103.46460230
C      91.37958445      77.47788759      95.87168198
O      93.45072449      78.45298637      96.02097036
N      89.35001839      78.80258574      96.32521629
H      87.70973595      77.86339175      96.06821351
C      89.29710606      81.27245803      97.60645073
H      91.13958921      81.58048342      98.47194538
C      88.72829844      83.33036999      95.68648880
H      88.23507987      85.08403601      96.64458004
H      87.16360505      82.73321646      94.48651259
C      91.15848647      84.21476189      94.19927419
H      92.02398113      82.83715142      92.93882675
H      92.50397161      84.93474762      95.58633330
C      90.26275620      86.46353622      92.65725753
H      92.05988593      87.29501579      92.09411908
H      89.04199300      87.85248506      93.56810560
N      88.84168201      85.48465798      90.39525513
H      87.82500926      83.89917761      90.71272914
C      88.68672446      86.43519031      88.07278149
N      89.54466020      88.66884681      87.75530746
H      89.24230399      89.62882778      86.13770174
H      90.22118222      89.43985516      89.36724401
N      87.45840235      85.55079840      86.11313530
H      87.95351065      86.27834304      84.41994052
H      86.88203583      83.73288168      86.09234831
C      87.53588113      81.13261829      99.88924012
O      85.55922741      79.87406055      99.89112984
N      88.37680934      82.42708081     101.82998904
H      89.79599380      83.64595428     101.45771296
C      87.36958522      82.22488010     104.41513464
H      85.94662130      80.73955521     104.45481889
C      89.70906639      81.74299989     106.22738218
H      88.95317587      81.74677933     108.14356466
H      91.03376454      83.30580355     106.01195337
C      91.12636113      79.21076663     106.03274036
H      91.90303864      79.07281660     104.12789624
C      93.42426832      79.25045087     107.81664201
H      94.38046984      77.50245403     107.28940836
H      92.93671894      79.01423508     109.80274436
H      94.61479590      80.90585112     107.52373442
C      89.49741705      76.94120532     106.77918225
H      90.62936311      75.25178999     106.45414933
H      87.84390652      76.49900937     105.63022867
H      88.91349161      77.09238343     108.74638735
C      86.08835078      84.77223116     105.34110053
O      84.53688547      84.80624624     107.03807477
N      86.79888787      86.99454931     104.19970584
H      88.44861894      86.79423832     103.26240160
C      85.51009452      89.52300311     104.36978121
H      84.82223415      89.66662231     106.30486095
C      87.41871810      91.66406303     103.80664276
H      87.97618736      91.21619788     101.87534247
H      89.18183275      91.35036845     104.82520525
C      86.55322345      94.36070247     104.08254281
H      85.64048564      94.46463741     105.92502597
H      85.55733768      94.91061283     102.36478159
C      89.01931629      96.10303013     104.14679351
H      90.04921713      96.04255889     102.36667131
H      90.27976374      95.53611224     105.67558209
C      88.04799696      98.87336891     104.58709973
H      86.19228572      98.93384015     105.48094029
H      87.86469351      99.71996630     102.71816041
N      90.00197397     100.33412734     106.08376297
H      90.82967410      99.39682310     107.52562416
H      89.43883553     102.05944747     106.67524732
H      91.55154955     100.81411784     105.07653885
C      83.48241819      89.44930378     102.36478159
O      83.77154632      88.22287141     100.49773199
N      81.50954392      90.96108484     102.61989464
H      81.36592472      92.04389801     104.18080857
C      79.56879500      91.31635338     100.64135119
H      78.81668392      89.46442160     100.13112509
C      77.47686797      93.30245573     101.58054517
H      78.28567083      95.16005671     101.96604934
C      75.51533206      93.79567431      99.57176610
H      76.34870136      94.58935935      97.86534324
H      73.93741058      94.94651762     100.22939085
H      74.93896553      91.89083018      99.04075300
C      76.19374380      92.12326651     104.03152020
H      77.62048717      91.46564177     105.36377726
H      75.16573269      90.44329982     103.42491806
C      74.29456886      93.98086749     105.40535123
H      74.84447921      95.96508012     105.35810807
H      73.93741058      93.25332286     107.30074672
H      72.53712339      94.07346408     104.33387641
C      80.96908219      92.35003368      98.36234126
O      82.71329958      93.79189485      98.59666732
N      80.05067521      91.56957671      96.14380257
H      78.56912978      90.36582105      96.10033886
C      81.14482674      92.53711659      93.67015083
H      82.32401596      94.20196547      93.96305840
C      83.20462842      90.74754576      92.58733764
H      84.56145192      90.74565603      94.13880295
H      84.17972720      91.43351641      90.90926068
C      82.51298859      88.03767823      92.01097112
C      81.53222064      87.27989797      89.58645226
H      81.05789933      88.74821533      88.25419521
C      81.36214527      84.64184004      88.88347407
H      80.56279104      83.98421529      87.12413887
C      81.79300287      82.88628429      90.82989217
O      81.36214527      80.43530927      90.16659824
H      81.24687196      80.06114347      88.39403497
C      82.60936463      83.58359331      93.30921310
H      82.59613655      82.22488010      94.83422223
C      83.04967087      86.16117999      93.86668237
H      83.79611276      86.74132597      95.67704018
C      79.28155660      92.89994404      91.55365735
O      77.00821584      92.20830421      91.71428409
N      79.96752725      93.97330858      89.37669264
H      81.76654670      94.60825662      89.40314882
C      78.49920990      94.00543393      86.95217378
H      77.04412064      92.54656522      86.98051967
C      76.86648637      96.31467948      86.54966207
H      75.05045938      96.26554660      87.52098140
H      76.36003972      96.13515548      84.55789054
C      78.07591121      98.96785523      87.27909643
H      79.87493066      99.25320389      86.31911546
H      78.25354548      99.07556962      89.32755975
C      76.36759862     101.03899526      86.40037370
H      74.42307025     100.64782191      86.95406352
H      76.41106233     101.14481994      84.34246175
C      77.08191517     103.59012578      87.38114165
H      77.51088304     103.31611546      89.37480292
H      75.47186835     104.85435268      87.15248478
N      79.36092510     104.59168073      86.09990722
H      80.85758834     103.41060178      86.19250381
H      79.94862999     106.26219880      86.81422377
H      78.90928051     104.85624241      84.26309324
C      80.33791361      93.66717291      84.82056250
O      82.55267285      94.40605591      85.06244747
N      79.41572717      92.77333237      82.71918684
H      77.56379538      93.05112213      82.34880048
C      80.82546300      92.31034942      80.31356525
H      82.66038724      93.22686669      80.48930979
C      81.28277676      89.48142913      80.16616659
H      79.43084498      88.66884681      79.78444187
H      81.74386998      88.73309751      82.03132647
C      83.17628253      88.61026530      78.24242520
O      85.46285137      88.88616534      78.76021022
O      82.53755503      87.66540215      76.16561598
C      79.54611828      93.62559893      77.92684091
O      78.41228249      95.57390677      78.03077586
N      79.70674502      92.50688095      75.74042757
H      80.78388902      90.95730538      75.46452752
C      78.62582157      93.53489208      73.41228476
H      79.61792788      95.32068344      73.15528198
C      79.34391757      91.80957195      71.05579603
H      78.12693382      92.23853983      69.44952867
C      82.06701318      92.01366239      70.09770479
H      82.39015638      90.74754576      68.50655524
H      83.36147571      91.58847397      71.63972147
H      82.36181049      94.02055173      69.73298761
O      78.79778666      89.29056678      71.68318518
H      78.97353121      88.46853583      70.07502808
C      75.87438005      93.88260172      73.60692656
O      74.92006827      95.92161640      72.85481548
N      74.45330587      92.07602336      74.45919312
H      75.29612380      90.44707928      74.99020623
C      71.79068149      92.30656997      74.93729389
H      70.87794368      92.64861043      73.12126689
C      70.69086078      89.70630657      75.86703923
H      68.77089884      90.00488332      76.55112016
H      71.41273623      89.07891743      77.69251485
C      70.68141215      87.49532677      74.01699718
H      70.31102579      85.69252787      74.94107333
H      72.57302819      87.46887061      73.20252514
C      68.89373105      87.77689600      71.79278930
O      67.19675683      86.10070875      71.58491940
O      69.05813724      89.55323874      70.19408085
C      70.88550259      94.48164496      76.74765170
O      68.74633240      95.38493413      76.74198251
N      72.57113846      95.12415191      78.49942798
H      74.22653871      94.17739902      78.55423004
C      72.25555417      97.50331734      80.13782069
H      71.38061088      98.94328879      78.95107257
H      73.96953593      98.31967909      80.93528520
C      70.54724158      97.05734193      82.33746213
O      70.29212853      98.69006545      83.92861168
N      69.53245855      94.76132446      82.67383341
H      69.58537089      93.67284210      81.10725030
C      68.01122887      93.71441608      84.70339947
H      66.72054579      95.11470327      85.48952561
C      66.29724710      91.52800273      83.60168903
H      65.28624352      90.76077385      85.22307420
H      67.37250137      89.96141961      82.80422452
C      64.56436807      92.32357751      81.32645855
C      64.23366597      90.56802176      79.37437127
H      65.27490517      88.81624546      79.44240142
C      62.42330816      90.98565127      77.52810866
H      62.21165881      89.57213599      76.07490913
C      61.01168260      93.24009476      77.58669018
O      59.25423713      93.75410032      75.76688373
H      58.45866235      95.36225742      76.03522487
C      61.45198883      95.20163068      79.48208566
H      60.41830854      96.95718643      79.60491787
C      63.27368500      94.68195594      81.25275923
H      63.48533435      95.95752121      82.83257043
C      69.68552638      92.79978854      86.92193817
O      71.60926777      91.42217806      86.60068469
N      69.07514478      93.33836054      89.31433168
H      67.41218563      94.23409081      89.58834200
C      70.52645459      92.45396863      91.55176762
H      72.50499804      92.89427486      91.17382237
C      69.69497501      94.22464217      93.62290766
H      70.53779295      93.63882702      95.40869903
H      67.65596032      94.00921338      93.82132893
C      70.36393813      96.90616381      93.31488228
C      68.44775564      98.69384491      92.74418493
H      66.52590398      98.08724276      92.41915201
C      69.00333518     101.25064461      92.50229996
H      67.58981990     102.61502701      91.95427933
C      71.58092187     101.89315156      92.31899651
O      72.31791513     104.29499370      91.64247449
H      71.13683619     105.27198221      90.67115516
C      73.49332490     100.26420748      93.02764389
H      75.39061012     101.01064937      93.12968910
C      72.90939947      97.74331258      93.46417066
H      74.49110039      96.47152677      93.69282755
C      70.20898057      89.62315861      92.26986362
O      68.17185560      88.53656598      92.09789853
N      72.37460692      88.74254615      93.01441579
H      73.76166604      90.05212648      93.05598978
C      73.03601113      86.08370122      93.48684737
H      71.32769855      85.17285313      94.18793583
C      74.03189690      84.82136404      91.12091004
H      75.62493618      85.96086902      90.48029281
C      74.85770730      82.17385748      91.34956691
H      75.84603416      81.85638345      89.56944472
H      73.22687349      80.91718948      91.41570734
H      76.31657601      81.75811769      92.74607466
O      72.15539867      84.81002568      89.13669741
H      71.72265135      86.50699991      88.66615554
C      74.88983265      85.76055802      95.70349633
O      76.55279180      87.36682538      96.25151697
N      74.74432372      83.66296182      97.06976846
H      73.30246254      82.50078013      96.60867525
C      76.77577951      82.82959252      99.10689342
H      78.53133525      83.89728788      98.95949477
C      75.76666566      83.46454055     101.73361300
H      74.98809841      85.36938468     101.79219452
C      73.68418726      81.68819781     102.65013027
H      74.62716069      79.86083247     102.76729330
H      72.04579454      81.86961154     101.41424925
H      73.03979059      82.36094039     104.49072369
C      77.96819681      83.50044535     103.65546466
H      79.67084022      84.34515302     102.85800016
H      78.43684894      81.59938068     104.29419215
C      77.18962957      84.88561474     106.08376297
H      78.90928051      85.29946480     107.14011998
H      75.97642528      83.69130770     107.24216520
H      76.25799450      86.66573693     105.63211838
C      77.55245702      80.03090785      98.66658720
O      76.17484654      78.59660557      97.58566375
N      79.81445942      79.35627555      99.59444282
H      80.89538287      80.69987095     100.41458403
C      80.74798422      76.81459365      99.73617229
H      79.21730590      75.56359484     100.31064910
H      82.25031664      76.55570116     101.12134167
C      81.70985491      75.94909901      97.13212943
O      82.24086800      77.45899033      95.41436821
N      81.43962405      73.44710136      96.66158759
H      81.23742333      72.35672929      98.21494261
C      81.50954392      72.41153135      94.16525913
H      82.95329482      73.36395341      93.04276169
C      82.42417146      69.65631038      94.12368514
H      81.08057605      68.36940677      95.00429761
C      82.97030236      68.80593355      91.35901555
H      84.67861495      69.66386929      90.59556611
H      81.28277676      68.66609379      90.18738523
H      83.54288943      66.82927982      91.46484021
C      84.85435949      69.24435005      95.66948127
H      86.24519806      70.64841669      95.10067365
H      85.57434522      67.42265389      95.03075377
C      84.72585811      68.69066023      98.52296799
H      84.47641423      70.40842145      99.62845789
H      86.57778989      67.87618819      98.90847217
H      83.37470379      67.19777645      98.96327422
C      78.92250860      72.70632866      92.81599453
O      77.33513849      71.14730445      93.01630553
N      78.56157087      74.87006528      91.56499571
H      80.02043959      76.08326958      91.35145664
C      76.36003972      75.42942426      90.07400165
H      76.20697189      73.94220967      88.65859664
H      76.64916784      77.24356153      89.14047686
C      73.64639273      75.52957977      91.09067440
O      71.81902739      75.37273248      89.55054746
N      73.30057282      75.71288322      93.57944396
H      74.75566208      75.96610655      94.78508935
C      70.76644983      76.25334494      94.77942017
H      69.43041333      74.97777968      93.86857208
C      70.74755257      75.66375034      97.60456102
H      71.79635067      77.18875947      98.50407073
H      71.59037050      73.79859047      97.81054117
C      68.20398095      75.60327908      98.79130914
N      66.67330264      73.40552738      98.97272287
H      67.24966916      71.68776616      98.36990016
C      64.30358584      74.03480624     100.01585178
H      62.78991506      72.67231358     100.13868400
N      64.27523995      76.58026759     100.42214294
H      62.74645136      77.62528624     100.88134643
C      66.61850057      77.52702048      99.58121474
H      67.00967392      79.49422557      99.20893864
C      69.55702499      78.76101175      94.46194615
O      70.37338676      80.50711888      95.70916551
N      67.86571994      79.10494195      92.55899175
H      67.16841093      77.46088006      91.88246974
C      66.39362314      81.40095942      92.28498143
H      67.75422609      82.86171785      91.77475533
C      64.50578656      80.91529976      90.06833248
H      63.66485835      79.03502208      90.12502427
H      65.45820862      80.79435727      88.24474659
C      62.36850610      82.82392334      89.66582077
H      61.13262509      82.92407882      91.30799293
C      63.04313839      85.45631209      88.87402545
H      64.27712967      86.35393208      90.25730511
H      61.48600391      86.80368694      88.91748914
H      64.16752555      85.73032240      87.17138203
C      60.77546681      82.04724581      87.31878069
H      60.25768180      80.05925373      87.45106154
H      62.00945810      81.98866431      85.66904962
H      59.05581587      83.14895626      87.07122655
C      65.29380243      82.45920616      94.76997155
O      63.76690357      81.24033268      95.92837377
N      65.95142719      84.86293803      95.43704492
H      66.78290676      85.76811693      93.97817621
C      64.57003725      86.35771154      97.31732261
H      63.83304399      85.10482300      98.77430159
C      66.44275603      88.22665086      98.74406597
H      65.16341131      89.60804080      99.57743529
H      67.53123838      89.23198525      97.31165343
C      68.29090836      86.88683491     100.47883473
H      69.28679413      85.38828193      99.47350033
C      70.44141691      88.88616534     101.17047457
H      69.61749623      90.40361558     102.29675144
H      71.42029514      89.64772505      99.52830239
H      71.82469657      87.90917683     102.34399461
C      66.84526773      85.93819230     102.85988989
H      68.28901863      85.19930930     104.12978596
H      65.44875999      84.48121330     102.44792956
H      65.81536689      87.50099596     103.72160508
C      62.16630538      87.73532202      96.19860463
O      60.10839343      87.17596303      97.06220955
N      62.53669174      89.45686269      94.38824682
H      64.34704955      89.89905864      93.97817621
C      60.64318597      91.12171158      93.32811036
H      59.06526450      89.83669767      93.00874662
C      59.80603722      93.14749817      95.17059352