 %block lattice_cart
   139.252   0.000   0.000
   0.000 142.425   0.000
   0.000   0.000   162.84
 %endblock lattice_cart

 %block positions_abs
N      93.05010252      41.27829034      80.85686156
H      94.92660075      41.51261640      80.59229988
H      92.57578122      39.54730104      80.21435462
H      92.97073400      41.38789447      82.75981596
C      91.54399064      43.29462832      79.78916620
H      92.19405649      45.11443475      80.49970329
C      91.87469275      43.70469893      76.97347399
H      91.15848648      42.05874731      75.96813959
H      93.87402318      43.78028798      76.48592460
C      90.81266657      46.14811505      76.03994919
H      88.77743132      46.04229037      76.33096704
H      91.44005569      46.17457122      74.08030300
S      91.70083793      48.87121067      77.85408645
C      89.51442459      51.18990485      76.51427050
H      89.83000888      51.35431104      74.48281471
H      89.78654518      52.98703457      77.47992064
H      87.57367566      50.58330270      76.85064178
C      88.63759158      43.17935501      80.34852518
O      87.39793112      41.17246567      80.23325188
N      87.61335992      45.22403888      81.28582944
H      88.64515047      46.82841652      81.28204998
C      84.89782320      45.31474574      81.98880762
H      83.87737100      44.11665926      80.66221975
C      84.47074505      43.97870924      84.57773267
H      85.66694180      42.30441173      84.68166762
H      82.52054750      43.42879888      84.94244985
C      84.93183828      45.65867593      86.86997069
O      83.92272442      47.79406667      86.86619124
N      86.04866653      44.78373265      88.93355182
H      86.08835077      45.95347324      90.43966370
H      86.02787953      42.88077825      89.10173747
C      83.59391204      47.99437766      81.77526855
O      84.89215402      49.91433959      81.26504245
N      81.05600960      47.83186119      81.75826101
H      80.26610401      46.09520271      81.72046649
C      79.34391756      49.96914165      81.78660691
H      79.25321071      50.78928287      79.90066005
C      76.47720274      49.29450936      82.44423167
H      76.06335268      47.59564540      81.35196986
C      76.24287668      48.70680448      85.25614442
H      74.44574696      47.86398654      85.79660615
H      76.17106709      50.52094174      86.22368429
H      77.84725432      47.60320431      85.93644589
C      74.54590246      51.19557403      81.76581992
H      74.36448873      52.82262839      83.01681874
H      72.63727889      50.41700679      81.83196034
C      74.60637370      52.10642211      79.11453390
H      72.84703851      53.06262363      78.63643315
H      74.92195799      50.43968351      77.94479331
H      76.18807462      53.39710518      78.83296468
C      79.99587315      52.46547011      83.38909482
O      80.07146219      54.58196358      82.46123920
N      80.81412463      52.18201117      85.74558353
H      81.05034043      50.53794927      86.68477751
C      81.56812543      54.30795327      87.44444749
H      80.10925672      55.74981444      87.63908930
C      82.02354947      53.10041815      90.08628488
H      82.43362009      54.71424443      91.30137890
H      83.75264906      51.98547963      90.02014445
C      79.75776762      51.69257205      91.18421586
C      77.41828646      52.99837293      91.62074264
H      77.30112343      55.01471091      91.31082753
C      75.39249985      51.69446178      92.64686403
H      73.72954069      52.81506948      93.02858875
C      75.46997862      49.06585248      93.06260382
H      73.87504961      48.21358591      94.00746698
C      77.57702346      47.82997147      92.22167561
H      77.68662760      45.79662595      92.30671329
C      79.74642927      49.06585248      91.33350424
H      81.37537335      48.01894410      90.68532812
C      84.07579225      55.24147807      86.67343915
O      84.52554711      57.51103937      87.17421663
N      85.80867129      53.81851415      85.38842526
H      85.32490135      52.01193580      85.00670055
C      88.17271890      54.92967322      84.40198813
H      88.63381213      56.46224126      85.70211983
C      90.44228021      53.05317500      84.20545659
H      92.17704896      53.97347171      83.57428800
H      89.76575818      51.75115357      82.75981596
C      90.68794463      51.49793024      86.63375490
H      92.41515447      50.40944788      86.35029596
H      89.03821355      50.29039513      86.88508850
C      91.03565427      53.26860380      88.86363195
O      90.00197397      52.79806194      90.93855144
O      92.63814217      55.06195407      88.91465456
C      87.79666337      56.20523849      81.87542405
O      89.11191288      58.07039836      81.25748354
N      85.87292197      55.47391440      80.47135740
H      84.91483073      53.89599293      80.96646569
C      85.09813419      56.72491322      78.08841251
H      86.70629129      56.90254750      76.81473698
C      82.83046262      55.44367878      76.86764932
H      81.04089180      55.50037057      77.88810153
H      83.49564627      53.62009289      76.17978894
C      81.92528372      56.42066729      74.35242359
H      83.64682439      56.02382476      73.29417686
H      81.48875693      58.42377718      74.56785239
S      79.26454906      54.70668552      72.92190077
C      79.26454906      55.43989933      69.60354137
H      80.90861096      54.43078548      68.88355564
H      79.81067997      57.40710442      69.33520023
H      77.61481799      54.75014922      68.58119943
C      84.46885533      59.50281090      78.78572152
O      85.53844043      61.22435157      77.67078300
N      82.79077836      59.82406438      80.66410948
H      81.96685768      58.30094497      81.46913289
C      81.89882755      62.28070858      81.40488219
H      81.45474185      63.27848408      79.65877508
C      79.45352170      62.05016197      82.97713449
H      78.72219761      63.89642458      83.53460375
H      79.95429916      61.05616593      84.71001352
C      77.28600561      60.62341861      81.48047125
H      78.16661808      59.00203343      80.56584371
C      75.25454982      59.45745747      83.27571124
H      75.88760815      58.01937575      84.60985802
H      73.67851809      58.78660463      82.12864737
H      74.47409285      60.95978989      84.44734156
C      76.18240545      62.36007709      79.55672986
H      75.36037450      63.88886567      80.66977866
H      74.94085526      61.36041187      78.25281870
H      77.76221664      63.13864433      78.49092422
C      83.96429840      63.90776294      82.81839748
O      83.87359154      66.27936946      82.77871322
N      85.68016990      62.55093945      84.08451411
H      85.44395411      60.70278711      84.49458472
C      87.95729010      63.72445949      85.26181360
H      87.34690851      65.40064673      86.28793499
C      89.15159714      61.81205646      87.05894332
H      89.93205409      60.09429524      86.23313292
H      87.55855784      61.22435157      88.22490446
C      91.30021595      62.81550113      88.74457919
H      90.44228021      64.27059039      89.91998896
H      92.82522508      63.49580260      87.53704408
C      92.60979629      61.08451183      90.61162879
H      93.41670941      62.10496404      92.20844753
H      94.05165747      60.09996442      89.51747726
N      90.82589465      59.20423414      91.59050702
H      91.05455152      57.55261335      90.66265140
C      89.31411359      58.94912109      93.57094020
N      88.87569708      60.91632618      94.99390411
H      88.03287916      60.43066652      96.63607628
H      90.20795415      62.28259831      94.89563834
N      88.23130042      56.74570021      94.09628411
H      87.25242219      56.57940430      95.72522819
H      88.29933057      55.40777398      92.73757089
C      89.99630480      64.62585894      83.20957082
O      91.50808584      66.35117906      83.86908531
N      90.00008424      63.64887043      80.91166363
H      89.19506084      61.93488867      80.67166838
C      91.42493789      64.67688155      78.81028797
H      93.08411759      65.56505291      79.64554700
C      92.34712432      62.51881410      77.08307812
H      90.64637065      61.57773039      76.40466637
C      93.88536154      63.54115603      74.75115585
H      94.91337266      62.11630239      73.67401185
H      95.45950357      64.73924252      75.32374292
H      92.80443809      64.55404934      73.32063303
C      94.10456980      60.71790492      78.53060847
H      93.51119574      60.43255625      80.48458548
H      95.96972967      61.58339957      78.63454342
C      94.39747737      58.19512029      77.38165487
H      92.59656820      57.19167562      77.37220624
H      95.56343852      56.90443722      78.48903449
H      95.25163366      58.34440867      75.51460528
C      90.09268083      66.64030719      77.27583020
O      91.29076731      68.57538693      76.73536847
N      87.63792636      66.43054757      76.76749382
H      86.61369470      64.89231035      77.24370485
C      86.24519806      68.55082049      75.58452515
H      87.29966534      69.01758289      73.87999202
C      83.51832300      67.91209299      74.96469492
H      82.44306871      69.65631038      74.74548667
H      82.69440232      66.77636748      76.47080679
C      83.24242295      66.25291329      72.48348427
O      84.82979305      66.26425165      70.76005387
O      81.53222064      64.64664593      72.37576987
C      86.25275697      71.01502360      77.11520346
O      86.70440156      73.02947185      76.03616974
N      85.81623018      70.88085303      79.65688535
H      85.85024526      69.21600415      80.59041015
C      85.81434047      73.10128145      81.30283697
H      86.12425558      74.85305774      80.26537723
C      83.26698939      73.24112120      82.63698375
H      83.26698939      74.74912280      84.04105040
H      82.91739003      71.48367573      83.65365651
C      81.06734796      73.56615412      80.71702182
H      79.29856414      73.72867059      81.75826101
H      80.96530275      71.95043813      79.44334628
C      81.28655622      75.97744490      78.90666401
O      80.46830472      75.64674279      76.78261163
O      82.32779541      77.88228902      79.76271003
C      87.77965583      73.12773762      83.46090442
O      88.50531073      75.13084751      84.32639907
N      88.60735596      70.98289825      84.40576758
H      88.13681410      69.34639527      83.54594211
C      89.79599380      70.70699821      86.95878783
H      91.46840160      71.88996688      87.14776046
H      90.34779389      68.80593354      87.52570572
C      87.78532501      71.35328461      89.06961212
O      86.14693229      72.96144170      88.70867439
N      88.11035793      70.22133855      91.33350424
H      89.68261023      69.15364318      91.52814605
C      86.48330357      70.64463724      93.57282992
H      84.55578273      70.74101329      92.85473392
C      86.77432142      68.38641430      95.34161375
H      88.66404775      68.52058487      96.15419607
H      86.57023098      66.65353527      94.24746222
C      84.84113142      68.28436908      97.47889421
H      84.99230952      70.14574950      98.35383750
C      82.30322897      67.35273401      96.58505367
H      82.30700843      65.36096247      96.05404057
H      81.63426585      68.45633417      94.98067603
H      80.91994931      67.66642857      98.07793745
C      85.97496720      66.42676811      99.43287122
H      87.08045709      67.56627308     100.74245155
H      87.17872286      64.98301721      98.59005328
H      84.30066969      65.50269195     100.19821038
C      87.44328454      73.12962735      94.63107666
O      89.65993350      73.34694587      95.38318773
N      85.82189937      75.06848654      94.57060542
H      84.03799772      74.59794469      94.08116630
C      86.37936862      77.56481500      95.61373434
H      88.41838332      77.77835408      95.43043089
C      85.28143764      79.60382969      93.76180255
H      85.42127738      81.39906969      94.76146777
H      83.31423256      79.29202485      93.22889973
C      86.75353444      79.63217559      91.26547410
H      86.50787001      77.85016368      90.25824997
H      88.77176214      80.00067222      91.44877755
C      85.51198426      81.57292451      89.52125671
H      85.60458085      83.36060560      90.53792946
H      83.51454354      81.17608199      89.21134159
N      86.69117347      81.86961154      87.07406113
H      88.12547575      83.12627954      86.97201591
C      85.81245073      81.09860321      84.93111149
N      83.71485453      79.64540367      84.83851490
H      82.99297907      79.00667618      83.19256329
H      83.06478868      78.86683643      86.45612063
N      86.90849200      81.63528548      82.79761049
H      86.22441108      80.87750523      81.18378422
H      88.52609772      82.64439933      82.74091870
C      85.38915205      77.89173765      98.33116078
O      83.41438804      76.79947585      98.79036427
N      86.57401044      79.39973925      99.94876650
H      88.20484425      80.21421129      99.38562806
C      86.33779465      79.49611529     102.69453884
H      84.60491563      78.46054527     103.11216835
C      88.61113540      78.27535210     104.08537740
H      88.20106479      78.04480549     106.09037702
H      90.21551304      79.56036599     103.95120683
C      89.32734167      75.66564006     103.12161698
H      89.91504656      75.83571543     101.15819134
C      91.81422151      74.81148376     104.15907673
H      93.27120050      76.24578604     103.92853012
H      92.41893393      72.98600815     103.42019374
H      91.60446189      74.56015016     106.19431197
C      87.37525439      73.53969796     103.45420881
H      87.91004695      71.68965589     102.72099500
H      85.64237537      73.83638499     102.38084427
H      86.99163995      73.12584789     105.43653172
C      86.04488708      82.28913078     103.80758763
O      85.95795967      82.71998838     106.14706881
N      85.98441584      84.11838586     102.01234764
H      86.35102274      83.61760838     100.20765901
C      85.21529723      86.72431844     102.28068877
H      83.97563675      86.77156160     103.92475067
C      87.65871334      88.38727760     102.35060865
H      87.21840712      90.38471831     102.60005252
H      88.52987717      88.12271591     100.50245631
C      89.80166299      87.61248981     104.19876098
H      90.73140833      85.92307448     103.46932662
H      89.15915603      87.64272543     106.15462772
C      91.88792084      89.74221136     104.05703151
H      91.09045633      91.59603288     104.46710212
H      92.70239288      89.67040176     102.16541547
C      94.02520130      89.24332362     106.07147976
H      94.54109657      87.24966236     106.09037702
H      93.33167174      89.85937439     107.91207319
N      96.60278799      90.57369094     105.63684271
H      97.93882448      90.03322921     106.88784152
H      96.25129888      92.45018917     105.67841668
H      97.37757577      90.17306896     103.93986848
C      83.52966134      87.61626926     100.02435556
O      83.42383668      86.44841840      97.96833333
N      82.02354947      89.67985039     100.31159396
H      82.29944952      90.84770126     101.79502911
C      79.91461492      90.25810665      98.62784781
H      78.79589694      88.56680160      98.27446899
C      78.05890367      92.16673022      99.68420482
H      78.91117024      94.01866201     100.00167884
C      75.70619441      92.41239464      97.66597712
H      76.45641577      93.46686193      96.06537893
H      74.14150102      93.51221536      98.42942655
H      74.82369223      90.58502930      97.31637775
C      77.19529875      91.21052871     102.28635795
H      78.68818253      91.04990197     103.69798351
H      76.30901710      89.36237637     102.08226751
C      75.39249985      93.00009953     103.59971774
H      73.48387628      93.11348311     102.83059913
H      76.29200957      94.82368542     103.92475067
H      75.11093062      92.17806858     105.46865706
C      80.94262602      90.97242319      95.99545906
O      82.34102350      92.83947279      95.97845152
N      80.39649513      89.49465722      94.09061493
H      79.34391756      87.96019945      94.51769308
C      80.97286164      90.06346484      91.46011591
H      82.25598582      91.67351165      91.49413098
C      82.48086324      87.74666038      90.41698698
H      84.00587239      87.50855486      91.77758993
H      83.38604215      88.40050568      88.68599768
C      80.95963357      85.46765044      89.76314168
C      80.41161293      85.07836682      87.16854745
H      81.34324801      86.15362109      85.70400956
C      78.96219285      82.92029937      86.54115831
H      78.50298935      82.63873015      84.57395322
C      77.90772557      81.26489912      88.34584694
O      76.52444591      79.21265635      87.61452286
H      76.15216983      78.96699193      85.85707739
C      78.46708455      81.80725057      90.97256652
H      77.59403101      80.47121407      92.24435233
C      79.99020397      83.83492691      91.72467759
H      80.65916709      83.96342830      93.65030870
C      78.71841815      90.77022248      89.76692113
O      76.69452127      91.08958622      91.08217064
N      78.77322023      90.97998210      87.17610635
H      80.43428965      91.19919035      86.26147882
C      76.48287192      91.08391705      85.60763351
H      74.80857441      90.96864374      86.80194054
C      76.13894174      93.59347359      84.20167714
H      74.62905041      93.09080639      82.89209680
H      77.77733446      94.18873738      83.10185642
C      75.47942726      95.79311502      85.97801987
H      76.98175968      96.42617333      87.23468787
H      73.98087430      95.14493889      87.23279814
C      74.47787231      98.14015510      84.68355735
H      73.69741534      97.65449544      82.84107419
H      76.16728763      99.27588061      84.35474497
C      72.56546929      99.64815670      86.28037608
H      73.41584613      99.77098891      88.15309486
H      70.83825943      98.61825585      86.73391040
N      72.07980962     102.27109682      85.26559305
H      73.61426739     103.39926343      85.39031499
H      70.65495598     103.11202503      86.21423566
H      71.66973900     102.02354267      83.41933044
C      76.33925272      88.83892219      83.70467912
O      78.26110438      88.20208442      82.50092346
N      74.05268390      87.87138231      83.20768110
H      72.50688777      88.65183928      84.01270451
C      73.63505437      86.35015263      80.91733281
H      75.02589294      84.88372501      80.51671083
C      71.11793893      84.84593049      81.29338834
H      69.72521063      86.19897453      81.98124872
H      71.21620470      83.48721727      82.84107419
C      70.29023881      83.32281108      78.95957634
O      71.10660056      81.17608199      78.60997698
O      69.05624751      84.45664687      77.30039664
C      73.46119956      88.11704673      78.56651327
O      73.01333442      90.35637241      78.80650851
N      73.55001669      87.07202808      76.24214991
H      73.43852284      85.17474286      76.07018481
C      73.48009681      88.45908720      73.81952077
H      75.01644431      89.81969014      73.64377623
C      73.77111466      86.42574168      71.63877661
H      72.28767951      85.00088804      71.77861636
C      73.76355577      87.49154732      68.87788647
H      72.19886238      88.81246602      68.66623712
H      73.62560575      86.00622244      67.45681228
H      75.47186835      88.51577899      68.34876310
O      76.20319244      85.48654771      71.92979446
H      75.84225471      84.18074682      73.13543985
C      71.03290125      89.99165524      73.25449261
O      71.25777867      92.07035418      72.06963421
N      68.78979610      89.16962429      74.21447357
H      68.63861800      87.57469528      75.25193332
C      66.59015469      90.89116496      74.37132086
H      66.10638474      91.60737123      72.50049181
C      64.10327485      89.45875242      75.04406342
H      64.04847279      89.40017090      77.10008565
H      64.11839267      87.48965760      74.44124073
C      61.71088134      90.48676353      73.94424271
H      61.52379844      92.47664534      74.44879964
H      59.94020778      89.72142437      74.66611816
C      61.64474091      90.59447793      70.99437994
O      60.70554695      92.41617410      69.75849893
O      62.60472189      88.80490711      69.71692495
C      66.90195952      93.32891190      76.12120742
O      65.20876474      94.93139982      76.10042043
N      68.89373106      93.63882702      77.64621656
H      70.18063468      92.22909119      77.65566519
C      69.28679413      95.98775683      79.04461403
H      68.71609678      97.63559817      77.94668304
H      71.33147800      96.19373700      79.18445378
C      68.21153985      95.94051367      81.69590005
O      67.98477270      98.00220508      82.87319954
N      67.55580482      93.81079211      82.78438240
H      67.85060214      92.32168778      81.62975963
C      66.52779372      93.55945852      85.39220471
H      66.00056008      95.43973620      86.04605002
C      64.04847279      92.23853982      85.32417457
H      63.15463225      92.38215902      87.17421663
H      64.30736530      90.21464294      85.02748754
C      62.09449578      93.19474134      83.58751609
C      61.14396344      91.65083494      81.72802539
H      61.75434505      89.71197574      81.56172948
C      59.20699398      92.52955767      80.08585323
H      58.70432677      91.24832323      78.57974136
C      58.38307331      95.05990121      80.28049504
O      56.48956753      96.01988217      78.71958110
H      56.23445449      97.77732765      79.08240856
C      59.25612685      96.55089527      82.34029672
H      58.84038708      98.51432091      82.71257280
C      61.12317645      95.61926020      83.99569697
H      61.65796900      96.96474533      85.43377869
C      68.42318920      92.40483574      87.13642210
O      70.05213328      90.89494441      86.53548913
N      68.28145973      93.37237561      89.50235945
H      67.12683696      94.88415666      89.66487591
C      69.95008807      92.59947755      91.60373511
H      71.87382946      92.82435498      90.90453637
C      69.60993733      94.23220108      93.99801834
H      70.30913607      93.31190437      95.70444120
H      67.58037126      94.28889287      94.35139716
C      70.95542246      96.75687544      93.68999295
C      69.45875922      98.87714836      93.96778272
H      67.47454659      98.70329354      94.40997868
C      70.34882031     101.39426381      93.60873472
H      69.11104959     103.00997981      93.73723611
C      72.91884810     101.65882549      92.91520517
O      73.92985167     104.06633682      92.49946538
H      72.45586515     105.12080410      92.41064824
C      74.46086478      99.51209640      92.50891401
H      76.41673151      99.82579097      92.01380572
C      73.55001669      97.01198849      92.85284420
H      74.79912579      95.45863346      92.42954550
C      69.47576677      89.87260248      92.35395645
O      67.25155889      89.12238113      92.79237296
N      71.60170887      88.43074130      92.68276883
H      73.36482351      89.15450648      92.56938525
C      71.60737805      85.66229225      92.81882912
H      69.79135106      85.19930931      93.67676487
C      71.74721779      84.58514825      90.21478627
H      72.36137885      82.61983289      90.29982395
C      69.12238794      84.29413040      88.93166210
H      67.97532406      83.07147748      90.12596913
H      69.27167631      83.38139259      87.08728922
H      68.04902340      86.03267861      88.66710041
O      73.57080369      85.90795667      88.74268947
H      75.26210873      85.74732994      89.37952723
C      73.75788658      84.75711335      94.51958281
O      75.70808415      85.98354573      94.82382874
N      73.46497901      82.51211849      95.72522819
H      71.88327809      81.52001217      95.31893704
C      75.47186835      81.34615735      97.35228255
H      77.14616587      82.52912603      97.14819211
C      74.61393261      81.64473411     100.05648090
H      74.09047842      83.63650565     100.14340831
C      72.14783977      80.12539416     100.53269193
H      72.34815076      78.13929180     100.02813501
H      70.63227926      80.96065319      99.42153286
H      71.66595956      80.12917361     102.53580183
C      76.44507741      80.98710935     102.20698945
H      76.89672200      78.97644056     102.21832781
H      75.49454506      80.99655799     104.03435479
C      78.94140587      82.27401297     102.16919492
H      78.91683941      84.22798998     101.52101880
H      80.05256494      81.25356076     100.76701800
H      79.82012859      82.30046914     104.03246507
C      75.87815950      78.52101652      96.62284819
O      74.24921543      77.55536637      95.26224525
N      77.72253240      77.17175193      97.60361615
H      78.92061888      77.93142191      98.88107114
C      77.93418173      74.45243576      97.22189143
H      76.09358830      73.61150756      97.60928533
H      79.36281483      73.78536238      98.54469985
C      78.55590170      73.94409939      94.47800883
O      80.37381840      74.86061665      93.34039359
N      76.90050145      72.30003749      93.35929085
H      75.72509168      71.61406684      94.69910681
C      76.41862124      72.26224297      90.63430551
H      77.51844195      73.84772334      89.91054033
C      77.53922893      69.83583438      89.35496079
H      76.81357404      68.20878003      90.38864109
C      76.75877198      69.57316242      86.58462202
H      77.54867757      71.05281813      85.38842526
H      74.70841893      69.47489666      86.43344391
H      77.25388027      67.75902516      85.74369381
C      80.47397390      69.97378440      89.43054985
H      81.09380413      70.86195577      91.18232614
H      81.21285690      71.09628183      87.86963591
C      81.59269187      67.32438811      89.51747726
H      83.47485928      67.74768681      90.24124243
H      81.56623572      66.76502912      87.53704408
H      80.73475613      66.01669750      90.85540349
C      73.64828246      72.74979236      89.89164307
O      72.05146373      71.26824693      90.61351852
N      73.19096869      74.80014541      88.59907027
H      74.68763193      75.98500380      88.50647368
C      70.85715670      75.77146473      87.61452286
H      69.89906545      74.37873644      86.43533364
H      71.52045064      77.39851909      86.54115831
C      68.91829749      76.76924022      89.39275532
O      66.99077665      77.88417875      88.39309010
N      69.23577151      76.59727513      91.94766529
H      70.87416423      75.87162023      92.60906950
C      67.18919793      76.96199231      93.74668474
H      65.56592302      75.83382570      93.16275931
C      68.02445696      75.65619143      96.26946937
H      69.57781198      76.86561627      96.87607152
H      68.74255296      73.80236991      95.72900765
C      66.04591351      75.76201610      98.36328613
N      64.79113523      73.69843497      99.35728217
H      65.30325106      71.87295935      99.13618419
C      63.14329388      74.61117277     101.17141943
H      61.81859574      73.60016920     102.34682919
N      63.49289325      77.17931083     101.25267766
H      62.58204517      78.53613433     102.23911479
C      65.16152159      77.92008355      99.48389383
H      65.73221893      79.80414068      98.94343210
C      66.40685122      79.78902287      93.94888546
O      67.93752955      81.23466350      94.92587396
N      64.25634268      80.71498877      92.97756613
H      63.24911856      79.51501256      91.88530433
C      63.34927406      83.37194396      92.79426268
H      64.77979688      84.59081743      91.94955502
C      61.00223398      83.35871588      91.20689258
H      59.51501937      82.08881980      91.85317898
H      61.23656004      82.65195824      89.28693065
C      59.99123040      86.00811217      90.90264664
H      59.06337477      86.87360682      92.52592155
C      61.88851562      87.76744737      89.66298618
H      63.38895831      88.07925221      91.03681721
H      61.21955250      89.69496820      89.37385806
H      62.90707810      86.91707052      88.08884416
C      57.94087734      85.86071352      88.94866964
H      56.47256000      84.57380990      89.60251494
H      58.54370004      85.35615659      87.04382551
H      57.09050051      87.69563777      88.56694492
C      62.91085754      84.36216055      95.50224049
O      61.63718202      83.05258021      96.97811674
N      63.86705906      86.55046362      96.08616592
H      64.78546606      87.45753225      94.68020954
C      63.33982543      87.91673574      98.42753682
H      62.47811023      86.66195747      99.81648566
C      65.87961759      88.93340850      99.49901164
H      65.50923123      89.94063263     101.25645711
H      66.71109716      90.32613679      98.22911556
C      67.90351447      86.97943149     100.23978436
H      68.31925426      85.78134501      98.61461973
C      70.37338675      88.17940770     101.09394065
H      71.29935266      89.25466197      99.59916714
H      71.65084174      86.63172185     101.55314414
H      70.19386275      89.52489284     102.64351623
C      67.16085202      85.21820657     102.42052852
H      68.68586117      84.01823036     103.10460945
H      65.57726138      83.98421529     101.96132503
H      66.62983894      86.37849853     104.03813424
C      61.42175322      90.05590593      98.25179227
O      59.91753106      90.24865801      99.97522267
N      61.24411895      91.36737599      96.14096798
H      62.65007532      91.44485477      94.85595409
C      59.35628235      93.20418997      95.70066175
H      57.52324783      92.42184327      96.21277758
C      59.79280913      95.58335540      97.43543051