 %block lattice_cart
   139.252   0.000   0.000
   0.000 142.425   0.000
   0.000   0.000   162.84
 %endblock lattice_cart

 %block positions_abs
N      91.13108545      40.33720664      79.45657436
H      92.96223024      40.54885598      78.96713525
H      90.06339008      39.24116538      78.31706940
H      91.28793273      39.69658941      81.24803491
C      89.86874827      42.83353510      79.29405790
H      90.93833336      44.13933598      80.47513685
C      90.08228734      43.71414756      76.44057117
H      88.81239126      42.58976040      75.27272031
H      91.94366776      43.34376120      75.63554776
C      89.46056739      46.58086237      76.20246565
H      87.60674587      47.20636178      76.84497260
H      89.87441745      47.12321383      74.25793728
S      91.68288553      48.46114006      78.02605155
C      90.28826751      51.54706313      77.35330898
H      90.46590178      51.90800085      75.33130182
H      91.38619850      53.01538048      78.29439268
H      88.33051105      51.53005560      77.99014675
C      86.97746701      42.90912416      80.11041967
O      85.63765105      41.11010470      79.70979769
N      86.21779703      45.11632448      81.04583419
H      87.54249518      46.48448633      81.18756367
C      83.69123295      45.41868069      82.12108847
H      82.20401834      44.50972233      81.02504720
C      83.77249118      43.97304006      84.62497583
H      84.66066255      42.14945417      84.26403810
H      81.94134639      43.64044824      85.51125747
C      85.54883392      45.11632448      86.49580488
O      84.96301876      47.12888300      87.52003654
N      87.49714175      43.82942086      87.19689334
H      88.92199539      44.57208330      88.22490446
H      87.44233968      42.06630621      86.46556926
C      82.83707666      48.19657838      82.42344468
O      84.25059194      49.97481083      81.87920350
N      80.40877835      48.64066406      82.88453790
H      79.21447132      47.15533918      82.84296392
C      79.21069186      51.17667677      82.66532964
H      79.63777001      51.98547963      80.81906704
C      76.27027772      51.08596990      82.86753036
H      75.45202623      49.74993341      81.53149386
C      75.30462757      50.32818965      85.43755814
H      76.03406193      48.54995719      86.18022059
H      73.28451015      49.94079576      85.35629991
H      75.70524955      51.69257205      86.93044193
C      75.09486795      53.74859428      82.21746451
H      75.71469818      55.24336779      83.48925032
H      73.08608888      53.83552169      82.67288855
C      75.25927414      54.41188821      79.42633874
H      77.23970732      54.85408417      79.06351129
H      74.24449111      56.15988505      79.02760649
H      74.56007541      52.87554073      78.24525980
C      80.41255780      53.17222776      84.46623882
O      80.76782635      55.34919247      83.70656884
N      81.17978668      52.41822696      86.82272753
H      80.83018731      50.59464106      87.26492349
C      82.41944714      53.77127100      88.78615317
H      81.39710521      55.50037057      89.25102584
C      82.54227935      52.30484337      91.22956929
H      83.52493704      53.27805243      92.75646815
H      83.65910760      50.67211984      90.64942332
C      80.11209131      51.53383504      92.35773590
C      78.99337334      52.81884893      94.34194853
H      80.08563515      54.36275533      95.10728769
C      76.50082433      52.28216666      95.29059114
H      75.71658791      53.38765655      96.81560028
C      75.19124400      50.26015950      94.19266015
H      73.34498139      49.69135188      94.84839518
C      76.30429279      49.03750658      92.17254272
H      75.27439195      47.45013649      91.40909329
C      78.72503220      49.62899091      91.27492273
H      79.67367481      48.40255854      89.95022458
C      84.95168040      54.76337731      88.02837292
O      85.81906478      56.69089815      88.95244909
N      86.31228335      53.65599769      86.27281718
H      85.39198663      52.14799609      85.54905200
C      88.79727345      54.41566768      85.39976362
H      89.56450233      55.86130831      86.65265216
C      90.43188671      52.06862759      85.42810951
H      92.12130203      52.49759546      84.33584770
H      89.59284823      50.46802940      84.43789293
C      91.07250393      50.92723289      88.06805717
H      92.43688633      49.40978267      87.81105439
H      89.40576532      50.08252523      88.94300046
C      92.25925205      52.81884893      89.88975334
O      91.78682048      52.79617222      92.10262285
O      93.61418582      54.59141221      88.90142648
C      88.91443648      55.51548838      82.75603651
O      90.34495930      57.22002151      82.10408093
N      86.94534166      54.87865061      81.17811504
H      86.02882440      53.23080927      81.46724316
C      86.00236823      56.50381524      79.12776199
H      87.50659038      56.39610084      77.72747479
C      83.74036584      55.16777874      77.99203647
H      82.49503620      54.54605878      79.51326615
H      84.45468238      53.58040864      76.89032603
C      82.10386285      56.66255226      76.03805946
H      83.07329245      57.55072362      74.45068936
H      81.28372163      58.21590729      77.11331374
S      79.67367481      54.76526704      74.68501542
C      81.18923531      53.27616270      72.07908284
H      83.13187396      53.04183664      72.71781033
H      81.26671409      54.60841975      70.50872027
H      80.25193106      51.57729875      71.38744301
C      85.50348049      59.05872522      80.06695596
O      86.53527105      60.84451659      79.09941609
N      83.73658638      59.38375815      81.85274733
H      82.84274584      57.81906477      82.47824674
C      82.96557805      61.79693864      82.76926459
H      82.51393346      63.11596761      81.25181436
C      80.58830235      61.58906875      84.34718606
H      80.42389616      63.39186765      85.32984374
H      80.95112980      60.04516235      85.66243558
C      78.29228488      60.89175975      82.71824198
H      78.67967877      59.28927184      81.48425070
C      76.08508454      60.37586446      84.48891554
H      74.34464661      59.79004930      83.55728046
H      75.59375570      61.88764551      85.80038560
H      76.71436340      58.80739163      85.66621503
C      77.43434913      62.99502513      80.92678144
H      76.93357166      64.81672130      81.74881238
H      76.03973111      62.16732500      79.65688535
H      79.01793978      63.38241902      79.66633398
C      85.10474823      63.03470938      84.34907579
O      85.02915918      65.33828576      84.48891554
N      86.90943686      61.59473793      85.30149785
H      86.79416356      59.70501162      85.06150261
C      89.07695294      62.85707512      86.67721861
H      88.34751859      64.50680618      87.67121465
C      90.37519492      60.87853166      88.39497982
H      91.09140119      59.37808896      87.18177553
H      88.83128852      60.09051579      89.50991835
C      92.38775344      61.92355031      90.31683148
H      91.63942182      63.38241902      91.56405085
H      93.98079273      62.82306003      89.36440942
C      93.61040637      59.79949793      91.91931940
H      94.41165033      60.85018576      93.50102032
H      95.26769634      58.88864985      91.10862681
N      91.81705610      58.12520042      93.10039834
H      91.66587799      56.39421112      92.31049275
C      90.25614216      58.44078471      95.03925754
N      90.23157572      60.51570420      96.35261733
H      89.08451185      60.49113776      97.87573674
H      91.51469989      61.92166058      96.18443169
N      88.73491248      56.70979541      96.05215084
H      87.64643012      57.07829204      97.57527025
H      89.09585021      54.89565815      95.57782954
C      91.02715050      64.00791843      84.89709642
O      92.38964317      65.81638652      85.55283145
N      90.94022309      63.34273477      82.43478303
H      89.87252772      61.78749001      82.15699327
C      92.09295614      64.83939802      80.35230464
H      93.81449681      65.78993035      80.96268624
C      92.66932266      63.07817308      78.11864813
H      91.03659913      61.88197633      77.74259260
C      93.42143374      64.55215961      75.81885121
H      94.68755037      66.11496328      76.25915744
H      91.69422389      65.48757413      75.19713125
H      93.87118860      63.50336151      74.10108999
C      94.73857298      61.10529881      78.79705988
H      95.35651348      60.33240076      76.99048153
H      93.93543929      59.77304176      80.14632447
C      97.20277609      62.07472841      79.84585798
H      97.80748851      63.66398824      78.68556603
H      98.52180506      60.51003504      80.08396350
H      96.87207398      63.02715047      81.64298771
C      90.43377644      66.93699423      79.72680523
O      91.15376216      69.17065073      79.77404838
N      88.13208979      66.34362015      78.98981196
H      87.54438490      64.52948290      79.06540102
C      86.41054912      68.07083001      77.68212136
H      87.35352255      68.82483081      76.01538275
C      84.11453165      66.64030718      76.61253626
H      82.62920676      68.03681493      76.30829033
H      83.64021034      65.29293232      78.09786114
C      84.68711872      65.17576930      74.22203248
O      86.29149636      66.12819135      72.59308840
O      83.58918773      63.08384227      73.85542557
C      85.70379147      70.31393514      79.32996270
O      85.45812705      72.46066423      78.19045773
N      85.41655308      70.05126319      81.77148910
H      85.33529484      68.33350196      82.59540977
C      85.21435236      72.32838340      83.41177154
H      84.63987556      73.91764323      82.23447204
C      82.98825476      71.75390659      85.15598892
H      82.57440470      73.64174317      85.86841574
H      83.62887198      70.35550912      86.52793023
C      80.52783110      70.65597561      84.18844905
H      79.28628092      70.07016044      85.72668627
H      81.21191203      68.91742740      83.32106467
C      78.99337334      71.99579156      82.04171996
O      79.54328369      74.01968844      81.00614994
O      77.18490526      70.74857220      81.24236573
C      87.63131231      73.27324655      84.76103612
O      87.70123219      75.48422633      85.23346770
N      89.30749955      71.50635245      85.48480130
H      89.08640158      69.64119257      85.14276084
C      91.24635875      72.07704979      87.33673309
H      91.93799858      73.92331240      86.74146930
H      92.67121239      70.60684273      87.10996593
C      90.12197159      72.23011762      89.92376841
O      88.13397951      71.22856268      90.55115755
N      91.51092043      73.48111644      91.69255224
H      93.20222548      74.19543298      91.16531860
C      90.84951623      73.99701172      94.41186841
H      88.80483235      73.96488637      94.64052529
C      92.07027942      71.93909977      96.12018099
H      94.11496329      72.13752103      95.98412070
H      91.63942182      70.04937345      95.42287198
C      91.55060469      72.30948613      98.88107114
H      92.79404460      73.80614937      99.55192398
C      88.91254675      73.07671501      99.65963838
H      88.50814532      75.05714818      99.25523695
H      88.65176452      72.74979236     101.67786608
H      87.57839998      71.87862853      98.64674507
C      92.25736233      69.90008507     100.29269669
H      91.18210806      68.25602319      99.67475619
H      92.10807395      70.27425088     102.31281412
H      94.30582565      69.71678163     100.18687202
C      91.73390814      76.72010735      95.21311236
O      94.01669753      77.09238343      95.19232537
N      90.01047774      78.32826443      96.12207072
H      88.13964869      77.97110617      95.97278234
C      90.32795176      80.81136481      97.23511952
H      92.23657534      81.00789635      97.98912032
C      89.40198587      83.12061037      95.59483708
H      89.53615644      84.92907844      96.56993585
H      87.37619926      82.92029937      95.28114251
C      90.96856898      83.27367820      93.12685451
H      91.55438414      81.38584160      92.54670853
H      92.68633020      84.30924821      93.59172719
C      89.47568520      84.78167980      91.17287750
H      88.78215564      86.58069925      91.89853241
H      87.75225480      83.85193445      90.52659111
N      91.06872448      85.25789083      89.08095048
H      91.84729172      86.97943150      88.81449907
C      91.47879509      83.76311731      87.08350976
N      90.44322507      81.63717521      86.79249191
H      90.75880936      80.75656274      85.12953276
H      89.32828654      80.76601138      88.07750580
N      93.24568919      84.37160919      85.49424993
H      93.66142898      83.02612404      84.20734631
H      94.23779550      85.99110463      85.68511229
C      88.64609534      81.04002170      99.61617467
O      86.51448406      80.09704827      99.67664591
N      89.81772566      82.14929105     101.54936469
H      91.32761698      83.24911176     101.15063244
C      89.05994541      82.18519585     104.20443016
H      87.62753286      80.72443741     104.44064595
C      91.31816835      81.63528548     105.84471260
H      90.56038810      81.79213276     107.75333617
H      92.76380898      83.08092612     105.60093790
C      92.76569871      79.17297210     105.66140915
H      93.68410569      79.05013988     103.82270544
C      94.98612712      79.12383922     107.45853887
H      96.31838417      77.56292527     107.26956624
H      94.02236670      78.89896179     109.26511723
H      96.09161702      80.86049769     107.44909024
C      91.14242380      76.82026283     106.06581058
H      90.04071336      77.28702523     107.74199782
H      92.30649521      75.17809067     106.49477845
H      89.83284347      76.55192171     104.49733774
C      87.72012945      84.53601538     105.12850633
O      86.34818815      84.39239617     107.09004224
N      87.86185892      86.61093486     103.73010885
H      88.91254675      86.39739579     102.15218738
C      86.29905526      88.87482698     104.08348768
H      85.20490373      88.52333789     105.79368999
C      87.95256579      91.18029309     104.38584389
H      89.22246187      91.01588691     105.99967016
H      86.54471968      92.65805907     104.65607475
C      89.41710368      91.90972744     101.94242776
H      88.21145829      92.50499124     100.38529328
H      90.70778675      90.41117449     101.36417151
C      91.24446902      93.92984487     102.85516557
H      92.93766380      93.25521259     103.81892599
H      90.22212709      95.07879847     104.22332742
C      92.30271576      95.51154579     100.58182482
H      90.84573677      96.14082466      99.26657530
H      93.41765428      94.10180997      99.57460069
N      93.95244683      97.70362833     101.52101879
H      92.83750831      99.24375527     101.72699896
H      95.26202717      98.17039073     100.21521791
H      94.90297917      97.24064537     103.10649917
C      84.54727897      88.87104754     101.62117429
O      84.96301876      87.58225419      99.86183909
N      82.68400883      90.34314434     101.83660309
H      82.23425396      91.22753625     103.46743690
C      80.82262841      90.88549578      99.81081648
H      79.94390567      89.12238114      99.20988351
C      78.59086163      92.77333237     100.66497277
H      79.19179460      94.71219157     101.01268242
C      76.55184694      92.60136728      98.55603821
H      75.82241258      90.68896424      98.29336625
H      77.44379776      93.29300710      96.83827699
H      74.98715355      93.84102774      99.06059514
C      77.39466488      91.93240417     103.17452932
H      78.94990963      91.91539662     104.52379391
H      76.72948121      90.04078813     102.70398747
C      75.08352960      93.46497221     103.94931711
H      75.40856252      95.49642798     104.00600890
H      74.51094252      92.87159815     105.83526397
H      73.55663073      93.14560846     102.60005252
C      82.20212862      91.88894046      97.53180655
O      83.80083708      93.53489207      97.87384701
N      81.50104015      90.94974648      95.30192950
H      80.24059270      89.51544420      95.23578908
C      82.41755742      91.70752673      92.85284420
H      83.56840074      93.40828042      93.00780175
C      83.99169944      89.49087776      91.97601119
H      85.56395173      89.18852155      93.27236344
H      84.92144478      90.31857790      90.33761847
C      83.08274108      86.86793765      91.29193026
C      82.08874504      86.10259848      88.91087511
H      81.91111076      87.44052472      87.38019679
C      81.92433885      83.48343782      88.25702980
H      81.41222302      83.04880077      86.32761924
C      82.35897590      81.56347589      90.05793898
O      82.12464984      79.13895702      89.44188820
H      81.78260938      78.81770356      87.69011191
C      82.97313695      82.34393285      92.50891401
H      83.26793426      80.83026208      93.84872996
C      83.23391918      84.95364488      93.17598740
H      83.76682200      85.55268813      95.05248563
C      80.31429203      92.21964256      91.07083228
O      78.17512184      91.63949658      91.45066727
N      80.83963595      93.56701742      88.92788264
H      82.56495607      94.28511342      88.53670930
C      78.84975414      93.83724828      86.89075768
H      77.04884496      93.29300710      87.73168589
C      78.54361847      96.49987266      85.89487191
H      77.11498538      96.71152201      84.42844429
H      80.33318929      97.13671042      85.09551768
C      77.76127178      98.28944347      88.00191675
H      79.05195485      98.18172907      89.60440466
H      75.89800164      97.81890162      88.73702029
C      77.78961768     101.04844389      87.28004130
H      77.11498538     101.98196870      88.98646416
H      76.45169145     101.36591792      85.74747326
C      80.46547014     101.90637964      86.36541376
H      80.80562087     101.28088024      84.43222375
H      81.90166213     100.73852878      87.26681322
N      80.78861333     104.63892390      86.60351928
H      80.75648799     105.13592192      88.44600243
H      79.57162959     105.48363155      85.40165334
H      82.47613893     105.37213771      86.09896235
C      79.10675692      92.04200829      84.68166762
O      81.14577161      91.23887461      83.88231339
N      76.98648399      91.27666913      83.63853869
H      75.37454745      91.54501027      84.62875528
C      76.90333604      89.78189561      81.21213011
H      78.46236024      88.43830020      81.32740341
C      74.40700758      88.33625499      81.28582944
H      72.68735663      89.42473735      80.96646569
H      74.39755894      87.21564728      83.01681874
C      74.24638084      86.64872940      78.89721538
O      75.58430707      84.70231129      78.64399205
O      72.81396829      87.40650964      77.12276237
C      77.13199292      91.56957672      79.02949622
O      76.51972159      93.79378458      79.30728599
N      77.89733208      90.69652315      76.81095753
H      78.67967877      88.95608522      76.86764932
C      77.60253477      91.97208842      74.33730578
H      79.07085212      93.40828042      74.15778178
C      77.92000879      89.89905864      72.36065206
H      76.58019284      88.49121254      73.04284326
C      77.92945742      90.65305944      69.56196739
H      79.24659666      92.18940695      69.18402213
H      75.96225233      91.17651363      69.26150091
H      78.13165814      88.92207014      68.46403640
O      80.32940984      88.74821532      72.69135416
H      80.01949473      87.50855487      73.97825778
C      74.86054189      93.09080639      73.86298448
O      74.62999528      95.12793135      72.90678296
N      72.80074021      92.02878021      74.95335656
H      73.00294093      90.22787102      75.55239980
C      70.30441175      93.12860091      74.94579765
H      69.92079731      93.95819077      73.10142477
C      68.25405870      91.14249857      75.57318679
H      68.13500594      90.91573141      77.61598094
H      68.78696152      89.22631609      75.04406342
C      65.60655214      91.53745137      74.50360170
H      65.13978974      93.49520782      74.92879012
H      64.13067589      90.42062312      75.41067033
C      65.52340418      90.77967111      71.79184444
O      65.47805075      92.45774808      70.10242911
O      64.99806026      88.54034544      71.29484642
C      69.76583975      95.60225267      76.63899243
O      68.03296072      96.98553233      76.20057593
N      71.46092425      96.18617810      78.47958586
H      72.97081558      95.05801149      78.77627289
C      71.18502421      98.28944347      80.35986354
H      69.57119794      99.49508886      79.92144704
H      72.77995322      99.58957519      80.37120190
C      70.25338914      97.44473582      83.03004682
O      69.99071718      98.86958946      84.91221423
N      69.72804522      94.97486352      83.27760097
H      69.74127331      93.96008049      81.66188497
C      68.74727727      93.82779966      85.60763351
H      67.42257912      95.14871834      86.46934871
C      67.23171677      91.35981709      84.81016901
H      66.12244742      90.69085398      86.41265692
H      68.59420944      89.90283811      84.29805318
C      65.24750414      91.69429865      82.73902897
C      64.27051563      89.54567983      81.42566918
H      64.89790477      87.64839462      81.84140897
C      62.40157631      89.88961001      79.63420864
H      61.60789126      88.29846047      78.63265369
C      61.43403644      92.28200354      78.94445853
O      59.86367387      92.55412412      77.01882742
H      59.47439025      94.29456206      76.69001504
C      62.16158107      94.47219632      80.59418960
H      61.33388094      96.31656921      80.31828956
C      64.08721218      94.11692779      82.41966522
H      64.62767391      95.80256366      83.43255853
C      70.59731933      93.01710707      87.48035229
O      72.51728126      91.96075006      86.78304328
N      69.99449663      93.40639068      89.88786361
H      68.33531693      94.17739902      90.42076643
C      71.54785166      92.42940218      92.05160024
H      73.55285128      92.85459060      91.84562007
C      70.62377550      93.67662154      94.58572323
H      71.94280446      93.15505709      96.07671729
H      68.74160809      93.08702694      95.17720756
C      70.53684809      96.51876992      94.58950268
C      68.28807377      97.83590917      94.76146777
H      66.47771597      96.91183299      94.95610958
C      68.31641967     100.51176162      94.65753283
H      66.60243790     101.59835426      94.86729245
C      70.72015154     101.64937686      93.95644436
O      70.88266800     104.22318411      93.49913060
H      69.21403967     104.93372120      93.55582239
C      73.08986834     100.34357599      93.76558201
H      74.79251174     101.32434394      93.21000247
C      72.92357242      97.81323245      94.28336702
H      74.62999528      96.69829393      94.22667523
C      71.61588181      89.59103326      92.39930988
O      69.53907259      88.47231529      92.53537018
N      73.91000956      88.48176391      92.50324483
H      75.48793103      89.55323874      92.42009687
C      74.61298774      85.83236762      92.59962087
H      72.91412379      84.72498801      92.96055860
C      75.78083861      85.29568535      90.01258555
H      77.45891557      86.45030812      89.71589852
C      76.10776126      82.40251437      89.62330193
H      76.70680450      82.13984240      87.67121465
H      74.48070690      81.14584637      89.76314168
H      77.44190803      81.58048342      90.96122816
O      74.36165414      86.04779643      87.85640783
H      74.27094728      87.85815424      87.83373111
C      76.70869422      85.26733946      94.56304651
O      77.91811907      87.08525617      95.40208499
N      76.81073945      82.96565280      95.48334322
H      75.80540505      81.57103478      94.66131228
C      78.65133287      82.15118076      97.51479901
H      80.43712424      83.13005899      97.19921472
C      77.61009368      82.75778292     100.16986448
H      76.87121069      84.67963457     100.09238570
C      75.34053237      81.08726486     101.08071256
H      76.06618728      79.40729816     102.02368599
H      73.91378901      80.70365041      99.64641029
H      74.57519322      82.40251437     102.47155113
C      79.90422142      82.84848977     102.15785656
H      81.38387712      84.11649614     101.49267290
H      80.62042769      80.93230729     102.40352098
C      79.01416033      84.11271668     104.58993433
H      78.86109250      82.66707604     106.05069277
H      77.16789772      85.00466750     104.40096170
H      80.48058795      85.42796620     105.19086729
C      79.39588504      79.34493719      97.28803185
O      78.07685608      77.66874996      96.21466731
N      81.53694495      78.65329736      98.35005804
H      82.66133211      79.87784002      99.28547257
C      82.50448483      76.07571068      98.51068478
H      81.33096479      75.08549408      99.88262608
H      84.28649674      76.29680864      99.51412945
C      83.05250546      74.89841118      95.90475219
O      84.26759948      75.93587092      94.16998344
N      82.13031902      72.71010810      95.62885215
H      81.07018256      71.97311484      97.03669825
C      82.05095051      71.15108389      93.23078946
H      83.57029047      71.96177649      92.10262285
C      82.59897114      68.29003826      93.55015321
H      80.87932020      67.48312513      94.34950744
C      83.32651577      67.04281889      91.02358913
H      83.99925834      65.14175422      91.44499809
H      84.70223653      68.27492046      90.11463077
H      81.71457923      67.06549560      89.73857523
C      84.60019131      67.92910054      95.65152887
H      84.06917821      68.62640955      97.51479901
H      86.27826827      69.04403905      95.23011990
C      85.67544558      65.21356382      96.28836663
H      87.10596840      65.19655628      97.77180179
H      86.59007312      64.48035001      94.59328213
H      83.93500765      64.26303148      96.84016672
C      79.60942412      71.86162100      91.63586045
O      77.75938205      70.45944406      91.42232138
N      79.35431106      74.28425012      90.92910281
H      80.53161056      75.67697842      91.49413098
C      77.35876008      74.97966941      89.03181759
H      77.28317102      73.41686574      87.69200164
H      77.87276563      76.72955598      88.07183662
C      74.67156926      75.54091812      90.18455064
O      72.75349705      75.51068251      88.92599292
N      74.60164939      75.77335447      92.66765102
H      76.28350580      76.12106410      93.49913060
C      72.30941137      76.20988124      94.04904095
H      71.01494884      74.83416049      93.22512028
C      72.55885524      75.54658731      96.83449754
H      73.59253553      76.82026283      98.07982718
H      73.22592863      73.61717673      97.08961059
C      69.91701786      75.48989552      97.86628811
N      68.14445457      73.52458014      97.46377640
H      68.56397382      71.81059838      96.74190095
C      65.94292342      74.11795420      98.65430398
H      64.31586906      72.91230882      98.89996840
N      66.26417689      76.46310457      99.65018974
H      64.99994999      77.40229855     100.73111320
C      68.70381356      77.27001770      99.21744242
H      69.58064657      78.99344809      99.87317745
C      71.13400160      78.79124738      93.58038883
O      72.14689491      80.64506890      94.54981843
N      69.13845062      78.84982890      91.92309885
H      68.46192859      77.18875947      91.26925355
C      67.59454422      81.11939019      91.86829679
H      68.86821975      82.71431921      91.57916866
C      65.65190557      80.99277853      89.57038959
H      64.62956363      79.21076662      89.72912660
H      66.74794683      80.69042232      87.85262837
C      63.85855530      83.17352271      89.16220871
H      62.47716536      83.27745764      90.68721784
C      65.21348906      85.76055802      88.95811827
H      64.00028477      86.96242395      87.80349549
H      67.01817769      85.68118951      87.96790168
H      65.28907812      86.58069925      90.84595485
C      62.57354140      82.86927676      86.49769461
H      63.95115189      83.06391858      84.97835465
H      61.09577543      84.29979958      86.35974459
H      61.73072347      80.99088882      86.46367953
C      66.14134468      81.66930056      94.28714647
O      64.44814991      80.24444691      95.14319249
N      66.59865845      83.88783925      95.43232061
H      67.97248948      84.91774008      94.59139240
C      65.47994047      84.64939896      97.73400726
H      65.27207058      82.95998363      98.89618895
C      67.21659895      86.66384720      99.21744242
H      66.01662275      87.84303643     100.40419054
H      68.23138198      88.01311179      98.04203265
C      69.32742325      85.20875795     100.80481252
H      70.43858232      83.73288170      99.89396444
C      71.26817217      87.03234384     101.77046267
H      70.38378026      88.61026530     102.75689980
H      72.45869975      88.13216454     100.49867686
H      72.68924636      86.11015739     102.94587243
C      67.98382784      83.98799475     103.05925601
H      66.37189129      82.84093087     102.48288949
H      67.08431811      85.47331962     104.16852536
H      69.31230544      82.92029937     104.21198906
C      62.93069968      85.84559570      97.26157569
O      60.92570006      84.78545924      97.81526549
N      62.97416338      88.16995908      96.19199059
H      64.67113761      89.04112291      96.18821114
C      60.82365484      89.43418597      95.18287674
H      59.39502175      87.99988371      94.81626984
C      59.58210465      91.22375679      97.16142019