 %block lattice_cart
   139.252   0.000   0.000
   0.000 142.425   0.000
   0.000   0.000   162.84
 %endblock lattice_cart

 %block positions_abs
N      89.38686806      38.84337799      82.44895598
H      88.78593509      37.71521137      81.03355097
H      88.44956380      38.02890595      83.89648634
H      91.25769711      38.75267113      82.81367316
C      88.68388986      41.49277428      81.86503055
H      89.46623656      42.55480046      83.45051093
C      89.92732978      42.26000317      79.41405552
H      89.01837142      40.97498927      78.08179847
H      91.90587323      41.71576199      79.60113843
C      89.42655231      45.01711386      78.67328281
H      87.39131706      45.24010155      78.44651565
H      90.07283870      45.30246252      76.73820306
S      90.78148608      47.31691077      80.81434272
C      90.25236270      50.21008176      78.99831573
H      90.98935597      49.94929953      77.09158188
H      91.23502038      51.76910596      79.91483300
H      88.25114253      50.64849827      78.80178420
C      85.87197710      41.75355651      81.89526617
O      84.63042693      39.88461718      81.36425308
N      84.76270777      43.82658627      82.91382865
H      86.07606756      44.99632687      83.65082192
C      82.14354710      44.44452678      83.10280129
H      81.18734557      43.62627529      81.47196748
C      81.04372638      43.30691153      85.60668865
H      81.17600723      41.26978657      85.88447842
H      78.99526305      43.48265609      85.71440305
C      82.11142175      44.71097819      87.93672119
O      83.80461653      46.35126064      87.92538284
N      81.25915518      43.87193971      90.14581125
H      82.07173750      44.33303292      91.80877041
H      79.82485291      42.61905117      90.02108932
C      81.48781206      47.30179297      82.92894647
O      83.18100684      48.89294252      82.59824436
N      79.12754390      47.80446016      83.10280129
H      77.89733207      46.34559146      83.12358828
C      77.97103139      50.37637768      83.44673147
H      78.37921228      51.26265931      81.63070449
C      75.24604606      49.95496870      83.99853156
H      74.33519797      49.05545899      82.38470529
C      74.72070213      48.33169381      86.40415315
H      75.54273309      49.22742408      88.06711231
H      75.25360496      46.35881953      86.14904010
H      72.68924635      48.32602463      86.75375252
C      73.84575885      52.50609923      84.14781994
H      74.43346374      53.36592470      85.92416267
H      71.87288459      51.93540189      84.01931855
C      74.32385962      54.31645703      81.94628878
H      76.13610714      55.23486402      82.28643952
H      73.18246491      56.01532099      82.18061485
H      74.01205477      53.39616032      80.13026180
C      79.42801039      51.96374778      85.50275370
O      79.96091320      54.15394057      84.89048238
N      79.87020634      51.02077434      87.71940267
H      79.84375017      49.12348913      87.92160338
C      80.91144553      52.77444037      89.65259269
H      79.65099808      54.38826663      89.86802149
C      81.17033805      51.39305043      92.12624443
H      82.30984301      52.48909169      93.44527340
H      82.22480533      49.65261249      91.81443959
C      78.78928289      50.82235309      93.45472203
C      77.68568273      52.67995405      95.03831268
H      78.63621506      54.46763515      95.27452847
C      75.46525431      52.26610399      96.33466493
H      74.86621107      53.52844117      97.82376926
C      74.07630547      50.10236736      95.88868952
H      72.48893537      49.63938441      97.08299655
C      75.07597069      48.37515751      94.24840708
H      73.87221503      46.76133124      93.92715361
C      77.35876006      48.65672673      92.88969386
H      78.34708694      47.16195321      91.91081563
C      83.56084182      53.82323847      88.86079736
O      83.88020558      56.09846896      88.89670216
N      85.22758044      52.10358752      88.07278149
H      84.61908856      50.29511944      88.09356848
C      87.76548288      52.90483149      87.10146216
H      88.60263164      53.96496794      88.65292747
C      89.33773516      50.59180647      86.42494014
H      91.16132106      51.07935586      85.59912975
H      88.39287202      49.36348437      85.06622693
C      89.78937975      49.03089255      88.74930351
H      90.39031273      47.16384294      88.12380410
H      88.09051580      48.60003495      89.82455778
C      91.85107117      50.04189612      90.65225791
O      91.33328615      51.98075531      91.90136700
O      94.08094822      49.18207064      90.55966132
C      87.60296641      54.75865300      84.80922415
O      88.84451660      56.74097590      84.81300360
N      85.74536545      54.44495842      83.13303691
H      84.88742970      52.74609447      83.31445063
C      84.97813656      56.13059431      80.95040302
H      86.56361693      56.34602309      79.65594049
C      82.78983349      55.03833250      79.49342403
H      81.08530036      55.33879898      80.60836255
H      83.31139796      53.07679658      79.14760411
C      82.36653480      56.21185254      76.89127090
H      83.99736861      55.75264904      75.71964058
H      81.89032377      58.21118297      77.02166201
S      79.77194058      54.39771527      75.37004121
C      80.77349552      53.89126862      72.08191743
H      82.80873075      53.59458159      71.93829823
H      80.26137969      55.37659351      70.74966038
H      79.94390567      52.21130193      71.22965086
C      84.25437138      58.71007072      81.95762714
O      85.30883866      60.67349635      81.16205236
N      82.50259510      58.85368992      83.66216027
H      81.79772718      57.16805405      84.21207063
C      81.46891480      61.26687041      84.59946453
H      81.14199215      62.45739799      82.95162318
C      78.99526305      60.86057926      86.01864899
H      78.62865616      62.42338292      87.30555261
H      78.97636580      59.05211117      87.00697585
C      76.91467438      60.76042376      84.14781994
H      77.36064980      59.36769548      82.69651013
C      74.65456171      59.69083867      85.78243320
H      74.47125827      60.99852929      87.36413412
H      75.00227136      57.71796441      86.25864423
H      72.99538202      59.82122978      84.56544945
C      76.10965098      63.35312826      83.13114718
H      75.43879813      64.55499420      84.66371522
H      74.57708294      63.21895770      81.76298533
H      77.69135189      64.19027703      82.10691552
C      83.44934797      62.60101719      86.29265930
O      83.43045072      64.83845315      86.19061408
N      85.36742019      61.28954713      87.45295126
H      85.08585097      59.42249754      87.72696157
C      87.48580338      62.59912746      88.64158911
H      86.87920123      63.99374549      90.03053795
C      89.03915840      60.68294499      90.13636262
H      90.92699500      61.32545194      90.64469900
H      89.26025639      58.98408104      88.99118848
C      87.60674587      59.93461337      92.52119723
H      85.61119487      59.71729484      92.06388346
H      87.60485614      61.55221909      93.79487276
C      88.84073715      57.58190410      93.74196043
H      90.72101482      58.04866650      94.44115916
H      88.99002553      56.14760184      92.27175336
N      87.54627462      56.39893543      95.86034363
H      86.83384781      54.69062284      95.39925040
C      87.07195332      57.34001914      98.09400013
N      88.10374389      59.44328452      98.75351461
H      87.55761299      60.23507985     100.40135596
H      89.18466734      60.47129564      97.56487676
N      85.84363122      56.20429363      99.82498943
H      85.46568595      57.11514170     101.45960269
H      85.03860780      54.54322419      99.34310922
C      89.27915366      64.09957017      86.82178267
O      90.35251820      66.00441428      87.51153277
N      89.41521395      63.08856658      84.48608095
H      88.40232065      61.47285059      84.37080764
C      90.85518540      64.03531947      82.30533678
H      92.64853566      64.82333533      82.93839510
C      91.51658961      62.05488630      80.29466798
H      89.86685854      61.07033888      79.54822609
C      93.00380422      63.43816596      78.18006424
H      93.98268245      62.25141783      76.80812294
H      94.10362493      65.01230797      78.91894723
H      91.62997318      64.41326473      76.99520584
C      93.44600018      60.04043805      81.36236335
H      93.02270148      59.64737496      83.33901708
H      95.32249841      60.85679980      81.13370647
C      93.51592005      57.67450070      80.02632685
H      95.23746071      56.73152726      80.64993653
H      93.72190022      57.90882677      77.99109161
H      91.95122665      56.39137654      80.41372074
C      89.44167012      66.35401366      81.20740579
O      90.54338055      68.35145437      81.01654344
N      86.98880535      66.14614375      80.68773106
H      86.15732578      64.44539008      80.94284411
C      85.63765104      68.22106326      79.38193018
H      86.80361219      68.99585104      77.87014913
C      83.21502192      67.10801446      78.21785877
H      81.97536145      68.70483318      77.83235460
H      82.04717106      66.28976296      79.70696310
C      83.62509252      65.37702515      75.88593650
O      85.05561535      66.26330680      74.20596980
O      82.03961215      63.66871256      75.58169056
C      85.29561059      70.59266978      80.99197699
O      85.94378671      72.76396530      80.27577072
N      84.65499336      70.25062931      83.40326777
H      84.37342415      68.56310371      84.24986516
C      83.97658162      72.50696253      85.01142486
H      83.49659114      74.13779634      83.84924318
C      81.71457923      71.71327747      86.79910595
H      81.10419762      73.34789074      87.89136776
H      82.58196360      70.34133618      88.07089176
C      79.53005561      70.46416839      85.46684890
H      78.50015477      69.61568127      87.03532174
H      80.16878309      68.89947500      84.29143914
C      77.76127177      72.40869677      83.99097265
O      78.58708218      74.51763132      83.35791434
O      75.59753514      71.77374871      83.44673147
C      86.07039837      73.56331954      86.84067993
O      85.61497433      75.56264997      88.03687669
N      88.25681171      72.33499744      87.05043955
H      88.36452612      70.67203828      86.12069421
C      90.15976611      72.70916324      88.95528368
H      90.92321555      74.61400737      88.77198022
H      91.65264991      71.35422947      88.53954389
C      89.24702831      72.39735841      91.61979778
O      87.56328215      70.90447461      92.24151774
N      90.52259357      73.59922434      93.50196519
H      92.01925680      74.67069916      92.99740826
C      89.72512907      73.72583601      96.15514093
H      87.70501164      73.33466266      96.22317108
C      91.26525600      71.71894665      97.61400964
H      93.22868165      71.68304185      96.99039996
H      90.50936549      69.88780186      97.04520202
C      91.24257929      71.92492683     100.52607789
H      92.47090139      73.45371542     101.14968758
C      88.68200013      72.19893714     101.89235002
H      88.45712271      74.23417237     102.14557334
H      88.81050153      71.28241988     103.73294344
H      87.13998347      71.50162812     100.71882998
C      92.24224451      69.36434766     101.39535200
H      91.09707037      67.66926317     101.14590812
H      92.50680619      69.45694425     103.43436669
H      94.17543453      69.04876338     100.76229368
C      90.24669352      76.41680627      97.08488628
O      92.48412948      77.11411528      97.24551301
N      88.42310764      77.89268252      98.06943368
H      86.62030873      77.26529339      98.08266177
C      88.84640633      80.54396854      98.98595095
H      90.84951622      80.83876584      99.35444758
C      88.32295214      82.43558458      96.91292118
H      88.23980418      84.30452390      97.77274665
H      86.42944637      82.25417085      96.12490531
C      90.09740514      82.28818593      94.68871331
H      89.97646266      80.43436442      93.80054194
H      91.95878556      82.63022639      95.49562645
C      89.30749954      84.50105543      92.88969386
H      89.89898389      86.39078176      93.44905285
H      87.27226431      84.40089995      92.58733765
N      90.72290455      84.05130057      90.52375652
H      91.97201365      85.39111654      90.00030233
C      90.48857849      82.23905305      88.64725829
N      89.00136389      80.25484042      88.85890764
H      88.75380974      79.09832791      87.36224440
H      88.50625559      79.60855401      90.58422776
N      91.93610885      82.34298799      86.58178743
H      91.84729171      80.92758298      85.30244271
H      93.06238572      83.80374642      86.09234831
C      87.42344241      80.95592887     101.38212391
O      85.12742495      81.11655561     101.25740197
N      88.64609533      81.09009945     103.57987561
H      90.52259357      80.83498639     103.33610092
C      87.58973832      81.00884122     106.13478559
H      86.08362646      79.61800265     106.34076576
C      89.60040713      79.96949174     108.02073245
H      89.03159951      80.57609389     109.90478958
H      91.40320603      80.85766311     107.56341868
C      90.09740514      77.11978446     107.90167969
H      90.54904973      76.67758851     105.94203350
C      92.21200889      76.40735763     109.76494984
H      91.53548686      76.14846514     111.69247068
H      93.82772488      77.66969481     109.59298474
H      93.00002477      74.61400737     109.12244289
C      87.70123218      75.61556232     108.61788596
H      88.30783433      73.65213668     108.74638735
H      86.31228334      75.71760753     107.09854601
H      86.86786288      76.36767339     110.34509581
C      86.68833887      83.67713477     106.95870626
O      85.57717981      83.89445330     108.97126478
N      87.17777799      85.73126726     105.47149165
H      88.15665623      85.48938229     103.85199620
C      85.93433807      88.23326490     105.49227864
H      84.78916394      88.37877384     107.19870150
C      87.99225003      90.30251521     105.87967254
H      89.31505845      89.99637956     104.32820723
H      88.98246663      90.01716655     107.66168445
C      86.95479029      92.99915467     105.92502597
H      85.47324486      93.16923003     107.34610016
H      86.35007787      93.30906979     103.98238732
C      89.03726869      94.88132207     106.80752816
H      89.49080299      94.47314119     108.77284352
H      88.45901244      96.83718880     106.52595894
C      91.52792797      94.50148709     105.19748134
H      90.99124570      94.24259459     103.22649679
H      92.54271100      92.79695396     105.74928142
N      93.13041587      96.72947441     105.47716083
H      93.64820089      97.02427171     107.29129809
H      92.11374312      98.19968148     104.81197717
H      94.74991132      96.27594009     104.57009220
C      84.23925358      88.48270878     103.25862214
O      84.46602074      87.16367982     101.29519650
N      82.26826902      90.07196861     103.48916875
H      82.18890053      91.18312768     105.03874433
C      80.36909409      90.62565842     101.47849995
H      79.62643164      88.76049855     101.01362728
C      78.11465060      92.44168541     102.44037065
H      78.95746852      94.31440419     102.59721793
C      75.91311943      92.60420187     100.47883473
H      75.27250222      90.83730777      99.63790652
H      76.43468390      93.53205748      98.71760981
H      74.43913292      93.88921577     101.12512113
C      77.10175729      91.70847160     105.03685460
H      78.58519245      91.75571475     106.46737742
H      76.40066882      89.77339185     105.10299502
C      75.06274260      93.50560132     106.16124176
H      73.26372315      93.50938077     105.15779708
H      75.81485367      95.41800434     106.30675068
H      74.55251650      92.66656284     107.97159957
C      81.67678469      91.83886272      99.13901878
O      83.43611990      93.36009240      99.28641743
N      80.85286403      90.89399956      96.89780337
H      79.46769464      89.58063977      96.89213419
C      81.77882992      91.49304280      94.32777559
H      82.86164310      93.24103964      94.47706396
C      83.66099732      89.41245412      93.29031584
H      85.17277838      89.16301026      94.66036742
H      84.52649197      90.30251521      91.64625395
C      82.44401357      86.94258183      92.65914725
C      82.00937653      86.18669130      90.16092907
H      81.92622857      87.59831687      88.69261172
C      81.09096953      83.70170121      89.60345980
H      80.72625235      83.33887376      87.63058553
C      81.05317502      81.83843107      91.48184776
O      80.18957008      79.54052386      91.09067441
H      80.10453241      79.14368133      89.32378031
C      81.45379698      82.56408597      94.00463239
H      81.26293464      81.22427002      95.53342097
C      82.05095051      85.10765758      94.55265302
H      82.56117660      85.53095628      96.48206358
C      79.46391519      91.88610587      92.64969862
O      77.28128129      91.89366478      93.53786999
N      79.79272755      92.39255252      90.18171605
H      81.55962167      92.14310864      89.50519403
C      77.67056491      92.68168065      88.33923290
H      75.80918449      92.23381551      89.09512342
C      77.37387788      95.30651049      87.35468549
H      76.63499490      95.18745774      85.43472356
H      79.25226584      96.14932844      87.31311151
C      75.84130984      97.02616144      89.08189534
H      76.60853873      97.02427171      90.99429837
H      73.87410474      96.42144902      89.13480768
C      75.78650778      99.74925706      88.03120751
H      74.42023565     100.78293735      89.17071248
H      75.22714878      99.74736734      86.04888461
C      78.33007939     101.14387507      88.12947328
H      79.85886799     100.26137289      87.07122654
H      79.06896239     100.98513807      90.04565576
N      77.87087589     103.88397823      87.29799370
H      77.45513612     104.21657006      85.46495918
H      79.20880213     105.11419006      87.88380886
H      76.21736537     104.54349271      87.98396435
C      77.90678069      90.85242557      86.10935585
O      80.00248719      90.33275083      85.27598655
N      75.67879337      90.04551244      85.23819202
H      74.22181439      90.63321733      86.32100520
C      75.24037687      88.65089443      82.79666562
H      76.79751135      87.31485792      82.60580327
C      72.58909085      87.51516890      82.95351291
H      71.21903928      89.04773694      83.12169855
H      72.49271481      86.39834065      84.67883303
C      71.85587704      86.06196938      80.57056803
O      70.36299326      86.99549418      78.98886710
O      73.09742723      84.10232319      80.18884331
C      75.28006113      90.66156322      80.58757556
O      75.26683304      92.93868343      81.01465371
N      75.25927413      89.68079527      78.23297658
H      75.38777552      87.78917922      78.02699641
C      75.54840227      91.52894760      76.27899957
H      76.94491000      92.95947041      76.78733595
C      76.83908534      90.30629468      73.91684168
H      76.66145106      91.50816061      72.25199280
C      79.72091796      89.82252474      74.15494719
H      80.72058318      89.17812806      72.47309078
H      80.20468790      88.27861834      75.43240218
H      80.46358041      91.60831611      74.85792538
O      75.40667278      88.18035257      73.12126690
H      76.15500440      87.62477304      71.56413242
C      73.08230943      92.96324987      75.49098370
O      73.15600875      94.93612414      74.28911776
N      70.95825704      92.33208128      76.53222290
H      70.84865292      90.67290157      77.46952715
C      68.54885599      93.67945614      76.34325026
H      68.25405869      94.37676515      74.42895751
C      66.42858307      91.72169967      77.09914079
H      66.11110906      91.51194005      79.12303767
H      66.85566122      89.85276036      76.34513999
C      64.03052039      92.54373063      75.60058782
H      63.06298051      94.14054936      76.46986193
H      62.63590236      91.04517766      75.84436252
C      64.29886151      92.74404162      72.75088054
O      64.06264574      94.89455016      71.67940572
O      65.07364931      90.88455092      71.47909473
C      68.55641490      95.87342838      78.22163822
O      66.73282901      97.32662792      78.38982386
N      70.49527409      96.13987979      79.98286314
H      71.87855377      94.82463028      79.98286314
C      70.42157477      97.99748077      82.02565729
H      69.53529314      99.72658035      81.34157636
H      72.25460930      98.50014796      82.81367316
C      69.11388417      97.00726418      84.34057202
O      69.06097182      98.48691987      86.09423804
N      68.09532169      94.68290081      84.46529396
H      68.07831414      93.59063900      82.89871084
C      66.99172151      93.46591706      86.76131143
H      65.68970008      94.75848987      87.70239513
C      65.66702337      91.07352356      85.89203732
H      64.89979449      90.15700630      87.56822456
H      67.14667907      89.88677542      85.09268309
C      63.50139701      91.41178457      84.10435623
C      62.33921533      89.25749656      83.12547800
H      63.23872506      87.51516890      83.69806507
C      60.41358422      89.35765206      81.30000238
H      59.52919230      87.71359016      80.47608171
C      59.51785394      91.75382502      80.55922967
O      57.58277420      91.83508326      78.84335818
H      57.19915977      93.58119038      78.55045060
C      60.41169449      93.92134110      81.75164697
H      59.68037041      95.72225029      81.13937565
C      62.45259891      93.79095000      83.47885682
H      63.34643945      95.55595437      83.97963430
C      69.16679650      92.78183614      88.68883227
O      71.09998653      91.81051681      87.95561846
N      68.96081634      93.28828280      91.18327100
H      67.32620307      94.07818839      91.76341698
C      70.94313924      92.29239702      92.90292195
H      72.77239431      92.43223678      91.96561769
C      70.72015153      93.59441845      95.46728055
H      71.85776678      92.66845257      96.91481091
H      68.77562316      93.36954103      96.10978750
C      71.26250298      96.39877231      95.37846342
C      69.25939309      98.12976160      95.07421748
H      67.36966677      97.37765054      95.24240312
C      69.60332329     100.71112774      94.72839756
H      68.03862989     101.99047246      94.44493862
C      72.14122572     101.53693815      94.99484897
O      72.48326619     104.06161250      94.89280375
H      70.80707895     104.75325233      94.83800169
C      74.26149865      99.84752282      95.13846817
H      76.14555578     100.61664144      95.28019765
C      73.81741296      97.21135462      95.23673394
H      75.38021661      95.97358388      95.67137099
C      70.99038239      89.49560209      93.50385491
O      68.98916223      88.19169093      93.53598026
N      73.25805397      88.42601699      93.79865222
H      74.85487271      89.43702056      93.53220081
C      73.68891156      85.62355287      94.23895845
H      71.82375169      84.81663974      94.58099891
C      75.06085287      84.44814310      91.87680056
H      77.06207303      84.84498563      92.14892115
C      74.62621583      81.54174404      91.59334161
H      72.61554702      81.25828508      91.24185252
H      75.32352483      80.39656989      93.15425554
H      75.71469817      80.87089119      89.97573589
O      74.32196989      85.51016929      89.53920911
H      75.08541931      84.47648899      88.25797467
C      75.50493855      85.35143228      96.50851975
O      76.84286479      87.09375994      97.10378354
N      75.44824677      83.10076824      97.75573912
H      74.15378424      81.82898244      97.16803423
C      77.35309089      82.23527359      99.53397158
H      79.13888225      83.14801139      99.05776055
C      76.58019282      82.87589080     102.20793431
H      75.73359543      84.75238904     102.28541309
C      74.70558433      80.92947271     103.45326395
H      72.85365253      80.88978846     102.54808505
H      74.34842606      81.57953855     105.37511561
H      75.56352007      79.06431284     103.58365507
C      78.99148360      82.90045724     103.87089347
H      80.57129481      83.87744575     102.97894265
H      79.43367957      80.93136243     104.28285380
C      78.79306234      84.40089995     106.30108150
H      80.64877358      84.99049455     106.97760352
H      77.88221426      83.38422719     107.84120845
H      77.60253477      86.04307211     105.94770268
C      78.02772318      79.48572180      99.32043250
O      76.51972158      77.95693322      98.41903305
N      80.34452764      78.89045802     100.05553604
H      81.57851892      80.27940686     100.49584227
C      81.33096477      76.34688639     100.35789225
H      79.78894811      75.38123626     101.32543212
H      82.92589378      76.25617954     101.65424450
C      81.79961691      74.88801769      97.85022543
O      83.64776923      75.33588282      96.61623415
N      80.11587076      73.30631675      97.14913697
H      78.68534795      72.81120847      98.31509811
C      80.38421190      71.61501171      94.94193664
H      81.95646419      72.24051112      93.76841660
C      81.01538049      68.84278321      95.60901003
H      79.30328845      68.05854679      96.44237933
C      81.55962167      67.48406999      93.08433567
H      79.91933923      67.63335837      91.85223412
H      81.88654432      65.47718065      93.40747887
H      83.38509729      67.92815567      92.23962801
C      83.23391917      68.63113387      97.45905209
H      82.86731228      69.36056822      99.34877840
H      84.72491324      69.79520527      96.64646977
C      84.01248641      65.86646427      97.78975419
H      82.39677042      64.65514970      98.18848644
H      85.07640233      65.53387243      99.52263322
H      85.26915442      65.04443332      96.38001836
C      77.99370810      71.94004464      93.15614527
O      76.24571128      70.41125605      92.90292195
N      77.55907106      74.32109979      92.47962325
H      78.91778428      75.57965752      92.95394456
C      75.53139472      75.13179238      90.74674422
H      75.62588104      73.88646274      89.10646178
H      75.87154546      77.06687213      90.13258317
C      72.88199843      75.44359721      91.96561769
O      71.03762556      75.25462459      90.52753597
N      72.77617376      76.19192883      94.39769546
H      74.28984454      76.11067060      95.55798741
C      70.24960968      76.56042547      95.46539083
H      69.07986909      75.14502047      94.52997630
C      70.19669735      76.09744253      98.27352413
H      71.18124476      77.64323864      99.21838728
H      71.18502421      74.42503473      98.96327423
C      67.68903052      75.92547742      99.36200648
N      66.11677823      73.71260792      99.50940514
H      66.54763583      71.97216999      98.85178038
C      63.74895116      74.42692446     100.44670939
H      62.03496940      73.36867772     100.77741149
N      63.98705668      76.98939334     100.98339166
H      62.58487976      78.05897844     101.71282602
C      66.27740497      77.87567499     100.30875937
H      66.85755094      79.83343145     100.26151621
C      69.23860611      79.23627792      94.84367087
O      70.07386514      81.06364328      95.88113061
N      67.42068939      79.60099511      93.08433567
H      66.81786669      78.09677296      92.07522182
C      65.91268779      82.04063178      92.83678152
H      67.26573183      83.45225733      92.19616430
C      63.90768818      81.56253102      90.65036818
H      62.84566198      79.83532118      91.01886481
H      64.86199996      81.17513713      88.86646654
C      61.95749061      83.67146559      90.33856334
H      60.78586030      83.66201695      92.03553757
C      63.09321613      86.19991940      89.81321942
H      63.75273062      86.95203047      91.61412860
H      61.59088372      87.40556478      89.08000561
H      64.48027525      85.95614470      88.31088700
C      60.33421571      82.91746479      88.07845067
H      61.29608640      83.58453818      86.38336617
H      58.64480040      84.09098483      88.02175888
H      59.66903206      80.97104669      87.98774381
C      64.82042598      83.02706892      95.24996203
O      63.26140177      81.83843107      96.43104097
N      65.67080282      85.27206378      95.92648405
H      66.74416736      86.16779405      94.62446262
C      64.60499719      86.66101262      97.94471175
H      63.89068063      85.20970281      99.21838728
C      66.58732009      88.20680874      99.35066813
H      65.44781511      89.31418835     100.66024846
H      67.67391272      89.30285000      97.98628573
C      68.46570803      86.54951877     100.67347654
H      69.23104720      85.22104117      99.29586606
C      70.71259262      88.23137517     101.63912669
H      69.93780484      89.55418359     103.01673717
H      71.54218248      89.23481985     100.04608741
H      72.13555654      87.10698803     102.61611519
C      67.46982227      85.04151717     102.92980976
H      69.00239031      84.01728551     103.84821675
H      66.13378576      83.58075873     102.36667132
H      66.49094404      86.32275161     104.21482365
C      62.35433314      88.13310942      97.21149794
O      60.27374448      87.55674289      97.89368914
N      62.78897020      90.18346247      95.87546144
H      64.43303208      90.39511180      94.92681883
C      60.76885277      92.04673261      95.23484422
H      58.89424426      91.23037084      94.98540034
C      60.50240136      94.07629866      97.38157331