 %block lattice_cart
   139.252   0.000   0.000
   0.000 142.425   0.000
   0.000   0.000   162.84
 %endblock lattice_cart

 %block positions_abs
N      90.90998747      40.96932008      84.07506548
H      92.61263088      40.98443789      84.94433957
H      91.10273954      39.97910350      82.45745974
H      89.82339483      40.15106859      85.41488143
C      89.67977563      43.48076636      83.57050854
H      90.52637302      44.69963982      84.99536219
C      90.66054360      44.35759936      80.97591432
H      89.90654280      43.02723204      79.59641411
H      92.72034527      44.27823086      80.99670130
C      89.92355033      47.11659978      80.32017928
H      87.86752810      47.04101072      80.20490599
H      90.58873400      47.65517178      78.44746051
S      90.69266894      49.46363987      82.58974058
C      89.80071811      51.95429914      80.45434986
H      87.74280616      51.95807860      80.52804918
H      90.24858325      51.60847922      78.47580640
H      90.54716002      53.67395009      81.30850614
C      86.84518617      43.57336294      83.67255377
O      85.67544557      41.77245376      82.98658312
N      85.74347572      45.50655296      84.79505119
H      86.67700053      47.14116622      85.10307658
C      82.95612941      45.56513447      85.24291633
H      82.00937652      44.59570489      83.69334076
C      82.28905603      44.31791511      87.76948042
H      83.07896163      42.43385797      87.51436736
H      80.24437216      44.12705275      87.93955579
C      83.12053561      45.57080365      90.11652050
O      83.88209531      47.74020946      90.11652050
N      82.89754790      44.63916858      92.38797152
H      83.30761850      45.73709958      93.89219367
H      82.32118138      42.84014914      92.65631265
C      81.76938129      48.25799448      84.91032451
O      83.02415956      49.90016664      83.90499010
N      79.46013573      48.68318290      85.53204446
H      78.39999927      47.22998336      86.16510278
C      78.07118690      51.15872436      85.20512181
H      78.41511708      51.76721623      83.26626261
C      75.14400084      50.74487430      85.33362320
H      74.71692269      49.39560971      83.83695995
C      74.19535823      49.90772554      87.97168113
H      72.14500517      49.73953991      87.86963590
H      74.48259663      51.31179219      89.45133684
H      75.10998577      48.13138281      88.46489969
C      73.62466087      53.12026027      84.64954227
H      73.52261566      54.44684815      86.22179457
H      71.66690442      52.51365814      84.44923128
C      74.59786994      54.26921387      82.19856724
H      75.01360972      52.99553834      80.63576359
H      76.23059346      55.47674899      82.56139469
H      73.02372791      55.39927022      81.49747878
C      78.89888702      53.07868629      87.19311389
O      79.01038088      55.39927022      86.79627136
N      79.64154945      52.01854984      89.40031422
H      79.77383030      50.11748516      89.51936697
C      80.47680848      53.47741855      91.56027140
H      79.02360896      54.90227219      91.89853240
C      80.40877835      51.64627375      93.90542175
H      81.24025793      52.74042529      95.43987952
H      81.66544634      50.01921939      93.77881009
C      77.68946217      50.53700441      94.49501636
C      75.75627217      52.09791834      95.60428570
H      76.21547566      54.04055700      96.02947413
C      73.51883621      51.05667915      96.45088309
H      72.26216820      52.14894096      97.63385177
C      72.82719637      48.63782946      95.77814052
H      71.02439748      47.97264580      96.46600090
C      74.55440623      47.11659978      94.34383826
H      74.04229040      45.20230702      93.85061968
C      76.97703535      48.03500677      93.82983269
H      78.43968352      46.92951688      92.93221270
C      83.11675615      54.60558516      90.83650621
O      83.66099733      56.96585332      91.17287751
N      84.88176053      53.05411985      89.96534238
H      84.40177005      51.22297506      89.72723687
C      87.43100133      53.87048162      89.13764227
H      88.30783433      55.02321467      90.60595961
C      88.97301799      51.38738125      88.79938125
H      90.83817787      51.73887034      87.99813729
H      87.90532262      50.42551056      87.32728445
C      89.37741942      49.88693856      91.21823094
H      90.10685378      47.98398416      90.92154390
H      87.59918697      49.86237211      92.25758040
C      91.28037382      51.29856412      92.84150583
O      90.59062371      53.10703220      94.23423414
O      93.53859676      50.48598180      92.97567641
C      87.47257530      55.45596201      86.58840147
O      88.96356937      57.24553282      86.27092744
N      85.59418734      54.73408656      85.02937725
H      84.53027144      53.16372399      85.25236496
C      85.26726469      56.30444911      82.73713925
H      86.97935674      56.15516073      81.60330346
C      83.30950824      55.18573113      81.07984927
H      81.50292988      55.30100445      82.06439667
H      83.67044595      53.20718768      80.64521221
C      83.06006436      56.46318612      78.47013723
H      84.61341939      55.96429837      77.21346922
H      83.10352807      58.51920836      78.59296943
S      80.15744474      55.48430790      76.87520821
C      80.61475852      56.29122103      73.59275361
H      81.19490448      58.25464668      73.36031727
H      78.98770415      55.76020793      72.44568975
H      82.17000326      55.16305442      72.84820145
C      84.62475775      59.13525913      83.20768109
O      85.82662368      60.83223336      82.05116860
N      82.58196360      59.73808182      84.64576281
H      81.54828331      58.28866174      85.33551292
C      82.12464984      62.46306717      85.15787865
H      82.07551696      63.43438649      83.34374138
C      79.56596040      62.70873160      86.41832609
H      79.13321308      64.62680380      87.03059742
H      79.77949949      61.51442456      88.08317498
C      77.41167241      61.62024924      84.85741216
H      78.03906155      59.88170102      83.95034354
C      75.24037688      60.95317585      86.60918846
H      73.53773347      60.36547097      85.60763352
H      74.72448160      62.65392952      87.65042765
H      75.86209683      59.55855782      87.98868866
C      76.30240306      63.27187003      82.67099882
H      75.74304408      65.08222784      83.47602223
H      74.66590007      62.32700687      81.84707814
H      77.47025393      63.63658721      81.01370884
C      84.25437139      63.76697832      86.75091793
O      84.68144954      65.89103070      86.08951372
N      85.69245312      62.44039045      88.35907503
H      85.36364073      60.58089976      88.64631342
C      87.97713222      63.48540911      89.74235469
H      87.34029445      65.24285457      90.60406989
C      88.81239125      61.62780813      91.85506871
H      90.56605727      62.24385892      92.74512979
H      88.90876729      59.74753046      91.01980968
C      86.95101084      61.59568280      94.15486562
H      85.04805645      61.09679504      93.55204294
H      86.98313619      63.44194540      95.06760343
C      87.34974310      59.77209690      96.37718376
H      86.21590731      60.48452373      97.93998742
H      89.24135913      60.20484423      97.06693387
N      87.21557252      57.07356773      95.77058163
H      88.60452137      56.37247926      94.66320200
C      85.96835315      55.31990170      97.05748525
N      84.42444675      55.74320040      99.02469034
H      83.71390966      54.24086798      99.96388432
H      84.05783985      57.39482119      99.90152334
N      85.91733054      52.93506711      96.42253720
H      85.11419686      51.72564225      97.65841821
H      87.51414927      52.44940743      95.49657131
C      90.10874351      64.09579070      87.97357085
O      91.97390337      65.09734565      88.89764702
N      90.04071336      63.36257690      85.58117734
H      88.47790969      62.57645075      84.81394846
C      92.02303627      64.38302910      83.70278938
H      93.41765428      65.60757175      84.59474020
C      93.64820090      62.14559314      82.54249744
H      94.41920923      60.88514569      83.97679970
C      92.37830480      60.49208262      80.55450536
H      91.49769234      61.45017386      78.95768662
H      91.05927585      59.39604137      81.69778977
H      93.58772964      59.02565501      79.75893057
C      95.95177727      63.75563997      81.50881713
H      96.84939726      64.79498944      83.04516463
H      95.36029293      65.20317033      80.16711145
C      97.86229056      62.31944798      80.19734708
H      96.97978839      61.28387795      78.65155096
H      98.69565987      60.90404297      81.43889727
H      99.44777095      63.48162965      79.58696547
C      90.71345593      66.10268004      81.75826101
O      91.54682524      68.13791529      81.14787942
N      88.48357888      65.42048886      80.82851566
H      87.88831508      63.71595571      81.44456644
C      86.85274508      66.86423975      79.05973184
H      87.95256578      67.40470147      77.40433158
C      84.60019131      65.43560666      77.98825701
H      83.09218971      65.62835874      79.37909558
H      85.13309413      63.44761458      77.89377071
C      83.55895211      66.35968283      75.39744225
O      81.27427299      66.64692122      75.15933673
O      85.09152015      66.51275066      73.59275361
C      86.03071413      69.48906960      79.94223403
O      86.23858402      71.34667056      78.56084409
N      85.41277361      69.85189705      82.38376042
H      85.55828254      68.31743929      83.50814758
C      84.70790571      72.31610016      83.66310513
H      85.28994141      73.64457777      82.20045697
C      81.83363199      72.42192483      84.21868467
H      81.51426824      70.91014379      85.57739789
H      80.63932496      72.28964400      82.54438716
C      81.40655384      75.07132114      85.46779377
H      82.89943762      75.69115136      86.74524876
H      79.67934399      74.84644370      86.56005558
C      81.00026267      77.11222555      83.48169140
O      82.95990886      77.94559485      82.43289330
O      78.88376920      78.18181064      83.18500438
C      86.48613816      72.85089272      85.91754862
O      87.59918697      74.79164164      85.97613014
N      87.03793824      70.91581297      87.53893380
H      85.96646343      69.33789150      87.47657283
C      88.84073715      71.27864043      89.67621426
H      90.43377643      72.37657141      88.96945662
H      89.59473795      69.48906960      90.36785409
C      87.94311716      72.76963448      91.95900364
O      86.02882440      73.99795658      91.76436183
N      89.41332422      72.69971460      94.06793821
H      90.89864911      71.50351785      94.13218890
C      88.89364948      73.81087367      96.55859749
H      86.84518617      73.67481339      96.72300369
C      90.22401681      72.10445082      98.47100052
H      92.21578834      71.69438021      98.13840870
H      89.27726392      70.30354164      98.14974706
C      90.09551543      72.79231119     101.27346464
H      90.79849362      74.71794232     101.48322426
C      87.23824924      72.61089748     102.00667845
H      86.45968200      70.70416363     101.93864830
H      86.31228334      73.90158055     100.69898785
H      86.94345194      73.64835722     103.76223420
C      91.59406839      71.14635958     102.90807790
H      93.50836115      71.16903629     102.14840792
H      90.85140595      69.25852300     102.55091963
H      91.66965745      71.83610968     104.84693710
C      89.88197634      76.56042546      96.66820162
O      92.04382326      77.05364404      95.97089261
N      88.37775421      78.16858256      98.00234839
H      86.68266970      77.42403040      98.46911080
C      89.02215087      80.63089595      99.14563281
H      91.01392241      80.88789872      99.60483632
C      87.98847058      82.68880789      97.30692912
H      88.16988431      84.46704035      98.33305050
H      86.06472920      82.25039140      96.71166532
C      89.54938452      82.87400107      94.89752806
H      89.82150510      80.96537751      94.17187316
H      91.36352178      83.76595190      95.29815004
C      88.33618022      84.47270954      92.87552092
H      89.93866814      85.40812406      91.98357010
H      87.17777800      85.92590908      93.75991282
N      86.65810326      82.99305383      91.08972954
H      86.03638331      81.32820496      91.79270773
C      85.84741067      83.74705463      88.85607304
N      86.55227859      85.76339261      87.64475848
H      85.58473872      86.53440095      86.19155894
H      87.32895611      87.20147434      88.63308534
N      84.43200566      82.11622082      87.52570571
H      83.71390966      83.02517918      86.00825549
H      83.59674663      80.70081581      88.49891478
C      87.93555825      80.64790349     101.76857294
O      85.90221274      79.64067936     102.31470384
N      89.30560983      81.86488723     103.53546704
H      90.80038333      82.85699354     102.88351146
C      88.73869193      81.81008517     106.22454759
H      87.57084106      80.22271505     106.81792164
C      91.01581214      81.40001455     108.01978758
H      90.05772089      81.64378925     109.82636593
H      92.46145276      82.85132436     107.79113069
C      92.28570821      78.80542033     107.81758687
H      93.39875702      78.65424223     109.54479671
C      90.49802712      76.47538778     108.09726636
H      89.02404061      76.82876660     109.49377410
H      91.49202317      74.83888479     108.86071580
H      89.67788591      76.23161309     106.22454759
C      94.12819138      78.38401135     105.78424136
H      95.65320051      79.75595266     105.97132426
H      93.34017550      78.89423747     103.95309656
H      94.86329492      76.47349806     106.01667769
C      87.39509653      84.19869922     107.08437305
O      86.31228334      84.45192255     109.18385900
N      87.50659038      86.10543308     105.42897281
H      88.62530835      85.84276112     103.90585340
C      86.50314571      88.66034305     105.65007078
H      85.95701479      88.97403762     107.60971697
C      88.46090216      90.62376869     105.17197003
H      89.15821117      90.61054060     103.23311083
H      89.96701404      90.26850013     106.53257297
C      87.74847535      93.28072389     105.93541946
H      86.74314094      93.32985677     107.73632864
H      86.54471968      94.25204321     104.57670624
C      90.27125997      94.72825423     106.35493870
H      91.44666974      94.58841449     104.66741311
H      90.99502514      93.84953151     108.07269992
C      90.00102911      97.49103410     106.91996686
H      88.58751383      98.00314993     108.32403351
H      89.01081251      98.12976160     105.22866182
N      92.57294662      98.70045895     107.17696964
H      93.55938375      98.68156169     105.54235639
H      93.61040636      97.79339031     108.49977806
H      92.29137740     100.48058114     107.80057934
C      84.16933371      88.85309514     103.79435954
O      84.37342415      87.88933472     101.66274827
N      82.27393822      90.32141248     104.57670624
H      82.49881565      90.96013998     106.35871815
C      80.06862760      91.23604002     103.04413820
H      78.94046099      89.56363223     102.63595731
C      78.29795405      92.97080877     104.55591925
H      79.44879737      94.45613365     105.39684747
C      76.32507979      94.03283495     102.81359159
H      77.01294015      95.45390914     101.48889345
H      74.94368984      95.33107693     103.62617391
H      75.53328446      92.50971555     101.67786607
C      77.03372715      91.53083731     106.79524493
H      78.44535271      90.74471118     108.06892046
H      75.81674341      90.01149736     106.12061263
C      75.35565019      93.08797180     108.54324177
H      73.80607460      93.72103012     107.34515529
H      76.31563114      94.66589328     109.45220012
H      74.52417060      91.74626611     109.86605019
C      81.20057367      92.60987105     100.73300292
O      82.62542730      94.52227407     100.96543926
N      80.30673312      91.89933394      98.46533135
H      79.12187472      90.41022962      98.32738133
C      81.32907506      92.85553547      96.14852688
H      82.18701080      94.72447478      96.28458717
C      83.27549315      91.00738313      95.14886166
H      84.57562487      90.89399954      96.74568041
H      84.34318852      91.92767985      93.64652925
C      82.43078550      88.43357588      94.18132180
C      81.91111076      88.17657311      91.54704331
H      82.30984302      89.84898089      90.44722259
C      80.86987157      86.04118238      90.42265615
H      80.70546537      86.14133788      88.39120038
C      80.47113931      83.91524028      92.00435709
O      79.54706315      81.81197488      90.82894731
H      79.18990487      82.14456673      89.08095048
C      81.16277915      84.00216769      94.61028967
H      80.68845784      82.39590032      95.77436108
C      81.99992790      86.29062626      95.67987475
H      82.43834441      86.47770915      97.66408738
C      79.12187472      93.28261360      94.12840945
O      76.96569701      92.41333950      94.44966292
N      79.54706315      94.59975284      91.95333447
H      81.26860382      95.40477626      91.79648718
C      77.64977792      94.87754261      89.85762798
H      75.85831738      94.25960212      90.65887194
C      77.41356214      97.53827727      88.73702028
H      75.94146534      97.35119436      87.30649747
H      79.07463157      98.20535066      87.71467835
C      76.59909010      99.49225428      90.77036580
H      78.05606908      99.61319676      92.22167561
H      74.84164463      98.91777748      91.67176524
C      76.16067359     101.91110396      89.33039435
H      74.88132888     101.75047722      87.72223726
H      77.83875055     103.03360138      88.92788265
C      74.82463709     103.71390286      91.35807069
H      76.24004210     104.17688580      92.78292433
H      73.44702660     102.68967120      92.49379619
N      73.61143280     105.85496276      90.10140269
H      72.44547166     106.78281838      91.29381998
H      72.50216345     105.35607502      88.62741615
H      74.86621106     107.13997667      89.45700601
C      78.09764306      93.10308961      87.63719958
O      80.16500365      92.56073815      86.73768985
N      75.99059823      92.41144978      86.48824597
H      74.39377949      93.15033277      87.22712896
C      75.75627217      90.18346245      84.85741216
H      77.36820871      88.92112527      85.08606904
C      73.24293617      88.82663897      85.34685128
H      71.67068388      90.07007888      84.87252997
H      73.31474576      88.11610187      87.28004129
C      72.96514640      86.60621054      83.67066404
O      73.96481162      84.46515064      84.05616821
O      71.82186197      86.90856675      81.64298770
C      76.04917973      90.93935298      82.01526380
O      75.89989135      93.22403209      81.45401508
N      76.44791199      89.17812806      80.20301625
H      76.60475927      87.37343943      80.80205950
C      75.95280370      89.78095076      77.52527407
H      77.48348201      90.97714751      76.84308287
C      75.86965574      87.16745927      76.16656086
H      74.44858156      85.90134264      76.95457673
C      75.31785565      87.47359493      73.21669808
H      75.21770016      85.57064053      72.44002056
H      76.99026345      88.42412726      72.47970481
H      73.64166841      88.61687935      72.85009117
O      78.22803418      85.86732756      76.30073142
H      78.04662046      84.95836920      77.86164536
C      73.63788897      91.23981946      76.91111301
O      73.65678622      93.07096427      75.53539226
N      71.54218249      90.95447080      78.22825226
H      71.51383659      89.48804318      79.44901545
C      69.08175883      92.36231690      77.89943988
H      68.83987386      92.91411697      75.92845533
C      66.78007218      90.67479130      78.42478379
H      65.09065684      91.72169967      77.88243234
H      66.77251327      90.21558780      80.43167314
C      66.55330502      88.22192655      76.89977466
H      65.41757950      87.04651678      78.15077349
H      68.34854501      87.32997572      76.41411500
C      65.14734864      88.62632797      74.38832840
O      66.26984606      88.15011695      72.33230617
O      62.80597773      89.07041365      74.33352633
C      69.01561840      94.80762275      79.27894008
O      67.05597221      96.07373938      79.54161204
N      71.13589132      95.48603449      80.42033478
H      72.61365731      94.28794801      80.25781832
C      71.41935027      97.62142522      82.24203095
H      70.61810632      99.26548711      81.29527806
H      73.44324715      97.91244307      82.50470290
C      70.43858231      97.34741491      84.87064025
O      70.66534947      99.19178779      86.31439116
N      69.03451567      95.31028995      85.39220471
H      68.94947799      94.11220347      83.90876955
C      67.61155175      94.86053508      87.88475371
H      66.75739545      96.63498809      88.48379696
C      65.65379530      92.62309912      87.54082353
H      64.92814039      92.24326414      89.43054985
H      66.61944544      90.97525778      86.76414601
C      63.51840456      93.21269374      85.69456092
C      62.11433790      91.20013522      84.58529157
H      62.31842835      89.29718082      85.29771840
C      60.47027602      91.65744898      82.71446252
H      59.68226015      89.96992339      81.87731376
C      59.73895194      93.99504042      81.92455692
O      58.03063935      94.30495554      80.14632446
H      57.55631804      96.01326814      79.75893057
C      61.04853226      96.08696746      82.93745024
H      60.55909315      98.01070884      82.45368029
C      62.97794284      95.70335302      84.92355259
H      64.11555807      97.28505394      85.53015473
C      69.40490202      93.94590754      89.94077594
O      71.21525983      92.60987105      89.33606352
N      69.00050060      94.63565764      92.35206672
H      67.32998253      95.43879134      92.81315994
C      70.70314400      93.81929589      94.40053005
H      72.63444430      94.24637402      93.81282516
C      70.33086791      95.24414952      96.87985097
H      70.75605634      94.13865963      98.56359711
H      68.33909639      95.76193453      96.80426191
C      71.85209760      97.70457319      97.12362566
C      70.61243713     100.05350298      97.03291880
H      68.59042999     100.00248038      96.74945985
C      71.94658391     102.37786635      97.42409215
H      70.91290362     104.12208374      97.18787635
C      74.53550896     102.24558552      97.38629762
O      75.83942011     104.36396871      97.15575101
H      75.04951451     105.99102307      97.03102907
C      75.83564066      99.87397899      97.65652848
H      77.85008892      99.70768308      97.92486962
C      74.52795005      97.63465331      97.63196204
H      75.40856251      95.80728797      97.85683947
C      70.44047205      90.89588928      94.99201439
O      68.34854501      89.88488570      95.00524247
N      72.54751688      89.64489045      95.36618019
H      74.08953356      90.76360843      95.44932815
C      72.82908610      86.93502292      95.72711792
H      71.02439748      86.07708718      96.24301321
C      73.50749784      85.89567346      93.01914011
H      75.14022138      86.87266195      92.23112424
C      74.01394450      83.06864289      92.80749077
H      75.44635705      82.58487295      94.20966768
H      74.64700282      82.73983051      90.87619047
H      72.23760176      82.03307287      92.85284419
O      71.42124000      86.42479682      91.23901792
H      71.32108450      88.23704435      91.25980491
C      74.98148438      86.59676192      97.70377164
O      76.16445304      88.25783134      98.60139163
N      75.33675292      84.35365678      98.86406360
H      74.19157878      82.92880315      98.31982242
C      77.44190804      83.58831763     100.75945909
H      79.15588980      84.60499037     100.22844599
C      76.73892985      84.22326566     103.51845951
H      76.27594690      86.22637556     103.63562254
C      74.51094252      82.55841679     104.36505690
H      72.85743200      82.87022162     103.17452932
H      73.74560336      83.30296895     106.12439209
H      75.02872752      80.56853498     104.43119731
C      79.15588980      84.12688963     105.24944880
H      80.68467839      85.22482061     104.41041032
H      79.57729876      82.11244138     105.35149402
C      78.73826028      84.84309590     108.09537664
H      77.76694095      83.52784639     109.34637545
H      77.69135191      86.61754891     108.16340679
H      80.62798660      85.16245964     108.84748770
C      77.83308138      80.70837472     100.61772962
O      76.37421266      79.34777177      99.43665067
N      80.04406116      79.74272457     101.34905370
H      81.43867919      80.86522201     102.01234763
C      80.45035233      76.90057621     101.40763521
H      78.87243086      76.07287607     102.43942578
H      82.13598820      76.46026998     102.50556621
C      80.98136541      75.82532192      98.80359236
O      82.54038962      76.89301730      97.47133530
N      80.17445227      73.54631199      98.32171214
H      78.87621031      72.83766463      99.52924726
C      80.48436739      72.23106248      95.89530355
H      82.13598820      72.93215095      94.88241025
C      80.90955582      69.39836274      96.08238646
H      79.12187472      68.45538930      96.47167008
C      81.91300048      68.19271735      93.58794774
H      83.41344319      69.32277369      92.74135035
H      80.31051257      68.14925365      92.29726465
H      82.62920676      66.28976296      93.92620874
C      82.88809926      68.61979550      98.15163677
H      82.22480533      69.69693949      99.77869114
H      84.83640709      68.94671815      97.56771134
C      83.05439519      65.83244919      98.89240950
H      84.32429126      65.75119095     100.51190494
H      84.03516314      64.75152574      97.43732023
H      81.21002229      65.05955112      99.38373834
C      78.26582870      73.26096333      94.21344715
O      76.54806748      71.79642544      93.80904570
N      78.13354786      75.70815889      93.49535115
H      79.46013573      76.97994471      94.00557724
C      75.90178109      76.60199945      91.99490844
H      75.90367081      75.87256509      90.06927734
H      76.33263869      78.59755044      91.71711869
C      73.27128206      76.42625489      93.08150108
O      71.35698931      76.58310219      91.70955978
N      73.01805874      76.65680151      95.65719805
H      74.56574459      76.82687687      96.76079821
C      70.64834193      76.90624539      97.01969071
H      69.40301229      75.68737191      95.92175972
C      70.78062278      75.67036438      99.74278634
H      72.02217297      76.88545840     100.84827623
H      71.50060851      73.74095381      99.70310208
C      68.21059500      75.68926164     101.01457214
N      66.45881870      73.85055793     101.17519888
H      66.75361600      72.35956388     100.01868637
C      64.51429033      74.57999229     102.60761142
H      62.76629348      73.59166543     102.97421833
N      65.10010549      76.89301730     103.50712114
H      64.21949301      77.91346950     104.86016518
C      67.34699006      77.67914345     102.42619769
H      68.23327170      79.48761153     102.75689980
C      69.67702261      79.59721565      97.03480852
O      71.03384611      81.22427001      97.96077442
N      67.63233874      80.04886024      95.70822065
H      66.98983180      78.30842231      95.25657606
C      66.34921457      82.43180512      95.09594932
H      67.84209836      83.59398681      94.28714647
C      64.23650055      82.12377973      93.15142095
H      62.60188730      81.11844534      93.90731148
H      64.83176435      81.25450563      91.38263713
C      63.10266477      84.70136643      92.32372083
H      62.58110030      85.64245012      94.08116630
C      64.84310271      86.52873177      90.84217539
H      63.95682106      88.38822246      90.88374938
H      65.08309794      85.87299674      88.90520592
H      66.59676873      87.09564966      91.76436183
C      60.61389521      84.10799236      90.83650621
H      59.24951282      83.28218197      92.13852765
H      61.30931450      82.96470795      89.26992311
H      59.84855606      85.88433509      90.13163830
C      65.50261718      83.62044298      97.53180654
O      64.45570881      82.45070238      99.24767804
N      65.68403091      86.08086664      97.85683947
H      66.36055294      87.13911337      96.42064748
C      64.89979450      87.59453740     100.10372405
H      64.41413482      86.28117762     101.61361539
C      67.01061878      88.95514035     101.37173042
H      66.26228717      90.25905151     102.77957652
H      68.07264498      89.99637956      99.94498705
C      69.13089171      87.37910860     102.63028814
H      69.89245142      85.86354811     101.46432701
C      71.20392147      89.20458423     103.18586767
H      71.95603254      90.21747753     101.55692360
H      72.50972236      87.92712923     104.13451029
H      70.72204127      90.70880637     104.50867609
C      68.12933677      86.33786941     105.02835082
H      69.72615550      85.50827956     106.02801604
H      66.67802696      84.90923632     104.72410490
H      67.35076951      87.80996620     106.24344484
C      62.73605786      89.31040889      99.61806440
O      60.59688767      88.62443825     100.29836586
N      63.08187778      91.32863660      98.17998267
H      64.86955887      91.67256679      97.60928533
C      61.22049736      93.25048827      97.27291404
H      59.36667585      92.36042717      97.18031745
C      60.86333908      95.50115231      99.18720680