 %block lattice_cart
   139.252   0.000   0.000
   0.000 142.425   0.000
   0.000   0.000   162.84
 %endblock lattice_cart

 %block positions_abs
N      92.01547736      40.23799600      83.39003968
H      91.82461499      40.05280283      85.28354545
H      93.90709340      40.34382068      83.15004444
H      91.38808822      38.65062590      82.53777312
C      90.62463880      42.44708606      82.32045459
H      91.29549163      44.27256168      83.00264579
C      91.14242380      42.76267036      79.43106306
H      90.00102910      41.33970645      78.47486154
H      93.14931315      42.43763743      79.10414041
C      90.52448330      45.43852282      78.71107733
H      88.47035080      45.48198652      78.56745813
H      91.51281016      45.66151052      76.91772706
S      91.42966220      48.13516227      80.80300436
C      89.86874826      50.73164622      79.18728836
H      87.83918220      50.76566129      79.53499800
H      90.21456818      50.75810239      77.15772230
H      90.75691964      52.48909169      79.79200078
C      87.75036507      42.50755731      82.95162318
O      86.61841900      40.50444742      82.89682112
N      86.71479504      44.64105831      83.71696234
H      87.82784384      46.18874416      83.78499248
C      83.95579463      45.01711385      84.41049189
H      82.70290608      43.94563903      83.17650061
C      83.55139321      44.14028084      87.13547724
H      84.16366453      42.20709082      87.50586359
H      81.52938604      44.17051646      87.53043003
C      84.98569547      45.60103928      89.08000561
O      85.41088390      47.82146770      88.84756927
N      85.50348049      44.34059183      91.21161689
H      86.20456895      45.29112417      92.71205959
H      85.11230714      42.47543196      91.09634359
C      83.07140272      47.80634989      84.11380486
O      84.46602074      49.34269738      83.28610474
N      80.63365577      48.38082669      84.69584057
H      79.47525354      47.01266484      85.34401669
C      79.59808575      51.00943599      84.20073227
H      80.14232693      51.35525590      82.24486554
C      76.52728050      50.91872913      84.44828642
H      75.82052286      49.46552959      83.16516225
C      75.53517418      50.17984614      86.88225391
H      76.18146058      48.26555338      87.27531698
H      73.48482114      50.00221186      86.84067993
H      76.19279894      51.38360180      88.42049113
C      75.54462281      53.58702268      83.88703770
H      76.27405717      54.92683864      85.27220709
H      73.53395402      53.65127337      84.33301311
C      75.83942011      54.50542967      81.16394209
H      74.98715355      53.25443085      79.76365489
H      77.87465535      54.75487354      80.95985164
H      74.82841655      56.23074979      80.67450297
C      80.92089418      53.16561371      85.71818250
O      81.10797708      55.32935034      84.98118924
N      81.55206276      52.30956769      88.01608970
H      81.44434836      50.41228247      88.21262123
C      82.49125674      53.91583506      89.87369066
H      81.12120516      55.38982158      90.31588662
C      82.69156772      52.45696634      92.56466093
H      83.23769863      53.93662205      93.88746935
H      84.27137892      51.14171683      92.71016986
C      80.37287355      51.23431342      93.52842135
C      78.40566846      52.49854032      94.80776607
H      78.58519245      54.29000087      95.76774703
C      76.19657839      51.12470929      95.53342097
H      74.90211587      52.13193342      96.75040472
C      75.81485367      48.60003494      94.77375099
H      74.17835068      47.53989848      95.36523533
C      77.80662520      47.36604366      93.68715836
H      77.86898618      45.34592623      93.38858161
C      80.10075295      48.66050618      92.88591441
H      81.62576208      47.68351768      91.94105125
C      84.99325437      55.05911948      88.90615079
O      85.23324963      57.41371846      88.70017062
N      86.78471493      53.31301236      87.96695681
H      86.62219846      51.43084496      88.25230549
C      89.15065226      54.18417619      86.83501075
H      90.07850788      55.65060381      87.94239037
C      90.86274431      51.76532651      86.67816347
H      92.54271099      52.36814921      85.64826263
H      89.77615167      50.45763591      85.51409206
C      91.63942182      50.84314007      89.23307344
H      92.83939803      49.20663709      88.88725353
H      89.98213184      50.13449271      90.23273866
C      93.13041588      52.45885607      90.92248877
O      94.53637226      54.06890289      89.99274342
O      93.37419058      51.71430390      93.23740350
C      88.79349400      55.40682912      84.25931379
O      90.41109972      56.94317661      83.42972394
N      86.65432380      54.87959548      83.03288141
H      85.52993666      53.58324323      83.86814044
C      85.86630794      56.24586760      80.60458310
H      87.39320679      55.99264428      79.24586988
C      83.44934799      54.89282356      79.52554937
H      81.78827856      55.63926546      80.48930979
H      83.54383430      52.84436024      79.73530899
C      82.96935749      55.66194217      76.75710032
H      84.43200566      54.77566053      75.61570563
H      83.13187396      57.70095686      76.50954618
S      79.89477278      54.49031186      75.93128993
C      80.37287355      54.48653240      72.63560724
H      80.93790172      56.33657447      71.93073932
H      78.70991438      53.93095287      71.55468378
H      81.96780255      53.40749868      71.90806261
C      85.36175101      59.05967008      80.94284411
O      86.58440394      60.57145113      79.59357952
N      83.87831586      59.70217703      82.80611425
H      82.88809926      58.31700764      83.66593972
C      83.18289658      62.28732263      83.32578899
H      83.09218971      63.36257690      81.57401270
C      80.67145031      62.26086646      84.88670292
H      80.31996120      64.13736469      85.65960098
H      81.00593186      60.89270461      86.38714562
C      78.36976365      61.41237934      83.37114242
H      78.81951851      59.62469825      82.45084571
C      76.23815237      60.88325597      85.24953038
H      75.94524480      62.63314254      86.29643875
H      76.58586202      59.34690848      86.57422852
H      74.53928841      60.31822781      84.22718844
C      77.55151216      63.62713858      81.65527093
H      79.08974937      63.87847218      80.31167552
H      77.26994293      65.31655390      82.80044507
H      75.85264821      63.32289264      80.53466322
C      85.43545034      63.66304338      84.73930427
O      85.92110999      65.84945673      84.22907817
N      87.14754238      62.25141783      86.15848873
H      86.66944162      60.45050865      86.57044907
C      89.67788591      63.27753921      87.04099092
H      89.20923379      65.02742578      88.02175888
C      90.92510527      61.41237934      88.85512818
H      92.76191926      62.26275618      89.24441180
H      91.17076969      59.63225716      87.84979378
C      89.65898864      60.97963202      91.40247925
H      87.75603424      60.25208739      91.09256413
H      89.59473795      62.83912271      92.28309171
C      91.06305529      59.08423652      93.04654114
H      92.41798907      59.97240789      94.32021668
H      91.96634447      57.61969863      91.91837453
N      89.36230162      57.64426507      94.69060303
H      89.17899816      55.79233329      94.27486325
C      88.19634047      58.35858162      96.64458004
N      88.19067129      60.60924566      97.31165343
H      87.08707114      60.87191762      98.84611120
H      89.25458721      61.97551778      96.51040947
N      86.80172246      56.83168276      98.03730834
H      85.94189698      57.68394933      99.51318459
H      86.46157172      55.01565577      97.55731785
C      91.57328140      64.01831193      84.71284810
O      92.82994939      65.83244919      85.06055774
N      91.49958208      62.68038570      82.51887585
H      90.22401681      61.26309096      82.42438954
C      92.91876654      63.61013104      80.29655771
H      94.71211680      64.43027226      80.89182150
C      93.52536868      61.52954237      78.39360331
H      91.89075543      60.29177164      78.19707177
C      94.56660787      62.47440553      75.99932007
H      93.18143850      63.42871732      74.81257195
H      95.54926557      60.95884503      75.00532403
H      95.82705534      64.06555509      76.34513999
C      95.35840321      59.67950031      79.94128916
H      95.54926557      57.88615004      78.94918285
H      94.56849761      59.12203105      81.76109560
C      98.16275705      60.54499496      80.53655295
H      99.21911407      58.90660225      81.20173661
H      97.96244606      62.06811437      81.91038398
H      99.09628186      61.34056974      78.88304243
C      91.45989783      65.81544165      79.14193493
O      92.45767331      67.78075702      78.57690676
N      88.95601046      65.56032860      78.61470129
H      87.76926234      64.24129963      79.32334866
C      87.44989858      67.46706245      77.18228874
H      88.42121791      67.78642620      75.39271793
C      84.74003106      66.25007870      76.60970167
H      83.37564865      67.69571933      77.14449422
H      84.51326389      64.47562570      77.63015388
C      84.14287753      65.61891011      73.83747317
O      85.24836744      66.56188355      72.05546126
O      82.41944714      64.09957016      73.46519709
C      87.08896086      70.10512038      78.52021497
O      87.22691088      72.00618505      77.23331136
N      86.55605804      70.08055394      80.92394684
H      86.14787716      68.46861739      81.86314082
C      86.13842852      72.45971937      82.42816899
H      86.68266970      74.03197166      81.21118524
C      83.36242057      72.68081735      82.82312179
H      82.69534719      70.99329175      83.79822057
H      82.08874503      72.56365432      81.20740579
C      82.36086563      75.11289511      84.13081240
H      83.74036584      75.47383284      85.61991673
H      80.59208180      74.62345600      85.06055774
C      82.10386285      77.41269203      82.58312655
O      79.94012621      77.65268728      81.71196272
O      83.93878710      78.86022239      82.15415867
C      87.99980895      72.91892286      84.62592069
O      88.75003029      75.03730606      85.31756052
N      88.84640634      70.79864994      85.77676402
H      88.12831034      69.21127984      85.00008650
C      90.38464354      70.79487049      88.10868629
H      91.90776296      72.17815015      88.02742806
H      91.14809297      68.89947499      88.37513770
C      89.05427622      71.48462059      90.56910995
O      86.87542178      72.28019537      90.44060856
N      90.30338531      71.33155276      92.81032535
H      92.02681571      70.52652935      92.96717264
C      88.93900292      71.92114737      95.22917503
H      86.91132659      72.13468644      94.92681882
C      89.06372486      69.74985184      97.15669587
H      91.03659913      69.54009221      97.71416514
H      88.99569471      67.87713306      96.29876013
C      87.32895611      69.75363129      99.46972088
H      87.57651025      71.45627470     100.60166694
C      84.62097829      69.45694426      98.81020640
H      84.09185493      71.16525684      97.78597474
H      83.51359867      69.24340518     100.53174707
H      84.66255227      67.74107276      97.66881170
C      87.92610962      67.52942342     101.36700610
H      88.23602474      65.78898548     100.31253882
H      86.48046898      67.21572885     102.80130837
H      89.75914413      67.73351386     102.28352336
C      89.82150510      74.28330526      96.43482042
O      92.11752258      74.84266425      96.59355743
N      87.98469113      75.81020412      97.20393903
H      86.24992238      75.05242387      97.43826509
C      88.42121791      78.39157026      98.27919330
H      90.42999699      78.68258812      98.61178513
C      87.17021909      80.27373767      96.27419369
H      86.89998822      82.09732356      97.19260067
H      85.23891879      79.75217321      95.78475457
C      88.98813581      80.30775275      93.96116868
H      89.46812629      78.45582096      93.18827062
H      90.77014772      81.04663573      94.67737495
C      87.68800411      81.95370436      91.97317660
H      87.74280616      83.79807725      92.88969386
H      85.67355585      81.53607485      91.88813891
N      88.85018579      82.17291262      89.44850224
H      90.57361618      82.98549493      89.32755976
C      87.98658085      81.40946319      87.15626422
N      85.88331547      80.13011847      86.88225391
H      85.24836744      79.79563691      85.11347008
H      85.04238727      79.53296496      88.48663155
N      89.19033652      82.28062702      85.15504406
H      88.53082203      81.69103241      83.46562874
H      90.84384704      83.19525455      85.43094410
C      87.37430954      78.49172576     101.03441427
O      85.42411197      77.42780984     101.72038492
N      88.55916794      80.14523628     102.45737818
H      89.83284346      81.23560837     101.54841982
C      88.06594936      80.31531165     105.25228340
H      86.53149160      79.14179161     105.96471022
C      90.43188671      79.65579717     106.76028500
H      89.85363046      79.67658416     108.73882845
H      91.88697597      81.08631999     106.47871578
C      91.92477049      77.15757898     106.22927190
H      92.69010965      77.27096256     104.32064833
C      94.09417630      76.49428505     108.17569000
H      93.24757891      76.06531717     110.00305535
H      95.42265389      78.06653734     108.27206605
H      94.96345041      74.80109027     107.38767413
C      90.08606679      74.92014303     106.34643493
H      91.25013821      73.24206606     106.62422470
H      88.88987004      74.88234850     104.67213742
H      89.03537897      74.99195263     108.11899821
C      87.02282043      82.93069287     106.23116163
O      86.22346620      83.11021687     108.37789072
N      87.17588826      84.89033905     104.72693948
H      87.94311716      84.55396777     103.01295772
C      86.20834840      87.45469766     105.19370188
H      84.65877282      87.43391067     106.55052538
C      88.33051105      89.32741644     106.03274037
H      88.86719332      88.86632322     107.96970984
H      87.68044520      91.26438591     106.28785342
C      90.70589703      89.52772743     104.36411203
H      90.26559080      89.86598844     102.38178913
H      91.88130678      87.83831210     104.43025245
C      92.41609934      91.65555926     105.27307039
H      93.12852616      91.13399479     107.13445081
H      91.41076494      93.43190199     105.56030879
C      94.91620725      92.01838671     103.92947498
H      95.54170666      90.11543231     103.44948450
H      96.38452459      92.60798132     105.24661422
N      94.76502914      93.76449382     101.83376850
H      93.70111323      92.99726494     100.45048884
H      96.44499583      93.74748628     100.92858959
H      94.33417155      95.52949820     102.41769393
C      84.82506874      88.30129505     102.80319810
O      85.06884343      87.20714351     100.68859435
N      83.26037534      90.20802890     103.01484744
H      83.02226984      91.29462153     104.56820247
C      81.36120041      90.65589404     101.10433414
H      80.58830234      88.77750608     100.76796286
C      79.00282197      92.21302852     102.27407473
H      79.95713376      93.85331096     103.07531869
C      77.40978269      93.08986153     100.08766138
H      76.00193659      94.45235420     100.72071970
H      76.59153119      91.40611538      99.22594619
H      78.59842054      94.09330620      98.73650707
C      77.52316626      90.63888650     104.39812710
H      78.73637056      90.33086111     106.03463009
H      76.86932096      88.87577185     103.55152972
C      75.24226660      92.10909357     105.17858407
H      73.91567874      92.03350452     103.60633178
H      75.65422693      94.02527605     105.80786293
H      74.29929318      91.10186945     106.70926239
C      82.55928689      91.68957433      98.54942417
O      84.48302828      93.10308961      98.55509334
N      81.59741619      90.87888174      96.39702590
H      80.17445229      89.62221374      96.59355743
C      82.65566293      91.42123319      93.75896796
H      83.76493228      93.15411222      93.79298304
C      84.46602074      89.18001779      93.01441580
H      85.70001201      88.56018755      94.54131466
H      85.56206199      89.82441446      91.39492034
C      83.18478630      86.92746402      91.77853479
C      83.10352807      86.63266672      89.21417618
H      84.16366453      87.89122444      88.00475134
C      81.77694020      84.59365202      88.05010477
H      81.62576208      84.36121569      86.02809762
C      80.78294415      82.73416133      89.69227694
O      79.50359944      80.73105144      88.78898776
H      78.75148837      81.02584874      87.16382313
C      80.86987157      82.96848739      92.33789378
H      80.05162007      81.62489199      93.63991520
C      82.06417859      85.01695072      93.33377954
H      81.94701556      85.32875556      95.34633807
C      80.48058794      91.96169492      91.85601357
O      78.26771844      91.57808048      92.45505681
N      81.11553599      92.78183614      89.56944473
H      82.96368832      92.98214713      89.14047685
C      79.18045624      93.34308485      87.55877593
H      77.34553199      92.95002178      88.40159387
C      79.03872677      96.04161403      86.39470452
H      77.54206353      96.03027567      84.97740979
H      80.85475375      96.54428123      85.56889412
C      78.44535271      98.24503491      88.35057125
H      79.88532416      98.09952598      89.81510915
H      76.66712025      97.93700952      89.34834675
C      78.64188424     100.88309284      87.19216902
H      77.33419363     101.20812577      85.63314482
H      80.55995645     101.03805040      86.45328604
C      78.24504172     102.79927532      89.34834675
H      79.22014050     102.26070332      91.07933605
H      76.21169621     102.79171642      89.67526940
N      79.06707267     105.32394968      88.34490208
H      78.67211987     106.71667797      89.59023172
H      78.33574857     105.76047646      86.63847922
H      80.96435787     105.42599490      88.15970890
C      79.40911313      91.62910309      85.27031736
O      81.55962167      91.00738313      84.47852204
N      77.28884020      90.85620502      84.27254187
H      75.63721940      91.43257155      85.03410158
C      77.09419838      89.42946166      81.97841413
H      78.66267122      88.11610187      81.73652916
C      74.80196037      87.87421690      82.00676002
H      73.22025945      89.17245888      82.22596827
H      74.74715830      86.67424069      83.67916781
C      74.40322812      86.24338309      79.73152954
O      72.85743200      86.81408044      78.01943750
O      75.88477355      84.34987733      79.52365965
C      77.13766209      91.22470166      79.61436651
O      77.41545186      93.52449858      80.01120904
N      77.35498062      90.16078574      77.42039426
H      77.18868470      88.26161080      77.36748192
C      77.46269502      91.39288730      75.04878774
H      78.86109250      92.90277862      75.10925898
C      78.19968829      89.41056440      72.97008879
H      76.66334080      88.12177105      72.49954694
C      78.82896715      90.54440018      70.38116374
H      80.14232693      92.11476275      70.59659254
H      77.10553674      91.08486191      69.38716770
H      79.70013098      89.03450886      69.28512248
O      80.31807148      88.04051282      73.82235536
H      81.55206276      88.99104515      74.75399043
C      75.02683780      92.60798132      74.32502256
O      74.88888779      94.14432881      72.58458463
N      73.05585325      92.05807096      75.74798647
H      73.08419915      90.48581867      76.82513047
C      70.52928918      93.18812730      75.65350016
H      70.23449188      94.13865963      73.85070126
C      68.67924712      91.00927286      75.92184129
H      68.64334231      90.35164810      77.87581830
H      69.28395954      89.27072465      74.99587540
C      65.89756998      91.47414553      75.11492816
H      65.47238157      93.26182662      76.04278378
H      64.41791428      90.24204397      75.84436252
C      65.40813087      91.54028595      72.30868458
O      65.63678776      93.57930064      71.16162071
O      64.89412531      89.53717606      71.03878850
C      70.41590559      95.14399403      77.88715666
O      68.41657516      95.93012018      78.57123758
N      72.52861961      95.96224552      78.88682188
H      74.06874656      95.10997896      78.14604916
C      72.95191832      97.86519992      80.95796192
H      72.47759701      99.68878581      80.12459261
H      74.94557958      98.30172670      81.23386196
C      71.84642841      97.35497382      83.58279177
O      72.71003334      98.54361167      85.35913450
N      70.17780009      95.38020982      83.85302263
H      69.71481714      94.46558228      82.24108608
C      69.16301705      94.60731176      86.28699012
H      68.20303609      96.22302775      87.12413888
C      67.10888456      92.50404637      86.07912023
H      66.10543988      92.44735458      87.87436022
H      68.01406345      90.70880637      85.64637290
C      65.14167947      92.69868818      83.96829593
C      64.33665605      90.59164334      82.63981834
H      65.19648152      88.77561635      82.98752798
C      62.50740098      90.70124747      80.67072352
H      61.92347555      89.07419311      79.58224116
C      61.44159534      93.08041290      79.97152478
O      59.84855605      93.23348073      77.99487106
H      59.58210465      94.97958784      77.57724154
C      61.98016733      95.12698649      81.57779215
H      61.47750013      97.07718405      81.23953114
C      63.78296624      94.97013921      83.55822532
H      64.29508207      96.63120864      84.62592069
C      71.18313449      93.93645892      88.19372397
O      73.05396354      92.71380599      87.46428961
N      70.62755494      94.68101108      90.56533049
H      69.24994446      95.97547361      90.83178190
C      72.02595242      93.75504519      92.87457605
H      74.00449586      93.96291508      92.34734241
C      71.65745578      95.44635024      95.20649832
H      72.41712577      94.40889049      96.81465541
H      69.63922808      95.65233041      95.56932577
C      72.81396829      97.97669377      94.90603183
C      71.47793179     100.20657082      95.26885929
H      69.45025545     100.01003929      95.38035314
C      72.60231895     102.60463351      95.33688943
H      71.60454345     104.37530707      95.54664905
C      75.24604605     102.73880408      95.36523533
O      76.43846336     104.97812976      95.95860939
H      75.22336935     106.15731898      96.61056497
C      76.74648874     100.47680168      95.30098463
H      78.73448082     100.73380446      95.68459908
C      75.52572556      98.14865887      95.02508459
H      76.65200243      96.45546409      94.85311950
C      71.61966126      90.96769888      93.33944872
O      69.28773899      90.10409395      93.20149870
N      73.57741773      89.53150688      93.84400565
H      75.23659743      90.44424469      94.08778034
C      73.51505675      86.70825577      93.89502826
H      71.68391196      85.98449059      94.49218177
C      74.35220551      85.95047552      91.11713058
H      76.11720988      86.80085236      90.48407226
C      74.22937329      83.07242234      90.58422776
H      74.58464184      82.87967026      88.56411033
H      72.29051410      82.58109350      91.06988742
H      75.38966526      81.88000504      91.79932178
O      72.40389769      86.89155922      89.46362005
H      72.88388817      88.47326014      88.71528843
C      75.46525431      85.72937754      95.81121074
O      77.10931620      87.10509829      96.66914648
N      75.34998100      83.31052786      96.43671015
H      73.77016980      82.35054689      95.95105049
C      77.10553674      82.05763931      98.18848644
H      78.96502743      82.83998601      97.77652610
C      76.28539553      82.76628668     100.91158206
H      76.26271881      84.82797809     100.87189780
C      73.70402939      81.57575910     101.42558761
H      73.67379376      79.51973687     101.30275540
H      72.22626340      82.18992015     100.13112509
H      73.17301629      82.43936403     103.21704816
C      77.98803893      82.13889754     103.08665704
H      78.25826979      80.10177258     103.25862214
H      77.37387789      82.83998601     104.92536075
C      80.66011195      83.14234222     103.03185498
H      81.40844356      82.52062226     101.21393827
H      81.72024841      82.40912841     104.64001207
H      80.67334002      85.20025417     103.01673717
C      77.27561212      79.14935052      97.66503225
O      75.93957561      78.16102365      96.00774227
N      78.82518770      77.66024618      99.06909890
H      80.14610638      78.58243262     100.09333056
C      78.97258634      74.96738619      98.90658244
H      77.16033881      73.99417713      99.01240711
H      80.27271805      74.37023267     100.38623814
C      80.22169543      74.23795183      96.33844438
O      82.15677518      75.34533145      95.76018813
N      78.86109250      72.81687764      94.79264826
H      77.40789295      71.93626518      95.66192236
C      79.06707267      72.71105297      92.02419921
H      80.64688385      73.90913945      91.46484022
C      79.67367480      69.95016282      91.03776207
H      77.91244989      68.88246746      91.10201277
C      80.58830234      70.19582724      88.17671643
H      80.96813733      68.45727904      87.14114641
H      82.16055464      71.52430484      88.17104725
H      79.10297747      71.07643971      87.05799846
C      81.83174225      68.65947975      92.70828013
H      81.08719009      68.18515845      94.56777082
H      83.17533767      70.20716560      92.90859112
C      83.35108221      66.52408902      91.51208338
H      83.84052132      65.21639841      93.02575415
H      85.05561535      67.20628022      90.57288940
H      82.14543682      65.48851900      90.20061332
C      76.54806748      73.61434215      91.02075453
O      74.82652681      72.11389945      91.00752645
N      76.67656887      75.95571305      90.01164068
H      78.40377872      76.65869124      89.60723925
C      74.68668707      76.80231044      88.20695205
H      74.55251649      75.38123625      86.71973745
H      75.26116386      78.71282374      87.70239513
C      72.13177709      76.82120770      89.52787075
O      70.20614597      76.44326244      88.26553357
N      72.09020312      77.08954883      91.98640468
H      73.73048556      76.98939334      92.95961373
C      69.80741373      76.98750361      93.52464190
H      68.37689090      75.82910138      92.59867601
C      70.35543435      75.83855002      96.04175735
H      71.64044825      76.64924260      97.43259591
H      71.03573583      73.92992644      95.67137099
C      67.93847440      75.54186298      97.51385415
N      66.70448312      73.20238181      97.75195966
H      67.44336610      71.49595895      97.31354316
C      64.69948350      73.52552501      99.35822703
H      63.67147239      71.90602956     100.05742576
N      64.57854101      75.93303633     100.15569153
H      63.27274013      76.52830012     101.41235953
C      66.56464338      77.19159406      98.96516395
H      66.91991193      79.20037313      99.01429684
C      68.77562316      79.71437868      93.91959470
O      70.11543912      81.29418988      95.08177638
N      66.65723997      80.33609864      92.84056097
H      65.80875285      78.96604706      91.81821904
C      65.63489802      82.95714904      92.75552329
H      67.27707019      84.09665400      92.26041500
C      63.49761756      82.96848739      90.61257365
H      61.87812211      81.87811531      91.26830868
H      64.29130262      81.87055641      89.05921862
C      62.41480439      85.54796381      89.80188106
H      61.39057272      86.35676667      91.39869980
C      64.38200948      87.32052709      88.73985488
H      65.17758427      86.61943863      86.97296077
H      66.00906384      87.64178057      89.96439753
H      63.34077028      89.07797256      88.49041100
C      60.41547395      85.27584322      87.70995403
H      58.87723673      84.12877935      88.46206511
H      61.09388569      84.36310541      85.99219282
H      59.53675122      87.06919349      87.21673547
C      64.68625542      83.77351080      95.35767642
O      63.66391349      82.25795030      96.72583827
N      64.96404519      86.20180912      95.94538131
H      65.72749461      87.35454217      94.62635234
C      64.15146287      87.23548941      98.45871730
H      63.39368262      85.62166314      99.49050787
C      66.52495913      88.17279366      99.85711477
H      65.74072270      89.35009315     101.35566774
H      67.52273461      89.46914591      98.60611596
C      68.57909162      86.33408996     100.72071970
H      69.53151368      85.44213914      99.12390097
C      70.72393099      87.81752511     102.03785894
H      69.86032607      88.45625261     103.79530441
H      71.11321460      89.58630894     101.05520126
H      72.43413330      86.76305783     102.48572408
C      67.44336610      84.21570676     102.43659119
H      69.00994922      83.02139973     103.03185498
H      66.10921934      83.12911413     101.30464513
H      66.55141528      84.90167741     104.16002159
C      61.97827761      89.11009791      98.04486724
O      59.82965880      88.66790195      98.76863242
N      62.40913521      90.84675639      96.32521630
H      64.16280123      91.13210507      95.62223811
C      60.37578970      92.41522923      95.22917503
H      58.51062983      91.55729349      95.11957091
C      59.85989441      94.54117134      97.06787874