 %block lattice_cart
   139.252   0.000   0.000
   0.000 142.425   0.000
   0.000   0.000   162.84
 %endblock lattice_cart

 %block positions_abs
N      90.89864911      39.58981988      81.21874415
H      90.51125521      39.42163423      83.08012457
H      92.79971378      39.66918838      81.37559143
H      90.43944561      38.11394363      80.10191590
C      90.00858802      42.08614834      80.36647758
H      90.99502515      43.36738279      81.64015312
C      90.83628814      42.51700594      77.58291072
H      89.65898864      41.44742084      76.27333039
H      92.83561857      42.03701546      77.42606344
C      90.29204696      45.25143992      76.98953666
H      88.36830557      45.63694408      76.36214752
H      91.28226354      45.67662834      75.23965009
S      91.43344165      47.63816424      79.20618563
C      89.93299896      50.44440782      77.84369295
H      87.87319729      50.37826741      77.86825940
H      90.53393193      50.56157085      75.87837759
H      90.52826276      52.18484575      78.76965885
C      87.13620402      42.38661482      80.67261324
O      85.89465383      40.51200633      80.42505910
N      86.24992237      44.60704324      81.41338596
H      87.37053008      46.05457359      81.94817851
C      83.50037059      44.93018645      81.91794288
H      82.48558757      43.62438556      80.68395160
C      82.94479105      44.14595003      84.65804604
H      83.72524802      42.24677508      84.79221661
H      80.90388663      44.02122809      84.90560019
C      84.30161454      45.72387149      86.73296553
O      83.98225080      47.98020471      86.69517100
N      86.07606755      44.77900834      88.05577395
H      86.77526629      45.55757558      89.65448241
H      86.64298546      43.05746767      87.46239989
C      82.37976289      47.58903136      81.38315034
O      83.76115282      49.41072752      80.86536533
N      79.88721388      48.06524239      81.44929076
H      78.97636579      46.47787229      81.99353194
C      78.50015477      50.40850303      81.26031813
H      78.94801990      51.15872436      79.39326853
C      75.69958037      49.90394609      81.61558667
H      75.02116863      48.44318766      80.32868306
C      75.01360972      48.76444113      84.31411585
H      73.06908135      48.08413966      84.39348435
H      75.34242210      50.17795641      85.77865374
H      76.27216744      47.17896076      84.69773029
C      74.15000480      52.17728686      81.19984689
H      74.94557957      53.55867679      82.49997859
H      72.17713052      51.94862996      81.74975724
C      74.17835069      53.32624044      78.62226019
H      72.61743675      54.63393106      78.32935262
H      73.84197941      51.88059983      77.19551683
H      75.95091397      54.31267759      78.24998411
C      79.53761452      52.48720196      83.02343278
O      79.56218096      54.75298381      82.31478541
N      80.45224205      51.82201831      85.33834751
H      80.58641262      49.95874815      85.73141058
C      81.10608735      53.76465695      87.16382313
H      79.62643166      55.19517977      87.11657997
C      80.89443800      52.49854032      89.88691875
H      80.96813733      54.11614604      91.16059428
H      82.57818416      51.31557165      89.97762561
C      78.65889178      51.00943598      90.75052367
C      76.22681402      51.99965257      91.13224839
H      75.79784614      53.96874739      90.80532573
C      74.06496712      50.46708453      91.80688068
H      72.23004287      51.35903536      91.85601356
C      74.66212063      47.95185881      92.38135748
H      73.16545738      46.65361683      92.87646577
C      77.09986758      46.86715591      92.15836977
H      77.47970256      44.92262754      92.63836026
C      79.11809528      48.41673148      91.27775731
H      80.98892432      47.71186357      90.87335588
C      83.59107746      55.10825236      86.55533126
O      83.75359391      57.34379859      86.61958195
N      85.35797155      53.56434597      85.75030785
H      84.88742971      51.71997308      85.58779138
C      87.71068082      54.22008100      84.62403096
H      88.73302275      55.70162643      85.62369618
C      89.42088313      51.89949708      84.59190562
H      91.23691012      52.44373826      83.78310276
H      88.57050630      50.42929001      83.42594448
C      90.02937500      50.61826265      87.11469025
H      90.80983197      48.73420551      86.81611349
H      88.12264115      50.25354547      87.80255062
C      91.43911083      52.43617935      88.89103298
O      91.50147180      51.78422378      91.13980729
O      92.67121239      54.31834677      88.08411984
C      87.49714174      55.50698461      82.06723126
O      89.16388036      57.09813417      81.61369695
N      85.62631269      54.76999136      80.47986116
H      84.18256179      53.66072200      81.05433796
C      85.17466810      56.13626347      78.00809914
H      86.76581767      55.90760660      76.71930580
C      83.07707190      54.96085371      76.48309001
H      81.27427300      54.94006672      77.47708605
H      83.52682676      52.95207464      76.42261877
C      82.34196836      56.07768196      73.87526770
H      83.80272680      55.49186681      72.54490037
H      82.17000327      58.12992474      73.93762866
S      79.42234120      54.76432218      72.75088054
C      79.92500840      54.90038246      69.35693208
H      80.12531940      56.91294099      68.96575874
H      78.32441022      54.03110836      68.39506139
H      81.52560659      53.70985489      68.84103680
C      84.67011118      58.92360978      78.42005948
O      86.04205248      60.65459909      77.60936689
N      82.77660541      59.33368040      80.02254739
H      81.64843880      57.89370895      80.56678857
C      82.13787792      61.93394380      80.85402697
H      81.51426824      63.07344878      79.25531851
C      79.73414605      61.51442456      82.53777312
H      79.22769940      63.12258166      83.71885206
H      80.08185570      59.89114967      83.76042604
C      77.32285527      61.29899577      80.79355573
H      77.54584298      59.75508937      79.44996032
C      75.04951452      60.49964153      82.32045459
H      74.62810556      61.96606915      83.70373425
H      75.69580093      59.01998583      83.59413012
H      73.52261567      59.95917981      81.04488933
C      76.65200243      63.74808106      79.49909320
H      77.95969304      64.24885853      77.98731215
H      76.28161608      65.32411281      80.77087901
H      74.81140901      63.60824132      78.59013485
C      84.10886247      63.38525361      82.37903610
O      84.00870697      65.72473478      82.34124158
N      85.96457370      62.06622465      83.58468149
H      85.73969628      60.17838806      83.41838558
C      88.07728773      63.01675699      84.90371046
H      87.53304655      64.53987639      86.17927572
C      89.24324886      61.01364709      86.73485526
H      90.47346068      59.78154553      85.63314482
H      87.80327741      59.79855308      87.56255538
C      90.83439841      62.20606439      88.87591517
H      89.41710367      62.74652611      90.27053319
H      91.68288553      63.99563521      88.31844591
C      92.83561857      60.54877441      90.25163592
H      93.51403032      61.70717665      91.81254986
H      94.37952497      59.79288390      89.11591041
N      91.76792321      58.26220557      91.30043403
H      92.23468562      56.62570259      90.43871883
C      90.60574152      57.94851101      93.53786998
N      90.24102435      59.94595173      94.93437773
H      89.02026116      59.97429761      96.39702589
H      91.31060944      61.52198347      94.81910442
N      89.96512431      55.70729560      94.49029204
H      89.09962966      55.59769148      96.18537655
H      90.42621753      54.04433644      93.67393028
C      90.24480381      63.91626670      82.98941770
O      91.80193828      65.51686489      83.68483699
N      90.41298944      62.99408026      80.67828242
H      89.28482283      61.51820401      80.25309400
C      92.11374312      64.00508385      78.72997459
H      93.73701804      64.78932027      79.72586036
C      93.08884190      62.06244519      76.82324074
H      91.46745673      61.08167724      76.01443788
C      94.76691888      63.28509811      74.71430618
H      93.80882764      64.83278397      73.74865603
H      94.93699424      61.82056022      73.27622446
H      96.60184313      63.83311874      75.47397616
C      94.39275306      59.80989143      78.12904163
H      93.24946864      59.32234204      79.76932407
H      96.22011840      60.26531547      78.96619038
C      94.56471815      57.48174862      76.57001742
H      95.26580662      57.89559868      74.67651165
H      92.69766855      56.62192314      76.67584209
H      95.85351151      56.05689498      77.31456959
C      90.77581690      66.20472528      77.35992302
O      91.86051980      68.20027626      77.18417847
N      88.32484188      65.92693551      76.72497498
H      87.52359791      64.21106402      76.97630858
C      86.78282520      67.92626594      75.60247755
H      87.59540752      68.41948452      73.77889165
C      84.10508302      66.78865071      75.00343431
H      82.92778352      68.40814615      74.52344382
H      83.21124246      65.91370742      76.64182702
C      83.92177956      64.98963125      72.89638947
O      85.13498386      65.35434844      70.85548505
O      82.43645467      63.20572961      73.08725182
C      86.61086011      70.39046905      77.07457434
O      87.15321155      72.30854127      75.99932007
N      86.19512031      70.33377727      79.56334390
H      86.17622305      68.64625167      80.45340499
C      85.80961614      72.64491254      81.00331535
H      86.02126549      74.34566623      79.86570011
C      83.11864587      72.78286257      82.02187783
H      83.43234044      74.17559087      83.50531299
H      82.45346222      70.95738694      82.70595876
C      81.05128529      73.65591613      80.23041729
H      79.29761928      73.58221680      81.31134074
H      80.89632773      72.30098236      78.68651089
C      81.63143127      76.35633503      79.35547400
O      81.62387236      78.17614147      80.90504958
O      81.77882992      76.74183919      76.95930104
C      87.68044520      73.17592565      83.12925745
O      88.72357412      75.29052938      83.38248078
N      88.27570898      71.24651508      84.61458233
H      87.34785336      69.60434290      84.31978503
C      89.95945513      71.46383361      86.88036418
H      91.75847459      72.34066662      86.38714561
H      90.61141070      69.57788675      87.39059029
C      88.96734881      72.88868724      89.10268233
O      86.92644440      74.08488399      88.93638641
N      90.35629765      72.94726875      91.13602784
H      91.84351227      71.75485146      91.06421824
C      89.70623181      73.96583125      93.63613575
H      87.65776849      73.91102917      93.84778510
C      90.80605252      72.24807003      95.65247373
H      92.82994940      72.60333857      95.80743128
H      90.49613740      70.36212316      94.88524484
C      89.52481807      72.43137348      98.25462686
H      89.37363998      74.37590186      98.91792080
C      86.88487041      71.46572332      98.38501798
H      85.64709969      72.55798513      97.15291642
H      86.23102511      71.43548770     100.33899498
H      86.64298546      69.51363604      97.77463638
C      91.01392241      70.92526161     100.24828812
H      92.81861104      71.88713230     100.47505528
H      91.17643888      68.98262295      99.58310446
H      90.08039761      71.02163764     102.08132264
C      90.51881411      76.77018509      94.02541937
O      92.70144801      77.51851670      93.58322341
N      88.93333374      78.22149490      95.31988190
H      87.12108620      77.74150442      94.96650308
C      89.43789066      80.57987334      96.76930198
H      91.33139644      80.92758298      97.50440551
C      88.62341862      83.03273809      95.28397710
H      88.53838095      84.74483013      96.42726152
H      86.86597315      82.45826129      94.37690847
C      90.49991685      83.24249771      93.00874662
H      90.40543055      81.55497211      91.82766767
H      92.51814455      83.34643266      93.40180969
C      89.45300848      85.36466037      91.28909567
H      89.57962014      87.17312845      92.26230472
H      87.44611914      85.07364251      90.93571685
N      91.02148132      85.76906179      89.02709327
H      92.48790893      86.98982498      88.92504805
C      90.44889425      84.89411851      86.74997307
N      88.71412550      83.33509430      86.45517576
H      88.09240553      82.83431683      84.72229673
H      88.18122268      82.16157426      87.86491159
N      91.46178754      85.71614946      84.81111387
H      90.83817786      85.11899594      83.11036019
H      93.06049601      86.76116810      84.79788579
C      87.78815959      80.38523153      99.14090850
O      85.78315998      79.19848341      99.04642219
N      88.41554874      81.42269128     101.22716635
H      90.03882363      82.42235650     101.19315128
C      87.22124170      81.34143304     103.61200096
H      85.59229763      80.11311094     103.32476256
C      89.15443172      80.31342193     105.65479510
H      88.11319253      80.45137195     107.42546866
H      90.84195732      81.49261114     105.75684032
C      90.06150035      77.56198042     105.22960668
H      90.85329567      77.37678724     103.33799064
C      92.04004380      76.71538303     107.20437068
H      92.89986928      74.94848893     106.59398908
H      91.07250392      76.56231519     109.01661821
H      93.34773440      78.27440723     107.51806525
C      88.00736785      75.57398833     105.10866420
H      86.91510605      75.71382808     106.84910213
H      88.59696245      73.60678325     104.96126555
H      86.78471493      76.07665554     103.53074273
C      86.30094499      83.89634301     104.58709974
O      84.71357488      84.02484440     106.25761780
N      87.03415879      85.88244538     103.28885776
H      88.63475698      85.83520222     102.25328774
C      85.78315998      88.37121493     103.07531868
H      84.77782559      88.61498961     104.85544087
C      87.64076094      90.53684128     102.77674193
H      86.56739640      92.28861758     102.61611519
H      88.73491248      90.28361795     101.05142180
C      89.66276810      90.87321257     104.86677923
H      90.57739564      89.07608284     105.28251902
H      88.38909256      91.21525302     106.44659043
C      91.57706085      93.00293412     104.21293393
H      92.47090140      93.63599244     105.95526159
H      90.44889425      94.65644465     103.72160508
C      93.47245634      92.29050729     102.15502197
H      92.43499660      91.47981470     100.57332105
H      94.88597162      90.99604478     102.91280222
N      94.62518939      94.51471516     101.10433414
H      95.83461424      93.97425345      99.73239284
H      95.71367175      95.38965846     102.40635557
H      93.44600017      95.77327290     100.29175183
C      83.72146858      88.38444301     101.11378277
O      83.77627064      86.85943388      99.38846265
N      82.03205325      90.27227960     101.25551225
H      82.31173275      91.69335378     102.49895216
C      80.04595090      90.77305707      99.45838252
H      79.08030075      89.01372188      98.98973040
C      78.12787868      92.53995117     100.62812311
H      79.20502269      94.18401307     101.23850471
C      76.05295919      93.33552595      98.73461734
H      74.86243161      91.71603049      98.28675221
H      76.77861409      93.98559180      96.92236981
H      74.88132887      94.90966796      99.36011675
C      76.66334079      91.39477702     102.98839127
H      78.11087115      90.83919748     104.34521477
H      75.70147010      89.78095076     102.14746307
C      74.87754942      93.36576156     104.21860310
H      76.09831263      94.93801387     104.74583675
H      74.47692745      92.63254776     106.10266024
H      73.43946770      94.04606304     102.91091250
C      81.28372162      91.89555449      97.06409928
O      82.92211434      93.55095474      97.31354316
N      80.49381603      91.17745849      94.79264825
H      78.92534319      90.09464533      94.63958042
C      81.48592234      92.01460726      92.33033487
H      82.37220398      93.85709042      92.59300683
C      83.47580415      90.15511657      91.41759706
H      84.68333927      89.94157750      93.07488704
H      84.64365501      91.09431054      90.00219205
C      82.63298622      87.45469766      90.80154628
C      82.09630395      86.60243110      88.33923290
H      82.64054513      87.92712925      86.88792309
C      81.21758121      84.07208757      87.93483147
H      81.10041818      83.35966074      86.02620789
C      81.16466888      82.32220100      89.85857285
O      80.71113456      79.78240883      89.48062759
H      80.41633726      79.22304985      87.77987391
C      81.80528609      83.02517918      92.29254034
H      81.63332100      81.65701734      93.79865221
C      82.36086563      85.56119190      92.75741302
H      82.93156297      86.25094200      94.58855781
C      79.31462681      92.29806620      90.28187155
O      77.21325115      91.48170443      90.64091955
N      79.91178032      93.53583694      88.16915753
H      81.60875456      94.39566242      87.97073626
C      78.16000404      93.65299997      85.94305993
H      76.34964623      93.73803765      86.92193816
C      78.41322736      96.22491749      84.54655219
H      77.55340188      96.24381475      82.67572314
H      80.44468314      96.45735382      84.29143913
C      77.15466964      98.52093496      85.86936060
H      77.69702109      98.63431854      87.85357323
H      75.11565495      98.24503490      85.94117020
C      77.69891082     100.97002026      84.48797067
H      76.75593738     101.24403057      82.67761286
H      79.70768988     101.17600042      84.09112814
C      76.74837847     103.09974181      86.33801273
H      77.84253001     102.77848834      88.05388422
H      74.76605557     103.16588223      86.89359227
N      77.49482038     105.70000522      85.35913450
H      79.14077199     105.46378943      84.42560970
H      77.67812383     106.93966568      86.80099568
H      76.28917499     106.50880808      84.12136377
C      78.13354786      91.57241130      84.09490760
O      80.08941459      90.85809475      83.05366840
N      75.90556055      90.38944263      83.79633084
H      74.35220551      90.80518242      84.81867277
C      75.22525907      89.01750132      81.46818802
H      76.38366129      87.32052710      81.34346609
C      72.45492029      88.29373614      81.90093535
H      71.20392148      89.89811379      81.58913051
H      72.18468943      87.58886824      83.81900756
C      71.51572631      86.35865641      79.94317889
O      72.91034434      84.37444378      79.86192066
O      69.94536374      86.80652154      78.25565329
C      75.57863788      90.50849539      78.99831573
O      75.63721940      92.89899918      79.08524314
N      75.59942487      89.31418835      76.81190239
H      75.47659266      87.41312369      76.92717569
C      75.41801116      90.59920225      74.38738353
H      76.84664424      92.07129905      74.56123835
C      76.05295919      88.90600747      72.08002770
H      75.96414205      90.01716655      70.34714867
C      78.73070137      88.11988133      72.08191743
H      79.09919801      87.53595590      70.14116850
H      79.00849114      86.65534344      73.50488134
H      80.02516390      89.66000827      72.52789284
O      74.93046177      86.49849615      72.25010307
H      73.19191355      86.72337357      71.77767149
C      72.95380805      92.19224153      73.88282660
O      72.94435941      93.98559180      72.38994281
N      70.84865292      91.65177981      75.13760487
H      70.68424674      90.05874053      76.17317489
C      68.42980324      93.02561084      74.95808087
H      68.34665528      93.69835341      73.01355250
C      66.13756523      91.19635577      75.33980559
H      65.81442202      90.95636053      77.36181274
H      66.53251803      89.37843905      74.45919313
C      63.77729706      92.36231690      73.96597456
H      63.42958743      94.25960212      74.68973974
H      62.07843310      91.24548865      74.29478694
C      64.14012451      92.74215188      71.10681865
O      63.77162789      94.95691113      70.21486783
O      65.06042124      90.89588928      69.81802530
C      68.38444981      95.48036532      76.58324550
O      66.55708447      96.89954977      76.88182226
N      70.45181041      95.79217016      78.02510668
H      71.87288458      94.53361244      77.81912651
C      70.80329950      97.78394169      79.87136929
H      69.92079730      99.48280564      79.10980958
H      72.76672514      98.34708013      80.11514398
C      69.47482189      97.27182586      82.49241968
O      70.11354939      98.71368704      84.19506309
N      67.91768741      95.33485639      82.80611425
H      67.16557635      94.48825900      81.26598731
C      67.06353112      94.33141172      85.21551530
H      66.32464813      95.81673660      86.43816823
C      64.99994999      92.21491825      84.79788579
H      63.87934228      91.94657711      86.50808810
H      65.89190081      90.47637004      84.14970966
C      62.93636885      92.97080878      82.83257042
C      62.12378655      91.25682701      81.09402221
H      62.80408801      89.33308562      81.11291948
C      60.33799517      91.74248667      79.14382466
H      59.60856081      90.42156798      77.77377308
C      59.55186902      94.19346169      78.86603489
O      58.02685990      94.85297618      76.91961679
H      57.68670915      96.62931891      77.05378735
C      60.46649656      96.13799008      80.47230225
H      59.99028553      98.11653353      80.35513922
C      62.09544064      95.54083655      82.47352242
H      62.67558663      97.13765530      83.60546848
C      69.13467117      93.26560608      87.01075530
O      70.97904404      92.36609635      86.25486477
N      68.62822450      93.44513008      89.49196595
H      66.94069891      94.10842401      90.08534001
C      70.48393574      92.91978615      91.43271487
H      72.26972711      93.49804242      90.58233803
C      70.22126379      94.52983298      93.81188030
H      71.65934551      93.60764654      94.96083390
H      68.35043475      94.11598292      94.56966055
C      71.03384610      97.20001626      93.43582476
C      69.14978898      99.09163229      93.34889735
H      67.29218800      98.47558152      93.93660224
C      69.92079730     101.58985048      92.96339318
H      68.54507656     103.09785208      92.95394455
C      72.52672990     102.16432728      92.53253558
O      73.28451014     104.59073586      92.08656017
H      71.69147086     105.43544354      92.29065062
C      74.40133839     100.26515233      92.71205958
H      76.35909485     100.81506270      92.51930750
C      73.58497662      97.76315469      93.22039596
H      75.08919877      96.40633121      93.46039120
C      70.49338438      90.06818915      92.17537731
O      68.67357795      89.19513559      93.31866173
N      72.64578266      88.74349100      91.71239436
H      74.07819519      89.77528158      90.98673946
C      73.20514164      86.08653582      92.32088624
H      71.53084413      85.31174802      93.23740350
C      74.01394450      84.66168217      89.89825710
H      74.60164939      82.76817641      90.46328527
C      71.63666879      84.45759174      88.22018014
H      72.12043873      83.38422719      86.53265454
H      71.01872830      86.34731805      87.68538759
H      70.09843159      83.50516966      89.20472755
O      75.84697902      85.94480633      88.55655142
H      77.03939632      86.62510782      89.73952009
C      75.20636181      85.80874605      94.49407150
O      76.81640862      87.35076272      95.08366611
N      75.04573507      83.48438268      95.51452371
H      73.54529238      82.38456197      95.09122501
C      76.60664900      82.49416609      97.65369389
H      78.46236024      83.38422719      97.59133292
C      75.17612619      82.86644218     100.18403743
H      74.74148913      84.87900070     100.25017785
C      72.78373267      81.44158854     100.27285456
H      73.30340741      79.44981700     100.32954635
H      71.71981675      81.57575911      98.51540909
H      71.64044825      81.88378450     101.92636509
C      76.64444352      82.31842155     102.57454121
H      77.19435388      80.33798837     102.69737342
H      75.37832690      82.85132436     104.10899898
C      79.04061649      83.66390668     102.97138374
H      80.38610162      82.81730930     101.66369313
H      79.78894811      83.54485392     104.88756622
H      78.74015001      85.65945767     102.54430559
C      77.20758197      79.50650879      97.28330754
O      75.67312420      78.06275788      96.40080535
N      79.53194534      78.55786619      97.99006518
H      80.94735035      79.69170197      98.59288787
C      80.32185094      75.92925688      97.75573911
H      78.93290210      74.67069916      98.61367486
H      81.92055939      75.68737191      99.02941465
C      81.17411750      75.08265950      95.02886404
O      83.17722740      75.87634455      94.16525912
N      79.80217620      73.51418666      93.77597550
H      78.14110677      72.96994548      94.54131466
C      80.16122420      72.65814064      91.09445386
H      81.43678945      74.07543537      90.31966607
C      81.25159629      69.97472927      90.71461887
H      79.64343919      68.70672292      90.93760658
C      82.24181286      69.84433816      87.87058077
H      82.94290134      68.00941391      87.24508136
H      83.53060621      71.41470072      87.53231976
H      80.83207703      70.22606287      86.41738124
C      83.42289181      69.31521479      92.63458081
H      82.60275060      69.02986612      94.50163040
H      84.62475774      70.98006367      92.82355344
C      85.18411674      66.94738772      91.93916152
H      86.60708066      66.70739248      93.41125832
H      86.26881964      67.38013504      90.24218729
H      83.88776449      65.35056898      92.02986839
C      77.71780807      73.16836674      89.70928447
O      76.41578664      71.51107676      88.88536380
N      77.03750661      75.49650956      89.62235706
H      78.42645545      76.51696177      90.43871883
C      74.95313848      76.57932274      88.02931778
H      74.83786518      75.41525132      86.33612300
H      75.49737966      78.48983603      87.48507660
C      72.31319081      76.68136795      89.25575016
O      70.53684809      77.01018034      87.84223488
N      72.05618804      76.50562341      91.82577794
H      73.65867595      76.42436518      92.85567878
C      69.56741848      76.65680151      93.06543840
H      68.30130185      75.47383283      91.95049988
C      69.80174455      75.72705617      95.84333608
H      71.20959065      76.89679675      96.78630952
H      70.65212139      73.85244766      95.76774703
C      67.28273938      75.39635406      96.99606914
N      65.70103846      73.35544965      97.01307667
H      65.78985558      71.74729255      95.98884501
C      63.67903130      73.75040245      98.62123377
H      62.30897971      72.50129335      99.47539006
N      63.89257036      76.15980348      99.48294896
H      62.94581748      76.91380428     100.96071494
C      66.21126455      77.19726324      98.59855705
H      67.16179690      78.80731006      99.41869827
C      68.77751288      79.47627317      93.01252607
O      70.06630623      81.04474601      94.06510362
N      66.48527488      80.07342669      91.90892590
H      65.47049184      78.84132512      90.86768670
C      65.58009596      82.71526406      91.99585331
H      67.02573659      84.06641839      91.43271487
C      63.25195315      82.96848739      90.14581125
H      61.80820224      81.53229540      90.44816746
H      63.93981352      82.73227161      88.21640069
C      61.95182145      85.58953779      90.30832771
H      61.29419668      86.20936803      92.16025950
C      63.59588333      87.74382578      89.53731938
H      64.32909714      87.02384007      87.75152801
H      65.25128358      87.84398128      90.75808258
H      62.39590713      89.41812331      89.48629677
C      59.52919231      85.38733708      88.60001513
H      59.84288688      84.53696024      86.74997307
H      58.83755248      87.31107847      88.35813016
H      58.01552153      84.26483965      89.43338443
C      64.56720266      83.40501418      94.56588110
O      63.01762709      82.00661670      95.55798741
N      65.43269731      85.55174326      95.63357646
H      66.76306464      86.57408521      94.72650783
C      64.21193411      86.77439619      97.88235078
H      63.24439424      85.36843982      99.03130437
C      66.31519950      87.83453266      99.54719966
H      65.58954460      89.11954655     100.98528138
H      67.38289486      89.02883969      98.25084741
C      68.07642442      85.84654058     100.87378753
H      69.00050060      84.57097531      99.54530993
C      70.14567474      87.45658739     101.95093153
H      71.20203174      88.38066355     100.44670938
H      71.55163111      86.12622006     102.65201999
H      69.33309242      88.66790196     103.40791052
C      66.78007218      84.38200268     103.11311321
H      65.24183496      83.25194635     102.33643570
H      65.78985558      85.77662070     104.26017708
H      68.00461483      83.25383607     104.32820723
C      62.11811736      88.68490949      97.20582876
O      60.01296224      88.28617725      97.99384463
N      62.53952632      90.64833513      95.57688467
H      64.34610469      91.08108246      95.13657844
C      60.78775004      92.79695394      94.88524484
H      58.94526688      91.92579011      94.59611672
C      60.38901779      94.83407892      97.08110682