 %block lattice_cart
   139.252   0.000   0.000
   0.000 142.425   0.000
   0.000   0.000   162.84
 %endblock lattice_cart

 %block positions_abs
N      90.53015247      39.70981750      80.63198413
H      89.80827702      38.82920504      82.16455217
H      92.43121715      39.83264971      80.75481633
H      89.93488869      38.60621733      79.19201268
C      89.48513382      42.35354461      80.37120190
H      90.52259358      43.54407219      81.69212060
C      90.06716954      43.61210234      77.84463781
H      89.29049201      42.45370011      76.32907732
H      92.07783832      43.59698453      77.39488296
C      89.00703308      46.42401509      77.84652754
H      87.14187319      46.61298772      78.69879411
H      89.04671733      47.11376520      75.90577863
S      91.02337105      48.41389690      79.71357714
C      93.75213584      48.46680924      77.52527407
H      94.61574076      46.59786991      77.52527407
H      94.97856821      49.84819917      78.43801189
H      93.09451108      48.70491475      75.58641488
C      86.71668478      42.24583021      80.88898690
O      85.53182638      40.42791350      80.07640460
N      85.72835792      44.12988735      82.18533916
H      86.86597316      45.47159303      82.92422214
C      83.00715203      44.31130107      82.89209679
H      82.17756217      43.04518444      81.49369932
C      82.65755265      43.37210710      85.71345819
H      83.55895211      41.54096230      85.98368905
H      80.68278867      43.02628718      86.18211031
C      83.50981923      45.16545737      87.76003178
O      83.46068634      47.39722414      87.40476323
N      84.31673237      44.15634352      89.87085608
H      85.07262288      45.43568823      91.06894256
H      84.10130356      42.28740419      90.19588899
C      81.83741144      46.89455694      82.31762001
O      83.23391918      48.66523050      81.64676715
N      79.32029599      47.21958987      82.75792624
H      78.30551296      45.60387387      82.78060294
C      78.02961292      49.75182313      82.63698375
H      78.50582395      50.48125748      80.77182387
C      75.18746455      49.35498060      82.75225706
H      74.82085764      48.16256330      81.11197462
C      74.25393974      48.12476877      85.27504168
H      74.51850143      46.08197463      85.29204921
H      72.19602778      48.15500439      85.20701153
H      74.87376997      49.16411824      86.94178028
C      73.64544788      51.82674262      82.36864261
H      74.11221027      53.03805719      83.96735108
H      71.60454345      51.61320355      82.53871797
C      74.20102740      53.27427298      79.97057993
H      75.84319957      54.51204371      80.07451486
H      72.73837925      54.66511154      79.56428876
H      74.42212538      51.99114881      78.37187145
C      79.11431583      51.86075769      84.36419359
O      79.57162959      54.04339158      83.67444349
N      79.73792550      51.15211033      86.69989532
H      79.82296318      49.31151690      87.19689335
C      80.69412701      53.14010241      88.44411271
H      79.29195010      54.64810401      88.52537094
C      80.60908933      52.15177555      91.18610559
H      81.15899970      53.66922577      92.46167084
H      82.05472997      50.70802464      91.43932892
C      78.04473072      50.79873151      91.91553995
C      76.11532016      52.07618649      93.21378193
H      76.41956609      54.03961213      93.68243405
C      73.93646573      50.81006986      94.25313139
H      72.56830387      51.78894809      95.40964389
C      73.68513212      48.31752086      93.60495527
H      72.03918050      47.31218646      94.27391839
C      75.55785091      46.91156448      92.33694891
H      75.48037213      44.88010869      92.17254272
C      77.85197865      48.20413728      91.70578033
H      79.34864189      47.13266246      90.82516786
C      83.22825001      54.10008337      87.55972080
O      83.70068158      56.32807070      87.32161527
N      84.96490848      52.39932969      86.67721861
H      84.30728372      50.61542805      86.50903296
C      87.49903148      53.26860380      85.86463629
H      88.26626035      54.76148758      87.05894333
C      89.28104339      50.89132809      85.95912261
H      91.18210805      51.43556927      85.38086635
H      88.65743370      49.32663471      84.77426421
C      89.53237698      49.80095601      88.68032849
H      91.00636350      48.36287429      88.73324084
H      87.69934247      49.11876481      89.32283545
C      90.12197159      51.99114881      90.37352327
O      88.98813580      52.09697348      92.45033249
O      91.84729172      53.57284973      89.78770811
C      87.47068558      54.57818413      83.35319003
O      89.04293788      56.19578986      82.70879335
N      85.47324486      54.19834914      81.82251171
H      84.27137892      52.79995167      82.31006110
C      85.20490373      55.55328291      79.50381752
H      86.86219371      55.29628013      78.30762076
C      83.12053560      54.22102586      77.93723440
H      81.19490450      54.24181285      78.66855850
H      83.60241582      52.23492350      77.67834190
C      83.04116710      55.09596914      75.14799837
H      84.67011118      54.26448956      74.19935577
H      83.16021986      57.15199137      75.11965248
S      79.96847211      54.03961213      74.07274409
C      80.89065855      54.17378270      70.82619429
H      82.88998900      53.68812304      70.71847990
H      80.76782635      56.06917819      70.02872978
H      79.84375017      52.85664346      69.63377698
C      84.61719884      58.47857924      79.67389288
O      85.66221749      60.09807469      78.42478379
N      82.70668554      58.85085533      81.26315271
H      81.73347649      57.39198661      82.01148434
C      81.82985253      61.46812627      82.01904325
H      81.53316550      62.53582164      80.28238476
C      79.47714328      61.28293309      83.72735583
H      79.29572955      62.89109018      85.00103136
H      79.53383507      59.48391364      84.72891078
C      77.21325115      61.23191048      81.93967474
H      77.47781284      59.87697671      80.41277587
C      74.97959464      60.37397473      83.61019279
H      75.41234198      58.60330118      84.56828404
H      73.28073069      60.02437537      82.49903373
H      74.60542883      61.87630715      84.97079575
C      76.56696475      63.80571772      80.87197937
H      77.93701633      64.46334247      79.48303054
H      76.47436816      65.27781452      82.31006110
H      74.71125352      63.38619848      80.08396350
C      83.93878710      62.81361140      83.53271402
O      84.09563439      65.14742340      83.34374138
N      85.49592158      61.47946463      85.02181835
H      85.02537972      59.63509175      85.17110673
C      87.65020957      62.45645313      86.37486240
H      87.10596839      63.91721157      87.71845781
C      88.62719809      60.46846105      88.21545582
H      89.66276810      59.07384303      87.10807621
H      87.06817387      59.37619924      89.00347170
C      90.25614216      61.44733928      90.24691161
H      89.11285774      62.75125044      91.35996041
H      91.65642937      62.61519014      89.29448955
C      91.54871496      59.28738210      91.78892828
H      92.59940280      60.10752332      93.35929085
H      92.82050076      58.28960661      90.51525274
N      89.77804141      57.47135512      92.76969623
H      90.14464832      55.78005007      91.96467283
C      88.05650073      57.71135036      94.50635471
N      87.92610962      59.73146779      95.89908302
H      86.75636904      59.72390888      97.40897434
H      89.20923379      61.14309334      95.94065700
N      86.34818814      56.12020080      94.88052053
H      84.87231189      56.32618097      96.07293784
H      86.72424369      54.58196358      93.81282516
C      89.80071813      63.21801283      84.70623406
O      91.36352178      64.80916239      85.32417456
N      89.85929963      62.35629764      82.30817136
H      88.62152890      61.00325360      81.78849664
C      91.61485538      63.25391763      80.29939229
H      93.26647618      63.83217389      81.38598493
C      92.37074591      61.19222623      78.36431255
H      90.75691964      60.14342812      77.63298847
C      93.74835638      62.33740037      76.04372864
H      95.60406762      63.14242378      76.44624035
H      92.61830005      63.78682045      75.11965248
H      94.03370506      61.00514332      74.49982224
C      94.06772014      59.22124168      79.71357714
H      93.17010013      58.96612863      81.55228085
H      95.99146153      59.93744796      79.86853469
C      94.05260233      56.70601596      78.33218720
H      95.06738535      56.93467284      76.55584447
H      92.08350751      56.12398026      78.17156048
H      95.04659836      55.37186918      79.54728123
C      90.41865863      65.58206045      79.17311542
O      91.55060468      67.59083952      78.75170644
N      87.98847058      65.26269671      78.30384131
H      86.96045947      63.71123140      78.73658864
C      86.70156697      67.27903468      76.70135340
H      88.15854595      67.33572647      75.24437442
C      83.99547889      66.44755510      75.80940258
H      82.79739241      68.11240399      75.61854023
H      83.12431506      65.47056660      77.39677269
C      84.06350904      64.86963363      73.31874329
O      85.31828730      65.86740913      71.54429029
O      82.59897115      63.01014294      73.23748506
C      86.51070462      69.89063645      77.87109398
O      86.79038410      71.88996688      76.54261639
N      86.09685454      69.96433577      80.37498135
H      86.30094500      68.28625881      81.26126300
C      86.64298546      72.33972175      81.69590005
H      87.74280616      73.66630962      80.56773344
C      84.03894260      73.65875071      81.79794527
H      82.90510681      72.68932112      83.21901945
H      83.24147809      73.64552263      79.89877032
C      84.56428650      76.52924498      82.28171521
H      85.75103463      77.16419302      80.72080127
H      85.71890928      76.90530052      83.94845381
C      82.10197313      78.14496098      81.96802063
O      81.98669982      79.49800502      80.10664021
O      80.41444752      78.17519660      83.60452362
C      87.90532262      71.91642305      84.36797305
O      89.30938929      73.58316166      85.17488618
N      87.41966296      69.80559876      85.65109721
H      86.07417784      68.58672529      85.05772315
C      88.48168915      69.26324731      88.21356610
H      90.48668878      69.65064120      87.94522496
H      88.41365900      67.22801207      88.52537094
C      87.45745749      70.71266739      90.46800959
O      85.63576133      72.11484432      90.03904171
N      88.17555350      70.10039607      92.83772638
H      89.31127900      68.63396845      93.29126071
C      87.13620403      71.42509421      94.99390411
H      85.10285851      71.64241274      94.74257051
C      87.65209931      70.03236592      97.55637298
H      86.68644915      71.04525922      99.06815403
H      89.67977563      69.92654125      97.90408264
C      86.66944162      67.38863881      97.85683947
H      87.48202394      66.26047220      96.33560980
C      87.71068081      66.12252218     100.37773437
H      87.33273555      67.34706483     101.98967092
H      89.75347497      65.93543927     100.17931312
H      86.90376768      64.28192875     100.83504815
C      83.79894735      67.06738533      97.68676411
H      83.25659590      65.26269671      96.85339480
H      83.05061574      68.66420407      96.62473791
H      82.97313696      67.30171140      99.55948288
C      88.11319252      74.21621998      95.16020002
O      90.26937025      74.75668170      94.47422937
N      86.41243884      75.80359008      95.95199535
H      84.56239679      75.39351947      95.72711792
C      86.89431906      78.45109664      96.76268794
H      88.92955430      78.72888641      96.92331468
C      85.62442297      80.23310856      94.77280612
H      84.99892356      82.04913554      95.51357885
H      83.98603026      79.18242073      94.09250465
C      87.65209931      80.73577576      92.81315994
H      88.41176928      79.10116250      91.81160500
H      89.12608582      81.74111015      93.83739160
C      86.37464432      82.53290548      90.84784458
H      85.85119012      84.15429066      92.00813654
H      84.78349477      81.51812245      90.01825472
N      88.00736785      83.31525217      88.80882988
H      88.32106242      85.19175040      88.66899014
C      89.21679270      81.98299512      87.05138442
N      89.10529883      79.53013037      86.91910358
H      90.29393669      78.55314186      85.78904723
H      87.68233492      78.69298161      87.87719481
N      90.59062373      83.27745765      85.42999923
H      91.51658961      82.17952666      84.17522096
H      91.10840874      85.11238190      85.56039036
C      85.63576133      78.75534258      99.38751779
O      83.43800963      77.97299589      99.72766853
N      86.99636427      79.95909824     101.12417626
H      88.51192478      80.87561550     100.41174944
C      86.48991763      79.96854687     103.86238969
H      85.12175577      78.45109664     104.13828974
C      88.90687758      78.85549807     105.22677210
H      88.45901244      78.53802405     107.21098473
H      90.31283396      80.35783049     105.14551386
C      90.11819214      76.35350044     104.38206443
H      91.13864435      76.57270869     102.60572169
C      92.11185341      75.31793042     106.19998115
H      93.09073163      73.66441989     105.45920843
H      91.20856423      75.11006052     108.03868485
H      93.76158448      76.50278881     106.53446271
C      88.19256103      74.29180903     104.16663564
H      89.33206599      72.62507042     103.75089585
H      86.89998823      74.66408511     102.60572169
H      87.20801363      74.20488162     105.97321399
C      85.66410723      82.63306097     105.01701248
O      85.14254277      82.96565281     107.28846351
N      85.68111476      84.60782497     103.54113623
H      86.39921075      84.37349891     101.78935993
C      84.72680297      87.07580754     103.94175821
H      83.42289181      86.95864450     105.53101803
C      86.88487043      88.87482699     104.48410965
H      86.17811277      90.73809713     104.99433576
H      88.04138292      88.65372901     102.79280460
C      88.51003504      88.25121730     106.92185660
H      89.69111399      86.63550131     106.42674830
H      87.26470541      87.95830972     108.53757260
C      90.17677366      90.55479368     107.62672452
H      88.82372961      92.00988294     108.16151705
H      91.20667449      91.21997734     105.96943454
C      91.91721159      89.83102850     109.92463170
H      90.72668401      88.86159890     111.29846273
H      92.80727268      91.58091507     110.54068248
N      94.05449205      88.21720223     109.28968367
H      95.27714497      88.95419549     108.02167732
H      93.46678716      86.55424307     108.56402876
H      95.17698949      87.99421452     110.82036197
C      83.16777877      87.64650488     101.55881332
O      83.72902748      86.79045886      99.48200410
N      81.35553122      89.39072227     101.79691884
H      81.34608259      90.31857789     103.46365744
C      79.44123848      89.93496345      99.73522743
H      78.35086639      88.28712210      99.15508145
C      77.38710597      91.63571713     100.60450153
H      78.41322736      93.28166875     101.29614137
C      75.41234198      92.56546248      98.56359711
H      76.51972159      93.82024075      97.36551063
H      73.82875132      93.72953388      99.17964789
H      74.57708295      90.90817250      97.66786684
C      75.74304408      90.23920938     102.56792717
H      76.86365179      88.83892219     103.58271021
H      74.14811507      89.21875718     101.75723458
C      74.78495283      91.95886033     104.74300215
H      76.47058871      92.71853031     105.65762969
H      73.90245065      90.72108959     106.13195100
H      73.41490126      93.40261123     104.21387878
C      80.76971607      90.90628277      97.30503938
O      82.45913139      92.42940218      97.41653325
N      80.04217145      89.86315385      95.09216987
H      78.67589932      88.56302214      95.38696719
C      80.45980095      90.73242795      92.55993661
H      81.38009768      92.55790357      92.33127974
C      82.15677518      88.76711259      91.13697271
H      83.91611038      88.74443587      92.20844752
H      82.61219923      89.57780517      89.30015872
C      81.11175654      86.05913478      90.59084179
C      80.98136541      85.33725933      88.09451333
H      81.25159629      86.85659928      86.75847684
C      80.35964546      82.89573293      87.19122416
H      80.35775574      82.54613356      85.18055537
C      79.75871249      81.00789635      88.87874976
O      79.30895763      78.53424460      88.37986201
H      79.56407068      78.17519660      86.62052682
C      79.83241183      81.67119028      91.47145427
H      79.21258159      80.13862224      92.67143046
C      80.45791124      84.17318792      92.36718454
H      80.42200643      84.50955920      94.38163278
C      78.09386362      91.18785199      91.00280213
O      76.13799687      90.16362033      91.59806592
N      78.30173350      92.62404399      88.84851413
H      79.83052209      93.75599005      88.70300521
C      76.37232295      92.78467073      86.82461725
H      74.44858156      93.02088652      87.52192626
C      76.69168669      95.32068344      85.57550817
H      75.52950501      95.57012731      83.89176202
H      78.62109725      95.43784647      84.87441971
C      75.99248796      97.55245022      87.27437212
H      77.32663472      97.52410432      88.84284496
H      74.02906232      97.52977350      87.89609208
C      76.18146058     100.21696432      86.06305756
H      74.54306787     100.67427808      84.90087587
H      77.98614922     100.41916503      85.08795878
C      75.98303932     102.21629476      88.06616744
H      77.39088542     101.80622415      89.51558753
H      74.17268151     102.23141257      89.04315594
N      76.51783187     104.87891913      87.26303376
H      76.18712977     106.11291041      88.68032849
H      75.49360021     105.67827336      85.86274657
H      78.33385885     105.29465892      86.85296315
C      76.50838323      90.65872863      84.80449982
O      78.59653081      89.94063263      83.90310038
N      74.19724795      89.96141962      83.94656409
H      72.56830387      90.50755052      84.77615393
C      73.98181916      88.48365364      81.72046649
H      75.46336458      87.06257945      81.56172947
C      71.46092426      86.94541642      81.80739389
H      69.86221579      88.20964332      81.50881713
H      71.15289886      86.12338547      83.67066404
C      71.48360096      84.95742434      79.62853946
O      72.43791275      82.85604868      79.98002855
O      70.32330902      85.35048741      77.62165011
C      74.07630547      90.31668816      79.50570724
O      73.46592387      92.57302138      79.69467987
N      74.64700282      89.20363936      77.22858704
H      75.49548993      87.50666514      77.45913365
C      74.33141853      90.36204159      74.68501542
H      75.96792152      91.56957671      74.35998249
C      74.64700282      88.41562349      72.68001581
H      73.06719162      87.11549179      72.91623159
C      74.79062201      89.22442635      69.94369210
H      73.21459028      90.45463818      69.44669408
H      74.54306787      87.38383293      69.05741047
H      76.67089970      90.02189086      69.66401261
O      76.72003258      86.89250408      73.06740970
H      77.23592787      86.04590670      71.54806974
C      71.78406745      91.66028357      74.29762153
O      71.63855853      93.78811540      73.38866318
N      69.69214042      90.68329507      75.27649976
H      69.94158429      88.87293726      75.82641011
C      67.22226814      91.99665486      75.71302654
H      66.92747083      93.05490159      73.97069888
C      65.07364931      89.87071275      75.94924233
H      64.75050612      89.33403048      77.91077824
H      65.76717887      88.14728236      75.05729150
C      62.47905508      90.42062311      74.66800789
H      61.81576115      92.24798845      75.34452991
H      61.05798091      89.02600509      75.19902097
C      62.85322089      90.37715941      71.76349855
O      63.11022368      92.47853507      70.74304634
O      62.86833870      88.31924745      70.58619905
C      66.98605234      94.24542917      77.59519395
O      64.83932325      95.05423203      78.10353033
N      69.04963348      95.35658824      78.58163107
H      70.78440223      94.90116420      77.92778577
C      68.74916699      97.63181872      80.24459024
H      67.62100039      99.06234154      79.27894008
H      70.65779058      98.35558390      80.49970329
C      67.77973739      97.01576794      82.89020708
O      67.43958667      98.51621064      84.57962240
N      67.42257912      94.54211620      83.41744071
H      67.84398810      93.24387422      82.08329394
C      66.29252278      93.47820028      85.84384930
H      65.29663702      94.96919435      86.85674260
C      64.65790953      91.24832324      85.19378345
H      63.95115188      90.36771077      86.91532413
H      65.90512889      89.84614631      84.35285523
C      62.40913521      91.57335616      83.47791195
C      61.47183096      89.54190037      82.09652203
H      62.44692974      87.75799874      82.25525903
C      59.20415938      89.74599082      80.68300675
H      58.39913598      88.12271591      79.73814358
C      58.27441405      92.16484050      80.32395874
O      56.29587059      92.45207890      78.79517015
H      55.94816095      94.23409081      78.82162633
C      59.32888132      94.28700315      81.52771441
H      58.80542713      96.23531098      81.21968902
C      61.44537479      93.93929351      83.00359066
H      62.22583176      95.46808209      84.10908055
C      68.30697104      92.44451999      87.56161052
O      70.08898296      91.52611300      86.53359940
N      68.07642442      92.56357275      90.09006432
H      66.64212215      93.67851127      90.67776921
C      69.95670211      91.76043907      91.90609131
H      71.85020787      92.16106104      91.20311312
C      69.74316304      93.37615506      94.29092592
H      70.97904404      92.70908168      95.79514807
H      67.73060451      93.55189961      94.68398899
C      70.60298850      96.00665409      94.09628410
C      68.69625465      97.92472630      94.13974781
H      66.67991668      97.59780365      94.15486563
C      69.44269655     100.56089451      94.13029919
H      67.87989289     101.87425429      94.14163755
C      72.06374694     101.18450419      93.91487039
O      73.05207380     103.50508810      93.56338128
H      71.88989212     104.88647804      93.39330592
C      73.82686159      99.22107855      93.96778273
H      75.74115435      99.92216701      94.07360740
C      73.11632450      96.59435897      93.92242928
H      74.64700282      95.26210192      93.71077995
C      69.57119794      89.00899755      92.70922499
O      67.37533597      88.16428989      93.06638327
N      71.71225785      87.68996859      93.13630314
H      73.38655536      88.57058105      92.88496954
C      71.71414759      84.93285790      93.76747173
H      69.90756923      84.26956396      94.50257526
C      72.10343120      83.54012960      91.32972478
H      72.44169221      81.54079917      91.68688306
C      69.91701786      83.77634539      89.52881562
H      69.99638637      82.44030889      87.96223249
H      69.76772948      85.66418198      88.72001274
H      68.05374772      83.40406931      90.32628012
O      74.12543836      84.32814548      89.90109169
H      73.97614997      83.70831525      88.20222774
C      73.83253078      84.30735849      95.64774941
O      75.45013650      85.95142038      96.11073236
N      73.91567874      81.99811293      96.64363517
H      72.74593814      80.58648738      96.11073236
C      75.93012698      81.01167580      98.12896007
H      77.69324163      81.70331563      97.32015720
C      75.83942013      81.79402249     100.96354953
H      75.02116863      83.67807963     101.13362489
C      74.43913292      79.66997012     102.52824291
H      73.87977394      80.37672776     104.38017471
H      75.79784614      78.12228427     102.57737581
H      72.57964223      79.34304746     101.69865307
C      78.66078150      82.13606295     101.87817706
H      79.64343919      83.43052548     100.61017072
H      79.89099333      80.48444216     101.79880857
C      78.75904728      83.40028986     104.55025008
H      78.05795882      82.17007803     106.04502358
H      77.41923131      84.96687297     104.56158844
H      80.66578112      84.01256118     105.03024056
C      76.20791675      78.12795344      97.78502987
O      74.44102265      76.94687450      97.02535990
N      78.33007940      76.97144094      98.52580259
H      79.91367006      77.85394313      99.12673556
C      78.64188424      74.23322751      98.52013340
H      76.81073944      73.30915135      98.69965741
H      79.90800087      73.60016920     100.01490692
C      79.26360421      73.48111644      95.85183986
O      81.29317026      74.25212478      94.96555821
N      77.75371287      72.03925526      94.49879581
H      76.05484892      71.48745518      95.16586921
C      77.82741221      72.13185185      91.74168513
H      79.12376445      73.55670549      91.00847132
C      78.74203973      69.76402478      90.43210479
H      77.10175729      68.52058487      90.32250067
C      79.36186997      70.46889270      87.77137014
H      78.01638483      71.73878878      86.86808096
H      79.26171447      68.72656504      86.67721861
H      81.06640311      71.61784630      87.61452285
C      80.78672360      68.37129649      91.71900841
H      80.17823173      67.30927030      93.37440865
H      82.27015876      69.67709737      92.30482356
C      82.01504571      66.33417152      90.01069582
H      82.94857052      67.12596685      88.35529558
H      80.53350029      65.14931313      89.20945187
H      83.20179383      65.00002475      91.03870693
C      75.18935426      73.01624377      90.86296239
O      73.37899647      71.60839766      90.70422537
N      75.14211112      75.52391058      90.56816509
H      76.89955658      76.26279357      90.64753358
C      73.16167794      77.00167656      89.25480530
H      72.62121622      76.00012162      87.53893380
H      73.92890682      78.84793917      88.76914564
C      70.65968029      77.29458414      90.66076168
O      68.87199921      78.02023904      89.53259507
N      70.41212616      76.35350044      93.09094971
H      71.89367157      75.50312360      93.93754710
C      68.00272510      76.23255795      94.40997867
H      66.65157078      74.98533859      93.48212305
C      68.38633954      74.98911804      96.97244756
H      69.50505752      76.17586616      98.23100529
H      69.25372393      73.12962735      96.79103384
C      65.71804599      74.49778920      98.15919568
N      64.17602931      72.37184709      97.81715522
H      64.46326772      70.87518385      96.66631190
C      62.16725024      72.58727589      99.44798902
H      60.69704317      71.19643733      99.71444044
N      62.40346604      74.85494747     100.62717825
H      61.11656241      75.39162974     101.93486885
C      64.58421021      76.09838738      99.92797952
H      65.42135895      77.76512599     100.75190019
C      66.69314476      78.84226999      94.76713696
O      67.70792779      80.50144969      95.86128848
N      64.47271634      79.29958376      93.58038882
H      63.68659020      77.77457462      92.74135035
C      63.11022368      81.69386700      93.38007784
H      64.40468620      83.02234459      92.48434757
C      61.02207610      81.63528548      91.33161452
H      59.57265601      80.30302843      91.94199611
H      61.90835774      81.00033744      89.58361767
C      59.77485674      84.23176944      91.03114804
H      59.02652511      85.08025655      92.75079898
C      61.57765563      86.18007726      89.74046495
H      62.15213243      85.56402649      87.86018727
H      63.15179765      86.47676429      91.03303776
H      60.72349935      87.95830972      89.14142172
C      57.52230296      84.00311255      89.44188820
H      55.97083766      83.23777339      90.56249590
H      57.84355644      83.01289596      87.66554547
H      56.84389123      85.79457310      88.68599768
C      62.40913521      82.95998363      95.90097274
O      60.70271235      81.92819306      97.21811197
N      63.70548746      84.97443188      96.48867763
H      65.00183971      85.60371074      95.23389936
C      63.03274490      86.36716017      98.81115127
H      62.24094957      85.10482299     100.23411517
C      65.50450692      87.38005347     100.02246583
H      64.89979449      88.43263103     101.68542498
H      66.49472350      88.67073654      98.76012865
C      67.30352636      85.26356000     100.99567487
H      68.06508607      84.29790986      99.34216435
C      69.44458628      86.78101023     102.22210725
H      68.97971361      87.82602888     103.93230956
H      70.21181516      88.19074606     100.92953446
H      71.02250774      85.55079840     102.70587719
C      65.98827685      83.46265083     102.89673955
H      65.35521854      84.78923870     104.34049046
H      67.33187227      82.08693007     103.63940199
H      64.39712729      82.61605344     101.90274350
C      61.22805626      88.59703722      98.26879980
O      59.42147791      89.02789482      99.59349796
N      61.70615702      90.17117924      96.36584541
H      63.15179765      89.84236686      95.16964866
C      59.87501222      92.23098092      95.76680218
H      57.92292494      91.62248905      96.02380494
C      60.36067189      94.44762988      97.53180654