 %block lattice_cart
   139.252   0.000   0.000
   0.000 142.425   0.000
   0.000   0.000   162.84
 %endblock lattice_cart

 %block positions_abs
N      93.27781454      43.60737802      78.57123759
H      94.98801685      44.38594526      78.91138832
H      93.22679193      42.70408885      76.89127089
H      92.86963365      42.44708607      80.03010630
C      91.43533138      45.74654820      77.98731216
H      92.02492599      47.17140184      79.35358428
C      91.95878557      46.90117099      75.32090833
H      90.90620801      45.65962079      74.06046088
H      93.94866738      46.87282509      74.78800551
C      90.84951622      49.51466247      74.85036648
H      88.80294263      49.37860218      74.67273220
H      91.30494027      50.27433245      72.99087578
S      91.70556224      51.78611350      77.31834904
C      95.11840797      51.78044432      76.96497022
H      95.79492999      52.96719245      78.50887662
H      95.68532586      52.47775333      75.11114871
H      95.84595260      49.87371047      77.24464971
C      88.74436111      45.13994606      78.58635540
O      88.02626511      42.97809916      78.07423957
N      87.53493627      46.92951688      79.75798571
H      88.61019054      48.37137806      80.39104403
C      84.89876807      46.82558193      80.79544546
H      83.83863160      45.60103928      79.52554937
C      84.99892356      45.57836256      83.40704722
H      86.11953126      43.86249107      83.19539787
H      83.12809451      45.02089330      84.06467198
C      86.29149636      47.24510117      85.30811189
O      85.41466335      49.30490285      86.21707025
N      88.55160903      46.53078462      85.81833800
H      89.61363522      47.44919161      87.10713134
H      89.15254200      44.80357477      85.27409682
C      83.68178432      49.44096315      80.82757080
O      85.00837219      51.32313055      80.55922967
N      81.17600723      49.68473785      81.16016263
H      80.07240706      48.14083144      80.95796192
C      79.59052685      52.00532175      81.42094487
H      79.73981523      52.81790407      79.53688773
C      76.70302505      51.52722100      81.94250933
H      76.16823250      49.76410635      81.02410234
C      76.10965098      50.91305995      84.75064263
H      74.27094728      50.03433722      85.05677829
H      76.01138522      52.55334239      85.99408254
H      77.55340189      49.53355974      85.24197147
C      75.11376522      53.71741379      81.22441333
H      75.40478307      55.36903459      82.42249981
H      73.15033958      53.15994454      81.49275447
C      75.27817141      54.61692352      78.45029510
H      77.14144155      55.36903459      78.00998887
H      74.03095204      56.24775733      78.26888138
H      74.64700282      53.01254588      77.32023877
C      80.49948521      54.15016112      83.29744309
O      80.19901872      56.35169227      82.75131219
N      81.54261413      53.50576445      85.54810713
H      81.71835868      51.63115594      85.85235307
C      82.53849990      55.21029758      87.36791357
H      81.12498462      56.70129164      87.49641496
C      82.73692116      53.94796040      89.94927972
H      83.24147809      55.29911472      91.42137651
H      84.10319329      52.40783346      89.92282355
C      80.30106395      52.86136777      90.89414287
C      78.26015953      54.53755501      91.48184776
H      78.20346774      56.44617859      90.75808258
C      76.01516467      53.67961928      92.31899651
H      74.49393499      55.00620714      92.60623491
C      75.68068311      51.02266407      92.73473630
H      73.78906707      50.33669342      93.06543841
C      77.83308138      49.42962479      92.57599929
H      77.77449987      47.50777314      93.26385967
C      80.04028171      50.36503931      91.52342174
H      81.61820319      49.11215077      91.17949155
C      85.00081329      56.38948680      86.39659425
O      85.46379623      58.67416591      86.53643400
N      86.72613341      54.85313931      85.34590642
H      86.49936625      52.95774382      85.32322970
C      89.17710844      55.83957644      84.36135901
H      90.03504418      56.88648482      85.91282431
C      90.93077446      53.49064664      83.82089728
H      90.23724490      52.55523211      82.12203333
H      90.84762650      52.22075055      85.43850301
C      93.72378995      54.29567004      83.41649585
H      93.83150435      55.58068394      81.81211821
H      94.61574077      52.69885131      82.47163270
C      95.37163129      54.93817699      85.75030785
O      97.75646590      54.35992074      85.67660852
O      94.52314418      56.26665459      87.53609921
C      88.78971454      57.52710204      81.96518604
O      89.87819690      59.63792633      81.84424356
N      87.14754238      56.83168276      80.28710908
H      86.27070937      55.16305442      80.58757556
C      86.24992238      58.47952410      78.16683615
H      87.70879109      58.55133370      76.71174689
C      84.09752411      56.96018416      77.00465447
H      82.54794853      56.89971290      78.36147797
H      84.57940432      55.04211194      76.43584685
C      83.03549792      58.06189459      74.67273220
H      84.37909333      57.72174385      73.14961279
H      82.92967325      60.11791682      74.70863700
S      80.18012146      56.67105602      73.63905191
C      80.18957009      57.88992949      70.34714867
H      81.56529085      56.68995328      69.39283688
H      80.59397152      59.90815720      70.36415621
H      78.28283624      57.72363358      69.58747869
C      85.49781131      61.19128136      78.77721775
O      86.30472444      62.93927821      77.50354222
N      84.29216592      61.40859989      80.98063863
H      84.03894259      59.86658322      82.07479017
C      83.15455068      63.66304338      82.03321619
H      82.64432457      65.02175661      80.57245775
C      80.71113456      63.04132342      83.55066642
H      80.52216192      64.55310447      84.93583581
H      81.16088942      61.16482519      84.26687269
C      78.23370336      62.65770898      82.04455455
H      78.37543283      60.76609294      81.24142087
C      76.11343044      62.75030557      83.97963429
H      75.77705915      64.66837778      84.65426659
H      76.49704488      61.56544717      85.61991673
H      74.34275688      62.14748288      83.11980882
C      77.52694572      64.69105450      80.02821657
H      77.58174778      66.63369314      80.70851805
H      75.60131461      64.52097912      79.31201030
H      78.94235073      64.51153049      78.53911224
C      85.15010166      65.34867926      83.41460613
O      85.05939480      67.68816043      83.25019994
N      87.07384305      64.17137976      84.52387547
H      87.02093071      62.26842536      84.37836655
C      89.39820642      65.29387719      85.48196671
H      88.99002553      67.05321238      86.47407303
C      90.82494978      63.48162965      87.16949231
H      92.44255551      64.45483871      87.99341298
H      91.23313067      61.72796363      86.16982709
C      89.30749955      62.87313778      89.61668789
H      87.56139244      61.97173833      88.99118848
H      88.72546385      64.62680380      90.52375652
C      90.66999223      61.26120123      91.58767243
H      89.63442221      61.39537180      93.36401516
H      92.60885142      61.92638490      91.80121150
N      90.82683951      58.49464191      90.82233327
H      92.06649997      58.43228094      89.37102346
C      89.71568044      56.36492036      91.71806355
N      88.02815484      56.40460461      93.47739874
H      87.26659514      54.78699889      94.14258240
H      87.91477126      58.14882200      94.24840708
N      90.52826275      54.26543442      90.71083942
H      89.81961538      52.64215952      91.41948679
H      91.99469037      54.29567004      89.49196595
C      91.16887997      66.17071021      83.36169379
O      92.34428974      68.14736393      83.83412537
N      91.19155669      64.94427783      81.18472908
H      90.39598191      63.20950906      81.16772154
C      92.35751782      65.84567727      78.89438079
H      94.18110371      66.62613425      79.44807060
C      92.85451584      63.58556460      77.11236887
H      91.11218818      62.55188431      76.73631334
C      93.82205572      64.51908940      74.41006024
H      92.36129728      65.67749163      73.53511696
H      94.16220645      62.89392477      73.18929705
H      95.50958131      65.64158683      74.78989523
C      94.43243731      61.52198347      78.39738277
H      94.09228658      61.38025399      80.42505910
H      96.29570746      62.37802949      78.19518205
C      94.22834687      59.06722900      77.06890517
H      92.34617946      58.23952886      76.95552159
H      95.43588199      57.81623018      78.17250533
H      95.20911483      59.17116393      75.26232681
C      90.91376692      68.02831116      77.50732167
O      92.16476574      69.73284430      76.65694483
N      88.44011518      68.13224611      77.41850453
H      87.50470065      66.74896645      78.33691152
C      86.98880537      70.02386215      76.02388652
H      88.11130280      70.52652936      74.37037599
C      84.46224129      68.95805652      75.13571515
H      83.19990411      70.57755196      74.97508841
H      84.00114807      67.40659120      76.41128041
C      84.45657211      67.92059676      72.50332639
O      83.14132259      65.90992796      72.03278454
O      85.85307985      68.78042224      70.78745490
C      86.60141147      72.52019061      77.40905590
O      86.48424844      74.56676420      76.13538037
N      86.26881964      72.48806526      79.94317889
H      86.36897514      70.83833419      80.89749068
C      85.43734006      74.70282450      81.50787228
H      85.30127977      76.38657065      80.32490360
C      82.74448007      74.27385663      82.54722175
H      82.80684104      72.67136871      83.83979455
H      81.66544634      73.77685862      80.86536533
C      81.41033329      76.49806451      83.72074179
H      82.68022937      77.71693798      84.79221661
H      79.87776525      75.91602879      84.96418170
C      80.13098858      78.21393599      81.84613329
O      81.59174702      79.00384160      80.18506386
O      77.85197864      78.69392647      81.88581754
C      87.45934722      75.25840403      83.72830069
O      87.99602949      77.44859683      84.42560970
N      88.61397000      73.32332429      84.78465770
H      88.41932819      71.59044526      84.00609046
C      90.23913463      73.33655237      87.04854983
H      92.05894107      74.26818746      86.78398814
H      90.79282444      71.39391373      87.43972317
C      88.92010566      74.31165115      89.37669264
O      86.70912587      74.69148614      89.40692826
N      90.51881412      75.02218826      91.27208814
H      92.27436986      74.29653335      91.07744633
C      89.53804616      75.69304109      93.90447689
H      87.48958284      75.63445957      93.68526864
C      90.42810726      73.69749010      95.88302034
H      92.48412949      73.84488875      95.89246897
H      89.98780103      71.84177887      95.10823255
C      89.68166536      74.03764084      98.77997078
H      90.02748528      76.03319182      99.16547494
C      86.96045947      73.76363052      99.35444758
H      86.44456419      71.78130763      99.57932501
H      85.90221274      74.57999230      97.78219528
H      86.35007787      75.07321086     100.82087520
C      91.41076494      72.40869675     100.51851899
H      93.39497757      72.80364955     100.14624290
H      90.99124570      70.42070467     100.17647852
H      91.23502039      72.98128383     102.48950353
C      90.33551067      78.37456273      94.68871331
O      92.39531235      79.14368133      94.14447213
N      88.47979943      79.66713552      95.97183748
H      86.69022861      79.01140050      95.96994775
C      88.81617071      82.37322360      96.89402392
H      90.83817787      82.70770516      97.10000408
C      87.50092120      84.35554651      95.17437297
H      87.51792874      86.20558858      96.07955188
H      85.56206200      83.80941560      94.74162565
C      88.85585496      84.55396777      92.66292670
H      88.88420086      82.62077776      91.95616906
H      90.81172170      85.11332677      92.99551853
C      87.91288153      86.33975914      90.49163117
H      89.60985576      87.12588529      89.62991597
H      86.68266970      87.73248743      91.37980254
N      86.56172722      84.64467464      88.63591993
H      85.70568120      83.01195111      89.12913850
C      86.37275459      85.10954731      86.16793736
N      87.29683076      87.17501817      85.09268309
H      87.17021909      87.47548466      83.21240541
H      87.72957808      88.61498962      86.26998259
N      85.96457371      83.23871826      84.65993577
H      85.64143051      83.45792651      82.79099644
H      86.01181686      81.46426525      85.36480368
C      87.78060069      82.43747430      99.53397158
O      85.62253324      81.92724820     100.05742576
N      89.33017627      83.24627717     101.30086568
H      90.88164157      84.08909510     100.57332105
C      88.77648646      83.43524980     104.18458803
H      87.39509652      81.96504272     104.59843809
C      91.29549163      82.81352983     105.55086016
H      90.89109020      83.00250248     107.56341868
H      92.68633020      84.31019308     105.30897519
C      92.49357812      80.21893561     104.94992719
H      92.58995416      80.19814862     102.89201523
C      95.06738536      79.59343620     106.18013902
H      95.15242304      79.63689991     108.23805097
H      96.31838417      81.01640012     105.36944643
H      95.58139091      77.73961468     105.44503548
C      90.71345593      78.16480311     105.73983279
H      91.48446427      76.25428980     105.80408348
H      89.36608107      77.78118867     104.22994146
H      89.73268797      78.48416685     107.52184470
C      87.43100132      86.01661594     105.03685460
O      86.72991286      86.25283172     107.30452618
N      87.14754238      87.82697375     103.31909338
H      88.10185417      87.89122445     101.66747258
C      85.82851341      90.22881589     103.80475304
H      84.81750983      90.45747277     105.58298550
C      87.81272604      92.23192578     103.58743452
H      88.82372962      91.90878259     101.82243014
H      89.03537896      91.99759972     105.23149641
C      86.86030398      95.05139744     103.66869275
H      85.37119964      95.33107693     105.06331077
H      86.04772166      95.45957832     101.81865069
C      89.10718856      96.89010114     104.23183119
H      90.75502991      96.44223600     103.08287759
H      89.59851741      96.81073263     106.23116163
C      88.11886170      99.64910156     104.08632226
H      86.81306082      99.69445500     105.67747182
H      86.81117109     100.24625507     102.61233574
N      90.31850313     101.48213609     104.09766062
H      91.30494027     101.31772989     105.72282525
H      89.62119412     103.23958156     103.83309894
H      91.71123142     101.07773466     102.85988989
C      83.86130832      90.70124746     101.80920206
O      83.96524327      89.73181787      99.73617229
N      81.75615321      91.98059219     102.46682681
H      81.71646895      92.64766557     104.25450791
C      79.81729401      92.83285875     100.62434366
H      78.90455620      91.15478179      99.84955587
C      77.52316627      94.28605828     101.97927742
H      78.39055064      96.01137840     102.69548370
C      75.53895364      94.95124194     100.00073398
H      76.17579140      96.34019079      98.62123377
H      73.87977393      95.84697223     100.82843410
H      75.16100837      93.19379647      98.99350985
C      76.17579140      92.81963067     104.06553527
H      77.50993818      91.90689285     105.34110054
H      75.09486795      91.23604001     103.31531393
C      74.45425073      94.57896586     105.75684032
H      73.99315751      93.30718006     107.30830563
H      72.62310594      95.05139744     104.94047856
H      75.40289334      96.31184490     106.34265548
C      81.08341064      94.25393293      98.47005566
O      82.56495607      95.96035579      98.96705368
N      80.40688862      93.51127049      96.18915600
H      78.97069662      92.25649222      96.29687040
C      81.43112028      94.43156722      93.81943921
H      82.49503620      96.18901268      93.95927895
C      83.28683152      92.46625184      92.66292670
H      84.65877282      92.04862234      94.14258240
H      84.16744398      93.46780680      91.09445386
C      82.21346697      90.01149736      91.68215875
C      81.97536146      89.75260486      89.11968987
H      82.37787316      91.38343866      87.96128764
C      81.09096954      87.49060246      88.18427534
H      80.69979620      87.19958461      86.20195244
C      80.55617700      85.50827957      89.95683862
O      79.66989536      83.27273333      88.99496793
H      79.24281721      83.41824225      87.23752246
C      80.87176129      85.73315700      92.56088148
H      80.36342491      84.16279442      93.76274742
C      81.76371211      87.94413678      93.50574464
H      82.03961215      87.97626213      95.52775179
C      79.30139873      95.05895634      91.95427933
O      77.20380252      94.01015824      92.13758279
N      79.75871249      96.32507298      89.90203656
H      81.58607784      96.82962990      89.65826186
C      78.15055540      97.14710393      87.85546296
H      76.26649827      96.77860730      88.60001513
C      78.35275612     100.07617970      87.36035467
H      80.04217144     100.21412972      86.18494490
H      78.57952327     100.88876203      89.23874262
C      75.69958037     100.91143873      86.45139631
H      74.26149865     100.52782429      87.87624995
H      75.26305360      99.84941255      84.74308372
C      75.67690366     103.75358711      85.87125033
H      74.17268151     104.16743718      84.52576520
H      77.41356214     104.03515634      84.79410633
C      75.77138997     105.60740863      87.97640545
H      77.68757245     105.71701275      88.72473707
H      74.20102741     105.25025035      89.26141934
N      75.28384058     108.12830353      86.99941694
H      73.50938758     108.42499055      86.35879972
H      76.61798736     108.37585767      85.65960099
H      75.45391595     109.50780374      88.30710755
C      78.68156850      95.46713723      85.44228246
O      80.73570100      95.39154817      84.43505834
N      76.80695999      94.01204798      84.70717892
H      75.20825153      94.02905551      85.74841812
C      76.81073945      92.35853744      82.46218406
H      78.70046576      91.58563939      82.20518129
C      74.96447684      90.03795353      82.73808411
H      73.09364779      90.87699201      82.92138756
H      75.45769541      89.05151639      84.47663231
C      74.92479259      88.39011218      80.45151527
O      73.46970332      88.94758146      78.65438554
O      76.46114008      86.64211535      80.27766045
C      76.29106471      93.94968700      80.06223165
O      75.65989612      96.15688733      80.25309400
N      76.93168193      93.09742044      77.80778816
H      77.22458951      91.22092220      77.61314635
C      77.31340664      94.64132684      75.47019671
H      78.40188900      96.31562435      75.97853308
C      78.75526782      93.36576157      73.30646008
H      78.45858079      94.43723639      71.57358105
C      81.41222302      93.51316023      74.15116774
H      82.33063001      95.32918721      73.84125262
H      82.68400883      92.26216141      73.12315663
H      81.51615797      92.99537521      76.14104955
O      77.89733208      90.82785914      72.89449974
H      79.25037612      89.96803367      72.04223317
C      74.87754943      95.93389963      74.49320820
O      75.00794054      97.61953550      72.96252989
N      72.67034909      95.09108169      75.34925422
H      72.59476004      93.42812253      76.28088929
C      70.14567474      96.28349900      74.91272744
H      69.76395002      96.75593058      72.94741208
C      68.03485045      94.62998848      75.92562075
H      66.18858784      95.50115231      75.64783098
H      68.49216422      94.21424869      77.88715666
C      68.09532169      92.26027167      74.30045612
H      67.16935580      90.80329270      75.42484327
H      70.02851171      91.65555925      73.92440058
C      66.77440300      92.46625184      71.66239819
O      65.89379054      90.48959812      70.78178572
O      66.69692422      94.50148709      70.37927402
C      69.97748910      98.73069458      76.42072904
O      68.10099087     100.15554822      75.97286391
N      71.58375646      99.10108093      78.38415468
H      73.14089095      98.00314994      78.27455055
C      71.34187150     101.01159423      80.34380087
H      70.52173028     102.75770134      79.61625624
H      73.29017932     101.27993537      80.96174137
C      69.72048632     100.21790918      82.51698613
O      68.25405870     101.52371006      83.72263152
N      70.14000556      97.80283895      83.31256091
H      71.20959065      96.74648194      82.13715114
C      68.55830464      96.35152915      85.20417694
H      67.23549622      97.72724991      85.98463391
C      67.01439824      94.14243909      84.02687745
H      66.33409677      92.89144026      85.51598179
H      68.20870527      92.88388137      82.91193893
C      64.95459656      94.83785836      82.13148196
C      64.10610944      92.85175602      80.48742007
H      64.50106224      90.87510230      80.81056327
C      62.62834347      93.40355609      78.42761839
H      62.22394204      91.91256204      77.09158188
C      61.96315980      95.90744347      78.01376832
O      60.46838629      96.44034629      75.91050294
H      59.50651560      97.96535542      76.08813721
C      62.35433315      97.81984650      79.78444188
H      61.33577067      99.58296114      79.66349939
C      63.73950254      97.28127449      81.93495042
H      63.81698132      98.71746648      83.38059105
C      69.96426101      95.32351804      87.39814919
O      72.05996749      94.43723639      87.03154229
N      69.24805474      95.75437564      89.81321942
H      67.76650931      96.88821142      90.21006195
C      70.75605634      94.93990358      92.12057525
H      72.65523128      95.46713723      91.51775256
C      70.19102817      96.68601071      94.41092354
H      71.13589133      95.73358864      95.97372720
H      68.17091074      96.73892303      94.79831744
C      71.42879891      99.41288578      94.14069268
C      69.86977470     101.58418130      93.80621112
H      67.85532645     101.25158948      93.82888784
C      71.00550021     104.01625907      93.87235154
H      69.99638636     105.73402028      93.43204531
C      73.58686636     104.21657006      93.93849196
O      74.79440147     106.48802108      93.79865222
H      73.57930745     107.82783704      93.63235630
C      75.06274261     102.06984096      94.09533925
H      77.01482989     102.60841296      93.84589537
C      73.97992943      99.66610909      94.33155504
H      75.03628644      97.92756089      94.47517424
C      70.48582548      92.16389563      92.81599453
O      68.36555255      91.11887698      92.72906712
N      72.54940661      90.93746326      93.39614051
H      74.03851094      92.05996068      93.79487276
C      73.10498615      88.24082381      93.13913773
H      71.43257836      87.07486267      93.44338367
C      74.09709246      87.70981072      90.42360102
H      76.04351056      88.34475875      90.17793660
C      73.84008968      84.93947195      90.01730986
H      75.01549945      84.62010820      88.35624043
H      71.91256884      84.24405265      89.84156532
H      74.57708294      83.80752588      91.57255462
O      72.67223882      88.92868419      88.60946376
H      72.70814362      90.71258582      88.93071723
C      75.13644193      87.48871274      95.05720994
O      76.52917023      89.14789244      96.04931625
N      75.01927890      85.13600347      96.11545668
H      73.41112181      84.17413279      95.74884977
C      76.85420315      84.20436840      98.17525836
H      78.58141300      85.32686584      98.18281726
C      75.75627216      84.32720062     100.90780261
H      75.47848239      86.35487695     101.14590812
C      73.12955259      83.04974562     100.82654437
H      71.74627293      84.03996222      99.66625242
H      72.44169221      83.22737990     102.75973439
H      73.35820947      81.09954808     100.20671414
C      77.46647448      83.38800664     103.14712829
H      77.90111153      81.40190429     102.79563919
H      76.50649351      83.69981148     104.94047856
C      79.81162483      84.99616374     103.35310845
H      81.09474900      84.30452390     104.81008744
H      79.24848639      86.91423593     103.83876812
H      80.90955582      85.30985829     101.63723696
C      77.96536222      81.51528787      97.48739798
O      76.78050382      80.16602327      95.85467444
N      80.02138445      80.65735212      98.59855705
H      80.92278390      81.89323312      99.73806202
C      80.91900445      78.04008118      98.29242139
H      79.43934875      76.71160357      98.82721393
H      82.64999375      77.89268252      99.39791128
C      81.62387236      77.27852147      95.66381209
O      83.28683152      78.49172576      94.50163040
N      80.34830710      75.33210336      94.66036741
H      79.30895763      74.27763609      95.86601280
C      80.63932496      74.20204703      92.15648005
H      82.10953203      75.10155675      91.02642371
C      81.12876407      71.27864042      92.29631980
H      79.54895287      70.24873959      93.12213020
C      81.58985729      70.22984232      89.60534953
H      79.83997073      70.14291492      88.51875690
H      82.11709093      68.24185023      89.69038721
H      83.16777876      71.33344249      88.87969462
C      83.58918773      70.81754721      93.82699811
H      83.11297670      71.49406923      95.71483470
H      85.13309413      72.10067137      93.36590489
C      84.75703859      68.16059200      94.04053718
H      83.19990411      66.97195415      94.67737495
H      86.34818815      68.20027626      95.34633807
H      85.53938529      67.52753369      92.24340746
C      78.24882117      74.82187726      90.79209765
O      76.34397705      73.45560513      90.58044830
N      78.07685608      77.21238105      89.97384616
H      79.31084736      78.52385111      90.61257365
C      75.95469343      78.04386063      88.51119799
H      75.52383583      76.58688163      87.12224915
H      76.30618252      79.59532592      87.20350738
C      73.25616425      78.27629697      89.64692351
O      71.45903453      78.39346000      88.12191437
N      73.08419916      78.52385111      92.16214923
H      74.55818568      78.58621207      93.37346380
C      70.58220152      78.33487848      93.23173432
H      69.27262118      77.12356392      92.20372321
C      70.83164539      77.18781460      95.91136623
H      72.07130585      78.51251275      96.88835474
H      71.96737091      75.47005338      95.88679979
C      68.35988337      76.85900223      97.39858084
N      66.76306464      74.89557658      97.11701162
H      67.15990717      73.48962022      95.88679979
C      64.70515268      75.36044926      98.54753444
H      63.06298052      74.19259840      98.87445709
N      65.10388494      77.58087768      99.70593667
H      63.71304637      78.42747507     100.70182244
C      67.36399761      78.60888879      98.87067764
H      68.12744704      80.41546715      99.43003663
C      69.22348830      81.04663573      93.12968910
O      70.29874257      82.67557981      94.24651735
N      67.03518523      81.46615497      91.84278548
H      66.47393651      80.09232395      90.64469900
C      65.89190081      84.02295467      91.43649432
H      67.41690994      85.28718158      90.87902506
C      64.01540258      83.96248343      89.19716864
H      62.54708524      82.66802091      89.84534477
H      64.97160409      83.34265321      87.47940743
C      62.81164692      86.63266671      88.72851652
H      62.17480915      87.22982024      90.59556612
C      64.68058624      88.54884920      87.74585884
H      66.62889407      88.00838748      88.14270136
H      64.09099163      90.36487618      88.52442608
H      64.61066637      88.67924031      85.69172633
C      60.38712806      86.69124823      86.98618886
H      58.91881071      85.49316175      87.79310199
H      60.78019113      86.17724268      85.03221185
H      59.74840057      88.64711496      87.00697585
C      64.78641092      84.99616374      93.92904333
O      63.41635934      83.62611215      95.23673394
N      65.32309319      87.29029148      94.52808657
H      66.39456801      88.48270877      93.49062683
C      64.12311698      88.45814233      96.80898623
H      63.51651483      86.94636128      98.07132341
C      65.87300355      90.11921176      98.33777482
H      64.83365407      90.99604478      99.88546067
H      66.54952557      91.72358940      97.23984383
C      68.09910114      88.74727046      99.52641267
H      68.78507179      87.54351481      97.99951381
C      70.43858232      90.21369809     100.27285456
H      72.05240859      88.94002255     100.38812787
H      70.19669735      90.80329270     102.23439048
H      70.69558510      91.90689285      99.12768042
C      67.13723045      87.26950448     101.85833494
H      68.58287108      86.63077699     103.18114336
H      65.88056245      85.78795905     101.17425402
H      65.87489327      88.39956083     103.02807553
C      61.71182620      89.77339185      96.05120598
O      59.92414511      89.55985277      97.40236029
N      61.71749538      91.35887222      94.13124405
H      63.27840932      91.27383454      93.03520279
C      59.57265602      92.96702931      93.38480215
H      58.04197770      91.65555925      92.97095209
C      58.75251480      94.97013921      95.34633807