 %block lattice_cart
   139.252   0.000   0.000
   0.000 142.425   0.000
   0.000   0.000   162.84
 %endblock lattice_cart

 %block positions_abs
N      89.41899341      41.98977230      80.98536295
H      91.18399779      41.26978657      81.10252598
H      88.45901244      40.76900910      79.87231415
H      88.76136865      41.95386750      82.77493377
C      88.87664195      44.42373979      79.89499088
H      89.60418659      45.76733520      81.27638081
C      90.35629765      44.88483301      77.48181037
H      89.60040713      43.65462118      76.00971357
H      92.36318700      44.68641175      77.90132961
C      90.18433257      47.53044985      76.44435062
H      88.33429051      47.60225945      75.53539226
H      91.64887046      47.86682113      75.03839424
S      90.40165108      50.38015713      78.36809200
C      89.46434683      52.49287115      75.81696148
H      87.65587876      51.98831422      74.96847437
H      90.91187719      52.50420950      74.35242360
H      89.16765980      54.33724403      76.68623559
C      86.04772167      44.81491314      79.35074970
O      84.81184065      43.10849027      78.32651803
N      84.82506874      46.65172711      80.67544783
H      85.97024289      47.98209444      81.42377946
C      82.05095051      46.78967713      81.49558905
H      80.86987157      45.51033242      80.39387862
C      81.91300048      45.76733520      84.25269975
H      83.18667602      44.15917810      84.44545184
H      79.95146457      45.16262278      84.44545184
C      82.45157248      47.88004922      86.12541853
O      84.05595013      49.44663233      85.62842050
N      81.32718533      47.91406429      88.32317022
H      81.84308061      49.40694808      89.39653477
H      80.26515915      46.38716543      88.75213809
C      81.27427299      49.48064740      80.92678143
O      82.73881088      51.27966685      80.39765807
N      78.85164386      49.86048239      81.20457120
H      77.75182315      48.32602463      81.49558905
C      77.70457999      52.36248003      81.13087187
H      78.07874580      52.98608971      79.20335103
C      74.78306310      52.14327178      81.29149861
H      74.42968429      50.65416744      79.91388813
C      73.92323763      50.90361132      83.73113528
H      72.43224358      49.53355974      83.35130030
H      73.28828960      52.45507662      84.92733204
H      75.33297347      49.67339949      84.58907104
C      73.25994371      54.63204133      80.41466560
H      73.52828483      56.06067442      81.87542405
H      71.29840778      54.11992550      80.05561760
C      74.15189452      55.43139556      77.81251248
H      75.86209683      56.57279026      77.72369534
H      72.74971759      56.81656495      77.21346924
H      74.12732808      54.03488782      76.29884169
C      78.66645069      54.43362007      82.93178106
O      78.60975889      56.64271013      82.19289806
N      79.70768989      53.89504807      85.18622455
H      79.73414604      52.04689574      85.66621503
C      80.95301953      55.75642849      86.88508850
H      79.52627616      57.23419446      87.02681798
C      81.16655859      54.59613653      89.57794850
H      82.58007388      55.85469426      90.39242053
H      81.72780730      52.63460062      89.30204846
C      78.64755342      54.43550980      91.10862681
C      77.90867044      56.31956693      92.87174146
H      79.26549392      57.70662604      93.51046895
C      75.46525431      56.23641897      93.78447927
H      74.81896790      57.62347809      95.13563358
C      73.75694172      54.20307346      92.95866888
H      71.85587706      54.32023649      93.68999295
C      74.68290762      52.39271565      91.27114328
H      73.42812935      51.03778188      90.40375889
C      77.06207305      52.35870058      90.49068630
H      77.57040943      50.96408256      89.08850938
C      83.49659113      56.65404849      85.96290206
O      84.00492751      58.88770499      85.97046097
N      85.21246264      54.94951535      85.10685605
H      84.66633172      53.12215001      85.19567317
C      87.81650550      55.58635312      84.37553195
H      88.38531312      57.26254036      85.42810952
C      89.64765028      53.29789455      84.66654981
H      91.52036907      54.03677754      84.23380248
H      88.95034127      51.70674500      83.56105992
C      89.58906877      52.61381363      87.42555022
H      90.84195732      51.05667915      87.92632771
H      87.68233492      52.04311628      87.96034278
C      90.38842300      54.89093384      89.04882514
O      89.23380023      55.47107981      91.06138366
O      91.98146228      56.44428887      88.40442846
C      87.68422465      56.55767244      81.56928838
O      89.27915365      57.99008499      80.66977866
N      85.52048802      56.08713059      80.27482586
H      84.44334402      54.55078310      80.63387386
C      84.67011117      57.33812941      77.95991113
H      86.14598742      57.39104175      76.52182941
C      82.58007388      55.79989219      76.55773421
H      80.88309964      55.60902984      77.70857752
H      83.54572402      54.01977001      76.18734785
C      81.89032378      56.93750743      74.01983176
H      83.46446579      56.91105127      72.69513362
H      81.42356137      58.93494815      74.21069413
S      79.17478707      55.38037295      72.49482262
C      79.71713851      55.86225316      69.25583172
H      79.79839674      57.87670141      68.82308441
H      78.40566846      54.76621190      68.10687812
H      81.58229839      55.03266331      68.98749059
C      83.96713299      60.00264351      78.51927011
O      84.97624684      61.64292595      77.26449184
N      82.10386285      60.57901004      80.05561760
H      81.49915043      59.11636187      81.12331298
C      81.32907506      63.15281728      80.56584371
H      81.00593186      64.02776056      78.72902973
C      78.66645069      63.14903782      81.56172947
H      78.32252049      64.97829290      82.44234194
H      78.70991438      61.95284107      83.23602700
C      76.42334554      62.65015008      79.91955732
H      76.76349629      60.95695530      78.79517015
C      74.21425548      61.94906162      81.59196510
H      74.41645621      60.14059353      82.55572552
H      72.56074496      61.62780814      80.40521698
H      73.67568349      63.42871732      82.92044270
C      75.80162559      64.87057850      78.07140497
H      77.61009368      65.18994224      77.14354936
H      75.41990087      66.59400889      79.13721062
H      74.28984454      64.23563045      76.82607533
C      83.14699178      64.77231273      82.02282270
O      83.15833012      67.09289664      81.72424594
N      84.86097353      63.68383037      83.49680922
H      84.68522899      61.86969311      84.05427848
C      86.86408342      65.28064911      84.67221899
H      86.06472920      66.98140279      85.51314720
C      88.22657610      63.44572486      86.48824597
H      89.12986527      61.96795888      85.36763828
H      86.80172247      62.54432540      87.67121464
C      90.05772089      64.88191685      88.19277911
H      88.89931867      65.78142658      89.64219920
H      91.29171218      66.14803348      87.13642210
C      91.78493074      63.09612549      89.75369305
H      92.65042540      64.22240237      91.24846655
H      93.18710767      62.32700688      88.45356134
N      90.39220245      61.05333134      91.12374463
H      90.25236270      59.35257766      90.26580888
C      88.80483236      61.18939164      93.08150108
N      88.46468161      63.21328852      94.41564786
H      87.04927660      63.06966932      95.68743367
H      89.19222625      64.89892439      93.89786285
N      87.24958760      59.32423177      93.69755186
H      86.46535117      59.18439202      95.42854116
H      87.45745749      57.72174385      92.68087911
C      88.56861657      66.45605887      82.72391117
O      89.81394621      68.47428657      83.01114956
N      88.98246663      64.91782165      80.72647045
H      87.99036032      63.28887757      80.64332249
C      90.60385181      65.82866974      78.63265370
H      92.36507672      66.62613424      79.34508051
C      91.39375741      63.63469749      76.79206027
H      89.74591606      62.54432540      76.21380401
C      92.69199937      64.53042776      74.34108523
H      94.23212632      65.77197795      74.91556203
H      91.39753685      65.56788750      73.12221177
H      93.44977962      63.00163917      73.18646245
C      93.21545356      61.77520679      78.31895912
H      92.45767331      61.42560743      80.20112654
H      94.96156067      62.85613025      78.47202696
C      93.69166459      59.30911396      77.09441648
H      94.31716400      57.93906238      78.50226258
H      95.13919495      59.63414688      75.66767311
H      92.06083079      58.41716314      76.21191429
C      89.18466735      67.94327348      77.34197063
O      90.42432780      69.59867373      76.45001980
N      86.61652929      68.06232624      77.24181513
H      85.64332024      66.72251028      78.18478855
C      85.10096878      70.10323066      76.03428001
H      85.96835315      70.79109103      74.29762154
C      82.71235472      69.00152022      74.89855449
H      81.64654907      70.54920607      74.05195711
H      81.50104015      68.14925365      76.33285677
C      83.19045547      67.16470624      72.72914869
O      81.86386760      65.22395732      72.57230141
O      85.05561535      67.50863643      71.29484641
C      84.63987556      72.47483718      77.67456246
O      84.38854195      74.52519023      76.61253627
N      84.57562487      72.32365907      80.09341213
H      84.60586048      70.57566223      80.86253075
C      84.00681725      74.34566623      81.93400556
H      83.79138844      76.13145759      80.93245061
C      81.76182238      73.52741474      83.53460374
H      81.75615321      74.35511486      85.42055061
H      81.72024841      71.47139251      83.66499486
C      79.27116310      74.28330526      82.17400081
H      77.63088067      73.57465789      83.19823247
H      79.28250146      73.12868248      80.46757795
C      78.67589932      76.94592964      81.34441096
O      76.38555103      77.53363452      81.21590957
O      80.27082832      78.59566071      80.89465608
C      86.08173673      75.12801292      83.83507024
O      85.97024289      77.25962420      84.84229435
N      87.97146305      73.43859760      84.35285525
H      87.98280141      71.77185899      83.42499962
C      89.94055786      73.80709423      86.38809048
H      91.17643888      75.42469995      86.08006509
H      91.24068956      72.23295221      86.11408017
C      88.76325837      73.89591137      88.99024361
O      86.67322107      73.03419617      89.54204370
N      90.08606679      75.09777730      90.67587948
H      91.87185816      75.70815890      90.38675136
C      89.32639682      75.40580269      93.30070933
H      87.27226432      75.24328623      93.36684976
C      90.32606204      73.10978522      94.70099654
H      92.21389863      73.27041196      95.50979940
H      90.48479904      71.56209937      93.35173194
C      88.62908781      72.24051112      96.89118932
H      86.65054435      72.05153848      96.34694815
C      89.72323934      69.65158607      97.54692436
H      88.76514810      69.05065310      99.26657531
H      91.75658485      69.62512990      97.87573674
H      89.26025639      68.39869752      95.98034125
C      88.70845632      73.97527987      99.28547256
H      90.56227782      74.20771621     100.15285694
H      87.39320679      73.08143933     100.59127345
H      87.83351303      75.79697604      98.88674031
C      90.17488392      77.85299827      94.59139240
O      92.50680619      78.12133940      94.69721707
N      88.54593984      79.37611767      95.78758916
H      86.71668478      78.84699431      95.69310284
C      89.18844680      81.65701733      97.29181130
H      91.07250393      81.40001456      98.08927581
C      88.91065703      84.01539577      95.60995488
H      89.49080301      85.54040491      96.86473317
H      86.89431905      84.24405266      95.26035552
C      90.41298944      84.03051358      93.07961135
H      90.30527505      82.30141401      91.96656255
H      92.42176851      84.16090470      93.51613814
C      89.53804616      86.48904752      91.46389536
H      91.22935122      87.52083808      90.90264665
H      88.24736308      87.71170044      92.50702428
N      88.06028019      85.60843505      89.35118135
H      87.35352255      83.83965123      89.20945187
C      87.42722187      86.86321333      87.17043718
N      87.81650550      89.27072465      86.90587550
H      87.24391841      90.20613917      85.34307184
H      88.19067130      90.26661042      88.49324560
N      86.43889501      85.61788369      85.25614443
H      85.96835315      86.58542356      83.67822295
H      85.94000726      83.77729026      85.31850538
C      87.16643963      81.76662146      99.42909176
O      84.96868793      80.86144256      99.31381846
N      88.03193430      82.87967026     101.55881333
H      89.90843251      83.19525455     101.74589622
C      86.75069984      82.41857704     104.03057533
H      85.08018179      81.22804946     103.83404380
C      88.81806044      81.48316251     106.00344961
H      87.62186368      81.31497687     107.67018821
H      90.43755588      82.68124900     106.43241749
C      89.73835715      78.72794155     105.74644684
H      90.45456343      78.11755995     107.57759162
C      87.81461577      76.71916248     104.82426039
H      86.82439917      77.13490227     103.06681493
H      86.18756140      76.65302206     106.09037702
H      88.91065703      74.99384235     105.06803509
C      91.85485063      78.73172100     103.70176297
H      92.94711244      80.47026921     103.89451505
H      91.22935122      78.68447784     101.73833733
H      93.11340835      77.13679199     104.03057533
C      85.72079901      85.06797333     104.93008507
O      84.24303303      85.15490074     106.68186135
N      86.59574230      87.16179008     103.83593353
H      87.92799934      86.93502293     102.49044840
C      85.46946540      89.60898566     104.08348768
H      84.29783510      89.63166237     105.77668245
C      87.59918697      91.56863185     104.19309180
H      88.86530360      91.11887698     102.63406760
H      88.79160426      91.39477702     105.86172013
C      86.88109096      94.38621378     104.11183358
H      85.66032777      94.77360767     105.72377011
H      85.97024289      94.86431454     102.32982166
C      89.09773993      96.18523323     104.40663088
H      90.39976136      95.67878658     105.92219137
H      88.30216516      98.01259857     104.92252615
C      90.83439842      96.32885243     102.08415723
H      89.57206124      97.08852241     100.64607551
H      91.30682999      94.35030898     101.76290377
N      93.04537820      97.99181158     102.65485458
H      94.20944961      97.44946013     104.06836986
H      92.44822469      99.78516185     102.92130599
H      94.12630165      98.03527529     101.08071256
C      83.74225555      90.18346246     101.91408186
O      84.52082280      89.58063976      99.79947812
N      81.72780730      91.75004557     102.33738057
H      81.43301000      92.25271277     104.15529727
C      79.84941936      92.35853744     100.34938849
H      79.27305283      90.49337757      99.68987399
C      77.37387789      93.61709517     101.38873795
H      77.95591358      95.35375365     102.32982166
C      75.56163036      94.18212334      99.23633969
H      74.91156449      92.40956005      98.41619846
H      76.36476404      95.43879133      97.81715522
H      73.98559861      95.44257079      99.64641029
C      76.28350581      91.68957433     103.35027387
H      77.77261014      90.95636052     104.57292680
H      75.82052286      89.95102612     102.34682919
C      73.92890682      92.52105391     104.65796447
H      74.31063153      94.25204321     105.70865231
H      72.67979772      91.15667151     105.56503310
H      72.66467991      93.15411222     103.16319096
C      80.82262840      93.92701028      98.06281965
O      82.16622381      95.95090717      98.34627860
N      80.27838722      93.03505946      95.76302272
H      79.01793978      91.60642637      95.64963914
C      80.98136541      94.01015824      93.36873949
H      81.63332099      95.94145853      93.67298541
C      83.27738289      92.46625184      92.27647767
H      84.69278790      92.60042241      93.76936147
H      84.06161930      93.28072389      90.55682672
C      82.61597868      89.72425896      91.73223649
C      81.73158677      89.06663421      89.23212858
H      81.44245864      90.65400431      87.98301948
C      81.22136066      86.64022562      88.55182711
H      80.62987632      86.11677143      86.67154942
C      81.48403261      84.63333628      90.21478627
O      81.20624284      82.14078727      89.55338206
H      80.96624761      82.17102289      87.75436260
C      82.22858479      85.08498087      92.75646815
H      82.48180810      83.61288407      94.14541700
C      82.89187871      87.70603126      93.46322579
H      83.70824049      88.09342516      95.29248087
C      78.92723291      94.35030898      91.35240151
O      76.90711548      93.26938553      91.56783031
N      79.58296795      95.76193453      89.38519641
H      81.15710996      96.82774017      89.57416905
C      77.73481562      96.52916342      87.51247763
H      75.76950024      96.30806544      88.09073389
C      77.85386837      99.31839946      87.14398101
H      76.36476404      99.65666047      85.76259108
H      79.73036659      99.78516185      86.43344391
C      77.46836421     101.14765453      89.25102585
H      78.90833566     100.92844627      90.70800483
H      75.59942488     100.63742842      89.94833485
C      77.53450463     103.96901591      88.51970176
H      76.28350581     104.34885090      86.92855221
H      79.46580492     104.58317696      88.14931540
C      76.38177157     105.50536340      90.63241578
H      77.58363751     105.34473667      92.29726467
H      74.43346375     104.86096673      90.80249115
N      76.08130508     108.12452407      89.59495603
H      75.86209683     109.43599413      90.96500762
H      74.43346375     108.13208298      88.63497507
H      77.53072517     108.68010361      88.48568669
C      77.90300125      95.09297142      85.02937726
O      79.97225156      94.35597816      84.16010316
N      75.78461806      94.30873500      84.10530110
H      74.11787944      94.70179807      84.94622931
C      75.46336458      93.05395673      81.57684728
H      76.75782710      91.44957909      81.54661167
C      72.88199843      91.88610587      81.29716779
H      71.78217772      93.61898490      81.14598969
H      72.38122097      90.91478654      83.04327491
C      72.38689014      90.32330221      78.97469415
O      73.70213965      88.36932520      78.64966123
O      71.00738993      91.25871673      77.36653707
C      76.44035308      94.78872548      79.46224354
O      76.88254904      97.01671281      79.79105592
N      76.60286955      93.70024313      77.09819592
H      76.10587152      91.86153942      76.98292263
C      76.61231818      95.17233992      74.79839900
H      78.53605956      95.89988455      74.68123597
C      76.46869899      93.31851841      72.51371989
H      74.71503297      92.23759496      72.40789521
C      76.54617776      94.81140220      70.08542157
H      74.88132888      95.71847083      69.27661871
H      77.56285052      93.60953626      68.75694398
H      77.83119165      96.41011066      70.26683531
O      78.50015476      91.51382978      72.50994044
H      80.06484815      92.42089841      72.35876233
C      74.50338361      97.10552994      74.45257908
O      74.81140901      99.24658986      73.48314949
N      72.20358670      96.51026615      75.35964771
H      71.94658391      94.73203369      76.00215467
C      70.02095281      98.26582190      75.52027445
H      69.93969456      99.49792345      73.87243311
C      67.50572708      96.88254224      75.14232920
H      66.10166043      98.24692464      74.50171197
H      67.04274413      95.84697222      76.85820068
C      67.51139625      94.82085083      73.01071792
H      68.66979849      93.24859854      73.65889404
H      68.35799364      95.74303727      71.37421493
C      64.73349857      93.87976713      72.56096304
O      62.99684010      95.41611462      71.97892735
O      64.28563345      91.57052157      72.62899319
C      69.95670211      99.78327213      78.10164059
O      68.01406345     100.81884215      78.75359617
N      72.11287982      99.99681120      79.56806821
H      73.80040543      99.42422413      78.88587702
C      72.19980724     101.47835663      81.96613090
H      71.19825230     103.25658909      81.69023087
H      74.15189452     101.75614640      82.56517415
C      70.78062278     100.14232013      84.17333124
O      71.17179612     100.93033600      86.33895759
N      69.32175406      98.12787188      83.71223803
H      68.79452043      97.70079373      81.92644665
C      67.85721617      96.81451209      85.75503217
H      66.61188653      98.14676914      86.71123368
C      66.04307891      94.80762275      84.62119637
H      65.21915824      93.99504043      86.32383979
H      67.21092977      93.28828279      83.86908530
C      64.26484645      95.38776872      82.41399605
C      63.63367787      93.40733555      80.80583895
H      64.31964851      91.52894759      81.22535819
C      61.51340493      93.58119037      79.07484965
H      60.61956439      91.98248191      78.17533993
C      60.25862667      95.96791470      78.95768662
O      58.13268456      95.98114279      77.62542957
H      57.20671867      97.54016699      77.57062751
C      61.08254735      98.10708489      80.33529710
H      60.17358899      99.93633996      80.29183339
C      63.19715109      97.82551567      82.01904325
H      63.95115189      99.36564261      83.12453313
C      69.51450614      95.58430026      87.72790643
O      71.43446808      94.61865011      86.80949945
N      68.98349305      95.52949820      90.17699174
H      67.47360174      96.50459698      90.81760895
C      70.50283301      94.50715626      92.17632217
H      72.40956686      95.04950771      91.61696319
C      69.99638635      95.79972906      94.72367325
H      71.09620707      94.85675563      96.19010087
H      67.95359222      95.77894207      94.98256575
C      70.73715907      98.60219318      94.66131228
C      68.83042522     100.41633044      94.18132180
H      66.88400712      99.96657558      93.77125118
C      69.44458628     103.03171166      94.13407863
H      68.08776278     104.53971326      93.90920121
C      71.94280446     103.82539671      94.54981842
O      72.58720113     106.26314366      94.70099654
H      71.09053790     107.28170614      94.57060542
C      73.95725272     101.97913410      94.74257051
H      75.91878862     102.49691911      94.96933766
C      73.27317178      99.35808371      94.94666095
H      74.73393022      97.93889925      95.06004454
C      70.35732408      91.64611062      92.57316470
O      68.34665528      90.65211458      92.77536541
N      72.64011347      90.43101661      92.59395170
H      74.22181439      91.48548389      92.44655305
C      73.06719162      87.80429703      92.62796676
H      71.39478383      86.64778453      92.95110997
C      73.83631023      86.86699278      89.92754786
H      75.36509882      88.01405665      89.16409843
C      74.59975966      84.01539577      89.70078070
H      75.24226660      83.90390192      87.74869342
H      72.92546215      82.84565518      89.96912185
H      75.99059823      83.38611691      91.08217065
O      71.66879414      87.09375994      88.45356134
H      71.67257359      88.72270402      87.65231739
C      75.05329398      86.95203046      94.50446499
O      76.80507027      88.45625261      95.12996440
N      74.60353911      84.76372739      95.83294260
H      73.20892109      83.71114984      95.06760343
C      76.55940584      83.58264845      97.66597712
H      78.13354786      84.91112604      97.74156618
C      75.43312897      83.32753539     100.30592477
H      74.74715830      85.21915143     100.75190018
C      72.97081557      81.72693721     100.34938849
H      71.58564619      82.58298323      99.09083075
H      72.30374219      81.62300226     102.29769631
H      73.43757798      79.84288007      99.66152811
C      77.11687510      82.48471746     102.49044840
H      77.74993342      80.54774799     102.18809219
H      75.90367081      82.38456196     104.15529727
C      79.33163434      84.15712525     102.88729093
H      80.36342491      83.98893960     104.66174392
H      78.60408971      86.08086663     102.74745117
H      80.76782635      83.92090946     101.43031194
C      77.49293065      80.91624462      96.60206120
O      76.19846811      79.77296020      95.06760343
N      79.49415081      79.97327119      97.78691960
H      80.73570100      81.24127754      98.49178751
C      80.25948997      77.35411052      97.75479425
H      78.41511708      76.54530766      98.18943130
H      81.42545109      76.98372416      99.41019450
C      81.48592235      76.47349806      95.30570896
O      83.13943287      77.61678248      94.09439439
N      80.78105443      74.23228265      94.44399375
H      79.41856176      73.32710375      95.42854116
C      80.69412701      73.38001608      91.83995090
H      82.11898066      74.16425250      90.57383427
C      80.97380652      70.39802796      91.90987076
H      79.14077198      69.61568127      92.42009687
C      81.45190726      69.48151070      89.08095047
H      80.07996597      70.28275466      87.76759069
H      81.37820794      67.42548847      88.94300046
H      83.29816988      69.88969158      88.26269899
C      82.93912188      69.04120447      93.46133608
H      84.74003106      69.97850872      93.10795726
H      82.96368832      67.08344801      92.82260858
C      82.53472045      69.03364556      96.26380020
H      81.13632298      70.43393276      96.83071809
H      84.28271728      69.37757575      97.29181130
H      81.87709569      67.15147816      96.78914411
C      78.24315198      74.32865869      90.50391439
O      76.66145106      72.77908312      89.92754786
N      78.19968829      76.72861111      89.78392867
H      79.46391518      78.03630172      90.36407465
C      76.15500442      77.59599549      88.23057363
H      76.18524003      76.47727751      86.50147406
H      76.75593739      79.47816289      87.64475848
C      73.43379852      77.77551949      89.24913611
O      71.91634830      78.29519422      87.62397149
N      72.97270531      77.63379001      91.78514884
H      74.32196988      77.80386538      93.12496479
C      70.34787546      77.79063730      92.75835788
H      69.18380405      76.79475153      91.38452686
C      69.96615073      76.68136795      95.40397472
H      70.95636733      77.95882294      96.68331944
H      71.14156051      75.02596770      95.74223573
C      67.22982703      76.62089671      96.36206596
N      65.40246169      74.87667932      95.69499258
H      65.57820624      73.35733937      94.55359789
C      63.20282026      75.60233423      96.97055783
H      61.42647753      74.60266901      96.87040233
N      63.63178814      77.96827157      98.06470936
H      62.20882423      78.96226761      98.85461496
C      66.18102894      78.55597645      97.88329565
H      67.05219277      80.29452466      98.50312587
C      69.16490678      80.48727675      92.70922499
O      70.23260215      82.06708794      93.88652450
N      67.06731057      80.97293641      91.40153439
H      66.09977070      79.45170673      90.77603498
C      65.81253230      83.36910937      91.08972954
H      67.11644345      84.91112604      90.67776921
C      63.94170326      83.45981624      88.81260934
H      62.35433314      82.20314824      89.19055461
H      64.99050135      82.76817641      87.18177553
C      63.17069491      86.07141800      88.12285923
H      62.12378654      87.07675240      89.58550741
C      65.29852675      87.94602650      87.24035704
H      65.97315904      89.06096503      88.83339634
H      64.78452119      89.36521096      85.83440067
H      66.87833794      86.76305783      86.65076244
C      61.32065285      85.99204950      85.97046097
H      62.33921533      85.23237952      84.34907578
H      60.47405546      87.86476827      85.82873149
H      59.79375400      84.73349177      86.53926859
C      64.58987938      84.25539101      93.58227856
O      62.99684010      82.88533944      94.61217939
N      65.11333357      86.72904276      94.28903619
H      66.33598650      87.88744499      93.39897511
C      63.87934228      87.85342991      96.53214132
H      62.93447913      86.32464133      97.53936545
C      65.94103370      89.01939105      98.24423336
H      65.04341369      90.44235496      99.43287122
H      67.15612771      90.32519193      97.21811198
C      67.64367710      87.22793050      99.62562331
H      68.52051010      85.95425497      98.26502036
C      69.56174931      89.08553147     100.93331391
H      70.70125427      90.23070562      99.65207947
H      70.76928442      87.89500389     102.10116478
H      68.59609916      90.39700153     102.19565108
C      66.14134469      85.47426449     101.41141466
H      65.03774451      86.48526806     102.82492996
H      67.59454421      84.46704036     102.46966140
H      65.22104796      84.09098482     100.19632065
C      61.71938511      89.90189324      95.99356934
O      59.56131765      89.45780755      96.61717902
N      62.27874410      92.16011618      94.99768357
H      64.07587383      92.62120940      94.55548760
C      60.38712805      94.04417332      94.41375813
H      58.58810861      93.04261837      94.31360263
C      59.99973416      95.80161879      96.65119409