 %block lattice_cart
   139.252   0.000   0.000
   0.000 142.425   0.000
   0.000   0.000   162.84
 %endblock lattice_cart

 %block positions_abs
N      93.70300295      43.35793415      80.30695120
H      95.41698472      44.13650139      80.63198413
H      93.75024612      41.77812296      79.23925583
H      93.12285697      42.87983339      82.06061722
C      91.96445474      45.26088855      79.50759697
H      92.25547260      46.70841891      80.94000952
C      92.58617470      46.29456885      76.81662671
H      91.86618899      44.88672273      75.49948746
H      94.59495377      46.72164698      76.64277189
C      91.23502039      48.76066168      75.94735260
H      89.27348448      48.59436576      76.55017530
H      91.18588750      48.91372951      73.89510982
S      92.40287126      51.74076007      77.36842678
C      95.34517512      51.84658475      75.67523202
H      96.45822392      50.19118450      76.18545811
H      96.48279036      53.38293224      76.44057116
H      95.10895934      51.98453476      73.63432760
C      89.30749955      44.33114320      79.60586274
O      88.79916317      42.23921618      78.88209756
N      87.62753287      46.06780168      80.52804918
H      88.28137817      47.76288618      81.10819516
C      84.91199614      45.69552559      80.91166362
H      84.06539876      44.62594051      79.36964696
C      84.61530912      44.26122333      83.33807221
H      85.78504971      42.58503608      83.09240779
H      82.69534719      43.57714240      83.64231814
C      85.34096403      45.76733520      85.71723764
O      85.74158600      48.00099170      85.74936299
N      85.64520995      44.07603014      87.55783106
H      86.59763202      44.71853710      89.08284020
H      85.65843804      42.27323124      86.92288303
C      83.67989460      48.38082669      80.97402460
O      84.92900368      50.35748041      80.83040539
N      81.15144079      48.53200479      81.51259659
H      80.36342491      46.79723603      81.61464181
C      79.68690290      50.86581680      81.58251646
H      80.04595090      51.68406829      79.72869496
C      76.80318055      50.34992150      82.05116860
H      76.44224281      49.05923843      80.48458547
C      76.38555102      49.07813570      84.50592307
H      74.45991992      48.35059107      84.42466484
H      76.73137095      50.38015712      86.05927811
H      77.49482037      47.35281558      84.71379296
C      74.72259186      52.52310677      81.82062199
H      74.76416585      53.62292748      83.56483936
H      72.85743199      51.67650938      81.61086237
C      75.23848716      54.09724878      79.37342641
H      76.95057919      55.23864347      79.44901547
H      73.76828008      55.52966134      79.21090994
H      75.36131936      52.75743284      77.81251248
C      80.78105443      52.83113215      83.47791195
O      80.80373115      55.10069345      82.96579612
N      81.59552647      52.04878547      85.78148834
H      81.76560183      50.16472832      86.02715276
C      82.49125674      53.81190012      87.83751057
H      81.19868394      55.38982158      88.12474897
C      82.68400883      52.48342252      90.44911232
H      83.26793426      53.79111313      91.93065775
H      84.29027619      51.19273945      90.39053082
C      80.42578588      50.86203733      91.06894256
C      78.30173350      52.04500601      92.19143998
H      78.52094175      53.99142412      92.76402706
C      76.12098934      50.73164622      92.55615717
H      74.46180964      51.58013333      93.38763675
C      76.00760576      48.15972871      91.82483308
H      74.28039591      47.15250459      92.23679343
C      78.16378348      46.94841415      90.81571923
H      78.15622458      44.99065769      90.23746299
C      80.35208655      48.28823010      90.61540824
H      82.18134162      47.69863549      89.92565813
C      85.04049753      54.96463317      87.09106866
O      85.35608183      57.22852528      87.34429199
N      86.78282519      53.46985966      86.12730826
H      86.31417307      51.62926623      85.93455617
C      89.17332898      54.32212621      85.17677592
H      90.27692916      55.49564625      86.46178980
C      90.76825799      51.95807860      84.62497583
H      92.49735756      52.76310201      83.85018804
H      89.90276334      50.54834278      83.40043318
C      91.82272527      50.55590168      87.03815633
H      92.22145753      48.54712260      86.80949945
H      90.08606679      50.32913451      88.12474897
C      93.88630640      51.77099569      88.48946614
O      94.33795099      51.20029835      90.81193978
O      95.00880384      53.56623570      87.49547010
C      88.98813580      55.87926069      82.66343991
O      90.48857849      57.53277122      82.27604602
N      87.24013896      55.25565101      80.98158349
H      86.03260385      53.91961451      81.61086237
C      86.53716077      56.62570259      78.55895437
H      88.15476650      56.84491085      77.30039665
C      84.50570500      54.99108933      77.26071239
H      82.78227459      54.88526466      78.38509955
H      85.32395648      53.19395960      76.66922805
C      83.70824049      56.24208815      74.79084009
H      85.21246264      55.98886483      73.40756043
H      83.42289181      58.26031586      75.07618877
S      80.63743522      54.98730989      73.96691942
C      80.82262840      55.71863397      70.51627917
H      82.15110601      54.50165021      69.51661395
H      81.48403261      57.64804453      70.24226886
H      79.05006513      55.16872360      69.61865918
C      85.60174625      59.30911396      79.16555651
O      86.54660942      61.21773753      78.14510430
N      83.92177957      59.56611674      81.05150337
H      83.24903699      57.98441581      81.87920349
C      82.79739240      61.99063560      81.87164459
H      82.30228411      62.94116794      80.11230939
C      80.48247767      61.54466018      83.46090442
H      80.05917898      63.24352415      84.54560732
H      80.98703459      59.91760583      84.61930666
C      77.96347249      61.01931628      81.90943911
H      78.33952804      59.67005168      80.39765807
C      76.24382155      59.91004693      83.99191751
H      75.72603654      61.05900053      85.61897187
H      77.05829360      58.14693227      84.67788816
H      74.59598020      59.05211118      83.10374615
C      76.73137095      63.47785021      80.70379374
H      76.13043798      64.77987164      82.18344943
H      74.91156451      62.94683712      79.89499087
H      77.88032453      64.46617706      79.30728598
C      84.65877282      63.65170502      83.44578662
O      84.68333927      65.92504578      82.96768585
N      86.37086486      62.50653088      84.92166287
H      86.07039837      60.66971691      85.34685128
C      88.55727820      63.87658245      85.89298218
H      87.69178356      65.37513542      87.01170017
C      90.19189146      62.42527264      87.86396673
H      91.69800334      63.66493311      88.52726067
H      91.04226830      60.73207788      87.05705359
C      88.77459673      61.73741227      90.19021982
H      87.03415879      60.69806279      89.81416429
H      88.30216515      63.44005567      91.24657683
C      90.23346545      59.84768596      91.90987076
H      91.77737185      60.56389222      93.07394217
H      91.40131630      58.67794536      90.67965893
N      88.86908304      58.10724802      93.58605800
H      89.33584544      56.30444912      93.16464903
C      87.83351303      58.60424604      95.76302272
N      87.77682123      60.83790254      96.88552015
H      87.13242457      60.84924091      98.68264987
H      88.74436112      62.31188907      96.15797552
N      86.96045947      56.72774782      97.04803662
H      86.02693468      57.04333210      98.68264987
H      86.80739164      54.94195645      96.39230158
C      90.06150035      65.27686965      83.98057915
O      90.90242857      67.40470149      84.52482033
N      90.46023260      64.22996127      81.73747402
H      90.08606679      62.35913223      81.73558429
C      91.74335677      65.50174709      79.64743673
H      93.48757416      66.43527188      80.21246489
C      92.54838018      63.34556937      77.69345971
H      90.97990734      62.04354793      77.40811104
C      93.05860628      64.47373597      75.14421891
H      91.38808822      65.35812789      74.32407769
H      93.61229610      62.85990970      73.98959615
H      94.62707912      65.79465466      75.33697100
C      94.86707437      61.96984861      78.79894960
H      94.73290379      61.97929723      80.85308212
H      96.53570271      63.10935358      78.40021735
C      95.41320527      59.35446738      77.76904877
H      93.61796527      58.35669189      77.60086312
H      96.68310135      58.33590490      79.03138594
H      96.23145676      59.31667287      75.87932245
C      90.22779626      67.75619058      78.58730026
O      91.38619850      69.51741551      77.48181037
N      87.66910684      67.67115290      78.68556602
H      86.94156220      66.18960746      79.63987782
C      85.88520521      69.50418742      77.52149463
H      86.72613340      70.35834372      75.84908684
C      83.65154870      68.12090776      76.30451088
H      82.23425396      69.38891412      75.51649500
H      82.41188823      67.22328776      77.67834190
C      84.53027144      66.28598350      74.26360646
O      86.52393269      66.99085143      73.15433712
O      83.05061574      64.62680381      73.52661319
C      85.12553522      71.65847541      79.23169694
O      84.83262765      73.77496888      78.43423243
N      85.00837219      71.17470547      81.70345896
H      85.37119964      69.38135521      82.24770012
C      84.19012069      72.97561466      83.70089967
H      83.47769387      74.69526559      82.81839747
C      81.86953679      71.76996927      84.96323684
H      81.17978668      73.14380030      86.33517814
H      82.61975813      70.19204779      86.05549866
C      79.70580015      70.77030405      83.40988182
H      78.63054589      69.65725525      84.76859504
H      80.48625713      69.50796687      81.97935899
C      78.02205402      72.93404068      82.22313368
O      78.33952804      75.16580746      82.83540501
O      76.40822775      72.36145360      80.52049027
C      86.28393746      74.10378126      85.51881638
O      85.89654355      75.91980824      86.89453714
N      88.58373438      73.07010096      85.41488143
H      88.88798031      72.01185424      83.85396750
C      90.86274431      73.60867296      86.93044194
H      91.60918620      75.49273011      86.57895283
H      92.15342738      72.02319259      86.68477752
C      90.21645792      73.50284830      89.75936222
O      88.67255152      72.03075150      90.58517262
N      91.38052931      75.05053415      91.27681245
H      92.54649045      76.30909186      90.44344315
C      91.12730600      74.95982729      94.00935670
H      89.19033652      74.36456349      94.37974306
C      92.96789942      73.11734413      95.34350348
H      94.85573600      73.52363528      94.63107665
H      92.51814455      71.21816918      94.68965818
C      92.82428022      73.03419616      98.23478474
H      93.30993989      74.92392249      98.89240949
C      90.21267846      72.06665630      99.16641981
H      88.77270701      72.70538380      97.83794221
H      89.91599142      72.71483242     101.09960982
H      90.39976136      70.01441352      99.13429446
C      94.90486889      71.30509659      99.29114175
H      96.70955753      72.29531318      99.22311160
H      95.00502438      69.51741551      98.27257926
H      94.65731475      71.09155752     101.32637698
C      91.38619850      77.80008593      94.98067603
O      93.28537345      78.90746556      94.97311712
N      89.26214612      78.86400185      95.99923850
H      87.56139244      77.99850720      95.94065699
C      89.42655232      81.43591935      97.23322979
H      91.30682999      82.19369961      97.60739560
C      88.38531312      83.34076348      95.21878154
H      87.86941782      84.92057467      96.44143446
H      86.82061973      82.34865717      94.32116154
C      90.31283396      84.25917046      93.32716550
H      91.27659438      82.67935927      92.42198659
H      91.69044443      85.30607885      94.44399376
C      89.02404060      86.12999951      91.47145427
H      88.13397951      87.80429704      92.27647767
H      87.49525202      85.14167265      90.50769385
N      90.85707514      86.76872701      89.33417381
H      91.59028893      88.50916494      89.60440467
C      91.56005332      85.45347750      87.35940980
N      90.89109020      83.01195110      86.96823645
H      91.65264991      81.90079203      85.61708214
H      89.55883316      82.25606058      88.10396198
N      93.25891727      86.23393447      85.80794450
H      93.77670228      85.10198841      84.35852442
H      94.28881811      87.84020184      85.82684176
C      87.74091644      81.68725296      99.57082124
O      85.41655307      81.29985907      99.64074111
N      88.96167963      82.15590509     101.66274827
H      90.82306005      82.57164488     101.53613660
C      87.98469113      82.03874206     104.25923223
H      86.47102036      80.64412404     104.32159319
C      90.00480856      80.88033982     105.99778043
H      89.19033652      80.73672063     107.88561702
H      91.62241428      82.13700782     106.20187087
C      91.27848410      78.29519423     105.35149404
H      92.21389862      78.37078327     103.52034923
C      93.42332347      77.38812560     107.19397718
H      92.67121239      76.92514264     109.05724733
H      94.95778122      78.75628744     107.30736076
H      94.29259756      75.68548218     106.42863804
C      89.31694819      76.25051036     104.99433576
H      90.16165584      74.38912993     104.73166380
H      88.15287678      76.98372416     103.45987799
H      87.95634523      76.14657540     106.53824216
C      86.74692039      84.60499038     105.21732346
O      85.96835315      84.84309590     107.42263407
N      86.38031349      86.34920777     103.37295058
H      86.41621829      85.77095151     101.55314415
C      85.50914966      89.01750132     103.88884587
H      84.59452212      89.09686982     105.73321874
C      87.68611437      90.80707215     104.07214931
H      88.89364950      90.50282621     105.71243175
H      86.90376768      92.69112927     104.35371853
C      89.32450710      90.94313243     101.66085854
H      88.36452612      91.70658187     100.00734801
H      89.87063800      89.00238352     101.23755984
C      91.56572249      92.66467311     102.06337024
H      92.65042540      92.03917370     103.69987323
H      90.86652376      94.56006860     102.47155113
C      93.31938851      92.64199640      99.79002949
H      92.24224452      92.32830182      98.06281964
H      94.46834211      90.97525778     100.17742338
N      94.88786135      95.02116182      99.72577879
H      93.95244683      96.61609083      99.24956776
H      96.47901092      94.81518166      98.69020878
H      95.43021280      95.37832010     101.51912906
C      83.86886723      89.88677542     101.71755033
O      84.11264191      88.73404238      99.65396920
N      82.25504095      91.71980996     102.07659833
H      82.22669505      92.40011143     103.86049997
C      80.42011670      92.34152991     100.03569391
H      79.19746377      90.72959336      99.64641029
C      78.57385410      94.40700077     100.99000570
H      79.44879737      96.11342362     101.74211677
C      76.82774699      95.24603925      98.82815880
H      75.42745978      96.70112851      99.23067051
H      75.95469342      93.58874927      97.96644360
H      78.07874580      95.99815032      97.37306953
C      77.01860934      93.29584169     103.14051424
H      78.25638008      93.25615744     104.78457614
H      76.55562639      91.31540852     102.80225323
C      74.56385485      94.81896110     103.66207870
H      74.12165891      94.79817411     105.67274750
H      73.12199369      93.99126098     102.44698468
H      74.73204050      96.81262236     103.17263959
C      81.89410323      92.97458823      97.66975658
O      83.66288705      94.50904599      97.54692435
N      81.07963118      92.04673261      95.54759393
H      79.52816588      90.94313243      95.69310284
C      81.71457922      92.57774570      92.92087434
H      82.76526706      94.34841925      92.91142572
C      83.48525279      90.54251045      91.84184063
H      85.01593109      90.24771315      93.18732575
H      84.47357965      91.25304755      90.17699174
C      82.62542731      87.87988608      91.39397548
C      82.38921153      87.19391543      88.85985249
H      82.45913139      88.61498961      87.39720433
C      81.77316074      84.72782260      88.10396198
H      81.18734559      84.42924584      86.16888223
C      81.61442374      82.90612642      89.94833485
O      81.16088941      80.39468016      89.35307106
H      80.63743522      80.27184795      87.62208176
C      82.23803341      83.39367581      92.51647292
H      82.26637931      81.88000505      93.88841421
C      82.67833964      85.95425497      93.21378193
H      83.10352807      86.41912765      95.15642057
C      79.44312819      92.96324986      91.29759945
O      77.43434912      93.37143074      92.41820714
N      79.66611590      93.16923003      88.86930114
H      81.41789220      92.94624233      88.14364622
C      77.49671009      93.70213286      87.13264265
H      75.80540504      93.24481909      88.21734556
C      77.33986282      96.44223600      86.35596513
H      76.31374142      96.58963467      84.57584295
H      79.16533843      97.39465807      86.31061170
C      75.76761053      98.07684926      88.06049827
H      76.32885924      97.41733478      89.92565813
H      73.78150816      97.54394645      87.92065852
C      75.77516943     100.94734354      87.54271325
H      77.80473549     101.29316345      87.60318451
H      74.73959941     102.14354029      88.86363195
C      74.64700282     101.51237171      84.98213411
H      72.63066484     101.09663192      84.94622931
H      75.51627692     100.36719756      83.51003730
N      74.99471245     104.20523171      84.26970728
H      76.82396753     104.59451533      84.64387310
H      73.92134791     105.25591954      85.44511705
H      74.42779456     104.38097624      82.45368029
C      77.59308613      91.97303328      84.81961764
O      79.45257684      90.78250571      84.21868467
N      75.35376045      91.71414078      83.64420788
H      73.85142803      92.56073817      84.46434909
C      75.08352959      90.11921177      81.39165410
H      76.53294967      88.66034305      81.46535343
C      72.69302580      88.64522525      81.42566919
H      71.05463309      89.86598844      81.17622531
H      72.46058948      87.48115384      83.10752561
C      72.67034910      86.90856675      79.16933596
O      71.54974139      87.67390592      77.21535895
O      73.80418488      84.79963220      79.27894009
C      75.33108375      91.99004082      79.11642362
O      75.02683780      94.34841925      79.42822847
N      75.89044273      90.93557354      76.85253151
H      75.71091874      89.03828832      76.78828082
C      76.03406193      92.41333950      74.49982224
H      77.25482512      94.05362195      74.74737640
C      77.17167717      90.96391943      72.23215067
H      76.61420791      91.91067231      70.48982301
C      80.00248719      90.67290157      72.05073694
H      80.69979620      92.51727446      71.45736289
H      80.67711948      89.28773218      70.68446482
H      80.65066332      89.93590832      73.86109475
O      76.23815237      88.53562111      72.03372941
H      76.86743123      87.68713401      70.55974288
C      73.43001907      93.39599720      73.76660843
O      73.33175331      94.98336729      71.99971433
N      71.31730505      92.69112927      74.94768738
H      71.48549070      91.34186469      76.28750333
C      68.79263069      93.99126098      74.82296544
H      68.38067036      94.60920148      72.90111379
C      66.54007694      92.12043193      75.26894085
H      66.42858308      91.53650649      77.23992541
H      66.95014754      90.31763303      74.35620305
C      64.01351285      92.96513959      74.11620780
H      63.22738670      94.54117134      75.18390317
H      62.60188729      91.46658663      74.07274409
C      63.99461559      93.98748153      71.29106696
O      62.93069967      96.10208527      70.91501143
O      64.69948350      92.69112927      69.36921530
C      68.68680602      96.33074215      76.50482186
O      67.15990716      97.97669378      76.08530262
N      70.26094804      96.59908329      78.50793175
H      71.87477431      95.58052081      78.52493929
C      70.14756446      98.47747125      80.54694645
H      69.14223006     100.12720232      79.83451962
H      72.09776203      98.98958708      80.97969377
C      68.96648552      97.64032250      83.10563587
O      69.03829512      99.09919120      84.98591355
N      68.18980801      95.29895158      83.17366602
H      68.59231972      94.22558704      81.64487743
C      67.12400236      94.17267471      85.55094173
H      65.91835697      95.57107217      86.46745899
C      65.74072270      91.68957434      85.04260534
H      64.66168898      90.99604478      86.65454189
H      67.16935580      90.33464057      84.43978265
C      63.79619432      91.83886270      82.84296391
C      63.35777782      89.60520621      81.50314796
H      64.19681630      87.88177581      82.20423643
C      61.40946999      89.55607332      79.76271002
H      60.95026650      87.77406142      78.88209756
C      60.06398485      91.81807572      79.15988734
O      57.96449892      91.59319828      77.68779054
H      57.14246797      93.21080401      77.67834190
C      60.88601580      94.07062948      80.32206901
H      59.79753344      95.77138317      80.02349226
C      62.66991744      94.07251921      82.23447204
H      63.12156203      95.87153867      83.08673862
C      69.30663626      93.67945613      87.52948517
O      71.39856328      93.41489445      86.59596038
N      68.83042522      93.53772666      90.00880609
H      67.03896468      93.46591706      90.65698223
C      70.80518922      92.93301424      91.93254748
H      72.61743675      93.56418283      91.17854668
C      70.52362000      94.51849463      94.33627935
H      71.72926538      93.71536094      95.79892752
H      68.56586354      94.19535142      94.88618972
C      70.89967554      97.39465807      94.17943206
C      68.79641015      98.83085006      93.90920120
H      66.91991192      98.08251845      94.20777796
C      69.03640540     101.51615116      93.93943683
H      67.35643870     102.67266367      94.02825397
C      71.54407221     102.55928008      93.58983746
O      71.84831815     105.11041060      93.49724087
H      70.18913844     105.83984496      93.50291004
C      73.78150816     101.08340383      93.82416352
H      75.64099885     101.92055258      93.87140668
C      73.32230467      98.52093496      94.08494576
H      74.90400560      97.24347997      94.26069030
C      71.04140502      90.14188848      92.58639278
O      69.18947323      88.83230814      92.90008735
N      73.39600400      89.38599795      92.96622777
H      74.68479734      90.79384405      92.99457367
C      74.31063153      86.64400507      93.11362643
H      72.71948198      85.34198364      93.23267918
C      75.52572556      85.95803442      90.47367877
H      77.45135666      86.68746878      90.45667123
C      75.62210160      83.06297371      90.22990408
H      73.75127255      82.24472221      89.95778348
H      76.61231818      82.32220100      91.87585569
H      76.68979696      82.36377497      88.61229836
O      74.16512260      86.98226609      88.34206749
H      75.06085287      86.43046600      86.86430151
C      76.08886399      86.26605982      95.39641581
O      77.73481562      87.86287855      95.88207547
N      76.16445304      83.92090946      96.44710364
H      74.92668231      82.57920377      95.88396520
C      78.18834992      83.10832715      98.21777721
H      79.89288307      84.00594714      97.49023257
C      77.41356214      83.98327043     100.88985020
H      76.82207780      85.94102688     100.64607552
C      75.37076799      82.25228112     102.06148053
H      73.85898694      82.10488247     100.66875222
H      74.51283224      83.13856277     103.71121160
H      76.23248319      80.50806373     102.73044364
C      79.59619603      84.20625813     102.63784705
H      80.96813733      85.57064053     101.93297913
H      80.48814685      82.43558457     103.19531631
C      78.96502745      85.50261038     105.10582962
H      78.21480610      84.08531564     106.39651269
H      77.77261014      87.10698803     104.61828023
H      80.71680373      85.99015977     106.08092838
C      78.67778904      80.30586302      98.06281964
O      77.06396277      78.94714980      97.17464827
N      80.70546537      79.32887451      99.15130199
H      82.17189300      80.50239455      99.48578355
C      81.43301000      76.60955836      99.00957252
H      79.84375017      75.44548694      99.60861576
H      82.93345269      76.41491654     100.40985972
C      82.20779780      75.80831439      96.31482281
O      82.81628966      77.42025095      94.64430474
N      81.93567720      73.34978046      95.90286246
H      81.46513536      72.37657142      97.47700449
C      82.06795804      72.17059124      93.45188744
H      83.56651102      73.00396054      92.30671330
C      82.54983825      69.25096410      93.55960183
H      81.01349077      68.18893791      94.42887594
C      82.88243009      68.23618106      90.82516786
H      81.12120516      68.30043176      89.75558277
H      83.47580415      66.28220405      91.08783983
H      84.51326389      69.26608190      90.10518214
C      85.16710921      68.78231197      94.78981366
H      86.48424844      70.21661423      94.12085056
H      85.99480933      67.00785896      94.15108617
C      85.31639759      68.45349959      97.72077918
H      85.04616671      70.12779710      98.88674031
H      87.23069033      67.77130838      98.05715047
H      84.14854672      66.92660073      98.46155189
C      79.43556929      72.79798039      92.15553518
O      77.67434438      71.21438973      92.14797628
N      78.85731304      75.11478483      91.20878230
H      79.77383030      76.60955836      91.96656255
C      76.67845861      75.72516644      89.61763275
H      76.69357641      74.27007717      88.16065377
H      76.78617300      77.59032631      88.75402783
C      74.05740821      75.92736715      90.75146853
O      72.16579216      75.89713153      89.36251970
N      73.74560336      76.01429457      93.31015797
H      75.23470771      75.90846989      94.50257526
C      71.25494409      76.66058096      94.54036980
H      69.86032606      75.44359721      93.64086008
C      71.17935503      75.93870551      97.27669349
H      72.26027848      77.09332828      98.59950191
H      71.79162636      73.97716960      97.39196680
C      68.57720190      75.95004388      98.42564709
N      67.03140577      73.89969082      98.47289025
H      67.42257912      72.18570906      97.73400727
C      64.90546367      74.52707996      99.85616991
H      63.23116616      73.42536951     100.24167408
N      65.05475205      76.97616525     100.49678714
H      63.84154775      77.97583047     101.58149004
C      67.44147638      77.83977019      99.61050549
H      68.33909639      79.62934101     100.01301720
C      70.38378026      79.30430807      94.03770259
O      71.46848316      81.14112205      94.87863081
N      68.24083061      79.49517044      92.88874899
H      67.33943116      77.82465237      92.70733527
C      66.99550097      81.93669682      92.40308934
H      68.31641966      83.32186622      91.64719881
C      64.97160410      81.59276664      90.26013969
H      63.82831967      79.94492530      90.72879183
H      66.02796111      81.31686659      88.51403258
C      63.15179765      83.80374642      89.78581840
H      62.07843310      84.11933072      91.51680769
C      64.56153348      86.05818991      88.75969700
H      63.17636409      87.51705863      88.31750105
H      65.52718364      85.51772820      87.02114879
H      65.89379053      86.99171472      90.02392391
C      61.44348506      83.08565042      87.49547010
H      60.46838629      81.41702209      88.20789693
H      62.48661399      82.86077300      85.73424517
H      60.01674170      84.47459926      86.97201591
C      65.91079808      82.90990589      94.90886642
O      64.45570881      81.68914268      96.27513855
N      66.43803171      85.21915144      95.49846103
H      67.67580244      86.24716254      94.47233965
C      65.23238632      86.55518794      97.60550588
H      64.53507731      85.12655485      98.91886566
C      66.88400712      88.53184167      98.83382797
H      65.75961996      89.70158224     100.10183434
H      67.39234350      89.90945215      97.39007707
C      69.25183419      87.25627640      99.80892675
H      70.20047680      86.20180912      98.31226351
C      70.86377074      89.41245412     101.01079269
H      72.77617377      88.77561635     101.43787083
H      70.22504324      90.06629942     102.85705530
H      71.08297899      90.76171872      99.47066574
C      69.00050060      85.40245488     102.08415723
H      70.92046253      84.90356714     102.64162649
H      68.08020387      83.65067860     101.50590098
H      67.71737642      86.20180912     103.48633416
C      62.74550649      87.68335455      96.66064271
O      60.72916852      86.79329345      97.38818735
N      62.91369213      89.86031927      95.30381922
H      64.57476156      90.34975837      94.50257526
C      60.65924864      91.32674687      94.56682596
H      59.06431964      90.05496107      94.29281564
C      60.06587458      93.34119512      96.68709888