 %block lattice_cart
   139.252   0.000   0.000
   0.000 142.425   0.000
   0.000   0.000   162.84
 %endblock lattice_cart

 %block positions_abs
N      91.45706323      39.95359219      81.80739390
H      91.45706323      40.14823400      83.70845857
H      93.22017788      40.00461480      81.07795954
H      90.54054597      38.36055291      81.28771916
C      90.05866576      42.12677745      80.82662595
H      91.16982483      43.64422768      81.66188497
C      90.43094184      42.57653232      78.04305908
H      89.43127663      41.13278141      76.96402536
H      92.40759557      42.26283775      77.56306860
C      89.60135199      45.13333202      76.92812055
H      87.54910922      45.00294090      76.80339862
H      90.47251582      45.52072591      75.10264494
S      90.40637540      47.83753037      78.88776674
C      89.95284109      50.19401908      76.50860131
H      88.01398189      50.88754864      76.43679171
H      90.53109734      49.40789294      74.69446405
H      91.21328854      51.72847685      77.06229113
C      87.27509890      42.17780006      81.64676716
O      86.06945351      40.19358744      81.29716779
N      86.41716316      44.22437366      82.78438241
H      87.44706400      45.82686157      82.68422691
C      84.01721074      44.79507101      83.68011268
H      82.76810165      43.36454819      82.88075844
C      83.84902510      44.21492503      86.57139394
H      84.17405802      42.19480760      86.81516862
H      81.91394535      44.47759699      87.22145978
C      85.55166850      45.69836019      88.35907502
O      84.98664034      47.82997147      88.86363196
N      87.65115444      44.56074494      89.06205321
H      88.79254913      45.19191353      90.45289178
H      87.62469827      42.70125425      88.62741616
C      83.09880375      47.38777551      82.94689886
O      84.59924644      49.03750658      82.53682826
N      80.59869584      47.89044271      83.13398177
H      79.46297032      46.40700755      83.51948593
C      79.35714565      50.36409445      83.00359065
H      79.54044910      50.93101235      81.03071639
C      76.54334317      50.16945264      83.33618248
H      76.02744789      48.76916544      81.91510829
C      76.03878624      48.96758671      85.85896711
H      76.51688700      50.32252047      87.33484336
H      77.12537887      47.27439193      86.31061170
H      74.05646334      48.54428801      86.22557401
C      74.86904566      52.49003655      82.93367079
H      74.70841892      53.82040388      84.50025390
H      72.94530427      51.78327891      82.74469815
C      75.42840465      53.97725116      80.43167315
H      77.04034119      55.23580889      80.68300675
H      73.63883383      54.91077596      80.01593336
H      75.80446018      52.53538999      79.01059895
C      80.37192868      52.34641735      84.77993338
O      80.44940746      54.68211908      84.27915592
N      81.40182952      51.55840148      86.97390563
H      81.13726784      49.76127176      87.56161052
C      82.18039676      53.37253874      88.96756690
H      80.74420476      54.84274581      88.85040387
C      82.24086800      52.35586599      91.64530908
H      82.60369546      54.04339158      92.76780652
H      83.78666413      51.01605003      91.87774543
C      79.70296557      51.25604527      92.44655305
C      78.28378110      52.72436262      94.20210878
H      79.24376207      54.30795327      95.06004454
C      75.88193896      51.94768510      94.95044040
H      74.68196275      53.04939554      96.17687279
C      75.12793816      49.58741694      94.22100604
H      73.35348515      48.93546136      94.99201439
C      76.52255618      48.06807698      92.44844276
H      75.96130747      46.14244587      92.08183587
C      78.84880927      48.92790245      91.57916866
H      80.04878548      47.69769062      90.47367877
C      84.65971768      54.54605878      88.09073388
O      84.96585335      56.91388585      88.05293937
N      86.39448644      52.94546060      87.20823171
H      86.04110762      51.09163908      87.50302901
C      88.65459911      53.76560182      85.88920273
H      89.45962252      55.18478628      87.14587074
C      90.47062610      51.50170969      85.22401908
H      90.11535755      50.96124797      83.26815233
H      90.17960825      49.71591833      86.20667676
C      93.25986214      52.29161529      85.71345818
H      93.78142660      53.78827853      84.39820867
H      94.45416917      50.66645066      85.30149785
C      93.72095536      52.88309963      88.39686955
O      94.42771300      54.99203419      89.20000323
O      93.07844841      51.17289731      89.89164306
C      87.97807709      55.20179381      83.39665372
O      89.25553208      57.09340985      82.84107420
N      85.96551857      54.63109647      81.95290282
H      85.14537735      52.95301950      82.34974535
C      85.10002392      56.16555423      79.88743197
H      86.57778989      56.29783507      78.46257832
C      82.98919962      54.79928211      78.34163584
H      81.20529798      54.85975335      79.36775722
H      83.42383668      52.78672359      78.43234270
C      82.65093861      55.59107743      75.66011420
H      84.40460463      55.33407466      74.61320582
H      82.40905365      57.63576130      75.62420941
S      79.99020397      53.95457445      74.31462906
C      80.26421428      54.45346219      70.95091623
H      79.73131146      56.40932893      70.59375796
H      78.71652843      53.40844354      70.08542157
H      82.06701318      53.89410320      70.12510583
C      84.51798821      59.02093069      80.58852042
O      85.60080139      60.72735355      79.36586750
N      83.12525992      59.48958282      82.58974059
H      82.66605642      58.00236821      83.68956130
C      82.43739954      61.98402155      83.64987706
H      81.96496796      63.07817309      81.96802064
C      79.98642451      61.74402631      85.25047525
H      79.69351693      63.55816357      86.18400003
H      80.13571289      60.18122265      86.58462201
C      77.62804607      60.98435633      83.71034830
H      78.08724957      59.26470539      82.67477827
C      75.50588342      60.08106715      85.35818964
H      75.20163749      61.58906875      86.72635150
H      76.32980410      58.43889499      86.28982471
H      73.87127016      59.57839995      84.20923604
C      76.69452128      63.04037856      81.91510829
H      76.17106709      64.73546306      82.96390641
H      75.01644431      62.33929010      80.94945816
H      78.27055302      63.56572247      80.69434510
C      84.45373752      63.33328614      85.19189372
O      84.52932657      65.67087759      85.18811428
N      86.15827065      61.99724963      86.54493777
H      85.78410484      60.13020004      86.68666724
C      88.57145115      62.98746622      87.22901869
H      88.16516000      64.54838016      88.51025313
C      90.12480618      61.16388033      88.78426344
H      92.06933456      61.84040235      88.78048399
H      90.25330757      59.35352252      87.80727495
C      89.35568757      60.85396522      91.57916866
H      87.49808661      59.96579385      91.51113851
H      89.48985814      62.69077919      92.50324482
C      91.08667688      59.41399376      93.31582715
H      90.67282681      59.97902193      95.25279661
H      93.06144087      59.86374863      92.95110997
N      90.91660151      56.67955979      93.04937573
H      92.22051266      55.88209529      91.90987076
C      89.30466496      55.13376367      94.04904095
N      87.47729962      55.68556375      95.60617543
H      86.23385970      54.31740190      96.07860702
H      87.27320918      57.42033250      96.37529405
N      89.39537183      52.80940030      93.27992235
H      88.13681410      51.53383504      93.94321628
H      90.63125283      52.30673310      91.91365022
C      90.16638016      64.01358761      84.86686079
O      91.22462690      66.10740437      85.10118687
N      90.35346307      62.65865384      82.78438241
H      89.78087599      60.84073713      82.69178582
C      91.59123380      63.70367250      80.53560808
H      93.32789228      64.68255073      81.04772392
C      92.16004142      61.51158997      78.63265370
H      90.30055073      60.67255149      78.34730502
C      93.00852854      62.64542576      76.12309715
H      94.79620963      63.57139165      76.55395474
H      91.64036669      63.97012391      75.33886073
H      93.29198748      61.10718854      74.78328120
C      94.24063009      59.68611435      79.65310591
H      93.61891013      58.85652450      81.43322808
H      95.98673720      60.68388985      80.09908131
C      94.95683636      57.45812703      78.00526455
H      93.32222310      56.31484261      77.50448708
H      96.47617632      56.59830156      79.09752636
H      95.58422550      58.09496480      76.14955331
C      90.19472606      66.05071258      79.28460927
O      91.37769473      67.98012314      78.71769138
N      87.74564075      65.73890773      78.76682426
H      86.85368993      64.13264037      79.28649900
C      86.30188985      67.76469434      77.47236173
H      87.24864273      68.17854440      75.69034982
C      83.62603739      66.88597161      76.85820068
H      82.30133925      68.44877527      76.63521298
H      82.85502906      65.66142896      78.32273858
C      83.69028809      65.48190496      74.32596743
O      85.05089103      66.24157493      72.56096304
O      82.04055702      63.81516635      73.96691943
C      86.08079187      70.30259678      79.10130582
O      86.05055625      72.21311008      77.77660767
N      86.12425558      70.20055156      81.61275208
H      85.81623019      68.47523144      82.36864261
C      85.86158362      72.44932587      83.10185642
H      86.40771452      74.10661585      82.00581517
C      83.02132497      72.90852937      83.63286951
H      82.14827141      71.50824217      84.86686079
H      82.17283786      72.79703551      81.76204046
C      82.50353996      75.43320372      84.93678067
H      83.52021272      75.31604069      86.72446177
H      80.58735748      75.70721404      85.63597941
C      83.07612703      77.80481024      83.28704960
O      85.33246025      78.46432473      82.82784610
O      81.27332813      79.27879677      82.61241730
C      87.47729962      72.54948137      85.45267596
O      88.88703545      74.41464124      85.86652602
N      87.53399141      70.54637147      87.00225153
H      86.22819052      69.16120209      86.88697822
C      89.15159713      70.51802558      89.26614365
H      91.00730837      71.29470309      88.82583743
H      89.48796841      68.55837939      89.80471565
C      87.87603187      71.63485383      91.69066251
O      85.65560345      72.38696490      91.64719881
N      89.25931153      71.44399147      93.75991283
H      91.09234605      70.94888318      93.55582238
C      88.35413263      71.68587644      96.31293308
H      86.30000012      71.60839766      96.44710364
C      89.48607869      69.33127746      97.80959631
H      91.49107831      69.63930284      98.17053404
H      89.36702593      67.76658407      96.47544953
C      88.27854357      68.73601367     100.35505767
H      89.37647456      67.22045316     101.21677286
C      88.11980656      70.96022154     102.20132026
H      86.75353444      72.34728065     101.53613660
H      89.93016437      71.93343059     102.35816755
H      87.55855785      70.21188992     104.03624451
C      85.70473634      67.55115527     100.09427542
H      84.05122581      68.34673005     101.02968995
H      85.69339798      65.52347893     100.44954397
H      85.16805406      67.78359161      98.12140116
C      89.19884029      74.29369875      97.42220242
O      91.38525363      74.52046591      98.34627858
N      87.48107907      76.14940999      97.34661336
H      85.78788429      75.75067774      96.56426667
C      87.81934008      78.69676106      98.42753683
H      89.83000888      79.05580906      98.69776769
C      87.01431667      80.89451276      96.70788588
H      87.35824686      82.62928152      97.76613262
H      85.03199377      80.66963533      96.20521867
C      88.83412311      81.32159091      94.55548760
H      89.18183275      79.48099748      93.70133132
H      90.66526791      82.02456910      95.18854592
C      87.72107431      82.92596855      92.53537017
H      87.46596126      84.87616611      93.14953123
H      85.79355347      82.29668969      92.17821190
N      89.32734168      82.91651992      90.26013969
H      90.81077683      84.10515777      90.42454589
C      89.38592319      81.45198203      88.24947090
N      87.53399141      79.81736877      88.08884416
H      87.31667288      78.79313710      86.49013571
H      86.21118299      79.52257146      89.43054985
N      91.09045633      81.71276426      86.50903297
H      91.32856184      80.54302367      85.01992863
H      92.36980104      83.12061036      86.65643162
C      86.69117347      78.84604944     101.11094818
O      84.62003343      77.99378287     101.71755033
N      88.09712985      80.08193045     102.76445870
H      89.61646980      80.96065319     102.01423736
C      87.49430715      80.42964009     105.41574472
H      85.92583431      79.27501731     106.08470784
C      89.72985338      79.99689277     107.11271895
H      89.29710606      80.39184557     109.08748295
H      91.23218580      81.26867857     106.50422708
C      90.82589464      77.28135605     106.96721002
H      91.49296803      76.74845323     105.09449125
C      92.88758605      77.10561151     108.94386375
H      93.99874512      78.82526245     108.70953769
H      93.94772251      75.34060713     108.86071580
H      92.11846744      77.33804784     110.84114897
C      88.79065941      75.18187012     107.73443891
H      89.58812391      73.28647463     107.84215332
H      87.12581052      75.17809067     106.52123461
H      88.05177642      75.51068250     109.62983440
C      86.84235158      83.29446518     105.81447698
O      86.03732817      83.83681663     107.88561701
N      87.17116395      85.08970518     104.03246506
H      87.69083869      84.35649137     102.34871893
C      86.40582480      87.81280080     104.16663563
H      85.72930278      88.33058581     106.04313387
C      88.37302989      89.66284286     103.18586767
H      87.51887360      91.52233355     102.97421834
H      89.02876492      89.20930854     101.28480301
C      90.89581452      90.09370046     104.69575900
H      91.89547974      88.30979882     104.93953369
H      90.35346307      90.93651839     106.49477846
C      92.89892441      92.12326652     103.73388830
H      94.13480542      91.25210269     102.33549084
H      94.24629927      92.57680083     105.22677210
C      91.82178041      94.61203607     102.62461896
H      91.13769949      95.68918007     104.24222468
H      90.17015961      94.14527367     101.48889345
N      93.84945674      96.05200752     101.46810645
H      94.87557813      97.11970289     102.67375184
H      93.05766142      97.24064537     100.20387956
H      95.21950832      95.13171081     100.50812550
C      84.24586762      88.19641524     102.18809219
O      83.95673950      86.69975200     100.52513303
N      82.56401120      90.04078812     102.46777167
H      82.74920438      91.45241368     103.73955748
C      80.41917184      90.54912450     100.71032621
H      79.56879500      88.74632560     100.19443092
C      78.47842292      92.21586311     102.08037778
H      79.41194771      93.83724828     102.93831353
C      76.46775412      92.93773856     100.20765900
H      75.05045938      94.13771477     101.09394065
H      75.55501631      91.30123557      99.35539244
H      77.38616111      93.81079211      98.58438410
C      77.16506313      90.73242795     104.26490141
H      78.56535033      90.13338471     105.65385025
H      76.22964860      89.04112290     103.55058485
C      75.29423408      92.41806382     105.79180026
H      73.52356052      92.84514197     104.82803984
H      76.11815475      94.25109835     106.23777567
H      74.81991277      91.57524589     107.61160670
C      81.54922817      91.64516576      98.39352175
O      82.97408181      93.49520782      98.36517586
N      80.80089655      90.57747039      96.20899812
H      79.34202784      89.34914829      96.28647691
C      81.63426586      91.21808761      93.58794774
H      82.53755504      93.07001940      93.53314568
C      83.69217781      89.14127839      93.13630314
H      84.87892594      88.75010505      94.77469586
H      84.94128691      89.90472783      91.68499334
C      82.55267285      86.72242871      92.09317422
C      82.38826666      86.37849853      89.32472517
H      83.16116472      87.64461515      87.92632769
C      81.29600485      84.05602489      88.45923052
H      81.13348838      83.83870636      86.43722336
C      80.39838485      82.14173213      90.12218968
O      79.17384220      80.11216607      89.22834912
H      78.99053875      79.98555441      87.42743995
C      80.51365815      82.50078013      92.76402706
H      80.16405879      80.92285866      94.00935671
C      81.61158914      84.82892295      93.69566213
H      81.73820080      85.10104354      95.71200011
C      79.47808813      91.28989721      91.63775017
O      77.44663235      90.63605191      92.41820714
N      79.91650464      92.33869532      89.36251970
H      81.65694257      92.93395910      88.86174223
C      77.90961529      93.06623995      87.49924955
H      76.17295681      93.10214475      88.60284972
C      78.34803180      95.95185203      86.85485288
H      80.20185331      96.49609320      86.14242606
H      77.82268788      96.99120150      88.55371684
C      76.54145344      97.26899127      84.81772791
H      74.66873467      96.45451923      85.07095125
H      77.07057681      96.60758706      82.93745024
C      76.74176443      99.97885880      84.61363748
H      78.69763117     100.40404722      84.12419836
H      76.23909723     100.87269935      86.39942883
C      75.31124161     101.25631379      82.48202620
H      73.37049269     100.56656368      82.51793100
H      75.95752801     100.66105000      80.61686633
N      75.63438481     104.06255736      82.57462279
H      74.72920591     104.97529517      81.16299722
H      77.53167003     104.20050738      82.42533441
H      75.27344709     104.68994650      84.33962716
C      77.56568511      91.39950134      85.18811428
O      79.32124085      91.32958147      83.64609760
N      75.43974300      90.02567031      84.93111149
H      74.07536061      90.59447793      86.13486715
C      74.56290999      88.71042080      82.69934471
H      76.02933761      87.28367743      82.45934947
C      71.90217535      87.57091583      83.24358589
H      70.36015867      88.93718795      83.23035782
H      72.15917812      86.54101499      85.00670055
C      71.32769855      85.49788606      81.37086711
O      70.72487585      86.22543069      79.19201268
O      71.51478145      83.09415419      81.83385006
C      74.77455934      90.21086349      80.29561284
O      74.71597783      92.55412412      80.33340737
N      74.96920115      89.04490235      78.10164059
H      74.80101551      87.14761713      78.20179609
C      75.09770254      90.29968062      75.60720186
H      76.16728763      92.05712610      75.69412927
C      76.22586915      88.70664134      73.48503922
H      76.43373904      89.68740930      71.68601976
C      78.65605719      87.56902610      74.24092975
H      79.04534081      86.17062863      72.78017130
H      78.44629757      86.39928551      75.92467588
H      80.21508140      88.91262151      74.28061399
O      74.76511071      86.52400745      72.97103365
H      75.24321147      86.23865878      71.24382381
C      72.63349943      91.42406778      74.65289008
O      72.61838162      93.16261599      72.96158503
N      70.47543198      90.74943549      75.96813959
H      70.65117653      89.23387498      77.11331373
C      68.00933914      91.90783772      75.63932721
H      68.01878777      92.59191864      73.69857828
C      65.96654500      89.88583056      76.06262591
H      65.49600314      89.90661755      78.06762552
H      66.72621497      88.05279604      75.50893609
C      63.34171515      90.32613679      74.63588255
H      62.39685199      92.05334664      75.23681550
H      61.91686151      88.97309275      75.25382305
C      63.41541447      90.17306896      71.74838073
O      63.24911856      92.22342201      70.52950726
O      63.86138988      88.11326728      70.68446481
C      67.47265687      94.31534904      77.24181513
O      65.70954222      95.83279927      76.93001028
N      69.34726537      94.99942997      78.80461879
H      70.89873067      93.89394007      78.91611264
C      69.43419278      97.40316184      80.26348751
H      68.19075287      98.93384015      79.66633398
H      71.32580882      98.20818524      80.15199365
C      68.94475367      97.05923165      83.16799685
O      68.77845775      98.90171480      84.49836416
N      68.29657754      94.76510390      83.89743121
H      68.10382546      93.22875641      82.78060294
C      67.43675207      94.27188533      86.58273229
H      66.57314714      95.93673422      87.43310913
C      65.36939148      92.28767271      86.40887747
H      64.22421734      92.60136727      88.09451334
H      66.05347241      90.35070324      86.27848635
C      63.45320900      92.52199877      84.20923604
C      62.54047119      90.51132997      82.79194130
H      62.92597536      88.54601461      83.18311465
C      60.88507094      90.78156083      80.65088139
H      60.11784206      89.13938867      79.71168742
C      60.02146602      93.23064614      80.10852995
O      58.31693288      93.36670643      78.19045773
H      57.28514231      94.85014159      78.02227210
C      60.69609831      95.24698411      81.69590005
H      59.82493448      97.02332685      81.18567395
C      62.48944858      94.95974571      83.61397225
H      63.10171991      96.61892542      84.63253473
C      69.54001745      93.44418521      88.37230311
O      71.75477669      93.09647557      87.63342013
N      68.90317969      93.09080639      90.83083704
H      67.04368900      93.10403447      91.26547410
C      70.55857994      92.41428437      92.93221270
H      72.40484255      92.49932205      92.01569544
C      70.48866006      94.37393056      95.09972878
H      70.89117177      93.43851603      96.88740988
H      68.59137485      95.17517451      95.13941304
C      72.40862200      96.58868979      94.81438011
C      71.63950339      99.07556962      95.21122263
H      69.65907021      99.56689846      95.19232537
C      73.50844271     100.92561168      95.33783429
H      73.09648238     102.90793458      95.59861654
C      76.04256570     100.28688419      94.94855067
O      77.77922418     102.19928722      94.61217939
H      77.06112818     103.79988540      95.07516234
C      76.79089732      97.76598929      94.55359787
H      78.69007226      97.36914676      93.92053956
C      74.92006827      95.99153628      94.75201914
H      75.26777791      93.98275721      94.84650545
C      70.34315114      89.67229149      93.86573750
O      68.34760015      88.77089204      94.66509174
N      72.54846174      88.49499200      94.03959233
H      74.03567635      89.66284286      93.78069981
C      72.79979534      85.72465322      94.42887595
H      71.04612933      85.10482299      95.31515758
C      73.19663787      84.44530851      91.88908378
H      73.66906945      82.46487533      92.18955026
C      71.07825467      84.64750922      89.86518689
H      70.84581834      86.66384720      89.51180808
H      69.44553114      83.69130771      90.67398975
H      71.51667118      83.40217958      88.28348598
O      75.19029913      85.68496897      90.47745822
H      76.29200957      86.59014787      91.59995566
C      74.97487033      85.01600585      96.22033649
O      76.56224043      86.63172185      96.89685850
N      75.03534157      82.62172261      97.19165582
H      73.74843795      81.35371626      96.57371530
C      76.78522814      81.86016291      99.11728693
H      78.53511470      82.86549731      98.71477522
C      75.97453555      82.64250960     101.75156540
H      75.83469580      84.69853183     101.71944005
C      73.46875846      81.41607723     102.43942578
H      72.93018646      82.03590746     104.33104182
H      73.80135029      79.39973925     102.69075938
H      72.12327332      82.03590746     101.01079269
C      77.76788582      82.11905542     104.03246506
H      77.73953993      80.06492291     104.18742262
H      77.10081243      83.01478569     105.76156464
C      80.49665062      82.89951238     103.61861500
H      80.67050544      84.94986543     103.48822388
H      81.49631584      82.12661432     101.98967092
H      81.36403499      82.27779243     105.37795021
C      77.15561450      78.91218986      98.90185813
O      75.76099648      77.68008831      97.52613736
N      79.06045862      77.73866982     100.20765900
H      80.16594851      78.64384873     101.47377563
C      79.45919087      74.98155913      99.96199458
H      77.78111391      73.96110692     100.57426591
H      81.00120754      74.54692208     101.26023656
C      80.19240468      74.25401450      97.29181130
O      81.78355424      75.44265235      96.23167485
N      79.11337096      72.25657379      96.28647691
H      77.98142489      71.20966541      97.41086406
C      78.89227298      71.91264360      93.54070457
H      80.38137731      73.02569240      92.65253320
C      79.61981761      69.12907674      92.70733527
H      77.87371049      68.08216836      93.01914011
C      80.35870060      69.11962811      89.81227456
H      80.29256018      67.33383674      88.78993262
H      82.34480295      69.65064120      89.67432453
H      79.33257921      70.56715846      88.76536619
C      81.77977478      67.97634369      94.29659510
H      80.96530274      67.45099977      96.11451182
H      83.24053322      69.40686651      94.54603898
C      83.42761613      65.88819611      93.27803262
H      82.22008101      64.66365346      92.14419684
H      84.30444914      64.74302197      94.74823969
H      84.90538211      66.60629211      92.03648243
C      76.40161370      73.03325130      92.40119961
O      74.55724082      71.71800179      92.38419208
N      76.47342330      75.37084275      91.49602070
H      78.12882355      76.30247782      91.67932416
C      74.42118052      76.48578128      89.87652526
H      74.06780170      75.16108313      88.34206749
H      75.06179774      78.27157264      89.07906076
C      71.95508768      77.08671424      91.10673708
O      70.35071004      78.33960279      89.93699650
N      71.53556844      76.31192646      93.52936621
H      73.07569539      75.57493319      94.37785333
C      69.22254343      76.73711488      94.95988904
H      67.76745417      75.67130924      93.96400327
C      69.68930583      75.25178999      97.45621750
H      70.97998891      76.42908949      98.54847931
H      70.77778819      73.52646987      97.18220718
C      67.42352398      74.86817555      99.07004376
N      66.00244980      72.67609303      99.11917666
H      66.34637999      71.10762019      98.08171690
C      63.81792618      73.20899585     100.25301244
H      62.13040058      72.07704979     100.44954397
N      63.99745018      75.54847703     101.18464751
H      62.58960408      76.43475867     102.12006204
C      66.08559775      76.75412241     100.35505767
H      66.40496150      78.77046039     100.43064671
C      68.32681316      79.42619542      95.14130276
O      69.49844348      81.04947032      96.35828650
N      66.32748272      80.09893799      93.75046419
H      66.08937721      78.85171862      92.32372082
C      65.10294007      82.49889040      93.75424365
H      66.45031493      83.95586939      93.20811274
C      62.90140892      82.62550207      91.87774543
H      61.42931212      81.30269365      92.45033249
H      63.61950492      81.70142590      90.18266091
C      61.57104159      85.22387575      91.67554470
H      60.84538669      85.83425735      93.50291004
C      63.31714871      87.38194320      90.62674660
H      64.81948112      87.74855010      91.98734955
H      62.24567389      89.13938867      90.57194454
H      63.93697894      86.87549655      88.73135111
C      59.52257827      85.22954493      89.63841973
H      58.05993010      83.85760362      90.11274104
H      60.17642357      84.30735849      87.91876879
H      58.70810623      87.11738151      89.52125670
C      64.21854816      83.17919188      96.42442692
O      62.81826096      81.83370674      97.74345589
N      64.60783178      85.51111415      97.11417703
H      65.79457990      86.52589718      96.01624605
C      63.69887342      86.85281983      99.39318696
H      62.98266715      85.41851756     100.68575977
C      65.93252992      88.20775360     100.81426115
H      65.01034348      89.03923317     102.46021278
H      66.51456563      89.75921890      99.59160823
C      68.06414120      86.44085949     101.54369551
H      68.43452756      85.11994080     100.00356856
C      70.47732171      88.12271591     102.24667369
H      71.07069577      89.16395511     100.57237618
H      72.07225071      86.90195271     102.70587719
H      70.10882507      89.53812092     103.69798350
C      67.35171438      85.03490312     103.90774312
H      65.56970247      84.00500228     103.83971298
H      67.39328836      86.22165124     105.59148928
H      68.93341531      83.81980910     104.41607950
C      61.55970323      88.51010981      98.77146701
O      59.58304951      88.18696661      99.90719252
N      61.70899161      90.22220185      96.96110920
H      63.23966993      90.21464294      95.82349396
C      59.90430298      92.27255490      96.38852212
H      57.99567941      91.50721574      96.27135909
C      60.09894479      94.25865725      98.45210327