 %block lattice_cart
   139.252   0.000   0.000
   0.000 142.425   0.000
   0.000   0.000   162.84
 %endblock lattice_cart

 %block positions_abs
N      93.97039923      42.26094803      80.81150813
H      95.87902280      42.25149939      80.82284648
H      93.48096011      40.98727249      79.47736135
H      93.22773679      41.43135817      82.36297344
C      92.83278399      44.82908609      80.20490598
H      93.55465944      46.21236574      81.55039111
C      93.53576218      45.48482112      77.49881790
H      92.99719018      44.10532090      76.06640536
H      95.59178440      45.62277113      77.50259736
C      92.37735995      47.83564064      76.36876156
H      90.32133772      47.88855299      76.44246089
H      92.94238811      48.02839273      74.39777702
S      93.54143135      50.41700680      78.21502417
C      96.64436196      51.02360893      76.81851644
H      97.89347105      49.44946692      77.27016103
H      97.40970112      52.67334001      77.78983575
H      96.49507358      51.24092746      74.77572229
C      89.87158285      44.55318605      80.30317175
O      88.86246900      42.89022689      79.03894485
N      88.46373675      46.09331298      81.76581991
H      89.42371772      47.55218170      82.53682826
C      85.84079663      46.08953354      82.37242206
H      84.77877044      45.29584848      80.79450060
C      85.48741781      44.32074970      84.66088063
H      86.70440155      42.66345974      84.52671007
H      83.51454354      43.73304482      84.76670531
C      86.29811040      45.66245539      87.05327415
O      87.47352016      47.68446255      87.14776045
N      85.36080615      44.71003332      89.27559229
H      85.48552808      45.56041016      90.98012542
H      84.46507587      43.02628719      89.31149708
C      84.73530674      48.84853395      82.60107894
O      86.04677680      50.64566367      82.59729950
N      82.18228649      49.13577236      82.57462279
H      81.20151853      47.50115910      82.48769538
C      80.78388902      51.62643164      82.52737962
H      81.02766371      52.49192629      80.67355812
C      78.00977079      50.94424043      82.95067832
H      77.73953993      49.45324638      81.55417058
C      77.37104329      50.17134237      85.58495679
H      75.38305121      49.66489572      85.75125272
H      77.67150978      51.68123370      86.95311865
H      78.38204687      48.52350103      86.29738362
C      76.30523765      53.24970654      82.30439191
H      76.64160894      54.74070060      83.68200241
H      74.40606271      52.63176603      82.80705912
C      76.46019521      54.27960737      79.54917095
H      76.46586439      52.69790645      78.22825226
H      78.34614207      55.07707188      79.32051408
H      74.98998814      55.59485690      78.96146608
C      81.60214051      53.59363672      84.59474021
O      81.65316312      55.81406515      83.97679971
N      82.48086324      52.70168591      86.77926383
H      82.49031188      50.79495205      86.75469739
C      83.56178670      53.83552169      89.03370732
H      82.21252211      55.35675138      89.35307106
C      84.02665937      52.04217143      91.28437136
H      84.90727183      53.11364624      92.80749076
H      85.00742733      50.37543281      90.57950345
C      81.43395487      51.25226582      92.23868314
C      79.94296081      53.02482910      93.49724088
H      80.77444038      54.86542253      93.78825873
C      77.51466249      52.65822221      94.32872045
H      76.42429041      53.99992789      95.41720281
C      76.50932810      50.30929239      94.21722659
H      74.77077989      49.83119163      95.16964866
C      77.85292350      48.58586200      92.68087911
H      76.94207542      46.81140898      92.25380096
C      80.39460540      48.96758671      91.98168037
H      81.35269664      47.46903375      90.98012542
C      86.10724804      55.22824999      88.46112025
O      86.68361456      57.27104413      89.36818888
N      87.39604138      54.24559231      86.60351929
H      86.52676728      52.75648797      85.78526779
C      89.71095612      55.12998421      85.41866088
H      90.60101721      56.47168991      86.70367477
C      91.56855708      52.91522498      85.02937727
H      90.89014534      51.74737411      83.47413251
H      91.98429687      51.83241181      86.73202067
C      94.23496091      53.66922578      84.23947166
H      94.17071022      54.47613892      82.34407617
H      95.24029531      51.88910359      83.98813807
C      95.74296251      54.90132734      86.21990483
O      94.71117194      55.85185967      88.19088939
O      98.15992246      55.05817461      86.01770412
C      89.17427385      56.50570498      82.90343515
O      90.45361856      58.34818812      82.38376043
N      87.28076808      55.64965896      81.46346370
H      86.44928850      54.02071487      82.00392543
C      86.61180497      56.85719407      79.07673938
H      88.06500450      56.69656733      77.62542957
C      84.21563200      55.47958359      78.04683854
H      82.60747491      56.52838168      78.79328043
H      84.35169229      53.50670931      78.62887423
C      83.86036345      55.82540350      75.24626414
H      85.50253562      55.02415955      74.29762154
H      83.36525516      57.79638805      74.90422367
S      80.96530274      54.01126625      74.55273458
C      80.94451575      54.77282594      71.15689640
H      82.56779066      54.15677516      70.04951678
H      80.44373828      56.72302350      70.71847990
H      79.43840388      53.87709568      70.07975239
C      85.85591444      59.70312189      79.50192780
O      86.93872762      61.49836190      78.61186670
N      84.36303065      60.23035554      81.45968425
H      83.50698463      58.85652450      82.47257756
C      83.53533053      62.71723536      82.28360493
H      83.28399693      63.88697595      80.60741769
C      80.99553836      62.43188670      83.71790721
H      80.56468076      64.20067053      84.68355734
H      81.12215003      60.86152413      85.04638479
C      78.82802228      61.62686328      81.95668228
H      79.23809289      60.09807469      80.63765331
C      76.81546376      60.31728295      83.43633798
H      76.08413968      61.54371532      84.91977313
H      77.55056729      58.72991285      84.52482034
H      75.23565256      59.73902670      82.24770012
C      77.83780569      63.68666497      80.29750257
H      76.96664186      65.09073161      81.52771440
H      76.30523765      62.88353129      79.17878459
H      79.23620317      64.58995414      79.08429829
C      85.54410960      64.02681569      83.94845382
O      85.55544796      66.35306879      83.79727571
N      87.45273317      62.73046344      84.99914164
H      87.28265781      60.84262686      85.22968825
C      89.59946227      64.20256025      86.03093220
H      88.80010804      65.88630640      86.91343439
C      91.44005569      62.54149082      87.64286875
H      92.48507435      61.13175499      86.56194530
H      90.30433018      61.54371532      89.04315596
C      93.19372171      64.25358286      89.05071485
H      92.07500374      65.69544403      90.00502665
H      94.58267055      64.99435558      87.72412698
C      94.60345754      63.09707035      91.39208575
H      93.04632306      62.51503465      92.60717978
H      95.86390499      64.42743767      92.33505919
N      96.08311325      60.78404534      90.76847607
H      95.55965906      59.75603424      89.24724640
C      97.64969636      59.55383351      92.14230711
N      98.65314103      60.13208977      94.31171292
H      99.83044052      58.80928135      95.02225001
H      98.61723623      62.02748526      94.52903144
N      98.22417316      57.29750030      91.31460698
H      99.39391375      56.10130354      92.22734478
H      97.21883876      56.58696321      89.85762800
C      91.00352892      65.33828576      83.77270927
O      91.70839683      67.48312513      83.95790245
N      91.28131868      64.06272049      81.58251646
H      90.69739325      62.25992159      81.35008013
C      92.78932028      64.98490695      79.45468464
H      94.61290617      65.71245158      80.08207377
C      93.34112037      62.72479426      77.66133437
H      91.73674273      61.43600093      77.62542957
C      93.47529093      63.55438412      74.79839901
H      94.60723700      62.13519967      73.82518995
H      94.46361780      65.34773440      74.58485993
H      91.62902833      63.67343687      73.88944065
C      95.52186453      61.04671731      78.64966123
H      95.08722748      60.25114253      80.49970328
H      97.20183122      62.20511953      78.92934073
C      96.68026676      59.01904097      77.13599045
H      98.15236356      58.10819288      78.25848788
H      97.38135522      60.03382400      75.48814911
H      95.36312752      57.53560581      76.57096229
C      91.21328854      67.05037780      78.19423719
O      92.14303388      69.12340757      77.93345496
N      88.88325599      66.52125444      77.36842678
H      88.17649835      64.81672129      77.85786590
C      87.21084821      68.23523619      76.04750809
H      88.23696959      68.97978837      74.42423319
C      84.95829444      66.61574074      75.41822923
H      83.31423255      67.84595257      75.24815387
H      84.49720122      65.41765426      77.03016578
C      85.26820956      65.20411519      72.90111379
O      83.70540590      63.53548686      72.40033632
O      87.01053722      65.62930361      71.35342793
C      86.42283233      70.75046193      77.49125899
O      85.95984939      72.68932111      76.17411976
N      86.29811040      70.80337426      80.00648473
H      86.45117823      69.12529730      80.90410472
C      85.30222463      72.99734651      81.46346370
H      85.05089103      74.59227551      80.18222927
C      82.62826190      72.26035325      82.48958509
H      82.85124960      70.81660235      83.94089491
H      81.50576447      71.43832230      80.97024515
C      81.07679659      74.31637548      83.80483462
H      81.92717344      75.18564957      85.46779376
H      79.37415319      73.44143220      84.56261487
C      80.21697112      76.31759564      81.88487267
O      77.88126940      76.54814225      81.62598017
O      81.65505285      77.50056432      80.40710671
C      86.92360981      73.85717197      83.60641335
O      86.90660227      76.16263808      84.10908054
N      88.28043330      72.11106487      84.82906628
H      88.45806757      70.39519338      84.00892506
C      90.10023974      72.61184234      86.83595562
H      91.54777009      73.94598912      86.22179456
H      90.83723300      70.80337426      87.49358038
C      88.81522585      73.83449527      89.31905599
O      86.56456181      74.31448574      89.33417381
N      90.27787401      74.38629535      91.29381998
H      92.10712908      73.88551788      91.08217065
C      89.52009376      75.17620095      93.69566214
H      87.49808661      74.80581459      93.84117106
C      90.26842538      73.03892049      95.68176449
H      92.29421199      72.66286495      95.63263161
H      89.29710606      71.25312913      95.34350348
C      89.74497119      73.58127194      98.44643409
H      90.19094660      75.53146950      98.93398348
C      86.99541941      72.98411843      98.93587319
H      86.89904336      70.92809620      98.93209375
H      85.85969389      73.96110693      97.52046820
H      86.47385494      73.87040006     100.72166456
C      91.37391527      71.73122987     100.02624529
H      90.75219532      71.47800656     101.97266339
H      93.30899502      72.43987725     100.11317270
H      91.49107831      69.93410016      99.02469034
C      90.24763839      77.73866983      94.51958280
O      92.48885380      78.32070554      94.54036980
N      88.48074429      79.34304746      95.35106239
H      86.68928374      78.81392410      94.95988904
C      88.73963679      82.05102528      96.42253720
H      90.70117271      82.56881028      96.76079821
C      87.95162092      83.87083172      94.37407388
H      87.22218656      85.57536485      95.27169387
H      86.30566930      83.00533707      93.48779224
C      90.02465069      84.80057706      92.52592155
H      90.90337342      83.13005899      91.70200087
H      91.56099818      85.79457310      93.47078470
C      88.92671970      86.40684443      90.27903695
H      90.48952336      87.17785276      89.17921625
H      88.01209216      88.08303167      91.05004530
N      87.34312905      85.01222641      88.47623805
H      86.62503305      83.30013437      88.91465457
C      86.72896800      85.58481348      86.13108770
N      87.35824686      87.49910623      84.87441970
H      86.68361456      87.92996384      83.14343041
H      88.15382164      88.94852632      85.82495203
N      85.27009928      83.98610502      84.96323684
H      84.99041979      84.30168932      83.10185642
H      84.90916156      82.42897054      86.00447603
C      87.50942496      82.28157189      99.03980814
O      85.28521709      82.61794316      99.00012390
N      89.10057452      81.96598759     101.10527900
H      90.94494740      81.53890945     100.88040158
C      88.04232778      81.53701971     103.57326158
H      86.53243646      80.13862225     103.64129171
C      90.32889662      80.50711888     105.21165428
H      89.84134723      80.77923947     107.19586691
H      92.03342976      81.62583686     104.92252615
C      90.72195970      77.71599312     104.67119256
H      90.58211995      77.45521088     102.63217787
C      93.50174710      76.88451354     105.69542422
H      94.82077607      78.22621922     104.86016520
H      94.02898074      75.04769956     104.92252615
H      93.55276971      76.87884435     107.75333618
C      88.73774707      75.87162023     105.84660233
H      88.17271890      76.52735526     107.71554165
H      89.59757254      74.03291653     106.19809142
H      87.23919410      75.59572019     104.46143294
C      86.89337419      83.95208994     104.56536789
O      85.29466572      83.76311732     106.21698869
N      87.49430715      86.22732043     103.48444444
H      88.91727107      86.28212249     102.21454836
C      86.35858164      88.56869133     104.13451029
H      85.04522185      88.42885158     105.71243175
C      88.59790732      90.33180598     104.79402477
H      89.76197873      90.57180122     103.11216835
H      89.78087599      89.50032640     106.26234211
C      87.94217229      93.01143789     105.68975504
H      87.23541465      92.91317213     107.62105533
H      86.57967962      93.84102773     104.38584388
C      90.27598429      94.72919911     105.76345437
H      90.90526315      95.31879371     103.89262532
H      91.75752972      93.66906264     106.72343534
C      89.52576294      97.09891590     107.42263408
H      90.98652138      98.05511741     108.51678560
H      88.42216277      96.16917056     108.89095142
N      88.11791684      98.92439153     106.06581058
H      87.06722901      98.12314756     104.69008983
H      89.38403347      99.88815195     105.01512274
H      87.02376530     100.13003690     107.06358608
C      84.86380813      89.76488809     101.89518460
O      85.41371848      89.58536409      99.70121235
N      82.87581604      91.13871912     102.60194225
H      82.74353520      91.74532126     104.40474115
C      80.85002944      92.12704598     100.80859197
H      79.73320119      90.49810190     100.21899737
C      78.99998738      93.96197023     102.15029766
H      79.90516628      95.46997183     103.21988276
C      77.35403576      95.40950058     100.12073159
H      78.43306948      96.71719119      98.95099101
H      75.84036498      96.42806307     101.07504339
H      76.46019521      93.97141886      98.94721155
C      77.51655222      92.62593373     104.32348291
H      78.67873390      91.38816299     105.48755433
H      76.05201433      91.46753150     103.45042937
C      76.19185408      94.37771002     106.12817155
H      77.48253715      95.80256366     106.87083399
H      75.67973824      93.40261124     107.87049921
H      74.51755656      95.29611700     105.35527348
C      82.11236661      93.38749343      98.42186765
O      83.75075933      94.96541490      98.52580258
N      80.82546299      92.96608446      96.22789540
H      79.28533605      91.84547676      96.33560979
C      81.68906792      93.81268185      93.77314091
H      82.71896876      95.59469376      93.91109094
C      83.62603739      91.84169730      92.71300446
H      85.26820956      91.68862947      93.94699574
H      84.64837933      92.75632484      91.17665695
C      82.55834202      89.26222089      91.79648719
C      82.35614131      88.95230577      89.30582791
H      82.87581604      90.43763066      88.00569621
C      81.05600960      86.93407807      88.32883940
H      81.12215003      86.65250884      86.30683224
C      80.63082118      84.80813597      89.82172320
O      80.15272043      82.49322124      88.76914564
H      79.91461491      82.55180275      86.97012618
C      81.00876645      85.08025656      92.47867838
H      80.63460064      83.51178372      93.72967721
C      81.95173988      87.37060485      93.46889497
H      82.10102826      87.56335693      95.49468158
C      79.37982237      94.15850176      91.98734955
O      77.23309327      93.62937840      92.73001199
N      79.84280531      94.94084846      89.71400879
H      81.70040628      95.29611700      89.46645464
C      78.21953041      94.91061284      87.50680845
H      76.46775412      93.91850652      87.94522496
C      77.37104329      97.67717216      86.74902821
H      76.47531302      98.44251132      88.43655381
H      75.78745264      97.56756802      85.43566841
C      79.66706076      99.31745460      85.82306232
H      80.75932257      98.18928799      84.49080527
H      80.97097192      99.72941494      87.36318925
C      78.96786203     101.81567279      84.41899566
H      77.79245226     103.04588462      85.57928761
H      77.75276801     101.43961725      82.79761049
C      81.43773432     103.37469698      83.65554624
H      82.49220160     102.05944747      82.47068784
H      82.38259748     103.96996078      85.38653554
N      80.93128767     105.62158158      82.11730902
H      80.39082594     105.04710478      80.38065054
H      82.60558518     106.52487076      81.98880763
H      79.57824363     106.81588860      82.73335979
C      79.25132098      93.57646605      85.20512181
O      81.51710283      93.24576396      84.64765254
N      77.29167479      92.80545772      83.80294489
H      75.53422932      93.45363384      84.15254425
C      77.57513374      91.64327603      81.30472669
H      79.55178746      91.71130618      80.73402936
C      76.69074182      88.83892219      81.25181437
H      74.64416822      89.02600510      81.12142325
H      77.04223092      87.87138232      83.03571600
C      77.52600085      87.28934661      79.01248868
O      75.85548279      86.88305546      77.39299324
O      79.66895049      86.44085949      78.93312017
C      76.30523765      93.12482146      79.11831335
O      76.15405955      95.40761086      79.16177706
N      76.01610953      92.00043432      76.81662671
H      76.12382393      90.09559019      76.72025066
C      75.87815951      93.49331810      74.41667428
H      77.70174540      94.44574016      74.38076949
C      75.96508692      91.57713562      72.15845135
H      75.70052523      92.53333713      70.35376272
C      78.35559070      89.73654219      71.96569926
H      78.68251336      88.18129744      73.27905904
H      80.02043959      90.94596703      72.07530338
H      78.37637769      89.10726333      70.00605307
O      73.92796195      89.94063263      72.12821573
H      72.75255219      90.57936013      70.90556279
C      73.76922494      95.35469852      73.91211737
O      74.11882431      97.33135223      72.62143430
N      71.64139311      94.78211144      75.15555728
H      71.67351846      93.13615983      76.12687661
C      69.36616263      96.49987266      75.03650452
H      69.43230305      97.68095161      73.34897892
C      66.97187939      94.85014159      74.64155172
H      65.52056959      96.17295001      74.01983177
H      66.15173817      94.40038673      76.47647597
C      67.27045615      92.71853031      72.71781033
H      65.42797300      91.81713086      72.54395552
H      68.38161522      91.31635338      73.73826254
C      68.66507417      93.37993452      70.22148187
O      70.00866958      91.72075482      69.11221253
O      68.28712891      95.45485402      69.02717485
C      69.20742562      98.22897224      77.38543433
O      67.33092739      99.68784095      77.64432684
N      70.76078065      98.08346332      79.37909559
H      72.28201033      96.94584808      79.20902021
C      71.00266562      99.93917456      81.48236098
H      69.99733122     101.65504605      80.94567869
H      72.94908372     100.52687943      81.80739390
C      70.06158192      98.90549426      83.95412298
O      70.46031417     100.10924992      85.89109246
N      68.88428242      96.63215351      84.07128603
H      69.02601190      95.59280404      82.47824673
C      67.76367472      95.60981157      86.40698774
H      66.47866083      97.03277549      87.16098854
C      66.35015944      93.17962354      85.68133284
H      65.51679013      92.40672547      87.39909406
H      67.80713842      91.85303565      85.08228960
C      64.29035776      93.40072151      83.59885445
C      63.69887342      91.24454379      82.05872749
H      64.75145098      89.55701819      82.51604126
C      62.23622525      91.52044383      79.97624911
H      61.82426492      89.88961002      78.81784688
C      61.36884088      93.85236610      79.12209280
O      60.46744142      94.35503329      76.85253151
H      60.61672980      96.05956644      76.24970882
C      61.83749300      96.00665410      80.56962316
H      61.51812925      97.96063111      80.08207377
C      63.34360487      95.77610748      82.75225706
H      63.47588572      97.50331734      83.83129077
C      69.73276954      94.91817174      88.43277436
O      71.81146848      93.94496269      87.78459822
N      69.36616263      95.56067868      90.93099254
H      67.91674255      96.72475010      91.36562959
C      70.93652520      94.64605115      92.99268394
H      72.79223644      95.01832724      92.18010163
C      70.66440461      96.37893018      95.40397472
H      71.38439033      95.31879371      97.01780100
H      68.62161047      96.46585759      95.63263161
C      71.97209522      98.86769974      95.12996440
C      70.51133678     101.08056925      95.75168437
H      68.59893375     100.99175211      96.45844200
C      71.75099724     103.44650659      95.77814054
H      70.81558271     105.22851850      96.09750428
C      74.35504010     103.59957443      95.36618019
O      75.57013412     105.87102545      95.31326786
H      74.27945105     107.10501674      95.63830078
C      75.87438005     101.39993300      94.98634521
H      77.90394611     101.60402344      94.93154315
C      74.68952166      99.07745936      94.96555822
H      75.85359307      97.40127211      95.00713219
C      70.78912655      91.81902059      93.48968197
O      68.77089884      90.67006699      93.54259430
N      73.00766524      90.81179646      93.74290529
H      74.45330587      91.98342677      94.16620398
C      73.61615711      88.10570838      93.58983745
H      71.95508768      86.95297532      93.97534162
C      74.75377235      87.41595828      91.03681721
H      76.71719799      88.01878097      90.90075692
C      74.65739631      84.61160443      90.38108218
H      75.38305121      84.06358379      88.53292984
H      72.70908848      83.94264132      90.45289179
H      75.80446018      83.68563854      91.82105363
O      73.59348039      88.68585436      89.02614841
H      73.26466802      90.37337996      89.61007385
C      75.50777315      87.75988847      95.75357408
O      76.64916784      89.51166475      96.80615164
N      75.75721702      85.31647235      96.38663241
H      74.55157164      84.11838585      95.51735829
C      77.67150978      84.20153382      97.96455388
H      79.41572717      85.28623673      97.79825795
C      76.93073706      84.62672224     100.75001045
H      76.43373904      86.62605267     100.82937897
C      74.58747644      83.12250010     101.36984070
H      74.98053951      81.10238267     101.40007632
H      73.17585088      83.73477141      99.99978911
H      74.16039829      83.57225496     103.33515605
C      79.21541618      84.32247631     102.53769155
H      80.72908695      85.70197651     102.29391686
H      79.96374780      82.41952191     102.30525522
C      78.68629281      84.67396540     105.32692759
H      78.30834755      86.63550131     105.83526396
H      80.20941222      83.68185908     106.30013664
H      77.13293778      83.33981861     105.55369475
C      78.16283862      81.41418751      97.39574626
O      76.82302266      80.16318869      95.89530357
N      80.28878072      80.44475791      98.14407788
H      81.59647133      81.71276427      98.72233413
C      81.00498699      77.77835408      97.84550112
H      79.68973748      76.44987649      98.70910604
H      82.74164548      77.51379240      98.91886566
C      81.69095765      76.87317518      95.18665619
O      83.26509966      78.19598360      94.05848959
N      80.45696636      74.81904268      94.18510124
H      79.37226346      73.88173843      95.44365898
C      80.68373352      73.48489590      91.73790568
H      82.23897828      74.35794945      90.70233565
C      81.40182952      70.68432150      92.09128449
H      79.81067996      69.78859123      93.03992711
C      81.97252687      69.41820488      89.58928685
H      81.97252687      67.36029292      89.66298618
H      83.73186206      70.17787485      88.83906551
H      80.32657525      69.70544328      88.37986202
C      83.79233331      70.31015570      93.69944159
H      83.46919011      71.12840719      95.56082201
H      85.44017465      71.38540997      93.08339081
C      84.29122105      67.54926554      94.42698621
H      85.78599457      67.65886968      95.84239123
H      84.71263002      66.47023182      92.72245308
H      82.58668792      66.67243253      95.17531784
C      78.37070851      74.02157817      90.05982871
O      76.60948359      72.46066424      89.85573826
N      77.99276325      76.39696414      89.26236420
H      79.17951138      77.74622874      89.89542252
C      75.79501155      77.13773685      87.89798181
H      75.73076085      75.99256272      86.18588976
H      76.09925749      79.10305222      87.35563036
C      73.32513926      77.36828347      89.30393819
O      71.36738280      76.90719025      88.17577157
N      73.30435227      78.15063017      91.70200087
H      74.93707580      78.14307126      92.69032773
C      70.93085602      78.24700621      93.09661890
H      69.61938596      76.93931559      92.19899890
C      71.37683143      77.11128070      95.70822066
H      72.65428642      78.32826444      96.77591603
H      72.32169459      75.29714344      95.48712267
C      69.05435779      76.72010735      97.20110444
N      67.66162950      74.51479674      97.45243804
H      68.00933914      72.86506567      96.55670778
C      65.50734150      75.21777493      98.68642933
H      64.02390635      73.92709186      99.22689105
N      65.51112095      77.62906571      99.37806916
H      64.04280361      78.52668569     100.20387956
C      67.65407059      78.62495147      98.29714571
H      68.16996588      80.58459766      98.05526074
C      69.77056406      81.00789635      93.20622302
O      70.78345737      82.55558219      94.61217939
N      67.55958428      81.34237791      92.06482833
H      66.83392937      79.80036123      91.20878230
C      66.12528201      83.77445567      92.15175573
H      67.40273699      85.25033192      91.49602071
C      63.98233237      83.65162347      90.18266091
H      63.05825620      81.80914030      90.18077120
H      64.97443868      83.89161870      88.39309010
C      61.88473616      85.63205663      90.08439515
H      60.61672980      85.53190115      91.70389060
C      62.87117329      88.26633512      89.70644988
H      63.84060289      88.33625498      87.88853318
H      64.07870841      89.01088729      91.19744395
H      61.22900113      89.50788531      89.66487591
C      60.30114551      85.04624148      87.65420712
H      61.38395869      85.05757983      85.90432055
H      58.60417128      86.21220262      87.62775095
H      59.65296938      83.10549255      87.90365098
C      65.31836887      84.39050644      94.81815957
O      64.36972626      82.73321648      96.10884264
N      65.61127645      86.73943626      95.73845628
H      66.48433001      88.03578850      94.64430474
C      64.36783653      87.67485079      98.08549636
H      63.83304399      86.01000190      99.17586845
C      66.28023956      89.16017566      99.62940276
H      65.43364218      89.85559495     101.37173042
H      66.74511224      90.86848825      98.57682519
C      68.62538992      87.60682064     100.18309256
H      69.20931535      86.43519031      98.59194301
C      70.61905118      89.66662231     100.95221118
H      69.47198731      91.07068897     101.92730995
H      71.43541295      90.62660329      99.32326710
H      72.19886238      89.06757907     102.13140040
C      68.18130423      85.90795668     102.39029290
H      67.51423085      86.99643904     104.00600890
H      69.94252916      84.92529900     102.80792242
H      66.64684647      84.59459690     101.98400175
C      61.89796424      88.99954892      97.40897433
O      59.87595709      88.41562350      98.35950668
N      62.00756837      90.75321495      95.62507270
H      63.64407136      91.31068421      94.81815957
C      59.78336050      92.48042480      95.06193425
H      58.08449654      91.31635338      95.09216987
C      59.27313439      94.37015111      97.21433253