 %block lattice_cart
   139.252   0.000   0.000
   0.000 142.425   0.000
   0.000   0.000   162.84
 %endblock lattice_cart

 %block positions_abs
N      93.35245872      42.97242997      82.37336693
H      93.03876416      42.50377785      84.19695282
H      95.15714735      43.49210471      82.03888537
H      92.96884428      41.39261878      81.37370171
C      91.81233178      45.13805634      81.56645379
H      92.51719969      46.60826341      82.82501152
C      92.35846268      45.93363111      78.75454104
H      91.73674273      44.47098295      77.44307098
H      94.37858011      46.17362635      78.44462592
C      91.34556938      48.65294728      77.85314159
H      89.30277523      48.45074657      77.67928676
H      92.13736470      49.27655696      76.05790159
S      92.32633734      50.77322019      80.16427687
C      91.87847220      53.78733367      78.49564853
H      92.78554083      55.48052845      79.23264179
H      89.85457532      53.87804053      78.11392382
H      92.87057851      53.76654668      76.69095990
C      88.95695532      44.75633161      81.82345657
O      88.04232778      42.87227449      80.80678381
N      87.61147018      46.61393259      83.02721223
H      88.40137578      48.24476639      83.62247602
C      84.81278552      46.75566206      83.11413964
H      84.10035870      45.84859343      81.40771678
C      83.93217305      45.22120429      85.47251808
H      84.39137655      43.22187385      85.25330983
H      81.91772480      45.49710434      85.80510991
C      85.28521709      46.22275923      87.81010953
O      85.27576846      48.48476163      88.27120275
N      86.53810564      44.58625625      89.23496317
H      87.67194143      45.28734472      90.59934557
H      86.80077760      42.78345735      88.66804527
C      83.73753124      49.45419123      83.12736773
O      85.15482598      51.32502028      83.16138280
N      81.26954868      49.76599608      83.08957320
H      80.31901634      48.11248555      83.11980882
C      79.75020872      52.04500601      82.94406427
H      80.02421904      52.65349788      80.99386672
C      76.83625075      51.47430866      83.15571362
H      76.40350342      50.13827215      81.64960175
C      76.08602940      50.17795641      85.61613728
H      74.06969143      50.43117974      85.96762637
H      76.93829597      51.08880450      87.25264027
H      76.58491715      48.18618487      85.45551054
C      74.93896553      53.69851653      82.60202381
H      74.73676481      55.00242769      84.18561446
H      73.16073307      52.66672596      82.46218406
C      75.45675054      55.07234757      80.10947480
H      74.04323526      56.55200326      79.87325901
H      75.03534157      53.85914327      78.49753826
H      77.22742409      56.11169704      79.97719396
C      80.50420952      54.19740427      84.82245223
O      80.28878072      56.46885531      84.26120351
N      81.23364388      53.45285211      87.02965256
H      81.78922341      51.67272992      87.43216427
C      82.18039676      55.20462840      89.03087273
H      80.96530274      56.86569783      89.14047685
C      82.14638169      53.67017064      91.48373748
H      82.99486880      54.92116945      92.88402468
H      83.36525516      52.01099093      91.41948679
C      79.45730114      53.01632534      92.37757803
C      77.77166527      54.89849274      93.25630076
H      78.44818729      56.80900605      93.48306792
C      75.33202860      54.26543442      94.08967007
H      74.00733046      55.56367640      94.94193663
C      74.59692507      51.74076007      93.84589537
H      72.64861724      51.32124083      94.28431188
C      76.17673626      49.90394609      92.77442055
H      75.51344233      48.01610951      92.37568830
C      78.55212224      50.53511468      92.06955264
H      79.71997310      49.15939393      91.11524085
C      84.79199853      56.24397787      88.56788978
O      85.06411911      58.53054671      88.80032612
N      86.50598029      54.67739477      87.66271088
H      86.14882202      52.85002941      87.24130191
C      89.02120601      55.63548601      87.10713134
H      89.56355747      57.02443485      88.53009525
C      90.90526315      53.42828567      87.55121702
H      90.42338294      51.83524639      86.33801273
H      90.73518778      52.59680610      89.42960498
C      93.78331632      53.93662204      87.18649985
H      93.86079510      54.59613653      85.23630229
H      94.93038020      52.27744234      87.60412936
C      95.03809459      56.14004293      88.56977951
O      97.03175586      57.13781842      87.72129239
O      94.04976773      56.86191838      90.56344077
C      88.84924092      57.03010402      84.58623644
O      89.83756778      59.07289816      84.29143913
N      87.20895848      56.14760184      82.70784848
H      86.31511793      54.49031186      83.03099168
C      86.49275221      57.43828491      80.32490360
H      88.00264353      57.30600406      78.92839586
C      84.35925120      55.94729084      79.16461165
H      82.71707903      56.15138128      80.39293375
H      84.98475061      53.98953438      79.30823085
C      83.80556139      56.69184302      76.43395712
H      85.54788905      56.14571211      75.48153506
H      83.88304017      58.74975496      76.37726534
S      80.97097192      55.55044831      75.04878774
C      81.65505285      55.84524563      71.67940572
H      81.98575495      57.75953838      70.99154534
H      80.26043483      54.66227695      70.73265284
H      83.44840312      54.83424204      71.59247831
C      85.67261099      60.17082915      80.71607695
O      86.55133372      61.91882600      79.46885758
N      83.93973196      60.62814293      82.53210394
H      83.21029760      59.22785572      83.60546848
C      82.99486880      63.10746384      83.15760335
H      82.61314409      64.14114414      81.41716541
C      80.34358279      62.94494738      84.40671244
H      79.94862999      64.44727980      85.75786675
H      80.55523213      61.34056974      85.68416743
C      78.17984616      62.35157331      82.57934709
H      78.72030788      60.68672444      81.49653392
C      75.60036974      61.99063560      83.74341850
H      75.27344709      63.61957967      84.96040225
H      75.64383344      60.35035315      84.98874814
H      74.11693458      61.75064036      82.33368267
C      77.84536460      64.59656818      80.66127489
H      79.24565180      64.22429209      79.19673699
H      78.03622696      66.39558763      81.64582230
H      75.94996911      64.50208186      79.85814120
C      84.91483074      64.79687916      84.66371522
O      84.83735196      67.13636034      84.47474259
N      86.57023099      63.58745432      86.13014284
H      86.38125836      61.73174309      86.53643399
C      88.73396761      64.99530044      87.26208890
H      88.10657848      66.76975343      88.09923765
C      90.02276096      63.36635634      89.38614127
H      91.94461262      63.99752494      89.77731462
H      89.82811915      61.36513618      88.93260696
C      88.46562648      63.57800570      91.84278548
H      86.64015086      62.66526789      91.56310599
H      88.13114492      65.58111558      92.17915676
C      90.19094660      62.73518776      94.14825158
H      89.14592795      63.00163917      95.90191760
H      91.77453725      64.05232700      94.13313377
N      91.05455153      60.01587159      94.03864746
H      92.53231750      59.73808182      92.86323769
C      89.83567806      57.94662128      94.66225714
N      87.81367090      58.01843089      96.10033886
H      86.98408105      56.45751694      96.81843486
H      87.30533452      59.65115441      96.94882598
N      90.43283157      55.62603737      94.04053718
H      89.08734644      54.27299333      94.11612624
H      91.90870782      55.52021269      92.83489180
C      90.77676176      65.59434368      85.29299408
O      92.17704896      67.38202476      85.82211745
N      91.14336866      64.26775580      83.14437526
H      90.03220959      62.71629049      83.07256566
C      92.83278399      65.02931550      81.08457358
H      94.50897123      65.69071972      82.07856962
C      93.53198272      62.77865146      79.40271716
H      91.86146466      61.70339719      78.85847598
C      94.67715687      63.54399062      76.83835856
H      93.46584230      64.53987638      75.50043233
H      95.19872133      61.93961298      75.65727961
H      96.36090301      64.60412709      77.36937165
C      95.30076655      60.98152174      80.98063863
H      95.30076655      59.13147969      80.07545973
H      94.77353291      60.97963201      82.97241017
C      98.03331080      61.83189859      81.09213249
H      98.20905535      63.71028653      81.91416343
H      98.73439926      61.81300131      79.15516302
H      99.20683084      60.50153126      82.14093059
C      91.65737422      67.13636034      79.61436651
O      92.87057851      68.89569554      78.83957872
N      89.24419372      66.94549798      79.18161918
H      88.41082442      65.32789227      79.76743434
C      87.68327978      68.78987086      77.74542719
H      88.74719570      69.25852299      76.04278378
C      85.27954791      67.47084191      76.67584209
H      83.99642375      68.98073322      76.10136529
H      84.52743684      66.18582801      78.09880601
C      85.54599932      65.91370742      74.32880201
O      83.68461891      64.55121474      73.61448547
O      87.33745987      66.36913146      72.86237439
C      87.26754000      71.23328698      79.17217055
O      88.50720046      73.16269755      78.73186432
N      85.55733768      71.30698631      80.92016739
H      84.93561773      69.55898947      81.37181198
C      84.09657924      73.52741473      82.07290044
H      83.84713537      74.98628344      80.64237762
C      81.62481723      72.65247145      83.06878621
H      81.88748918      71.45627469      84.72796591
H      80.68751297      71.44871578      81.68361682
C      79.86737175      74.83132588      83.61113766
H      80.59491638      75.81965275      85.26275846
H      77.98898380      74.16047304      84.12136377
C      79.48375731      76.56987409      81.31700992
O      79.91083546      78.87156074      81.69495518
O      78.38015715      75.75540205      79.33846647
C      85.71607469      74.55164639      84.23474734
O      85.72930278      76.84577413      84.86591593
N      87.50942496      72.95482766      85.17961050
H      87.71918458      71.25974315      84.33112339
C      89.39726155      73.62945996      87.05799846
H      90.27976374      75.43603831      86.61580250
H      90.76920285      72.10634054      87.26586835
C      88.24263877      74.07543536      89.75463790
O      85.98252610      74.33999704      90.12502426
N      89.71284584      74.46282925      91.74640944
H      91.50997557      73.86000656      91.52720119
C      89.10624370      74.87856904      94.40714409
H      87.06533928      75.06187250      94.60367562
C      90.07756302      72.72806051      96.03419844
H      92.03720921      72.26318783      95.60712030
H      89.02120601      71.03297600      95.52964152
C      90.09268083      73.00207081      98.99917903
H      91.69138929      74.20771620      99.48294896
C      87.70217705      74.56298476      99.95538054
H      87.56422703      76.39979872      99.02941465
H      87.59068320      74.83510535     101.99439523
H      86.07134324      73.47450240      99.32988113
C      90.19472605      70.48873482     100.42214294
H      90.12480618      70.94415886     102.43092201
H      92.00697359      69.55709975     100.11033810
H      88.56389225      69.37379629      99.84199696
C      90.32322744      77.50150917      95.21216750
O      92.56633258      77.84354964      95.19138051
N      88.58656896      79.28919027      95.79798265
H      86.71762964      78.91313472      95.90380733
C      89.26498071      81.83843106      96.88268556
H      91.25864197      82.03496259      97.36267604
C      88.45428812      84.15712524      95.04587158
H      88.79065940      85.91079127      96.06821352
H      86.44739878      84.13444852      94.58099891
C      90.11346782      84.14389716      92.71394931
H      90.62936311      82.21070715      92.22639992
H      91.85012630      85.06041442      93.33377954
C      89.18939166      85.65756793      90.51241816
H      90.64259119      86.26605980      89.18583028
H      88.46562648      87.38666751      91.36279500
N      87.43950509      84.12877934      88.98929875
H      86.57401044      82.54329897      89.60912898
C      86.22819052      84.81097054      86.98240940
N      86.40204534      87.03895787      85.92416267
H      85.15860543      87.43580040      84.53332410
H      87.38659275      88.40900944      86.82178267
N      84.71640947      83.14801139      86.04321543
H      84.12870459      83.46926486      84.25553433
H      84.76365263      81.39434538      86.79154705
C      87.88359077      82.22771468      99.49995650
O      85.86536307      81.24505699     100.18025797
N      89.26120126      83.46170596     101.19504100
H      90.89581452      84.35554650     100.79441903
C      88.78121077      83.24249770     103.90490854
H      87.27887835      81.84598997     104.06931473
C      91.24163443      82.33920853     105.22582723
H      91.02809536      82.56975515     107.26106247
H      92.87624769      83.52028747     104.80819771
C      91.82744959      79.48572179     104.39245793
H      91.35312828      79.28163136     102.39690694
C      94.63369316      78.66369085     104.75528538
H      95.73918306      80.02429379     103.66680302
H      94.96250554      76.82876660     103.88412155
H      95.33100217      78.58621207     106.69225485
C      90.26275620      77.59032630     106.00061502
H      91.04321317      77.66213590     107.90356942
H      90.46873637      75.61178286     105.47527110
H      88.29744084      78.20826682     105.91935679
C      87.94217229      85.61410423     105.17102517
O      86.53243646      85.32686583     106.99650078
N      88.36169153      87.78728949     103.98805649
H      89.83567806      87.69658262     102.78052138
C      86.87447692      90.16078574     104.17702913
H      85.61402947      90.00960763     105.79652458
C      88.71129090      92.39444224     104.59087919
H      87.59446265      94.09519592     104.91213266
H      89.91126711      92.69868818     102.94492757
C      90.54810488      92.15255727     106.84721241
H      91.87469275      90.66534266     106.33320685
H      89.62402871      91.80484764     108.65379076
C      91.93894344      94.66778299     107.16090697
H      90.84290218      95.79405988     108.49316402
H      91.95406125      95.75437562     105.41102041
C      94.59400891      94.01204796     108.14356466
H      95.40092205      92.41522923     107.12500217
H      94.49007396      93.51127049     110.13722592
N      96.30610095      96.17200514     108.03962971
H      97.97850874      95.85642085     108.89756546
H      95.65414537      97.53449781     109.20937030
H      96.72939965      97.01482307     106.38233973
C      84.82790333      90.51605428     101.94148290
O      85.00175815      89.30851918      99.95727027
N      82.90227221      92.02216615     102.34588433
H      82.83235234      93.04639782     103.95593115
C      80.74042531      92.46436212     100.60166694
H      79.84091559      90.62754814     100.35600252
C      78.84691955      94.38432405     101.81865069
H      79.71619365      96.06618047     102.62367410
C      77.14616586      95.59941806      99.79097435
H      78.08535984      96.43278737      98.15825082
H      76.07469104      97.14143474     100.63379229
H      75.78934237      94.10842400      99.37712429
C      77.46552961      93.16545057     103.98994622
H      78.82235310      91.96358464     104.96693472
H      75.83091635      92.16011618     103.23783515
C      76.07469104      94.98336729     105.87022390
H      77.29167479      96.24759419     106.94925763
H      74.97487033      93.99126097     107.30074672
H      74.88605319      96.23814556     104.74961620
C      81.72119327      93.46591706      98.18092753
O      83.27454830      95.16289129      98.21683233
N      80.84058081      92.50215664      96.13057449
H      79.74453954      90.98092696      96.49151221
C      81.48497748      93.36954102      93.56432615
H      82.79455781      94.93801387      93.83077756
C      83.18762089      91.27950371      92.51363832
H      84.69184303      91.19446603      93.91959470
H      83.71863398      92.07129904      90.68627298
C      81.94229125      88.64522523      92.12624443
C      80.86514725      88.06318953      89.81132969
H      80.99742809      89.46536645      88.33356372
C      79.87682039      85.60465560      89.33133921
H      79.34958674      84.90923632      87.48696633
C      80.07902110      83.78106970      91.29287512
O      79.52344157      81.26962343      90.90737096
H      79.13982712      80.86522200      89.18016111
C      80.97097192      84.44058419      93.63424603
H      81.10892194      83.11210660      95.17626270
C      81.85158438      86.79140372      94.15392076
H      82.73219684      87.08431130      95.96994775
C      79.10014287      94.02527605      92.15459032
O      76.99120831      93.73047874      93.05976923
N      79.47052923      94.79628438      89.81510915
H      81.26198977      95.25737761      89.34834675
C      77.47119879      95.24792897      88.01986915
H      75.67973824      94.71313643      88.88347407
C      77.54867757      98.05228282      87.13358751
H      75.97453555      98.19212257      85.81266882
H      79.29478468      98.40755137      86.09990722
C      76.91750898      99.87775844      89.30110359
H      78.45574620      99.88531734      90.67304489
H      75.11282035      99.46957756      90.21006195
C      76.65105757     102.67455338      88.37702742
H      74.87849429     102.92210753      87.36035467
H      78.14016190     103.31139115      87.10146216
C      76.40350342     104.16176799      90.82611272
H      78.03433723     103.69878504      91.99207386
H      74.68952166     103.50036378      91.76341698
N      76.36192944     106.98123965      90.36690923
H      77.55623647     107.28548558      88.90615079
H      76.64916784     108.03003775      91.93349234
H      74.69897029     107.58595207      89.65637214
C      77.66773033      93.42245336      85.84101471
O      79.71241420      93.15033277      84.98118924
N      75.61548755      92.29617647      84.79977551
H      74.05079416      92.73459297      85.80322018
C      75.57202384      90.44046523      82.72107657
H      77.28600561      89.29907054      82.67005396
C      73.17018170      88.85120541      82.97052044
H      71.50533282      90.06251998      83.06122730
H      73.35915433      87.74949496      84.70150974
C      72.83192069      87.29785037      80.66883379
O      70.91573821      87.56997096      79.31956920
O      74.42307025      85.65000903      80.28899880
C      75.70241496      91.85964970      80.03199602
O      75.64950262      94.21991786      79.99798095
N      75.82146772      90.79762350      77.82857514
H      75.82902662      88.89088965      77.90227447
C      76.00666090      91.91067230      75.33791586
H      77.51844195      93.31284924      75.33224668
C      76.64538839      89.80362746      73.42362311
H      76.83625075      90.56707689      71.52066871
C      79.08313533      88.62443824      73.94329784
H      79.03022300      87.64744974      75.75554538
H      80.60247529      90.00393845      74.10770403
H      79.34013811      87.32808599      72.36159692
O      74.57613808      88.04051281      73.22520185
H      75.01266486      86.63833589      74.28911776
C      73.62182629      93.46969651      74.60659178
O      73.67662835      95.18934745      73.11370799
N      71.45242048      92.96702931      75.86514950
H      71.46564857      91.37399003      76.91772706
C      69.12238794      94.58841449      75.60436727
H      68.95609202      95.38398927      73.71275123
C      66.94920268      92.82529984      76.08813721
H      65.34860449      94.10275482      76.29411738
H      66.97943830      92.15066754      78.03077586
C      66.34449026      90.70880637      74.23242597
H      64.67586192      89.68646443      74.87871237
H      67.81091788      89.26694519      74.15683692
C      66.09126693      91.52327841      71.43563103
O      67.96020626      92.20735933      70.21486783
O      64.04469334      91.63288253      70.33958977
C      69.17907973      96.71435659      77.50732167
O      67.78824116      98.46046370      77.39582782
N      71.04046015      96.89199086      79.26476714
H      72.44452680      95.60130779      79.17972946
C      71.42974377      98.67589250      81.19039825
H      71.15195400     100.57884690      80.44962554
H      73.42151530      98.36597740      81.61558667
C      70.00300040      98.33007259      83.74908768
O      70.04268465     100.22546808      85.18716941
N      68.76900912      96.21357912      84.17238638
H      68.82192145      94.80384329      82.88359303
C      67.63139388      95.77705235      86.68761210
H      66.92652596      97.53827726      87.49074578
C      65.47899561      93.80795752      86.27376204
H      64.47744066      94.02905551      88.05955340
H      66.37661561      91.99948944      85.85613252
C      63.74422685      94.37298569      84.09490760
C      63.22833157      92.42656759      82.44517653
H      64.07492896      90.58219470      82.68706149
C      61.59749776      92.85175601      80.37592621
H      61.32537717      91.27761399      79.10414040
C      60.73956201      95.25359815      79.76932407
O      59.33549536      95.68256602      77.71330184
H      59.37895907      97.46835739      77.39015864
C      61.38584841      97.28883339      81.43417295
H      60.61295035      99.03494050      80.71607695
C      62.93731372      96.88254223      83.56767396
H      63.44753982      98.28471916      84.96040225
C      69.55513526      94.82463028      88.56977951
O      71.34659581      93.55095474      87.93861092
N      69.19797699      95.38776873      91.00563672
H      67.59359935      96.37798531      91.29098540
C      70.73810394      94.59786312      93.15236582
H      72.61649189      95.28761323      92.66292670
C      70.13528124      96.04161403      95.64869428
H      71.03479097      95.16856047      97.28519726
H      68.11894327      95.72602973      95.93215322
C      70.78534709      98.65321579      95.80743129
C      68.98065846     100.63364896      96.25151697
H      67.02857118     100.04594409      96.27230396
C      69.72710036     103.10352125      96.63513141
H      68.25122411     104.42443995      97.13212943
C      72.31791513     103.77626383      96.71827937
O      73.15695362     106.17432651      97.13023970
H      71.79635067     107.36863354      97.03197394
C      74.12827294     101.79205119      96.57654989
H      76.12949311     102.19456290      96.63513141
C      73.31002145      99.25225903      96.00774227
H      74.72731618      97.86331019      95.53720042
C      70.60393337      91.82185517      93.68148918
O      68.43641729      90.87321256      93.65692274
N      72.65806587      90.52361319      94.30320914
H      74.22464898      91.57430102      94.59989617
C      72.89617139      87.81185593      94.49785095
H      71.01211425      87.10887775      94.95516472
C      73.71442288      86.80085235      91.90136700
H      75.54745740      87.70603126      91.66326148
C      73.72009206      83.88878410      91.55554708
H      71.78123286      83.26895387      91.23996279
H      74.44385724      82.87211136      93.19393979
H      74.82936140      83.55997172      89.84912422
O      72.29901787      87.67012646      89.78865298
H      72.36893774      89.46725618      89.55621664
C      75.05990801      87.14856199      96.47639440
O      76.78144869      88.64900470      96.99606914
N      74.91439909      84.99238427      97.61778909
H      73.43852284      83.95492452      96.99795886
C      76.70396991      83.99649850      99.21271810
H      78.49543045      84.95458974      98.86689819
C      76.05579378      84.03429303     102.14179389
H      75.52100123      85.91268098     102.79374946
C      73.77867357      82.25606057     102.76540357
H      72.29145897      82.46770992     101.35755747
H      72.92262755      82.81730928     104.55497439
H      74.37582709      80.28507602     102.72571932
C      78.17984616      83.19714427     103.96537978
H      78.62393184      81.23938782     103.50239683
H      77.55434675      83.42580116     105.91368761
C      80.52688624      84.77506574     103.50428656
H      81.37159390      84.65412326     101.63156778
H      81.93851179      84.19680949     104.89134567
H      80.17917660      86.70258658     104.14679350
C      77.21230628      81.22049055      98.44926867
O      75.61926700      79.82398280      97.44960345
N      79.48942649      80.31153219      99.09744480
H      80.78955819      81.44347826      99.92325520
C      80.23208893      77.65646673      99.19382084
H      78.96219285      76.25051035     100.00451343
H      81.86481247      77.69048180     100.44859911
C      81.05978906      76.68136795      96.68426429
O      82.79833727      77.73394550      95.53342097
N      79.70485529      74.67825806      95.83955663
H      78.60125512      73.80331477      97.12646025
C      79.70485529      73.69560037      93.37346379
H      81.09191440      74.77463410      92.29631980
C      80.61759310      70.87045953      93.30732337
H      79.21163672      69.59111482      94.09722897
C      80.84813971      70.07677449      90.47462363
H      82.00654194      68.37602080      90.58611748
H      81.93284261      71.53564320      89.50519403
H      79.12281959      69.68371141      89.42204607
C      83.35958598      70.39235878      94.51107903
H      83.71296480      71.58855553      96.15136147
H      84.42539162      70.78920130      92.79520754
C      83.89248880      67.68249124      95.36523533
H      82.49598106      66.67148767      96.49340194
H      85.75386922      67.55776932      96.23639916
H      83.77721550      66.43149243      93.73062207
C      77.00632612      73.93370589      92.28876089
O      75.28289572      72.40869675      92.94638565
N      76.48665138      75.87634454      90.73540586
H      77.92284338      77.11222555      90.51430788
C      73.89961606      76.22027472      89.72062283
H      73.20986595      74.41747582      89.00063711
H      73.92985168      77.57520849      88.17104725
C      71.73398970      77.14057144      91.51208338
O      69.61749623      77.40891258      90.62769146
N      72.23476718      77.77174003      93.88368990
H      73.96008730      77.51662699      94.66036741
C      70.09181754      78.16480310      95.57877440
H      68.70853788      76.84955359      94.80398661
C      70.29590798      77.30119818      98.35667208
H      71.50722255      78.46715931      99.54153048
H      70.86471560      75.32454445      98.46438648
C      67.84304322      77.35222079      99.83443806
N      66.06670049      75.33588281     100.03663877
H      66.15362790      73.63134968      99.18059275
C      64.17130500      76.29397405     101.56731709
H      62.51590475      75.13746156     101.86211439
N      64.70987700      78.73739018     102.24950829
H      63.55525422      79.89012322     103.24350433
C      67.00778419      79.32131560     101.21960745
H      67.76178499      81.20915220     101.39913145
C      69.07892423      80.86333228      95.35578670
O      70.12016343      82.66613118      96.48773276
N      67.04557872      81.16946794      93.78353440
H      66.42763822      79.60288483      92.88591441
C      65.87583813      83.68658339      93.31677200
H      67.40084727      84.91301576      92.67993424
C      64.14106938      83.51650802      91.06799769
H      62.86361439      81.99149888      91.60279024
H      65.18419830      82.92502368      89.39370018
C      62.54425064      86.08653581      90.56155104
H      61.79213957      86.92935375      92.28309171
C      64.22799679      88.04240255      89.19149946
H      63.26990555      89.70725142      88.45261648
H      64.91018799      87.23926886      87.42271563
H      66.00811897      88.49026768      90.13069344
C      60.24445372      85.75961315      88.80221584
H      60.93231410      84.70514587      87.17327176
H      59.49990155      87.63989083      88.40537332
H      58.95755010      84.62388764      89.93794136
C      64.71932563      84.83364726      95.58633331
O      63.02424113      83.62800187      96.66914648
N      65.33537641      87.22793050      96.38946699
H      66.54858070      88.18224229      95.26696956
C      64.56247835      88.34664848      98.84989065
H      63.94075839      86.76116810     100.00829288
C      66.57692659      89.90189323     100.10844837
H      65.68686550      90.81841049     101.72227465
H      67.26100752      91.34186468      98.80264749
C      68.91640777      88.17279365     100.90591288
H      69.41718524      87.00872225      99.28263798
C      71.19541770      89.96236448     101.48227940
H      72.73743438      88.76616772     102.13612471
H      70.77589846      91.28895234     103.00161936
H      71.60359859      91.06029546      99.78719490
C      68.25689329      86.52684204     103.34177010
H      66.42574849      85.64245012     103.02240635
H      68.02067750      87.84587100     104.90457376
H      69.58915034      84.97159729     103.56475780
C      62.26646087      89.82063500      98.07321313
O      60.28602770      89.30284999      99.19949002
N      62.44220542      91.77839146      96.49529166
H      64.05981115      92.03728397      95.51452371
C      60.31059414      93.47914514      95.81499019
H      58.57771511      92.36798607      95.85089499
C      60.10461397      95.76193453      97.71794459