 %block lattice_cart
   139.252   0.000   0.000
   0.000 142.425   0.000
   0.000   0.000   162.84
 %endblock lattice_cart

 %block positions_abs
N      94.08094822      43.68107735      81.29338834
H      95.88374712      44.25555415      81.04205474
H      93.78237146      42.28456960      80.02727171
H      93.85607079      43.07258547      83.08862834
C      92.55404936      45.87127014      80.81906704
H      92.96223024      47.34714639      82.20045697
C      92.89986927      46.68385246      78.12242759
H      91.89642460      45.42151528      76.83930342
H      94.91242780      46.95597305      77.78227685
C      91.65453963      49.16317338      77.94101386
H      89.60607631      49.02900281      77.75393096
H      92.16098629      50.03622694      76.14577386
S      92.77892679      51.66706075      80.16333201
C      95.98390262      52.24909645      79.06540102
H      96.06327112      52.71963830      77.06040140
H      96.95144249      50.43684892      79.17878460
H      96.84183836      53.83079737      80.06884569
C      89.84229210      45.21364539      81.23669655
O      89.04293787      43.04234985      80.72080127
N      88.45145353      47.02778265      82.24581040
H      89.19033652      48.77955894      82.40832687
C      85.77182162      46.79345658      82.69178581
H      84.53783034      45.58781120      81.57117811
C      85.41088390      45.42718446      85.29771840
H      86.06283947      43.47509718      85.21834989
H      83.35864112      45.44986118      85.49802939
C      86.55038886      46.92573743      87.58806669
O      86.85841425      49.23687271      87.61074340
N      87.16643964      45.70119478      89.58739713
H      87.99413977      46.73865452      90.96122816
H      87.09085059      43.81524791      89.87841498
C      84.56428651      49.37671245      82.59352004
O      85.90788192      51.20785725      82.14376518
N      82.08118613      49.54678782      82.63698375
H      81.11931544      47.90272593      82.50659263
C      80.65822222      52.02421902      82.70123444
H      81.27616272      52.79900681      80.89465609
C      77.75182315      51.36659426      82.60296868
H      77.54395326      50.14772079      80.95701706
C      76.44035309      50.08535982      84.93867040
H      74.48637608      49.61859742      84.47946690
H      76.43846336      51.42328605      86.50525351
H      77.51560736      48.40350340      85.44133760
C      76.11909962      53.76465695      82.02282270
H      76.36287431      54.94195645      83.69334076
H      74.13488699      53.25254112      81.81684253
C      76.76349629      55.31234280      79.61153192
H      78.56062601      56.30444912      79.80806346
H      75.28573031      56.72585809      79.36964695
H      76.84664425      53.97441657      78.05061799
C      81.32718533      53.71363434      84.90843478
O      81.13632298      56.04933607      84.71757242
N      82.45724167      52.66105679      86.89264741
H      82.52905127      50.75999211      87.05327414
C      83.02793902      54.01599055      89.22645940
H      81.76182239      55.62981682      89.41354231
C      82.85975337      52.26610399      91.54515359
H      83.25659590      53.26198975      93.30448879
H      84.45090293      50.99998736      91.21445148
C      80.32374066      51.04345106      91.89853241
C      78.33574858      52.58168828      92.97945586
H      78.50204450      54.60180571      93.21378192
C      75.87910437      51.63871485      92.98134559
H      74.45425073      52.97286163      93.58794773
C      75.21581044      49.24254189      92.10262285
H      73.24671562      48.71719797      92.23868315
C      77.21325115      47.54745738      91.09161927
H      76.54617776      45.73143040      90.44911233
C      79.62076247      48.53578424      90.95366925
H      81.09285927      47.34903612      90.19399927
C      85.60930516      55.24242293      89.16031898
O      86.16110524      57.02821430      90.52659111
N      87.31950747      54.35992074      87.50113928
H      86.80928137      52.71207940      86.68288779
C      89.73646743      55.56934558      86.64320353
H      90.25992162      56.85058002      88.16821267
C      91.71123142      53.44151375      86.54871722
H      91.05927585      51.96185805      85.27126223
H      91.94177803      52.68751295      88.45167161
C      94.34173045      54.22952963      85.80416505
H      94.15275782      55.18006196      83.98624834
H      95.36029293      52.47208415      85.47535267
C      95.78359163      55.76776684      87.78837768
O      98.13441116      55.72430314      87.59184614
O      94.57038734      57.11325198      89.41354231
C      89.41332423      57.16805404      84.28671482
O      90.17299420      59.38092355      84.30939154
N      88.06028019      56.19673472      82.42344468
H      87.41021434      54.40149472      82.42344468
C      87.60674587      57.45340272      79.94790321
H      89.18844680      57.46285135      78.63076397
C      85.36175101      56.11169703      78.50226258
H      83.63265144      55.66194217      79.53027369
H      86.04583194      54.24275771      77.96747003
C      84.62853720      57.35513695      76.16089167
H      86.32740116      57.27954789      74.99682027
H      84.28082756      59.36580574      76.42545336
S      81.92433885      55.74886958      74.79272982
C      82.25126150      56.71263000      71.67468141
H      80.74514963      55.94540112      70.50116137
H      84.07106794      56.23074979      70.83753265
H      82.18134163      58.74975497      71.38933273
C      86.76770739      60.23507985      80.31073066
O      87.78060069      61.97362806      79.10886472
N      85.01026192      60.79443884      82.07195558
H      84.44712348      59.32801122      83.15665849
C      83.89343367      63.32856182      82.55383579
H      83.14510205      64.10712906      80.80016977
C      81.50670933      62.92038094      84.16388261
H      81.06262365      64.66081887      85.16354783
H      82.13976765      61.42560743      85.42999924
C      79.23525831      62.12291643      82.50848236
H      79.80595565      60.71507033      81.11953352
C      77.26805321      60.99097037      84.24325112
H      75.80918450      60.05744557      83.13209204
H      76.50649351      62.50842060      85.40732252
H      78.21669582      59.59068318      85.41677116
C      78.06929717      64.27720443      81.11953352
H      79.38832614      65.25041348      79.87042443
H      77.67245464      65.57166696      82.67288855
H      76.23059347      63.94650233      80.25025942
C      85.54127501      64.97640317      84.15065453
O      85.40710444      67.23084666      83.95412299
N      87.45934722      63.97295850      85.36574855
H      87.79382878      62.12669589      85.01048000
C      89.59095850      65.46206283      86.56005557
H      88.70089741      67.17982405      87.26492349
C      90.80038334      64.01075302      88.79182235
H      91.92099104      62.48574389      87.97546058
H      89.38686806      63.17549399      90.03526226
C      92.67877130      65.46017310      90.37730273
H      91.39942658      66.73195891      91.36940904
H      93.89953449      66.34078557      88.97134635
C      94.37763525      64.07500372      92.34072837
H      92.88664119      63.30021593      93.52747649
H      95.61162653      65.39403268      93.33850386
N      95.92532110      62.19661576      91.19177477
H      94.98990658      60.64892991      90.58517262
C      97.97756388      62.77865147      89.82928210
N      99.30037230      64.80443807      90.27903696
H     100.80081499      64.88758603      89.10173747
H      98.93943457      65.88158207      91.81349473
N      98.91108868      61.34245947      88.07750580
H     100.29436834      62.07000410      86.98146454
H      98.69565988      59.45840233      88.27970652
C      91.56005332      66.20850472      84.65710118
O      92.52948292      68.32121874      84.68355735
N      91.96256502      64.50964077      82.81839748
H      91.09140119      62.81077681      82.84863310
C      93.66142898      65.04821277      80.71891154
H      95.38863883      65.89858961      81.45779453
C      94.28314894      62.55755349      79.38098531
H      92.50680620      61.69961774      78.78572152
C      95.70044367      63.06211041      76.90922329
H      96.11996291      61.25364233      76.01538275
H      97.65253095      63.68005092      77.14732881
H      94.76880860      64.16949003      75.44657513
C      95.66264914      60.47885454      81.02315748
H      96.20122114      58.92549951      79.78160729
H      94.45322430      59.75130991      82.52360017
C      98.11929335      61.53899100      82.31006110
H      98.91675786      60.01965105      83.44767634
H      97.90953373      63.33990018      83.28704960
H      99.55548535      61.96795888      80.89654581
C      92.37074591      67.02486649      79.04083458
O      93.83528380      68.67081811      78.21313445
N      89.88386608      67.27808982      78.63076397
H      88.79538372      65.79654439      79.14099007
C      88.56483711      69.23773600      77.08118839
H      89.62308385      69.59678400      75.35019909
C      85.81150587      68.45727904      76.37254102
H      84.66822146      70.14669436      76.07774372
H      85.00837219      67.17982405      77.77660767
C      85.75859354      66.67526712      74.02550094
O      84.23169468      64.87624767      73.89322010
O      87.10785813      67.30643571      72.30962945
C      88.39665147      71.77941789      78.51360093
O      88.67444124      73.72205654      77.29661719
N      87.65020958      71.71327747      80.92489171
H      87.31572802      69.97850872      81.65432607
C      86.85652453      74.01685385      82.22124396
H      86.65432381      75.58154724      80.89087664
C      84.03705287      73.64835722      83.31728522
H      83.99547889      72.59577966      85.08795878
H      83.20746302      72.35200497      81.94723364
C      82.42133687      76.05586854      83.46846333
H      83.65343842      77.52796534      84.21868467
H      80.88120992      75.93681578      84.83095600
C      81.36120041      76.71538302      80.95134788
O      82.51204373      77.93614622      79.25437365
O      79.23714803      75.92169797      80.45057040
C      88.70656659      74.95037865      84.24325112
O      88.56483711      77.18970433      84.86686080
N      90.42999698      73.24017633      85.07473069
H      90.38653328      71.45060552      84.41332648
C      92.01736709      73.88268328      87.25358513
H      93.17765904      75.56453970      86.99847208
H      93.47056662      72.42192484      87.28004130
C      90.46212233      74.00362576      89.58361768
O      88.21712747      73.86567574      89.84062045
N      91.92477050      74.61211764      91.58861729
H      93.80882763      74.86345124      91.41098302
C      91.08762174      74.81431835      94.14919645
H      89.02970979      74.74061903      94.10195329
C      91.87563761      72.74695777      95.84050150
H      93.88252696      72.35578442      95.60239598
H      90.90053884      71.08966779      95.09783906
C      91.26525601      73.23072770      98.61650945
H      92.58995416      74.63101490      99.34594381
C      88.69900768      74.31165115      99.35917189
H      87.21935198      72.92837149      98.98689581
H      88.21523774      76.03130210      98.33305050
H      88.48357888      74.94659920     101.30747972
C      91.70934170      70.85156227     100.11317269
H      93.68599542      70.37157179      99.79380894
H      90.46401206      69.33411205      99.48578356
H      91.69611361      70.99329175     102.16730519
C      91.84729172      77.44292765      95.01091165
O      93.88819614      77.75284277      95.87640630
N      90.21078873      79.38934576      95.10539796
H      88.53649122      79.23249847      94.20588824
C      90.62274907      81.75339337      96.35261733
H      92.64853567      81.90268175      96.70221670
C      89.78371058      83.97949097      94.61028967
H      89.64765029      85.74827480      95.66097750
H      87.88075619      83.57886899      93.92998820
C      91.48257454      84.62199792      92.29915439
H      92.29137740      82.89478807      91.52247687
H      92.93388435      85.94858579      92.91142571
C      90.01047774      85.80118714      90.20533763
H      91.36730123      86.88777977      89.10173747
H      88.54216040      87.07486267      90.88563911
N      88.60074191      83.77917998      88.85418332
H      88.04138292      82.28440647      89.89920197
C      87.83162330      83.76217245      86.54115831
N      88.35885694      85.48182339      85.00481082
H      88.27570899      84.91112604      83.18689411
H      89.43978040      87.00116335      85.40165335
N      86.57117585      81.84410024      85.78526779
H      85.90599219      81.87055641      83.99569697
H      86.40110048      80.21893561      86.77548437
C      89.22624132      81.61544335      98.85272524
O      86.96423893      81.18269603      99.08138212
N      90.60763126      81.94047628     100.85961459
H      92.31027466      82.72093325     100.48922823
C      89.88575581      81.97071190     103.46743690
H      88.43444600      80.59688087     103.96632464
C      92.24791370      81.33765359     105.14929332
H      91.87374789      82.00283725     107.06169634
H      93.86362969      82.40156950     104.44064595
C      92.82994940      78.47471822     105.08126317
H      93.53103786      77.81898319     103.25956700
C      94.96911959      77.90402087     107.02201209
H      95.62863407      75.96327195     106.81603192
H      94.28125921      78.16291338     108.94764321
H      96.53570270      79.20793203     106.70264835
C      90.66810250      76.86467140     106.00155988
H      90.41676890      77.27096256     108.00466977
H      91.41454439      74.95604783     105.78424136
H      88.90498785      76.94970909     104.93764397
C      88.78971454      84.60121093     104.19687125
O      87.36108145      84.78829383     106.07903866
N      89.28104339      86.66290234     102.74934090
H      90.67944086      86.67990987     101.45298865
C      88.09618499      89.08931092     102.97232860
H      87.06250469      89.27639383     104.74111243
C      90.21645791      91.30218043     103.00067450
H      89.35285298      93.17111976     103.09327109
H      91.36163206      91.39666675     101.29236191
C      92.06083079      91.19446603     105.13984468
H      93.33072687      89.57497058     105.07937344
H      90.94589227      90.84108721     106.83681891
C      93.58395020      93.60575681     105.47054679
H      92.32728220      95.19879609     105.84093315
H      94.75180106      93.70402258     103.77924174
C      95.50391213      93.23537045     107.57570190
H      96.61507121      91.60831610     106.97665866
H      94.55904898      92.92734506     109.37850080
N      97.26702678      95.43501188     107.86105058
H      98.41598038      95.56729272     106.34360035
H      98.17598514      95.20257554     109.52400973
H      96.32972253      97.03561007     108.29946708
C      86.30661417      89.71292060     100.74623101
O      86.72046423      88.80585197      98.57871493
N      84.30350428      91.14155370     101.45676810
H      84.18256179      91.23981947     103.35783277
C      82.28149712      91.90122368     100.00356857
H      81.11175653      90.34786865      99.32137737
C      80.46358041      93.76449382     101.47944482
H      81.62009291      95.28950295     102.24100452
C      78.48125751      94.84352754      99.52168836
H      76.87310041      95.71469137     100.47600014
H      77.82174302      93.25048826      98.38974229
H      79.43178984      96.43089765      98.62217863
C      79.24281721      92.20169016     103.61861500
H      80.78483388      91.29462153     104.64095694
H      78.14299650      90.62187896     102.89673955
C      77.57796833      93.84197260     105.42141390
H      77.33041418      92.76860805     107.16374157
H      75.66556530      94.16322607     104.72221517
H      78.25449035      95.73358864     105.88250713
C      83.19045548      93.11253824      97.39574625
O      84.97246739      94.68668026      97.46566613
N      82.09252449      92.26216140      95.32271649
H      80.79239279      90.89022010      95.57782954
C      82.69156773      92.71191626      92.66954074
H      83.69879186      94.50904599      92.57694416
C      84.47924882      90.56140772      91.59806593
H      85.97213261      90.22692616      92.97945586
H      85.58284899      91.42690237      90.09006433
C      83.12998424      88.12744023      90.88185965
C      82.59708142      87.52650726      88.26080926
H      83.05628491      88.75293964      86.69800560
C      81.76371211      85.13600347      87.64664820
H      81.32907506      84.78073493      85.68511229
C      81.62954154      83.19714428      89.50235944
O      80.97191679      80.83309666      88.83717578
H      80.56184618      80.75750761      87.07028168
C      82.30417384      83.76217245      91.97034201
H      82.30228411      82.19180988      93.27614289
C      82.93345270      86.19991939      92.72245308
H      83.45879661      86.59865164      94.65186365
C      80.20846736      93.09553071      91.06138365
O      78.09197389      92.52483336      91.89097350
N      80.52972083      94.06685003      88.60851890
H      82.27204849      94.69423917      88.14553595
C      78.42834517      94.27660965      86.90587549
H      76.64444353      94.32763226      87.93010715
C      78.57574382      96.87309360      85.46779377
H      77.26427376      96.92978539      83.88042366
H      80.37476327      96.98647718      84.47379773
C      78.14866568      99.17478025      87.17043717
H      79.63777001      99.29761246      88.58395246
H      76.40444829      98.99147680      88.25136063
C      77.73481561     101.78260257      85.81739313
H      76.02650303     101.56717377      84.68733680
H      79.35053161     102.28338004      84.64198337
C      77.17167717     103.77437410      87.89231263
H      78.71180412     103.86508096      89.25480530
H      75.43879814     103.41532610      88.94677991
N      77.07530113     106.33117380      86.69800560
H      76.32319006     107.70311510      87.79215713
H      76.12854825     106.14598062      85.05205398
H      78.86676167     106.89242252      86.35596513
C      77.98048003      92.01271753      85.14087111
O      79.56407068      90.86187420      84.13175726
N      75.54273309      91.63099281      84.64198337
H      74.38244113      92.85175601      85.54338282
C      74.47125827      90.04173298      82.68233718
H      75.45580568      88.23326490      82.76737486
C      71.59887427      89.94913639      83.03949545
H      70.97904404      91.88043669      82.68233718
H      71.33998177      89.16112052      84.92355259
C      70.55574535      87.90256280      81.24236573
O      69.40112257      88.53940056      79.31295516
O      71.33242286      85.68780356      81.57117811
C      75.23281797      91.17367904      79.97813883
O      75.86776602      93.37898965      79.89499087
N      74.73015077      89.85842953      77.82952001
H      74.26905755      88.01972583      78.05628717
C      75.13455221      90.68612966      75.16878536
H      76.72948121      91.99193054      75.16122645
C      75.73926463      88.47703960      73.53795155
H      75.61076324      88.98159652      71.54240057
C      78.52283149      87.60776549      74.04439820
H      79.80406593      88.76616772      72.91812132
H      78.79117262      85.65756794      73.43779606
H      78.97258635      87.49627164      76.05128755
O      73.94402463      86.57786465      74.09164136
H      72.59853949      86.86888250      72.91056242
C      72.98215394      92.33964018      74.22014275
O      73.32419440      93.97425344      72.50049181
N      70.79196114      92.31885319      75.47870048
H      70.42724396      91.08108246      76.88465685
C      68.96459579      94.32574253      75.36531690
H      69.01561840      95.15722211      73.48314949
C      66.19425702      93.40733555      75.61098132
H      65.02829588      95.03250018      75.10642439
H      65.78796586      92.79317449      77.53283298
C      65.43647677      91.04706738      73.93668380
H      63.41446961      90.92801462      74.31084961
H      66.31330978      89.41245412      74.83052435
C      65.81442203      91.33619551      71.14177859
O      65.25506304      93.32985677      70.14778255
O      66.46448788      89.39733631      69.86432360
C      69.44647600      96.43845655      77.24937403
O      68.30319158      98.39810274      77.04906304
N      70.96392623      96.04728321      79.30728599
H      71.99571680      94.45046447      79.44523601
C      71.51572632      98.02960611      81.14409996
H      70.70125428      99.83618446      80.58285125
H      73.56607937      98.18456367      81.27827053
C      70.39133916      97.61953550      83.64420787
O      71.17368585      98.93289529      85.36574855
N      68.73404918      95.76949344      83.98435861
H      68.15390321      94.50148708      82.67666800
C      67.77217849      94.93423441      86.44478227
H      66.54763584      96.44223601      87.13075292
C      66.10543988      92.63065803      85.92510753
H      65.27962948      92.12043193      87.74302425
H      67.51328599      91.21903248      85.41299170
C      63.94926216      92.98781631      83.99002779
C      63.29730658      90.67101185      82.76548514
H      64.36500195      88.94002254      82.93178105
C      61.32065286      90.60109197      80.99481158
H      60.87278772      89.04206776      79.75515112
C      60.06776431      92.87632245      80.45434986
O      58.08544141      92.94435260      78.77060371
H      57.32388171      94.55628915      78.43801188
C      60.72349934      95.23659062      81.59385482
H      59.70304713      96.97702855      81.27827053
C      62.60755648      95.31028994      83.39287427
H      63.01762709      97.04883815      84.37742168
C      69.79985482      94.13299045      88.46300997
O      71.92201747      93.65866915      87.70145027
N      69.13845061      93.99693016      90.94988980
H      67.38478460      94.27849938      91.64908854
C      71.10943516      93.60008763      92.82260858
H      72.90656488      93.95535618      91.87774542
C      70.83731457      95.22525226      95.12807468
H      71.54596194      94.36920624      96.86095371
H      68.84365331      95.49170367      95.57782954
C      72.00516543      97.81795676      94.95988904
C      70.30252202      99.83240501      94.48556773
H      68.27862514      99.69067554      94.69343763
C      71.32486396     102.22290880      94.14163754
H      70.05685760     103.74602821      93.65219843
C      73.95914244     102.64242804      94.68776845
O      74.73393023     105.10852088      94.51580335
H      73.16356766     105.99102306      94.30037455
C      75.54084336     100.64309760      95.30948840
H      77.54773271     101.00592505      95.27169388
C      74.55251650      98.25826299      95.16775893
H      75.83942012      96.71057714      95.49846104
C      71.11699406      90.83163858      93.54826348
O      69.22726775      89.57686031      94.05093068
N      73.51694648      89.91701105      93.84684024
H      75.06652206      90.93935298      93.40086483
C      74.23693221      87.14478255      94.01880533
H      72.60609840      86.26417008      94.91831506
C      74.73204050      85.94669606      91.32972479
H      76.37421267      86.90856676      90.53603974
C      75.21958989      83.02328946      91.15398024
H      75.24982551      82.46959965      89.17165734
H      73.94024518      81.91590984      92.33127973
H      77.03372715      82.68502845      92.06860778
O      72.59853949      86.54951876      89.74613414
H      72.83286556      88.25027244      89.15087035
C      76.52728050      86.90100785      95.81215560
O      77.71780808      88.75860882      96.47922899
N      76.99215317      84.57286503      96.89307905
H      75.87532492      83.11399632      96.37529404
C      79.15022062      83.72059847      98.36517585
H      80.75081881      84.76561712      97.59794697
C      79.05573431      84.38578213     101.13929408
H      78.68156850      86.41156874     101.09772010
C      76.63877435      83.09131960     102.21076890
H      74.96825629      82.90045725     101.01835160
H      76.06618728      83.89445329     104.02112671
H      77.06774222      81.09954807     102.51879429
C      81.43867919      84.10610263     102.82681968
H      82.87676091      85.34576310     102.02935517
H      82.20023889      82.19558933     102.71721555
C      81.04939557      84.89978769     105.61038654
H      82.89565817      84.53884996     106.44753529
H      79.81540428      83.61666352     106.64784628
H      80.55428727      86.88022086     105.87683795
C      79.46580492      80.84443502      98.11006280
O      77.74993342      79.46304508      97.26157569
N      81.72780731      79.83343144      98.70532659
H      83.01093148      81.02773847      99.46310684
C      82.48936702      77.20482214      98.57871493
H      81.12120517      75.95571305      99.47822465
H      84.13153918      76.84199469      99.76735278
C      82.88431982      76.08799389      96.00490769
O      83.65721788      77.38812559      94.19832933
N      81.96780255      73.77118943      95.74034600
H      81.44056891      72.83955436      97.32015720
C      81.62954154      72.64491255      93.23456891
H      82.95990887      73.56142981      91.95333447
C      82.31740192      69.69504977      93.10417780
H      80.97947569      68.74073798      94.34572798
C      82.15299573      68.75207634      90.45100205
H      83.72524802      69.47017234      89.33039435
H      80.49003658      69.43615727      89.43999848
H      82.25882041      66.69416439      90.45289178
C      84.93467287      69.23017710      94.32494100
H      84.95923931      70.30543137      96.08049674
H      86.42944638      69.76307992      93.01158121
C      85.52993665      66.46172805      94.90697670
H      87.56706162      66.19716637      95.06193426
H      84.96112903      65.31655390      93.29126070
H      84.55861733      65.93827386      96.64741463
C      79.02927814      73.38190581      92.24246260
O      77.37954707      71.80587406      92.39553043
N      78.72314247      75.76296096      91.41665220
H      80.13854748      77.03474677      91.54137414
C      76.29295444      76.54719738      90.19966845
H      75.87154547      75.27730130      88.63119561
H      76.38555103      78.48227713      89.49857999
C      73.83253078      76.74372892      91.84939953
O      71.74816265      76.89868648      90.78737334
N      73.91000956      76.79475153      94.37785333
H      75.56918926      76.78908235      95.31893704
C      71.61210236      77.31253654      95.93876727
H      70.15134392      75.90469044      95.57027064
C      72.18846888      76.75128782      98.66375261
H      73.02750737      78.41613671      99.54058562
H      73.36765810      75.06376223      98.71288549
C      69.82631099      76.24484117     100.22088709
N      68.83609440      73.96016206     100.72544402
H      69.51639588      72.35389469      99.95065623
C      66.77440300      74.22283402     102.09738532
H      65.77284805      72.74884749     103.08949163
N      66.17535976      76.62278643     102.08982642
H      64.66168898      77.16135843     103.11783753
C      68.01973264      78.02685309     100.80859197
H      68.01028401      80.04130133     100.47600014
C      70.54062754      79.89012323      95.49657131
O      71.63477907      81.64189952      96.51891324
N      68.41846489      80.11878011      93.94132655
H      67.67580245      78.59755043      93.06071409
C      66.98794207      82.49794554      93.64086007
H      68.30508131      83.94736562      93.00213258
C      64.99617054      82.29385510      91.36751932
H      63.62611896      80.77640487      91.62074264
H      66.00717411      82.08598521      89.58550740
C      63.19337163      84.62388764      91.01036104
H      62.42425302      85.14734183      92.84717502
C      64.51806978      86.85754415      89.87841498
H      64.65413007      86.77439619      87.82428248
H      66.41346527      87.00305307      90.66832058
H      63.34454974      88.45058343      90.45478151
C      60.93892814      83.72437792      89.46456492
H      59.76162865      82.60754967      90.73257127
H      61.32065286      82.73605106      87.69578109
H      59.94115265      85.51772819      89.30960736
C      65.82953984      83.37477855      96.29592554
O      64.60499719      81.86677695      97.55448326
N      66.01284329      85.74638507      96.81182082
H      66.82920506      87.00683252      95.63263160
C      65.09254658      86.95769964      99.13618419
H      64.49917252      85.57441998     100.53836111
C      67.33187226      88.54318002     100.15474667
H      66.70637285      89.67323635     101.75912431
H      67.64745655      90.13999875      98.89051977
C      69.77150893      87.03706815     100.81993033
H      70.37244190      85.88811455      99.21555269
C      71.81997225      89.03261913     101.45487837
H      70.74093853      90.48392894     102.43942578
H      72.62877511      89.80362747      99.72766852
H      73.10309642      88.23704435     102.85894502
C      69.50883697      85.36466036     103.24822865
H      71.34376122      84.57853421     103.75467530
H      68.25594843      83.78106971     102.84760667
H      68.68113685      86.39456120     104.82992957
C      62.93447913      88.71892456      98.62784781
O      61.05420145      88.63010743     100.04514254
N      63.19904081      90.49904675      96.77402630
H      64.71082186      90.87321256      95.66664668
C      61.15057749      92.28294839      96.02380495
H      59.35911695      91.27572427      95.92364946
C      60.98995075      94.28605828      98.00990731