 %block lattice_cart
   139.252   0.000   0.000
   0.000 142.425   0.000
   0.000   0.000   162.84
 %endblock lattice_cart

 %block positions_abs
N      92.15815170      42.05402299      80.65938517
H      91.87847220      40.40429192      79.74097817
H      91.26242142      41.78379213      82.32234431
H      94.01008348      42.37905592      80.99008726
C      91.06022071      44.32925347      79.36492263
H      91.48918858      46.12071402      80.28143990
C      92.04098866      44.59003570      76.62859893
H      91.76697835      42.84014914      75.57602139
H      94.05165746      45.02656248      76.69473935
C      90.99785974      46.86148673      75.10925898
H      88.96451423      46.56479970      74.95619115
H      91.78776534      46.87849427      73.20630458
S      91.75941944      49.78489334      76.47742084
C      89.32545195      51.88815873      75.36059259
H      89.95095136      53.82701792      75.67239742
H      87.48107907      51.46674976      76.17317490
H      89.41048964      51.72564226      73.30834981
C      88.16138054      44.51066720      79.34791510
O      86.93116871      42.53023402      78.95107257
N      87.15604614      46.45708530      80.64048791
H      88.30499974      47.60603890      81.64204285
C      84.48019369      46.82936139      81.11858865
H      83.45218257      45.88071878      79.60680761
C      83.74697988      45.50844269      83.60546849
H      84.75231427      43.71320270      83.67538835
H      81.73064190      45.08703372      83.65460137
C      84.61058480      46.79912576      85.92794213
O      84.38192792      49.03089254      86.33234355
N      85.13025954      45.41017692      87.85546297
H      85.49686644      46.31913528      89.49385568
H      85.01687596      43.50722253      87.82144790
C      83.38982160      49.43718370      80.99008726
O      84.77877044      51.27777713      80.51765570
N      80.86136780      49.57324399      81.29622294
H      79.90705601      47.99343279      81.78188259
C      79.55367719      52.00532176      81.12236812
H      80.25665538      52.83113216      79.37059181
C      76.67562401      51.68217856      81.27165648
H      76.13705201      50.34236260      79.80333914
C      75.62115673      50.62204210      83.68672672
H      76.90995008      49.20663709      84.44450697
H      73.89394688      49.61292824      83.19728760
H      75.17518132      52.19807384      84.93772553
C      75.12226898      54.13882276      80.60458311
H      74.94841416      55.44840310      82.18439430
H      73.19852760      53.57190487      80.14160016
C      75.87249033      55.71296478      78.35769851
H      77.61103854      56.80144714      78.52777389
H      74.38716545      57.10380335      78.03644504
H      76.39972397      54.46763514      76.80434349
C      80.50231980      54.02543919      83.04610949
O      80.41728211      56.34224364      82.58501628
N      81.18262127      53.29033565      85.33456806
H      81.50954392      51.44785249      85.70684415
C      82.37314885      55.01376605      87.26208890
H      81.03900207      56.54444436      87.60790882
C      82.41283310      53.57568432      89.82455778
H      83.17817226      54.91739000      91.18516073
H      83.75642851      52.02043957      89.66771049
C      79.87304093      52.37948757      90.61257366
C      78.17228725      53.79678230      92.08467045
H      78.61826266      55.74509013      92.50229997
C      75.94996911      52.56090129      92.84056098
H      74.66495522      53.68906790      93.95360978
C      75.43218410      50.07591119      92.08089100
H      73.70119480      49.28978504      92.82733289
C      77.21608574      48.66617536      90.60879420
H      76.93262679      46.68385246      90.19872360
C      79.46674978      49.75654744      89.94172081
H      80.91239041      48.74365414      88.92126860
C      84.91294101      56.09091005      86.30210793
O      85.32679107      58.35291244      86.30399766
N      86.54566455      54.30322895      85.42527492
H      86.12992476      52.44562799      85.57834275
C      89.04199301      54.91927973      84.33490285
H      90.04921713      55.97374701      85.78999210
C      90.32700690      52.51743759      83.65649109
H      89.45017389      51.47430866      82.11069498
H      90.03598905      51.12848875      85.15126460
C      93.15970664      52.78010954      83.14626499
H      93.53954163      54.67928449      83.84735346
H      93.71717590      52.89727258      81.16772155
C      94.80943771      50.93384694      84.78654744
O      95.15903708      48.71530825      84.22151926
O      95.96972967      51.87115119      86.63469976
C      88.87947654      56.71640945      81.95573742
O      90.33645553      58.46440629      81.64393257
N      86.92927899      56.14193266      80.29466799
H      85.93717267      54.52621666      80.51765570
C      86.28488231      57.79922263      78.15738753
H      87.97618736      58.01654116      77.00276474
C      84.25153680      56.60680533      76.69851881
H      82.49031188      56.53877518      77.76621418
H      84.95829444      54.72463792      76.25443313
C      83.36336543      57.57623493      74.04912253
H      84.99230952      57.34379859      72.81135178
H      82.71329958      59.52076330      74.25510268
S      80.79900683      55.61658874      72.95875043
C      81.35836582      55.38415240      69.59692732
H      80.62137255      57.05844992      68.65773336
H      80.54011432      53.70418571      68.72576349
H      83.30856337      54.98730988      69.06402451
C      85.68583907      60.55255387      78.83201981
O      86.81022623      62.39125757      77.97030462
N      83.92650388      60.77176212      80.66694406
H      82.97408181      59.21840709      81.23764141
C      83.11203184      63.25108305      81.55322571
H      82.69062287      64.57578119      80.03388576
C      80.72530750      62.83534326      83.29177391
H      80.23586839      64.51530995      84.38025627
H      81.21663634      61.42182797      84.70906865
C      78.34992153      61.89236983      81.60802777
H      78.89227298      60.11035791      80.72930503
C      76.09736776      61.36891564      83.40515749
H      75.66839989      63.01675698      84.56355973
H      76.36570890      59.66438250      84.53143438
H      74.59125589      60.77365185      82.13148197
C      77.51277277      63.88036191      79.59168979
H      77.44663235      65.84378755      80.21529949
H      75.67973825      63.23029606      78.90760887
H      78.90739079      63.78209614      78.07990874
C      85.19451023      64.47940515      83.24264104
O      85.25120202      66.78109180      83.22563349
N      87.12770025      63.30210566      84.28954941
H      87.00108859      61.39915126      84.26120352
C      89.51064513      64.48696405      84.96040226
H      88.90782244      66.03653963      86.17927572
C      90.95250631      62.64826035      86.74997307
H      92.96695456      63.03565425      86.56289016
H      90.74463641      60.72073951      86.05077433
C      90.41204458      62.50842060      89.58267281
H      88.58845869      61.61835951      89.93416190
H      90.16449044      64.46428734      90.18171605
C      92.44727982      61.45395332      91.23996279
H      92.16004142      61.87158284      93.23740351
H      94.03087047      62.65581926      90.70328052
N      93.01986689      58.79888785      90.73540587
H      94.54676576      58.35291244      89.67904886
C      91.94272290      56.75042453      91.64058476
N      89.87158286      56.85624920      93.02575416
H      88.78876968      55.29533527      93.21283707
H      89.09490534      58.54755425      93.45094257
N      92.86301961      54.62448243      91.05099015
H      91.73485300      53.13159864      91.42326624
H      94.19149721      54.60558516      89.67715913
C      91.25864197      65.54332106      82.83257043
O      92.79687919      67.21572885      83.34279652
N      90.83534328      64.70428258      80.44773582
H      89.50875540      63.36446662      80.14726934
C      92.18460786      65.78709576      78.24620466
H      93.94394306      66.54676574      79.00209519
C      92.82522508      63.67438174      76.34513999
H      91.01297755      62.78621037      75.92373102
C      93.87213346      64.81955589      73.90361359
H      92.38113940      65.78898548      72.86237440
H      94.31243969      63.30210566      72.58080517
H      95.55398988      65.93827386      74.30612530
C      94.77731237      61.79599378      77.32212850
H      94.50330205      61.53332183      79.34791510
H      96.67270786      62.58211993      77.13315587
C      94.99841034      59.15793585      76.00876870
H      96.30988041      59.10313379      74.42328833
H      93.14836828      58.47574465      75.40972546
H      95.68249127      57.86536305      77.46007851
C      90.51597953      67.82044127      77.01221338
O      91.61391052      69.64402716      76.04089405
N      88.01776134      67.54265150      77.00843393
H      87.37147494      66.06866498      78.03266559
C      86.22630080      69.19427230      75.60625701
H      87.11447217      70.10701011      73.98676156
C      83.98697512      67.68438098      74.61037124
H      82.36936939      68.93537979      74.35525818
H      83.47107983      66.37669037      76.11837284
C      84.43861971      66.34834447      71.98365166
O      83.17250308      64.34712431      71.75121533
O      86.00898227      67.02675622      70.34525894
C      85.10758282      71.45249524      77.22953191
O      84.86380813      73.64835722      76.38671398
N      84.43861971      70.97061503      79.63515351
H      84.72018893      69.26419217      80.44395637
C      83.68272918      72.96427629      81.20551606
H      83.31801200      74.68581697      80.13215152
C      81.31301239      72.02886177      82.63225943
H      81.70607546      70.31865946      83.70751370
H      79.94862999      71.45060552      81.19984688
C      80.23964784      74.28141553      84.00042129
H      81.74009053      75.38501570      84.88103374
H      78.84502982      73.57465789      85.34212697
C      78.68062363      76.01618429      82.20518128
O      79.71241420      77.78874757      81.07890441
O      76.45452603      75.57398833      81.68739627
C      86.06756379      73.61812160      82.79099645
O      86.75731389      75.84421920      82.92516701
N      87.34879823      71.85122750      84.10435623
H      86.75920362      70.04275941      83.94372949
C      89.21395810      72.65814063      86.14715037
H      90.34401443      74.23606210      85.46117972
H      90.42149321      71.03864518      86.56289016
C      87.88925995      73.36489827      88.63780965
O      85.79733293      74.39101966      88.53387471
N      89.21584783      73.14002084      90.92059905
H      90.89770424      72.23673166      90.87335588
C      88.30122029      74.06409701      93.42448640
H      86.24897751      74.08677372      93.26763913
C      89.16104576      71.96650080      95.32744080
H      91.20006045      71.82477133      95.08555583
H      88.32578673      70.19015807      94.70572085
C      88.43539086      72.46727827      98.16392000
H      89.44639444      74.15858332      98.76674270
C      85.73497196      72.82443655      98.66658720
H      85.62725756      73.90536000     100.41836349
H      85.16616434      70.84400337      98.71194064
H      84.82223415      73.92992644      97.18504178
C      89.54466020      70.49062455      99.93081410
H      88.94183751      71.00840956     101.83187877
H      91.60068243      70.60589786      99.92703465
H      88.81522585      68.64436194      99.38468319
C      89.33490058      76.77396454      94.12368514
O      91.61957970      77.45237629      94.04809610
N      87.70406678      78.24039216      95.41814766
H      85.88992952      77.64512837      95.41625794
C      88.25019768      80.57609388      96.79386842
H      90.27220484      80.75750761      97.14724725
C      87.50942497      83.02895864      95.28208738
H      87.44895372      84.58987257      96.62757251
H      85.58946303      82.79463257      94.57532973
C      89.56355747      83.61288407      93.22984460
H      90.28732265      81.89512285      92.35490131
H      91.18494264      84.60876983      94.01408102
C      88.49775183      85.63678095      91.31933129
H      90.25708702      86.39456120      90.56344078
H      87.51698387      87.01439143      92.49474106
N      87.03132421      84.84687535      89.16315357
H      86.42283234      83.03840727      89.15181521
C      86.47196522      86.10732280      87.16760258
N      87.06722901      88.44680398      86.84067993
H      86.40771452      89.20269450      85.21551530
H      88.55633334      89.12521572      87.82144790
N      85.31923217      84.99049455      85.39503930
H      84.69562249      85.98638032      83.88892743
H      84.92427937      83.12344495      85.35157559
C      86.94628652      80.55530689      99.40169074
O      84.71263002      80.26806849      99.46405171
N      88.39003743      81.33198441     101.37267528
H      90.26086648      81.60221527     101.09488552
C      87.49052770      81.53796458     104.01829211
H      85.78977402      80.39279043     104.20537502
C      89.31222387      80.20381780     105.80975267
H      88.49208265      80.20381780     107.69947898
H      91.09423578      81.20348302     106.07620407
C      89.84134724      77.32765435     105.30897520
H      90.15315208      77.07821048     103.28885777
C      92.17137978      76.42247545     106.94169872
H      92.00508386      76.88167894     108.94291890
H      93.99307595      77.20860159     106.38800892
H      92.36224214      74.37590185     106.81886651
C      87.43005646      75.69493082     105.80219376
H      87.60958046      73.94315452     104.73827784
H      85.82189937      76.86845086     105.26551149
H      87.30344480      75.32076501     107.82231119
C      86.55511318      84.09476428     105.03685461
O      86.96707351      84.68057943     107.23460630
N      85.36458560      85.52339737     103.34177010
H      84.75798345      84.69758697     101.72983355
C      84.69184303      88.27294916     103.54208108
H      83.52588190      88.50538549     105.22393750
C      87.14092833      89.92645968     103.57609616
H      87.85335515      89.71103088     101.65424450
H      88.34279427      88.86254377     104.86488950
C      86.80644678      92.78750532     104.41324491
H      85.38348286      92.71380599     105.90045953
H      86.14315284      93.77583218     102.73138850
C      89.42371772      93.66622805     105.28440874
H      90.74085696      93.30529033     103.74239207
H      90.04732740      92.50026692     106.86421995
C      89.35757730      96.54050178     105.76250950
H      88.21618261      96.94301348     107.42924811
H      88.83412311      97.65921975     104.11655789
N      92.05232702      97.28883340     106.11021915
H      92.96506483      96.73703331     107.69380979
H      92.45105927      99.15399327     106.14045477
H      93.08222786      96.48569971     104.71560113
C      83.09502430      88.82852869     101.25929170
O      82.87770577      87.51327918      99.36956539
N      81.49820556      90.66534267     101.77329726
H      81.93851179      91.80106818     103.24161460
C      79.58580254      91.45335854     100.01396207
H      78.58802704      89.75449459      99.40735992
C      77.53544949      93.20702456     101.16858484
H      78.29700919      95.11564814     101.31031431
C      75.26588818      93.45646843      99.37145512
H      73.93363113      94.90588851      99.97616754
H      74.32102503      91.64422090      99.12768042
H      75.88382869      94.38810350      97.64046581
C      76.69074182      92.10342439     103.82742977
H      78.38204687      92.09019631     105.00472926
H      75.94807938      90.20047000     103.55341945
C      74.67440385      93.89866439     105.12000255
H      75.37549231      95.81862632     105.38834370
H      74.26055379      93.39410746     107.07397957
H      72.98498852      93.89866439     103.94081334
C      80.84624999      92.63443749      97.61211991
O      82.75298384      93.96669454      97.94660147
N      79.74831900      92.08452713      95.45405247
H      78.28945028      90.86943311      95.66570182
C      80.57412940      92.98214713      92.98040072
H      81.48119803      94.83029946      93.05410006
C      82.56968038      91.25115783      91.74451971
H      84.14193268      90.94313244      93.03898224
H      83.46541066      92.02216616      90.05699411
C      81.72308300      88.68113004      90.81666409
C      80.67995407      88.33908958      88.46206512
H      80.42673074      89.87543707      87.14114641
C      79.62737651      86.04685156      87.81388899
H      78.90739079      85.79173851      85.92038322
C      79.96185807      83.95303480      89.40125908
O      79.18140110      81.73827557      88.51875689
H      78.54834279      82.02362424      86.84256966
C      81.07490687      84.24783211      91.82766768
H      81.32057129      82.66235173      93.08622539
C      81.91961453      86.64778453      92.58355819
H      82.76054274      86.97848663      94.41281326
C      78.39338523      93.66622805      91.14358674
O      76.19185408      92.92167589      91.37791282
N      79.13982713      95.22336253      89.30110360
H      81.00120754      95.63910232      89.42771525
C      77.65072279      96.18145378      87.13736696
H      75.68540743      96.25515310      87.74963829
C      78.49354073      98.73825348      86.38147643
H      80.52877597      98.57762674      86.10935586
H      78.36503934     100.12720232      87.89703694
C      77.04601037      99.69634472      84.01175964
H      75.10337172     100.07806943      84.58434671
H      77.17640149      98.29794725      82.50564777
C      78.24031740     102.15298892      82.89493140
H      78.01355024     103.69311587      84.24419597
H      77.13104805     102.67644311      81.24142086
C      81.05789933     101.92811149      82.20518128
H      81.15805483     100.51648594      80.70662832
H      81.95740906     101.10041137      83.86058153
N      82.09535908     104.31861528      81.38881953
H      83.69595727     103.95767755      80.41372075
H      82.49598106     105.48646614      82.84579851
H      80.73286641     105.08773389      80.29655772
C      77.85292351      94.34463980      84.98307897
O      79.86737176      93.73803765      84.03821582
N      75.79879100      93.10686906      84.15159940
H      74.15472911      93.56229311      85.00953513
C      75.85548279      91.22659138      82.14282031
H      77.69985567      90.30440494      82.21274019
C      74.05079416      89.17245888      82.95729237
H      72.27445143      90.16267547      83.28232528
H      74.61771206      88.71136566      84.88481319
C      74.20386200      86.88400032      81.21118524
O      72.25555417      85.95803442      80.18884331
O      76.41106233      86.10543307      80.93339547
C      75.49832452      92.31696347      79.53499801
O      75.46808890      94.62431929      79.35736373
N      75.17896077      90.73526254      77.56779291
H      75.49076561      88.88711021      77.93439982
C      75.40572793      91.33241606      74.91461718
H      77.04412064      92.55695871      74.68218083
C      75.64761290      88.97592734      73.11748744
H      74.00166128      87.74571551      73.23276076
C      76.51121782      89.40111576      70.37738429
H      74.90117101      90.15511656      69.33425537
H      76.86837610      87.67390591      69.31535811
H      78.17984616      90.60487143      70.33581032
O      77.72631184      87.75327442      74.27966914
H      77.28600561      86.00149813      74.45919313
C      73.21553513      92.91411698      74.08124786
O      73.68985644      94.80762275      72.90394837
N      70.87227451      92.49270801      75.08280281
H      70.57747720      90.84675639      76.00498925
C      68.87294407      94.29361719      74.86548428
H      69.07892423      95.47847559      73.19118678
C      66.27457039      92.91222725      74.54990000
H      64.89318045      94.42589803      74.32313283
H      65.80402853      91.93334902      76.29789684
C      66.02323679      90.94502216      72.42584761
H      64.09571595      90.23448507      72.32002295
H      67.07014516      89.31040890      73.11370799
C      67.18352874      91.67067707      69.95597532
O      67.70509321      90.02850490      68.43663537
O      67.21376436      93.92890001      69.26811494
C      68.79546529      96.38176476      76.94985241
O      66.92463624      97.77638278      77.25976753
N      70.64550735      96.57829630      78.52966360
H      72.19508292      95.50115230      78.25187385
C      70.97431973      98.56628838      80.37025703
H      70.17874495     100.34641057      79.71263228
H      72.95853236      99.03305078      80.67072352
C      69.81213804      97.94078897      82.92516701
O      70.18252440      99.38642960      84.66182550
N      68.20587068      95.92067154      83.24831022
H      68.08492819      94.64699601      81.82912575
C      66.92652596      95.52760847      85.61046810
H      66.05347241      97.29261285      86.22273943
C      64.76845851      93.57174174      85.30622216
H      63.54391586      93.82118561      86.94272516
H      65.66985797      91.72169968      85.38181122
C      63.11305826      93.85142123      83.03288142
C      62.99967469      92.05618123      81.11858865
H      64.19965089      90.42534743      81.38504006
C      61.19498606      92.30562511      79.27421578
H      60.76790791      90.76360844      78.00620942
C      59.55092416      94.37109597      79.11169931
O      57.84639103      94.32952199      77.16528121
H      56.77302648      95.76382426      76.86670446
C      59.80414749      96.36286750      80.91638794
H      58.40386029      97.84441293      80.83512971
C      61.61450530      96.02460649      82.85524713
H      61.86016972      97.45134986      84.29521859
C      68.74822213      94.54873024      87.59657046
O      70.65684571      93.40733555      86.99563749
N      68.28712891      95.11564814      90.06644275
H      66.58259578      95.73547837      90.66359626
C      69.99922095      94.36920624      92.15081088
H      71.95697741      94.59786313      91.55365735
C      69.42285442      95.89610510      94.53753520
H      70.17307577      94.80384329      96.11356695
H      67.43675207      95.83563386      95.07610720
C      70.36015867      98.63053908      94.63769070
C      68.74444268     100.62231061      93.70227617
H      66.85849582     100.13476122      93.09567402
C      69.47954621     103.08462400      93.87991044
H      68.16051725     104.53593381      93.32244119
C      71.97209522     103.65343162      94.72461811
O      72.94341454     106.05716349      94.75674346
H      71.73776916     107.34406711      94.33911394
C      73.70686398     101.58985048      95.14224762
H      75.56446494     102.12275330      95.79609294
C      72.79601589      99.06517613      95.14980653
H      74.15094966      97.62898413      95.66759154
C      69.80835859      91.51005033      92.84245071
O      67.75233636      90.27416932      92.87835551
N      72.00800002      90.38566317      93.36401516
H      73.51222217      91.54028595      93.15803499
C      72.30846650      87.66067783      93.35834598
H      70.56424912      86.60243110      93.63802549
C      73.28167555      86.91423594      90.54643323
H      74.99565732      87.92712924      90.02675849
C      73.47064819      84.01350605      90.00597151
H      74.11693459      83.75839299      88.06522259
H      71.62249585      83.13667304      90.25541539
H      74.94463471      83.16690866      91.17004291
O      71.37494171      87.64933947      88.78520830
H      71.58470133      89.43513084      88.54899253
C      74.30023804      86.79896263      95.32177162
O      76.25232532      88.18413202      95.86601280
N      74.07536061      84.44814310      96.18159710
H      72.81680288      83.30863813      95.30854355
C      75.84225471      83.07053262      97.95227065
H      77.45986043      84.23838348      98.46249676
C      74.60637370      83.01762028     100.60922586
H      73.56324478      84.78262466     100.79252931
C      72.50688777      80.98805422     100.53174707
H      71.07258549      81.10521725      99.05587082
H      71.30313211      81.02017957     102.20226514
H      73.35915433      79.11344572     100.52229843
C      76.27878149      82.58865241     102.92980977
H      77.41261728      80.87656037     102.76540357
H      74.95408334      82.59810104     104.50584150
C      78.14772081      84.77506575     103.12067212
H      77.42773509      86.64778453     102.65390973
H      79.77099571      84.27617800     101.95660071
H      79.15494494      84.95270002     104.90835322
C      76.88727336      80.42680550      97.08866572
O      75.71564305      79.27407245      95.48239836
N      78.90928052      79.37044850      98.30375974
H      79.85603340      80.36822399      99.62845789
C      79.74642927      76.77018509      98.07888232
H      78.15338999      75.69493082      98.81587557
H      81.34135828      76.45460079      99.34499895
C      80.30200881      76.12389869      95.33122026
O      81.56623571      77.52985507      93.95549951
N      79.53100047      73.90536000      94.62635235
H      78.62582157      72.87734888      95.95671966
C      79.39305045      73.15891810      91.95049988
H      80.77444039      74.16992168      90.80343602
C      80.17539714      70.41125605      91.80877041
H      78.82802228      69.26419217      92.86323769
C      80.43239992      69.69504977      88.86079736
H      78.74676405      69.92559638      87.70239514
H      80.93884658      67.69949879      88.88347407
H      82.14071251      70.67014855      88.24663632
C      82.87203659      70.01819297      92.89725277
H      82.93439756      70.62857457      94.86256814
H      84.20240392      71.03864518      91.69727656
C      83.57123533      67.16470624      93.18827061
H      82.01788030      66.36724174      94.28053243
H      85.28143764      66.78487125      94.27297352
H      83.68839836      66.54298628      91.22862444
C      76.81168431      73.82599149      90.83745108
O      74.96164225      72.37090223      91.06799770
N      76.64349867      76.08421444      89.74896872
H      78.09858793      77.29174955      89.99841260
C      74.64038877      76.87412004      88.11435547
H      74.47031341      75.40202324      86.68572237
H      75.14494570      78.60132989      87.11469025
C      71.97965413      77.25017557      89.22740427
O      70.08803809      77.35600025      87.74396911
N      71.70375408      77.59032631      91.75396835
H      73.31191118      77.70182016      92.77631028
C      69.31136057      77.76796058      93.06921786
H      67.89973502      76.73805974      91.97695606
C      69.56080444      76.56420492      95.72617306
H      70.81558272      77.65268728      96.94126707
H      70.45842444      74.70849368      95.69782716
C      67.02857119      76.30909187      97.03197393
N      65.68308605      74.10189153      97.43826510
H      66.30102655      72.33310771      97.07165819
C      63.60627683      74.61778682      98.79130914
H      62.47244104      73.24395579      99.78719490
N      63.45320900      77.20671187      98.88957491
H      61.84316218      78.11567022      99.36578594
C      65.55458466      78.20259763      97.82943844
H      65.84182306      80.20381780      97.53275141
C      68.46287346      80.48160757      93.07866649
O      69.59481952      82.07842630      94.32777558
N      66.38795397      81.16001931      91.58767244
H      65.58859973      79.95248420      90.34423252
C      65.42041409      83.86043821      91.52909091
H      67.00967392      85.08309114      91.05287988
C      63.49856243      83.98704988      89.33511866
H      61.84127246      82.78329422      89.55999610
H      64.62483932      83.56753064      87.66082115
C      62.54803010      86.75360920      88.79654666
H      63.98800155      88.03484364      89.52409130
C      62.28724787      87.04273733      86.07156133
H      64.13728993      86.67046124      85.24197147
H      61.78647039      89.04017804      86.01297981
H      60.84538669      85.70103164      85.46873863
C      60.08004753      87.21470242      90.16848798
H      60.09894480      87.01250170      92.21884103
H      58.51535415      86.31519270      89.18016110
H      59.93831806      89.27072465      90.15714961
C      64.06359060      84.41790748      93.96305840
O      62.32693212      83.05919426      94.83422223
N      64.69286946      86.63644617      95.01185652
H      65.71143195      87.79106895      93.88746935
C      63.67241725      87.48493328      97.50251579
H      63.20376513      85.76906179      98.54186526
C      65.76056483      88.54695947      99.05209136
H      64.93097498      89.66567745     100.57143133
H      66.56180879      90.13243985      98.00896244
C      67.74099801      86.78573455     100.23128058
H      68.88617215      85.76339261      98.85933929
C      69.75355653      88.57341564     101.48605885
H      70.97620945      87.52839699     102.76918303
H      68.65373581      89.79039939     102.73138850
H      70.82125190      89.44080002      99.95349081
C      66.81503211      84.87144179     102.21360350
H      68.24555493      84.26294992     103.56475780
H      66.53535262      83.25383607     100.96827384
H      65.01223321      85.50261038     102.98083238
C      61.39529705      89.11576709      97.12457052
O      59.45265840      88.72459374      98.32076729
N      61.53324707      91.09242081      95.62223812
H      63.28880281      91.32107770      94.90981129
C      59.60761595      92.89521972      94.89847294
H      57.80670678      91.89555450      94.88524485
C      59.36573099      94.97580839      96.96583351