 %block lattice_cart
   139.252   0.000   0.000
   0.000 142.425   0.000
   0.000   0.000   162.84
 %endblock lattice_cart

 %block positions_abs
N      91.02242618      39.93847438      82.14376517
H      90.43094184      38.88211737      80.66977865
H      90.21173359      39.33754142      83.76326062
H      92.90837304      39.87044424      82.43289330
C      90.27220483      42.63700356      81.77904800
H      91.01486727      43.96359143      83.16799685
C      91.05455152      43.34187147      79.09374690
H      89.79599380      42.46314874      77.72180561
H      93.05577169      42.86188099      78.99359141
C      90.97896247      46.21614520      78.39454818
H      89.19128138      46.54873703      77.42700830
H      92.27342499      46.44858153      76.80906780
S      91.71973518      48.53672911      80.70190400
C      91.59312352      51.44690763      78.95201743
H      92.42460310      51.16155896      77.09063701
H      92.52286887      52.93223251      80.03483062
H      89.59757254      51.80784536      78.60619752
C      87.41115919      42.68613644      81.98502816
O      86.17527818      40.86255055      81.06284172
N      86.35858163      44.74593812      82.89776597
H      87.53588113      46.16512259      83.38153592
C      83.60902985      45.14467038      82.86753036
H      82.60747490      44.02784213      81.45779452
C      82.73975575      44.00138596      85.46023486
H      82.99108934      41.96426099      85.64353832
H      80.67995406      44.06185720      85.47346294
C      83.52966134      45.22970806      87.80916466
O      83.79800248      47.51816663      87.96412223
N      84.14760185      43.76705989      89.67810399
H      84.74664509      44.55696549      91.30893779
H      83.99264429      41.86599522      89.62330192
C      82.69251259      47.88288380      82.52926934
O      84.13248404      49.58930666      81.99825626
N      80.32846497      48.54617774      83.00359066
H      79.04345108      47.13833164      83.06973107
C      79.35147647      51.14644115      82.62375567
H      80.30389853      51.83241180      80.93056089
C      76.51310754      51.11431580      82.13620628
H      76.18429517      49.88788342      80.51482110
C      74.91250936      50.07307660      84.30372235
H      72.93018645      49.57985803      84.03727094
H      75.02967239      51.27305281      85.97424041
H      75.37927176      48.18901947      84.98780328
C      75.38872039      53.58040864      81.28016025
H      75.05990801      54.88431979      82.83918446
H      73.49710435      53.20435310      80.55450534
C      76.91939870      54.95801912      79.18823323
H      76.78522813      53.94890527      77.39866241
H      78.86392708      55.28872122      79.77782784
H      76.01233007      56.80428173      79.04083457
C      80.09980809      52.91333525      84.68166762
O      80.46641499      55.19234518      84.09207301
N      80.58168830      52.04217142      87.05894331
H      80.58546775      50.20157799      87.55783106
C      81.41505760      53.79016826      89.09039910
H      80.03744712      55.32462602      89.08661965
C      81.44907267      52.19901870      91.43365973
H      82.33346459      53.25159626      92.96811750
H      82.60180572      50.51149310      91.17476723
C      78.95085449      50.97825550      92.28592631
C      76.94207542      52.55239752      93.08905999
H      76.90995007      54.58763276      93.24212782
C      74.61204287      51.40533365      93.80526625
H      72.95097344      52.28594611      94.59706159
C      74.40417298      48.70869420      93.64841897
H      72.72231656      47.65800637      94.13407864
C      76.57168906      47.30084810      93.11362643
H      76.42051095      45.27317177      92.96244832
C      78.81857365      48.36476401      92.35206673
H      80.32090606      47.15344945      91.68499334
C      84.10413814      54.76148758      88.62174698
O      84.56901082      57.05372560      88.55749629
N      85.82567881      53.10041815      88.00947565
H      85.20206913      51.30895761      88.22868390
C      88.29177165      53.62576207      87.11185565
H      89.33490058      54.88809925      88.36096474
C      89.59946226      50.96691715      87.02114879
H      91.56099817      51.31840624      86.49202543
H      88.78499022      49.77449984      85.55094173
C      89.58434445      49.73103614      89.68566290
H      90.49897199      47.91122970      89.38519640
H      87.64737498      49.23403812      90.17888146
C      90.83912272      51.13132334      91.89664268
O      89.62969788      51.99870771      93.75424365
O      93.17104499      51.35620077      91.80971526
C      88.59790732      55.07140270      84.61741692
O      90.53109733      56.43200564      84.23380249
N      86.98219132      54.71991360      82.83351529
H      85.73308222      53.27994215      82.93367077
C      86.65337894      56.11453162      80.42411423
H      88.53743607      56.06917819      79.59074492
C      84.72396837      54.99581365      78.64966122
H      82.89282358      54.84274581      79.58318603
H      85.52899178      53.13254350      78.30006185
C      84.21941145      56.35452686      76.09853071
H      85.84835553      56.02760421      74.87965723
H      83.99642374      58.36708539      76.47836570
S      81.32246101      55.36242055      74.48470443
C      81.71552408      55.94067680      71.09642515
H      83.62414766      55.52115756      70.44069013
H      81.53033090      57.94378669      70.65611892
H      80.31901634      54.69912661      70.22904077
C      86.01087199      58.80172244      81.03638556
O      87.55477839      60.38720282      80.28427448
N      84.12114568      59.61997393      82.45179057
H      82.73219684      58.39921074      82.92233241
C      83.68461890      62.05016197      83.30027768
H      83.71674425      63.39186765      81.73558429
C      80.99742808      62.13897911      84.51915116
H      80.72341777      63.96256500      85.43188897
H      80.99364863      60.82939877      86.11030071
C      78.89416270      61.46245709      82.55572552
H      79.39871962      59.67099654      81.67511305
C      76.24665613      61.23191048      83.59507498
H      75.10526144      60.81806042      81.92833637
H      75.64383344      62.85896483      84.70434434
H      76.18051571      59.65398901      84.91788340
C      78.77699967      63.47123616      80.41655532
H      79.10959150      65.37985974      81.11764379
H      77.21608573      63.18021831      79.10508527
H      80.20374303      62.94778197      79.02571676
C      85.70473633      63.03092993      85.04638479
O      86.16582955      65.28159397      84.74402858
N      87.22596601      61.47757490      86.49202543
H      86.75542416      59.63509174      86.64887271
C      89.49552731      62.39409216      87.86396673
H      88.91727106      63.90398349      89.14142172
C      90.49141308      60.12831031      89.37952724
H      91.60257215      58.99258480      88.06805716
H      88.85113064      59.14376290      90.13919720
C      92.25074828      60.66688231      91.62263236
H      91.48162967      62.02559553      92.96811750
H      93.99118621      61.59662766      91.02925831
C      92.83656344      58.21968674      93.10606753
H      94.18204857      58.80739162      94.54792869
H      93.65859438      56.84396598      91.81349472
N      90.67093708      56.90065777      94.11707110
H      90.53676651      55.02982872      93.76558200
C      88.95128614      57.87953600      95.64963914
N      89.31033414      60.13208976      96.67009135
H      87.81556062      60.73680218      97.69243328
H      90.79754874      61.22057212      96.17120360
N      87.13903860      56.38854194      96.45844199
H      85.87481170      56.84774543      97.81337576
H      87.42816673      54.54983824      96.03892275
C      91.59123380      63.62619372      86.21423566
O      93.01986689      65.22868163      87.22334950
N      91.68383038      63.03470938      83.74247364
H      90.32322744      61.76670303      83.31161604
C      93.42426832      64.23279586      81.93778502
H      94.54676575      65.69733376      82.84485365
C      95.48029055      62.28826749      81.07418008
H      96.58955989      63.28037380      79.65121618
C      97.18293396      61.68922425      83.29838796
H      98.92148216      60.72357410      82.76170569
H      96.41570507      60.32484185      84.63820391
H      97.64969635      63.34651422      84.42844429
C      94.20850474      59.76170341      80.13687584
H      92.70050314      60.27759869      78.83107495
H      93.20883952      58.88298067      81.70723840
C      96.06610570      58.00047848      78.91233318
H      96.89758528      56.67011116      80.24836969
H      97.66859362      58.84140669      77.93156523
H      94.90581375      56.87609133      77.63676792
C      92.15626196      65.47245632      79.61342164
O      93.51686491      66.43999620      78.06573579
N      89.74308146      65.07750353      79.10886472
H      88.83979228      63.78115127      80.17844981
C      88.19161616      66.53070306      77.21913840
H      89.06844917      66.32283317      75.36720661
C      85.47796917      65.49891249      77.09063701
H      84.25909570      66.32094344      78.53438793
H      85.76520757      63.45800808      77.08118838
C      84.27610324      65.81260706      74.44879964
O      85.86536307      66.02803586      72.71025142
O      81.98008577      65.95244681      73.84030775
C      88.02909970      69.43899186      77.84274809
O      88.03665860      71.15108390      76.19679648
N      87.75508938      69.99646112      80.28616422
H      87.92138530      68.50168760      81.46157397
C      87.49241742      72.51735602      81.43511782
H      88.67727582      73.63985345      80.18033954
C      84.81656496      73.33182806      81.52771441
H      83.78288467      72.21122036      82.91288378
H      84.18917583      73.24868010      79.56995794
C      84.17594774      76.07193121      82.36108370
H      85.04144239      76.26657302      84.22246412
H      82.12937415      76.31192646      82.28738437
C      85.37214450      78.15818906      80.75103688
O      85.34757806      77.93898081      78.41722488
O      86.71951936      79.88728864      81.64865689
C      88.74719569      72.70254920      84.00892505
O      90.11913700      74.57904743      84.37553196
N      88.75097515      70.62951943      85.42621979
H      87.97240791      68.93632466      85.01992863
C      90.07000411      70.49723859      87.85262836
H      91.91815645      71.37974078      87.62019204
H      90.34212470      68.59428419      88.59529081
C      88.79821830      71.99012238      89.98234992
O      87.59446264      73.94409939      89.46267518
N      89.19128138      71.21722432      92.37474343
H      90.51220007      69.85284192      92.57505442
C      87.89681885      72.03169636      94.81815955
H      85.89559869      72.34539093      94.44210402
C      88.39192715      69.99079194      96.72111395
H      90.34401443      69.96433577      97.37495927
H      88.00075380      68.21822866      95.74790491
C      86.85180020      70.12496251      99.17775817
H      87.28454753      71.74823741     100.37206520
C      84.00398265      70.18921320      98.70532658
H      82.74731465      70.48778996     100.30970422
H      83.60147094      68.43365746      97.70377164
H      83.34635789      71.68965589      97.45621750
C      87.42249755      67.58517034     100.51568439
H      86.29244121      67.27525523     102.20887917
H      89.23852454      67.87996765     101.43976057
H      87.43005645      65.95433653      99.25523695
C      89.11758205      74.55826044      95.76491244
O      91.40793034      74.49023029      96.12018098
N      87.56800647      76.38373606      96.52836188
H      85.70095688      75.98878326      96.46222145
C      88.11980656      78.61361311      97.93053879
H      90.13803426      78.65140763      98.33871969
C      87.44706399      80.87372578      96.26380019
H      87.33368041      82.51400822      97.50535038
H      85.49686644      80.57136957      95.67042613
C      89.26498070      81.51623272      94.21155741
H      89.65048487      79.78524342      93.15897986
H      90.92416041      82.52723630      94.89185889
C      88.04610723      83.28690628      92.29915439
H      88.01776134      85.15962505      93.15897986
H      86.12425557      82.67841440      91.87774541
N      89.64103624      83.33036998      89.97668075
H      91.02998508      84.63050169      90.09951295
C      89.06655944      82.34960203      87.67499409
N      87.22029683      80.83026207      87.18744470
H      87.13525915      80.15940923      85.40165334
H      86.09024050      80.13295306      88.55938602
N      90.50842062      82.91274047      85.76448079
H      89.94339245      82.36094038      84.02782232
H      92.01642222      84.08248106      85.82495203
C      86.81967485      78.68164325     100.61017071
O      84.64271014      78.00134178     100.67442141
N      88.26909494      79.70020574     102.35249837
H      90.01331232      80.26712363     101.82148527
C      87.88170104      80.05547428     105.13606523
H      86.32645629      78.91218986     105.85794068
C      90.38747813      79.30903239     106.50233736
H      90.76353367      80.49578051     108.14639924
H      92.01831194      79.55847626     105.26645634
C      90.26275620      76.41964086     107.14106484
H      88.52420799      75.94342983     108.13506089
C      90.10023973      74.62251113     104.94142342
H      91.26809060      75.31982014     103.39373757
H      88.12925519      74.73778444     104.35749799
H      90.50086171      72.68176221     105.50267214
C      92.59089901      75.84138460     108.84748770
H      94.31999859      76.57270869     108.00089031
H      92.62491409      73.80236991     109.12338775
H      92.34334487      76.85049846     110.62572016
C      87.11447216      82.63117125     106.02801604
O      86.20173435      82.89951238     108.12750199
N      87.21651738      84.55113318     104.34615963
H      87.99130517      84.23743861     102.63028814
C      85.89370896      87.02289520     104.66174392
H      84.52743684      86.78289996     106.18864279
C      87.95729010      88.85781945     105.41007555
H      89.20261974      87.95830972     106.78390658
H      86.97085296      90.50944025     106.14706881
C      89.47285060      89.57024627     102.99878477
H      88.20106479      90.67006698     101.81203665
H      90.16260070      87.87516177     102.05014216
C      91.78209615      91.07257869     103.67341706
H      92.99530045      89.97842715     104.92819533
H      91.06022070      92.79789881     104.53891172
C      93.35434845      91.68673974     101.35850232
H      92.07878318      91.62437877      99.73900688
H      94.84345278      90.30912926     100.99945432
N      94.65636987      94.04322845     101.19409613
H      96.44216124      94.05645654     101.87061815
H      93.46773202      95.37548550     101.87250789
H      94.82833497      94.75565527      99.43098148
C      84.37814846      87.75799873     102.31470384
O      85.08490610      86.95864450     100.25490217
N      82.50542968      89.41528871     102.80792242
H      81.97441659      90.03322922     104.53324253
C      80.72341777      90.16173060     100.84638649
H      79.69540665      88.48743309     100.23411517
C      78.78833802      92.14783296     101.92919968
H      79.81634914      93.78244622     102.64162649
C      76.87404527      92.96797418     100.03002474
H      77.68851731      93.73142361      98.29903542
H      75.61359782      94.27944424     100.99945432
H      75.82335744      91.41461915      99.18531706
C      77.52222139      90.83447317     104.18175344
H      78.85258872      90.22220185     105.62928379
H      76.35626026      89.24332362     103.59026911
C      75.86304169      92.92640020     105.69353449
H      74.44385723      93.84480719     104.51812473
H      77.25576998      94.11125860     106.63839764
H      74.62149150      91.91917608     106.99366620
C      82.04244674      91.32958147      98.54847931
O      84.06256416      92.48420424      98.66186289
N      81.03144316      91.06501978      96.21466731
H      79.44218333      90.01433195      96.12396044
C      81.97441659      91.97775759      93.74857446
H      83.14226745      93.64827565      94.03581286
C      83.82445865      89.84425658      92.66198184
H      85.27009928      89.14316812      93.95077518
H      85.03199376      90.80612728      91.29381998
C      82.76999137      87.37816375      91.71333922
C      82.67172560      87.15706577      89.07717103
H      83.39927023      88.73120779      87.99813729
C      81.71174463      84.98388051      87.86396673
H      81.68717819      84.98577023      85.82117258
C      80.97853082      82.94297609      89.36440942
O      80.19807385      80.76601138      88.25325034
H      80.27555263      80.80002645      86.44100281
C      81.07301714      83.09415419      92.09884339
H      80.44751773      81.52001217      93.23834837
C      82.17094812      85.26167027      93.27803262
H      82.24275772      85.40717920      95.31137813
C      80.00721150      92.51632959      91.75302347
O      77.87182076      91.68296029      92.15742492
N      80.53255541      94.14149422      89.84251018
H      82.33346459      94.70463266      89.53637452
C      78.59180649      95.26966083      88.13041814
H      76.87971445      94.84447241      89.19433406
C      78.93762640      98.07590440      87.34618172
H      77.42017617      98.62203531      86.06872674
H      80.78577874      98.26676676      86.46178980
C      78.77322021      99.71996630      89.76125194
H      80.60247529      99.53666284      90.69288701
H      77.24065217      99.05100318      90.96311789
C      78.55023251     102.66227016      89.27748200
H      79.85225394     103.07800995      87.73546533
H      79.05478943     103.53154427      91.07461173
C      75.99532253     103.52587509      88.64253397
H      74.66306548     103.09312776      90.15620474
H      75.21675529     102.46951808      87.05705360
N      76.05957323     106.20550700      88.13797705
H      74.30401748     106.94061054      88.01325511
H      77.02522337     106.69683584      86.56761447
H      77.00065693     107.11446536      89.52881561
C      78.31968590      93.62370921      85.84573903
O      80.21130194      92.74498647      84.88953752
N      76.07658077      93.21552833      84.93678066
H      74.66495521      94.06590517      85.89865137
C      75.21864502      91.57902534      82.86375090
H      76.50932809      89.98598606      83.07728998
C      72.42185008      91.01966635      83.09996670
H      71.25399921      92.61648508      82.52926934
H      71.83414519      90.79856837      85.06339234
C      71.83603492      88.74254614      81.54283222
O      73.03601113      86.79423831      82.10219119
O      70.30535661      88.96742357      79.84396825
C      75.61359782      92.81301662      80.34285600
O      75.40194847      95.13737999      80.15388337
N      75.99154308      91.35414791      78.25659816
H      76.15028009      89.47387023      78.53816738
C      76.03500679      92.41617410      75.64688612
H      77.44096316      93.90905788      75.45224430
C      76.22964860      90.22976075      73.63054813
H      75.66273070      91.17840336      71.89199994
C      78.89227297      89.28867705      73.39811181
H      79.19840863      88.34948307      71.58964373
H      79.54422855      88.10759810      74.95713602
H      80.05823411      90.96675401      73.14866793
O      74.71030864      88.02067069      73.69857828
H      73.11160018      88.46475638      72.96158503
C      73.40450776      93.68229073      75.01571753
O      73.31191117      95.20729986      73.28661794
N      71.48454582      93.24009477      76.62009517
H      71.62816502      91.68862947      77.72180561
C      68.99010709      94.46463742      76.53127803
H      68.76711939      95.09580601      74.58485992
C      66.70542798      92.65427961      77.08307812
H      66.31992381      92.69396386      79.10697500
H      67.64840141      90.86848825      76.68056641
C      64.22799678      92.92262075      75.49948746
H      63.60438710      94.88793611      75.47681074
H      62.73511300      91.96452951      76.54639583
C      64.57192697      91.80012332      72.85387063
O      64.29602693      89.50221612      72.51560961
O      65.01790238      93.18907216      70.87154772
C      68.87105433      96.89293573      78.12242758
O      66.96998966      98.17039072      78.02983099
N      70.81936216      97.63370845      79.39988257
H      72.31791513      96.53010828      78.97847361
C      71.04990877      99.55933956      81.32551369
H      69.71954145     101.02387745      80.75481633
H      72.97931934     100.26609720      81.21401983
C      70.31291551      99.10769497      84.00703533
O      70.93652519     100.83490482      85.53204446
N      69.16963109      96.99309123      84.59851965
H      69.36049345      95.63626773      83.27004207
C      68.23043711      96.44318087      87.03626661
H      67.35360410      98.19873661      87.65609683
C      66.28968819      94.34936411      86.82272753
H      65.29380242      94.14527367      88.61607781
H      67.11927804      92.46341725      86.74713848
C      64.28657830      94.53455729      84.72891078
C      63.31903843      92.24798845      83.75570172
H      64.04280360      90.50566079      84.54371760
C      61.54458542      92.42940218      81.85463706
H      60.80003325      90.76077385      80.94378897
C      60.61295035      94.74242719      80.94567869
O      59.04636723      94.73675801      78.99170169
H      58.96321928      96.18428836      77.90132961
C      61.60694639      96.98742205      81.95479255
H      60.93987300      98.81100794      81.32362395
C      63.43998091      96.94584807      83.92388737
H      63.89540495      98.72219080      84.81772792
C      70.24866482      95.58146567      88.97134635
O      72.34437130      94.99754024      88.15687431
N      69.50978183      95.22997658      91.35996041
H      67.68052676      95.37170605      91.89097351
C      71.30691155      94.10747915      93.19866411
H      73.15506389      94.46841687      92.36151535
C      71.20486633      95.64760609      95.68176449
H      72.07225071      94.69707376      97.28803186
H      69.27545577      95.81012255      96.38474268
C      72.22342881      98.39715788      95.29626032
C      70.52078541     100.22074377      94.50446500
H      68.56680840      99.73886356      94.16242453
C      71.27856566     102.78888183      94.30226427
H      69.89906545     104.17972039      93.72778748
C      73.79757083     103.31422574      94.54414924
O      74.63660932     105.76709050      94.11140191
H      73.03601113     106.60612898      94.29281564
C      75.57580329     101.38292545      95.12429522
H      77.48253714     102.02543240      95.46255623
C      74.78778742      98.91494289      95.63452133
H      75.98776363      97.30111661      95.97656179
C      71.05746768      91.33336092      93.74101556
O      68.96176120      90.39983612      94.36084579
N      73.24388102      90.04645730      93.69566213
H      74.84825866      90.94785675      93.18543603
C      73.44230229      87.19108084      93.71644911
H      71.70375408      86.43519032      94.52525199
C      73.83725508      86.16118000      90.88752883
H      74.30779694      84.15429066      90.87052130
C      71.43919239      86.47676429      89.42299094
H      71.73398970      85.83425735      87.48791120
H      70.90817930      88.46475638      89.36251970
H      69.87260928      85.36560522      90.16943283
O      75.69485605      87.61437953      89.57794849
H      76.82869184      88.40428513      90.75335827
C      75.57580329      86.15551082      95.45877677
O      77.19529874      87.42162745      96.41497829
N      75.47564780      83.72154333      95.95577481
H      74.12827294      82.83904114      94.93343287
C      76.76444114      82.19653420      97.90597235
H      78.61070375      83.08659529      98.11384225
C      75.37738203      82.60282535     100.46655151
H      75.26966763      84.65128868     100.64796523
C      72.69208094      81.51434300     100.78780499
H      71.50911227      82.64628906      99.53869589
H      71.82280683      81.82047866     102.63028814
H      72.52011584      79.66430094      99.89963361
C      77.14805559      81.63906493     102.65863404
H      76.80790485      79.63028586     102.96287997
H      76.42995959      82.56314110     104.35371854
C      80.01854985      82.23621845     102.53958127
H      81.17506236      81.45576148     101.02591050
H      80.85380888      81.62772657     104.32159319
H      80.12059508      84.28279204     102.33360111
C      77.04978982      79.45265159      97.11606675
O      75.82146771      78.58148776      95.37940828
N      78.55779141      78.02968767      98.65808343
H      79.34580729      78.91218986     100.15852613
C      79.02644354      75.30659206      98.21021830
H      77.20663710      74.33905219      98.28958679
H      80.11114644      74.52046591      99.77491167
C      80.13571289      75.03258174      95.55137336
O      82.14449196      76.03791614      94.94477123
N      78.62204211      73.78536238      93.93754710
H      77.07813571      72.86317594      94.56871569
C      78.79400720      74.02724734      91.12563435
H      80.24720674      75.37840166      90.57383426
C      79.71808337      71.47233737      89.94266568
H      78.28756055      70.04181455      90.33572875
C      79.90516628      71.80492920      87.06650222
H      81.52844118      72.89908074      86.42588500
H      78.31023727      72.89530128      86.35029596
H      79.95240943      70.03236592      86.01959385
C      82.03677756      70.18543375      90.97823569
H      81.53033090      69.13663565      92.67898938
H      83.46163120      71.63674356      91.30137889
C      83.29344555      68.26736154      89.25858475
H      81.90071726      66.92376613      88.54993738
H      84.59735671      67.15431274      90.39997944
H      84.26098543      69.29915211      87.75814206
C      76.26933285      74.79258650      90.03715199
O      74.31535584      73.43576301      90.31305202
N      76.30523765      76.89018271      88.76725591
H      77.97386598      77.78780271      88.53670930
C      74.15094965      78.02401850      87.44633721
H      73.71442287      76.87695462      85.79471642
H      74.79534633      79.69831601      86.43533364
C      71.69241572      78.81581382      88.82961687
O      70.28456962      80.29169007      87.67499409
N      71.26911703      78.08448974      91.19177476
H      72.59192544      76.85049846      91.80404609
C      69.05246806      78.42653020      92.85662365
H      67.51801029      77.39662936      91.94766530
C      69.53056882      77.15663412      95.42476171
H      71.18596907      77.80103079      96.46600090
H      70.36771757      75.29525370      95.15075140
C      67.09849105      76.98655875      96.95732975
N      65.65285042      74.74912280      97.05559551
H      66.44275602      73.03136158      96.78914410
C      63.48155489      75.32548932      98.39163201
H      62.16441565      74.03858570      99.27413420
N      63.57604121      77.84827395      98.90563758
H      62.33827047      78.65329736     100.11695214
C      65.77757236      78.86305698      98.02313538
H      66.33504162      80.81136481      98.23667446
C      68.20965012      81.14395664      93.15897986
O      69.62316541      82.64439933      94.13974781
N      65.86827922      81.71087453      92.58828252
H      64.58326533      80.34460241      92.23112424
C      64.66074411      84.32436602      93.07016272
H      66.19142242      85.65284362      92.69032774
C      62.49322803      84.62483251      91.25413574
H      61.13640453      83.33603916      92.11396121
H      63.07904318      83.86516253      89.43054985
C      61.24222921      87.28367743      91.30515834
H      60.24823317      87.55390829      93.08905999
C      62.96188015      89.50032639      90.97634597
H      61.85450053      91.23509515      91.01791994
H      63.80280836      89.12805031      89.13386281
H      64.49444819      89.59670244      92.34828727
C      59.14841245      87.19108084      89.23779776
H      58.02024584      88.91073179      89.11874500
H      58.04292256      85.47331962      89.49291081
H      60.10083452      87.29312606      87.41421186
C      64.00878853      84.89506337      95.91420082
O      62.57259653      83.42296657      96.97055783
N      65.05380718      86.85093010      97.01780099
H      66.35393889      87.68618913      95.89719329
C      64.13162074      88.16617962      99.22689105
H      62.93542398      86.96998286     100.40419055
C      66.46921219      89.28111814     100.56292755
H      65.73221893      90.64739027     101.91786132
H      67.56336373      90.09747991      99.02091087
C      68.10382545      87.29123633     101.87817706
H      68.12461244      85.79268337     100.46655151
C      70.77967791      88.39294678     102.40163126
H      72.02122810      86.91329107     103.12161697
H      70.67574296      89.76866753     103.93041984
H      71.53934789      88.96742357     100.57615563
C      66.83959855      86.18007726     104.24222468
H      64.82892975      85.92307448     103.86805888
H      67.14195476      87.44052471     105.84093315
H      67.87705829      84.48877221     104.79591450
C      62.07559851      90.08047237      98.44643408
O      59.78713995      89.57213599      98.73178276
N      62.77101780      92.26499599      97.26724487
H      64.60972150      92.38971793      96.77024685
C      61.07593329      94.23598054      96.41497829
H      59.29959056      93.21930778      96.17687277
C      61.01735178      96.30712057      98.41241901