 %block lattice_cart
   139.252   0.000   0.000
   0.000 142.425   0.000
   0.000   0.000   162.84
 %endblock lattice_cart

 %block positions_abs
N      92.11752257      43.80579928      78.48808963
H      91.50714098      42.80235461      76.98197776
H      91.78115129      42.97809917      80.17372549
H      93.98835162      44.14595003      78.32746289
C      90.71723538      46.24165650      78.47486154
H      91.54682523      47.44163271      79.92995081
C      90.81550114      47.55879574      75.81223716
H      89.76292359      46.29645856      74.57068698
H      92.76758843      47.54934712      75.15650213
C      89.50214136      50.15338997      75.49854260
H      87.44800885      50.00032214      75.44940972
H      90.25236270      51.06423806      73.81290672
S      89.90654279      52.23586837      78.23486630
C      93.16443095      52.98042053      77.79456007
H      93.70678240      53.72497270      75.95207691
H      94.28314893      51.25321068      77.92117174
H      93.96945436      54.39771527      79.05311779
C      87.95067605      45.52167078      78.94729313
O      87.10974784      43.49210471      78.30100672
N      86.64109572      47.26399844      80.30222688
H      87.35163281      49.03089255      80.39104402
C      84.10697273      46.87849427      81.36425307
H      82.94668078      45.97709482      79.92239190
C      84.30350427      45.12293852      83.75475687
H      85.90032300      43.84926300      83.48641573
H      82.55928688      44.08547878      84.11947405
C      84.83262764      46.62527094      86.13770175
O      83.08841025      47.09959224      87.68160814
N      86.92266494      47.67784851      86.54966208
H      87.13053483      48.93073705      87.97262600
H      88.31350351      47.64950260      85.24008174
C      82.89754789      49.35970491      81.92361207
O      84.23736385      51.36470454      81.60802777
N      80.44090369      49.60725906      82.26943198
H      79.44879737      47.98020471      82.36202857
C      79.03494731      52.11303616      82.29399842
H      79.45446655      53.00120752      80.48364061
C      76.12098933      51.60847924      82.28454980
H      75.79973586      50.05890365      80.96552082
C      75.03439670      50.86014762      84.84701868
H      76.04540028      49.35592546      85.82778663
H      73.07852997      50.29700917      84.52954465
H      75.01927889      52.49476087      86.09801749
C      74.65456172      54.07268235      81.22441333
H      74.47881717      55.55800722      82.63981834
H      72.72137170      53.46796993      80.85969615
C      75.56918925      55.60525039      78.96619039
H      74.15567397      57.06411909      78.62603964
H      75.85453792      54.11614604      77.56968263
H      77.29072992      56.60302588      79.50287266
C      79.99681800      53.76843641      84.48419121
O      80.56373590      55.99642373      84.07034115
N      80.78483388      52.74987393      86.63658949
H      80.71113455      50.84502980      86.68572237
C      81.62954154      53.88748917      89.03843163
H      80.43334478      55.50131543      89.50519404
C      81.49348124      52.07524163      91.20405798
H      82.13409846      52.98986917      92.93693701
H      82.90321707      50.59558592      90.93382712
C      78.85542331      51.05856887      91.68593819
C      76.95057919      52.76310200      92.46828489
H      77.17545662      54.78321943      92.65158834
C      74.56574458      51.67272992      93.00496716
H      72.99349229      52.85569859      93.53975972
C      74.02150340      49.07246652      92.61001436
H      72.17335107      48.40350340      93.16559390
C      75.72792626      47.62304643      91.41003815
H      75.11754466      45.78245300      90.77509011
C      78.15622457      48.62649111      91.09823332
H      79.64910836      47.41328681      90.42171129
C      84.37909332      54.89282357      88.73418569
O      85.54694418      55.80556137      90.59556611
N      85.50537021      54.69440230      86.52320591
H      84.53783033      53.71930353      85.19472831
C      87.92233016      55.78666411      85.76542566
H      88.51192477      56.97152250      87.34712658
C      90.03504418      53.78922339      85.70117496
H      89.64765028      52.20185329      84.44828641
H      90.11441268      52.49854032      87.30744234
C      92.63719731      54.86825712      84.89615156
H      92.46523222      56.56145190      83.73774932
H      93.72378994      53.43206512      83.89837606
C      93.99402080      55.64115519      87.33956767
O      93.02081175      57.37214448      88.63214047
O      96.08594783      54.59235709      87.90459585
C      87.63131231      57.50820479      83.36169378
O      88.34373913      59.72674347      83.53365888
N      86.38976212      56.63893067      81.27165648
H      85.94756616      54.78888862      81.14315509
C      85.89843328      58.06378431      78.97374930
H      87.51981845      58.00331307      77.70574294
C      83.82540351      56.68806356      77.33346685
H      82.05661968      56.51231902      78.37092660
H      84.48113854      54.76243245      77.01410311
C      83.25848562      57.94473156      74.77477742
H      84.52460225      57.03010402      73.43118202
H      83.65910760      59.96484899      74.82391030
S      79.92311868      57.61969863      73.66739780
C      79.69446179      58.36614052      70.34714867
H      77.72536697      58.23763913      69.75755406
H      80.67145030      57.16616432      68.98843546
H      80.47869821      60.26342574      70.19786029
C      85.11230713      60.93049914      79.40460688
O      86.19512031      62.64259117      78.22541768
N      83.44745825      61.38781291      81.25842841
H      82.75392869      59.94595173      82.29777787
C      82.35708617      63.95406123      81.71574218
H      82.15677518      64.92916001      79.91294326
C      79.98736937      63.60635159      83.13681635
H      79.57918849      65.24096486      84.32167476
H      80.16311392      62.03598902      84.45962477
C      77.78583822      62.97896246      81.19417771
H      78.43968352      61.64670540      79.76743434
C      75.63910912      61.91315681      82.68328204
H      73.95536298      61.58056498      81.54188734
H      75.22525906      62.92982957      84.42560970
H      76.18712976      60.05744558      83.38814996
C      76.83719561      65.46584229      79.88270764
H      75.17045700      65.18994224      78.70729787
H      78.29606432      66.11968759      78.58257595
H      76.54995721      66.98896170      81.23764141
C      84.36964469      65.39403268      83.20484650
O      84.61908856      67.70705770      82.84012932
N      86.19512031      64.17137976      84.61080288
H      86.46913062      62.30999934      84.29143914
C      88.47224052      65.60757176      85.56889412
H      87.85430001      67.38958367      86.39281479
C      89.67032700      63.99941467      87.74963829
H      90.55849837      62.36669113      86.86335664
H      88.22468637      63.81989067      89.20472754
C      91.75658485      65.64725601      88.98173984
H      91.05171693      67.44816519      89.68660775
H      93.22301247      66.23685063      87.65893142
C      92.98868640      64.33200650      91.27775732
H      91.56194304      64.09768044      92.74418493
H      94.36818661      65.58111559      92.16592868
N      94.26425167      61.87914174      90.80154629
H      93.37985975      60.63948129      89.64881323
C      96.60940202      61.26687041      91.32689020
N      97.96622551      62.75597475      92.59300683
H      99.79926004      62.41393430      92.99929798
H      97.35206446      64.46428733      93.19016034
N      97.68843574      59.22218654      90.65225790
H      99.38352025      58.80077757      91.42137651
H      96.50546707      57.78788427      90.22140031
C      90.22401681      66.33511639      83.38814996
O      91.54304578      68.23618106      83.34468625
N      90.50936548      64.64192162      81.43417295
H      89.61174548      62.98463163      81.74408806
C      92.01169790      65.20883951      79.28744385
H      93.86362969      65.85323618      79.92050217
C      92.54271099      62.73518776      77.67739703
H      90.68133058      61.95662053      77.26543670
C      93.93543929      63.46084267      75.21508366
H      92.56727744      64.21295374      73.87148824
H      94.92754560      61.92827463      74.26077186
H      95.33383676      64.89325521      75.69696387
C      93.88819613      60.63759156      79.13059657
H      93.97512354      58.95384542      77.94951762
H      92.46712194      60.09335037      80.51765568
C      96.37696568      61.43883551      80.50442761
H      97.81126796      62.65770898      79.67105829
H      97.27836514      59.90815720      81.55322571
H      95.79681971      62.77865146      81.95762713
C      90.89486965      67.40659120      77.74542718
O      92.30460548      68.76719415      76.57946605
N      88.35885694      67.81666182      77.75109636
H      87.15888073      66.59400890      78.59202457
C      87.10218894      69.97094981      76.40372150
H      88.07728772      70.43960195      74.65194521
C      84.37342414      69.09600654      75.97286390
H      83.10541779      70.64558211      75.49665287
H      83.63643088      68.31365983      77.73030938
C      84.20145905      67.24029529      73.79778891
O      82.25504095      65.87213345      73.81290672
O      85.68867366      67.39525285      71.93262904
C      86.81684027      72.70349407      77.73219910
O      86.76770738      74.72550122      76.49631809
N      86.37464431      72.71861188      80.22663783
H      86.10630317      71.02919655      81.07323522
C      85.19923454      74.87289988      81.51732090
H      84.85530435      76.43948298      80.22663783
C      82.56306634      73.73906408      82.22407854
H      82.84274583      72.52774951      83.86814044
H      81.78071964      72.75640641      80.59324474
C      80.66767084      76.04264045      82.81556288
H      81.36497985      77.34088243      84.25553433
H      79.04250621      75.05431359      83.60357876
C      79.89099333      77.44103793      80.42127964
O      81.31017779      79.07754092      79.48586513
O      77.83119165      77.05553377      79.43106305
C      86.63920599      75.87823427      84.04766444
O      86.09496481      77.83788046      85.17583104
N      88.76514809      74.63668408      84.65426659
H      89.43600094      73.34033184      83.42405476
C      90.39598190      75.28108076      86.67060456
H      91.21045394      77.12545363      86.24163669
H      92.01736708      74.01118467      86.67816346
C      89.34340435      75.01273962      89.34078784
O      87.06439441      74.44771146      89.76597626
N      90.98557651      75.64768767      91.21539635
H      92.78459596      76.10311171      90.76753120
C      90.18811201      75.84988838      93.86857208
H      88.18122266      75.39068488      93.77408578
C      91.41076493      73.78819696      95.44271410
H      93.46678716      73.80898396      95.33499971
H      90.87030321      71.93626518      94.72461811
C      90.67755112      74.12456825      98.29998029
H      91.04037858      75.96705141      99.15224686
C      87.78626986      73.87323466      98.82154475
H      87.55383353      73.85622711     100.86811835
H      86.96423892      72.22728303      97.89368914
H      86.61841900      75.54753217      98.53052691
C      92.03437462      72.36523306     100.11222782
H      91.64509100      72.69593516     102.10777882
H      93.98835162      73.01718863     100.04419769
H      91.79626910      70.41314578      99.50184622
C      90.27881887      78.54841756      94.93059827
O      92.37074590      79.63501018      95.01752568
N      88.23224527      79.55375195      95.94538130
H      86.66944161      78.46904905      96.12679504
C      88.13586923      82.06708794      97.24173355
H      90.00102910      82.83809629      97.65369390
C      87.30627938      84.06641839      95.31232300
H      86.61463955      85.66323712      96.40836425
H      85.70001202      83.07242235      94.49218177
C      89.26970502      84.96781784      93.41881722
H      90.29582641      83.29729977      92.78575892
H      90.64353605      86.05252074      94.50729958
C      88.32862132      86.49093724      91.15303538
H      89.80260784      87.76272306      90.47840308
H      86.68077997      87.57186069      91.75774780
N      87.41399378      84.71837396      89.31622140
H      86.56172721      83.09887851      89.86046257
C      87.26281568      85.00372264      86.86902582
N      87.56895134      87.05407569      85.63314481
H      87.11163757      87.02572980      83.77932330
H      87.88642536      88.76238828      86.42305041
N      86.18000250      83.23115936      85.52543042
H      85.71324010      83.49383132      83.69428561
H      85.81339559      81.51150841      86.26809285
C      86.54849913      82.02362425      99.62089898
O      84.48869745      81.01640011      99.57932501
N      87.72957808      82.62266749     101.69014929
H      89.28104338      83.66957586     101.31031430
C      86.72424368      82.26361949     104.35088394
H      85.20490372      80.88600899     104.15435241
C      88.81428098      81.29607961     106.07809380
H      88.00925757      81.22427001     107.97159956
H      90.24291407      82.77006614     105.90045953
C      89.86307908      78.74305937     105.30330600
H      90.67566140      78.90557582     103.41546942
C      91.83406363      77.80953457     107.17035560
H      93.43655154      79.09076900     106.98327271
H      92.43877605      75.95760277     106.50139250
H      91.11974708      77.83410101     109.10354562
C      87.79760822      76.76640563     105.17669435
H      87.02471016      76.52074122     107.07020011
H      88.62341862      75.00140126     104.50395178
H      86.42377719      77.11600501     103.68570028
C      85.46001677      84.70514587     105.30897518
O      84.46413101      84.77317602     107.35932823
N      85.53749555      86.70636604     103.70459754
H      86.60708065      86.40400983     102.15124251
C      84.54538924      89.28773218     104.06742501
H      83.43234044      89.12710546     105.79274512
C      86.75636902      91.04328794     104.60977646
H      86.18945113      93.00104440     104.87811758
H      88.08673635      91.04517766     103.03563443
C      88.40798982      90.08330697     106.79241034
H      89.29427146      88.33908958     106.14423421
H      87.14376292      89.38788768     108.26450714
C      90.21834763      92.14121891     107.64845637
H      89.31694818      93.83441370     108.39867770
H      91.45422864      92.66089365     106.08376297
C      92.10996367      91.19068659     109.50416760
H      93.23624055      89.72803842     108.59331952
H      91.17265942      90.24393371     111.07453016
N      93.64064198      93.30340061     110.49249446
H      95.23557099      92.64010667     111.30885623
H      92.58428497      94.26905075     111.75672137
H      94.09984548      94.44290557     109.03173603
C      82.91455543      90.10409395     101.82054041
O      83.27549316      89.00427325      99.80987161
N      81.24592710      91.97681273     102.12289662
H      81.33285451      93.26749580     103.52696327
C      79.35998024      92.42278814     100.13868399
H      78.84408495      90.55762827      99.43381609
C      76.94491001      93.95913563     101.13645949
H      77.34553199      95.70902220     102.14935279
C      75.10431658      94.67912136      98.96327422
H      73.55663073      95.75815508      99.79097436
H      74.50716306      93.10119988      97.78408500
H      76.14555578      95.76382426      97.55353840
C      75.61454268      92.32830182     103.06209060
H      76.84286479      91.87098805     104.64946070
H      75.09675767      90.57841525     102.10588909
C      73.16167793      93.26560608     104.30364078
H      72.62688538      92.37932444     106.08187325
H      71.61399208      92.90655808     102.99028100
H      73.38088618      95.28761324     104.63623262
C      80.36909409      93.75504520      97.78975418
O      81.61631345      95.77705235      97.95605011
N      80.15744474      92.52294364      95.57877441
H      79.40722339      90.78061598      95.79420321
C      81.00593185      93.49993214      93.10890211
H      81.91677994      95.34052557      93.24118295
C      83.12242532      91.98437164      91.92593344
H      84.80428174      92.00515863      93.11457130
H      83.71579939      93.05206700      90.26486402
C      82.16433408      89.46725618      91.13980729
C      81.63521072      88.95703008      88.56600006
H      81.60875455      90.38944263      87.11091079
C      80.86420238      86.56841603      87.69294650
H      80.52783110      86.19047077      85.71629277
C      80.60908933      84.64278490      89.52409129
O      79.97603101      82.19558934      88.77953912
H      79.59430630      81.98960917      87.01642447
C      81.35364150      85.08309114      92.11301634
H      81.41600246      83.45981624      93.34700763
C      82.28338684      87.44902848      92.91237057
H      82.93534242      87.68713401      94.83233250
C      78.84975413      93.94779727      91.23807306
O      76.75971683      93.10308962      91.58011353
N      79.39588504      95.27627487      89.18772001
H      81.11931543      96.07562911      89.00252683
C      77.84819918      95.43879134      86.74052443
H      76.16067359      94.31440418      87.09957243
C      77.25482512      98.26393218      86.24541614
H      76.05106946      98.34708013      84.57678780
H      78.96502744      99.36186317      85.89959622
C      75.69391119      99.38831934      88.53954389
H      76.93357165      99.04627887      90.14770097
H      73.91567873      98.41700001      88.90804051
C      75.21958988     102.30038758      88.12380409
H      73.76828008     102.96935070      89.42393580
H      74.27472673     102.47991158      86.30021820
C      77.58930668     103.89720632      88.04254586
H      77.04695523     105.56016546      86.95973268
H      79.11998499     103.05249866      86.95217378
N      78.38488146     104.46412421      90.58422776
H      76.94868946     105.51103258      91.28720594
H      79.86264743     105.67165933      90.63525037
H      78.66078150     102.97690960      91.74451971
C      79.00660141      94.19346169      84.38970491
O      81.49537097      93.99881989      84.23852679
N      77.59875531      93.44135062      82.50375804
H      75.69769064      93.27694444      82.46785325
C      78.84408495      92.61742996      80.15104879
H      80.44657287      93.89488494      79.95640697
C      79.88532415      89.86409871      80.57812692
H      78.25826979      88.66601223      80.98630782
H      81.03049830      89.71670006      82.28643951
C      81.11742571      88.84553623      78.27455056
O      83.36431029      89.17245888      77.79833953
O      79.72469741      87.73626689      76.77032841
C      76.96569700      92.87632246      77.96463543
O      74.80196037      92.42089841      78.37470604
N      77.77072041      93.41678418      75.63460290
H      79.62454192      93.53016776      75.19051721
C      76.18335030      93.58119038      73.47653544
H      77.40033405      94.24448431      71.95341604
C      75.73170571      90.77305707      72.58269490
H      74.54495759      89.67512609      73.86014988
C      74.57519321      90.61809951      69.95975477
H      75.91689889      91.42879210      68.62560801
H      72.91979296      91.78217093      69.57236088
H      74.20858631      88.66412251      69.42874168
O      78.23181363      89.66945691      72.25010307
H      78.71558356      89.10820818      73.90550332
C      74.04795957      95.37265092      73.37826967
O      74.16323287      97.09797104      71.88727561
N      71.91823801      94.99659537      74.85414592
H      71.78406745      93.63977189      76.19018243
C      69.60143355      96.70112852      74.73320345
H      69.69025069      97.99559104      73.13449499
C      67.05975166      95.31406940      74.77099796
H      65.46482266      96.42333874      74.09069650
H      66.65535023      94.60731175      76.66261400
C      67.01439823      93.07663344      72.90394837
H      65.17002535      92.24515387      73.29134226
H      68.37122173      91.63477226      73.47464571
C      67.21092977      93.67756642      70.07502808
O      66.38322964      95.71280166      69.25866631
O      68.32208884      92.19791070      68.56891622
C      69.71859659      98.55683975      76.94607295
O      67.97815865      99.94767832      77.39771754
N      71.69525031      98.48125071      78.52399442
H      73.15033957      97.48725466      77.78700116
C      72.04107022     100.19334274      80.77276874
H      71.32297423     102.05850262      80.27199126
H      74.05362875     100.14987903      81.20740579
C      70.50283301      99.44123167      83.07823484
O      70.26661722     101.01537369      84.77898853
N      69.53718286      97.13198612      83.45806984
H      69.91134867      95.85453113      82.08801825
C      68.19736690      96.13043117      85.65393180
H      67.04463385      97.70835263      86.29832847
C      66.26228716      94.16133634      84.69206112
H      64.95648628      93.60197736      86.18494490
H      67.32620307      92.46625185      84.20451173
C      64.74483693      94.63754737      82.21651964
C      63.75273062      92.56073817      80.84835779
H      64.12878615      90.60109198      81.28299485
C      62.36000232      93.01805193      78.60147320
H      61.73450291      91.30407016      77.69251484
C      61.72505428      95.27060570      77.71708129
O      60.09988965      95.82807496      75.74987620
H      60.32476708      97.61764577      75.54011657
C      62.62456401      97.33796629      79.17217055
H      61.86111458      99.09352202      78.46541292
C      64.06831491      97.03372035      81.37370171
H      64.67491706      98.69667949      82.39604364
C      69.78284728      94.91533714      87.82144788
O      71.50438795      93.38843829      87.24508137
N      69.30096707      95.53894684      90.24785647
H      68.18791827      97.05828679      90.54643323
C      70.58787069      94.38999324      92.40403419
H      72.55507578      94.98903648      92.38324721
C      69.39734311      95.33863584      94.75296400
H      69.85843633      94.47125147      96.56143208
H      67.39234349      94.87943234      94.63769070
C      69.62977945      98.23558628      95.08177638
C      67.52273461      99.66610909      95.49562644
H      65.76528914      98.63998772      95.33877916
C      67.73627368     102.24936496      95.76207786
H      66.07331453     103.42099529      95.90380733
C      70.13433638     103.47579735      95.83955663
O      70.27417612     105.98535389      96.24962724
H      68.65657040     106.70533961      96.65213895
C      72.28673465     101.99236219      95.49940589
H      74.10276163     102.92588699      95.48050863
C      72.10532092      99.42800358      95.06098939
H      73.75694172      98.34708013      94.53753520
C      70.58409124      91.48548389      92.48718215
O      68.68302657      90.29495632      92.05065537
N      72.65145182      90.26283097      93.20905760
H      74.21236576      91.36454140      93.28086720
C      73.21836972      87.64744975      92.86701714
H      71.46470370      86.58353383      93.06732813
C      74.28984454      87.09564966      90.21951058
H      76.10398180      88.04240255      89.98329478
C      74.22559384      84.40278967      89.43905361
H      72.27161684      83.89256357      89.02520354
H      75.15911864      83.11399633      90.74674423
H      75.33108374      84.07208757      87.73452047
O      72.69869498      88.15200667      88.31088700
H      72.84231418      89.94346721      88.55655142
C      74.93802066      86.77250647      95.03831268
O      76.63310517      88.20491901      95.74318059
N      74.93046176      84.32720061      95.83955663
H      73.61521224      83.08187098      95.23295448
C      77.03939632      83.38044774      97.40047056
H      78.74581918      84.51428352      97.20582875
C      76.32319005      83.84532040     100.18214770
H      75.38210635      85.67646520     100.23883949
C      74.41834593      81.94614547     101.29330677
H      73.94780407      82.58109350     103.19437145
H      75.33675291      80.10933148     101.41235953
H      72.61932648      82.11244138     100.30120046
C      78.60786916      84.03807249     101.85644521
H      80.18768036      84.90545687     100.86244917
H      79.30517817      82.18236126     102.41769392
C      78.38299173      85.71048028     104.23939010
H      78.94990963      87.68524428     104.08632226
H      79.59052685      84.97915620     105.73983279
H      76.48948597      85.31363776     104.94614773
C      77.73481561      80.65168293      96.97717187
O      76.34208731      79.27974164      95.62601756
N      79.90611114      79.78807801      97.85022543
H      81.16655859      80.97671587      98.65335912
C      80.63554550      77.12356392      97.79353364
H      78.84030550      76.13523704      98.01085217
H      82.07929640      76.48861586      99.11823178
C      81.85630869      76.07665554      95.29909491
O      83.41155345      77.40324340      94.14447214
N      81.04939556      73.86567575      94.43926943
H      79.77005085      73.15324892      95.66381209
C      80.83396676      73.36489828      91.79932177
H      82.24937177      74.33243814      90.65414764
C      81.19490449      70.50952181      91.42893541
H      79.70957960      69.49284906      92.43615954
C      81.22514011      70.10889984      88.55655142
H      82.70668554      71.25218426      87.69483623
H      79.51682752      70.61345676      87.52287114
H      81.48403261      68.12279749      88.07278148
C      83.79705762      69.75741075      92.41159310
H      83.89910284      69.72339566      94.46950505
H      85.40332498      70.91770270      91.84656494
C      84.56806595      67.08911719      91.87113138
H      84.90443724      66.81132743      89.85857285
H      83.05250545      65.81355192      92.43804927
H      86.31606279      66.74896646      92.90481166
C      78.17323211      73.98850796      90.89792232
O      76.43657363      72.52774951      91.12279976
N      77.86898617      76.29208433      89.73385091
H      79.37320832      77.46560437      89.81888860
C      75.86965574      76.83632551      88.04254586
H      75.96603178      75.40769241      86.56289016
H      76.42334554      78.59377099      87.12413887
C      73.19191355      77.28041119      89.09134396
O      71.35887903      77.39190505      87.60034991
N      72.84987309      77.54686261      91.53853954
H      74.39377948      77.85110855      92.61757327
C      70.32897819      77.94181540      92.63269109
H      68.96837524      76.63601453      91.80688068
C      70.41212614      77.05742349      95.36523533
H      71.42123999      78.24228188      96.71072046
H      71.24927490      75.17903553      95.22917503
C      67.85154699      76.72861112      96.53875537
N      66.76117491      74.34188678      97.06976846
H      67.35832842      72.60522830      96.54631428
C      64.47271634      74.90124576      98.00140353
H      63.27085041      73.37623663      98.63068239
N      64.05130737      77.35600025      98.09211039
H      62.43181192      78.20637708      98.63446185
C      66.21693373      78.52952029      97.34377878
H      66.60810708      80.52696101      97.45716235
C      69.27451090      80.68191855      92.46261571
O      70.25716859      82.43558458      93.68904808
N      67.32998253      80.98238505      90.92059905
H      66.83298451      79.38367659      90.00597150
C      66.10355015      83.39367582      90.30076881
H      67.51328598      84.88844934      90.17226743
C      64.80908763      83.24816689      87.74585883
H      63.70359773      81.51339814      87.65893142
H      66.19047756      82.96281821      86.24730587
C      63.36911617      85.69914191      87.12602861
H      61.87623239      86.09598444      88.48663154
C      65.06609040      87.93090869      86.57233879
H      63.85099638      89.58063977      86.76509087
H      66.04685836      87.84965046      84.76387071
H      66.46826733      88.42034781      87.99719244
C      62.12189681      85.20214390      84.52387547
H      61.07876788      86.82541880      83.80388974
H      60.98050211      83.51839775      84.84701868
H      63.68470047      84.64278490      83.30311228
C      64.46137798      84.17035334      92.50229996
O      62.63401264      82.77762503      92.91992948
N      64.88089722      86.30196462      93.58700287
H      66.16213167      87.60209631      93.03331305
C      63.35399836      87.27706339      95.73751142
H      62.48850371      85.62922205      96.61623414
C      65.00561916      88.78128554      97.59322265
H      63.88879091      89.86598844      98.94059751
H      66.23016181      89.99071038      96.45560742
C      66.74983655      86.90100786      98.99162012
H      67.28084964      85.31174802      97.78975418
C      69.05908210      88.19924984     100.07821275
H      68.35043474      89.65811855     101.34999856
H      70.21181515      88.88522049      98.51540909
H      70.27228640      86.80652154     100.98906084
C      65.24750413      85.74260562     101.24984306
H      66.50228240      84.43302528     102.22494185
H      63.68847992      84.65412326     100.44859911
H      64.55964375      87.18635653     102.54997477
C      60.95971513      88.69246840      94.87768594
O      58.83755248      88.08964570      95.70160662
N      61.24506380      90.84864613      93.70227617
H      62.90424350      91.41556402      92.94071646
C      59.31565323      92.59853269      93.17693225
H      57.56954612      91.61209555      92.71016986
C      58.53897572      94.17267471      95.51641344