 %block lattice_cart
   139.252   0.000   0.000
   0.000 142.425   0.000
   0.000   0.000   162.84
 %endblock lattice_cart

 %block positions_abs
N      92.04287839      42.26472748      83.68483699
H      93.92126635      42.44047202      83.98152401
H      91.82178041      40.65846011      82.67383341
H      91.31533376      41.77150891      85.37803177
C      90.93549877      44.53428878      82.41494091
H      91.14147894      46.11598970      83.71507260
C      92.36791132      44.76294566      79.82034667
H      91.72729410      43.07542006      78.83390955
H      94.35212395      44.38311067      80.23230702
C      91.63658723      46.89833639      78.04400394
H      89.81300134      46.34653631      77.26165725
H      92.96317511      47.00605079      76.46986193
S      91.94083317      49.81796355      79.78633160
C      89.55410884      51.47714325      78.00054023
H      89.19128139      53.31206750      78.85847598
H      87.80800172      50.39433007      77.86825939
H      90.40070623      51.83997070      76.15805708
C      88.20295452      44.11665926      81.98975248
O      87.31856261      42.37244188      80.76332010
N      86.68928375      45.62655059      83.24453075
H      87.34123933      47.04762477      84.33490284
C      83.88870935      45.47348275      83.35602460
H      82.97408182      44.38500040      81.86503054
C      83.11581129      44.33775724      85.97518528
H      84.10035870      42.52739943      86.02431817
H      81.07490687      44.09020309      85.87502979
C      84.21374228      45.81174376      88.18238561
O      85.09813419      47.89611189      88.12191437
N      84.19673474      44.71381278      90.41226266
H      84.98097116      45.70024991      91.84467520
H      83.59013259      42.92802141      90.69950106
C      82.72463794      48.24004208      83.09524237
O      84.07012308      50.18457045      83.01587388
N      80.21319167      48.48003732      83.17839033
H      79.17762165      46.87754941      83.14059581
C      78.69574144      50.87432056      83.17272116
H      79.32124085      51.67745424      81.38504006
C      75.78745265      50.63432532      83.00453551
H      75.54556768      49.36253951      81.40204761
C      75.18085050      49.13388262      85.41771601
H      76.28445067      47.39911387      85.47818725
H      73.21553514      48.54995719      85.22874339
H      75.48131699      50.35464582      87.05043955
C      74.24732570      53.12498460      82.52265531
H      74.51188739      54.40621904      84.11380486
H      72.25366444      52.59964068      82.47541215
C      74.68007303      54.34007862      79.95262751
H      73.18907897      55.59863634      79.29500276
H      74.80101551      52.87365100      78.51265606
H      76.43373905      55.41722261      80.05467273
C      79.45352170      52.80940030      85.15693379
O      78.97920039      55.02226981      84.74308372
N      80.72530750      52.07240704      87.14681559
H      81.36025554      50.28283622      87.33956768
C      81.65316312      53.88843403      89.08000562
H      80.19618414      55.33974383      89.21417618
C      82.27866253      52.62609685      91.58956216
H      82.91927975      54.10575255      92.87268632
H      83.77910523      51.22580965      91.41759705
C      80.07524165      51.52060696      92.85945824
C      78.17228725      53.10608733      93.68904808
H      78.23464822      55.13187394      93.45094257
C      75.87626978      51.98358990      94.83044279
H      74.31157640      53.14766131      95.43515521
C      75.64005400      49.31907580      94.96272362
H      73.98276402      48.31185168      95.60334084
C      77.73953993      47.89611189      94.54698383
H      77.91906393      45.88166364      94.81532498
C      79.96374780      48.95435862      93.49251656
H      81.52655146      47.82997147      92.81599453
C      84.11358678      55.09029996      88.11813491
O      84.15894021      57.35986126      87.65137251
N      85.92205486      53.48214287      87.39436973
H      85.70095689      51.59808574      87.60790882
C      88.21051343      54.64243483      86.19061407
H      89.08923617      55.84996994      87.61168826
C      90.07567330      52.56940506      85.60479893
H      91.75186054      53.54450384      84.90937963
H      89.31222387      51.36186995      84.12325350
C      90.95628576      50.76471643      87.74396910
H      92.67593671      49.88599370      87.03343201
H      89.61080063      49.22836894      88.00475134
C      91.44572488      52.09508376      90.33100443
O      89.68638968      52.30673310      91.81066014
O      93.67182247      52.81317975      90.89225315
C      87.75886884      56.06728847      83.73396987
O      88.75097515      58.11386206      83.31634035
N      85.80111238      55.31895685      82.28266006
H      84.72963756      54.04906076      83.22752321
C      84.87325676      56.66633171      80.03388576
H      86.40771453      56.58507348      78.66194444
C      82.70952013      55.33974383      78.79611501
H      81.02199453      55.95768434      79.80522887
H      83.01754552      53.30261887      78.79233557
C      82.38070775      56.16177478      75.98420226
H      84.00398266      55.53249592      74.88627127
H      82.49598106      58.21590728      76.05223241
S      79.34202784      55.05439516      74.50265684
C      80.08846974      55.51359866      71.09925975
H      81.82701794      54.54416906      70.56257747
H      80.20752249      57.50348046      70.58903363
H      78.47653319      54.57818413      70.22242673
C      84.11925596      59.49903145      80.56678858
O      84.65593823      61.07506319      78.89060133
N      82.98353045      60.11508223      82.72107657
H      82.52999613      58.79038408      84.01931855
C      82.41283310      62.67188193      83.44106229
H      82.09157963      63.78304100      81.73652915
C      79.78611353      62.76636825      84.86024675
H      79.21919563      64.68444045      85.34779614
H      79.99209369      61.63253246      86.56477989
C      77.60725909      61.54371532      83.30122255
H      78.35937016      60.00925755      82.15037922
C      75.54367795      60.56105764      84.92449744
H      74.97487033      61.94055785      86.34368191
H      76.38082671      58.88298067      85.77676401
H      74.02811745      59.95256576      83.66782944
C      76.35814999      63.42021355      81.52487981
H      77.56568511      63.86429923      79.91672271
H      75.80257046      65.11340833      82.55856010
H      74.61204288      62.74180180      80.66694406
C      84.53310602      63.94933692      85.03032212
O      85.19073078      66.06583039      84.62025152
N      85.90126787      62.37708462      86.44005795
H      85.05467049      60.69711793      86.74997307
C      88.25208741      63.25391763      87.60979854
H      87.75508939      64.93766378      88.69072199
C      89.02687520      61.02215086      89.22362481
H      89.61835953      59.63131229      87.82522733
H      87.41682838      60.35885692      90.32344553
C      91.08667688      61.72134959      91.35523610
H      90.15504181      62.64164631      92.94449593
H      92.38113940      63.07250391      90.49541061
C      92.63247300      59.39131705      92.08656017
H      94.08378281      60.11130278      93.35834598
H      93.68316083      58.65432379      90.47651336
N      91.13958921      57.42789141      93.26008021
H      90.88447616      55.73658636      92.41159311
C      90.18716715      57.45434758      95.58633331
N      90.39503705      59.29116156      97.22283630
H      89.82433970      58.80361217      98.98028177
H      91.77264753      60.59696244      97.02252530
N      89.03632383      55.38698699      96.28175258
H      88.31066892      55.45312741      98.04486723
H      89.02687520      54.09441419      94.87579622
C      90.26842538      63.98524172      85.77865374
O      91.50619612      65.95055708      86.19439353
N      90.63125284      62.87597237      83.59979931
H      89.67694105      61.23568993      83.39759858
C      92.37735995      63.63564235      81.58346133
H      94.14614378      64.21767805      82.46029433
C      92.90837304      61.26970501      80.01876793
H      91.12258168      60.54216037      79.29878221
C      94.34078559      61.83284345      77.54133674
H      96.30988041      62.20889898      78.01376833
H      93.63024850      63.55627384      76.66072428
H      94.50519178      60.27003979      76.20907969
C      94.40503628      59.21935196      81.41905514
H      93.80221359      59.06439440      83.38248078
H      96.39113864      59.75792395      81.51921064
C      94.29543216      56.57373512      80.35513922
H      95.16092681      55.28116232      81.70629353
H      95.33289190      56.48869743      78.57879648
H      92.29799144      56.09752409      80.17183578
C      91.10179469      65.86362967      79.97152478
O      92.49830243      67.56627308      79.25153905
N      88.69428337      65.82961460      79.65971995
H      87.57934484      64.65231511      80.66505434
C      87.41493865      67.72501009      78.00242997
H      88.56767170      67.55682445      76.30545574
C      84.62192316      67.14297439      77.15583258
H      83.43895449      68.83049998      77.16528120
H      83.77532577      65.90709338      78.56745814
C      84.30822859      66.08472765      74.51210546
O      86.02598981      66.47401127      72.81324151
O      82.43173036      64.69388908      74.21541844
C      87.57556539      70.51991531      78.66761363
O      88.39759633      72.19232309      77.16528120
N      86.53432619      71.11517910      80.95796191
H      85.81623019      69.77347341      82.10691551
C      86.55700291      73.46221918      82.17872511
H      87.50564551      74.71132827      80.84646807
C      83.73753125      74.21433025      82.07856963
H      82.98353045      73.24301092      83.73208014
H      82.91927975      73.29403353      80.42505909
C      83.18195171      76.99411766      82.32234432
H      83.38037297      77.77268490      84.21773981
H      81.24309251      77.51379239      81.85558191
C      84.90160266      78.49456035      80.41750020
O      84.20996282      78.39251513      78.18384368
O      86.77810088      79.67374957      81.24709004
C      87.82878871      73.58316166      84.80355496
O      89.17616358      75.35383522      85.22685365
N      87.62847773      71.42131476      86.24730586
H      86.54944400      69.98890221      85.58968111
C      89.11569233      71.10006129      88.59812540
H      91.13580976      71.45344011      88.40726305
H      88.91916080      69.18576853      89.33700838
C      88.12169629      72.49656903      90.89792232
O      86.68172484      74.35794945      90.80343601
N      89.12892042      71.75579632      93.05410004
H      90.32133772      70.26669198      92.98984935
C      88.32578673      72.87073484      95.48050864
H      86.28299259      72.74412318      95.70916551
C      89.57678555      71.29092364      97.57810484
H      89.22907591      72.35294983      99.30720442
H      91.61768997      71.26257775      97.30409453
C      88.45617785      68.65286571      97.55164867
H      89.00419848      67.87618820      95.72617306
C      89.50875541      66.99746546      99.63412707
H      91.56855709      66.93699422      99.66625242
H      88.87947654      65.04726790      99.41113936
H      88.77365187      67.49635321     101.49172803
C      85.62536783      68.47901089      97.99951380
H      85.16049516      69.50324255      99.72483393
H      85.24175339      66.47212154      98.25462685
H      84.52554712      69.25946786      96.44048960
C      89.12514096      75.74311884      95.82443882
O      91.28320841      76.49711964      95.24807229
N      87.25242219      77.25867934      96.68237457
H      85.46096164      76.60105458      96.67292593
C      87.56044758      79.90996536      97.66314253
H      89.58623419      80.04413592      98.01274190
C      86.74786526      81.90929580      95.80176210
H      86.36992000      83.64973373      96.83355267
H      84.85246977      81.26489912      95.31421271
C      88.44294977      82.36283011      93.38291243
H      88.77932105      80.52412641      92.51552804
H      90.31566854      83.03935213      93.91014606
C      87.09746463      84.23932834      91.54231899
H      86.95573516      85.85882379      92.80654589
H      85.21151777      83.50989398      91.15492510
N      88.48830320      84.50200030      89.13480767
H      90.00386370      85.66418198      89.08189533
C      87.88925996      83.54390906      86.85957719
N      86.21496244      81.83748620      86.37202780
H      86.01654118      81.18931007      84.58812617
H      85.39482122      80.97955045      87.86680132
N      89.17994303      84.03334817      84.84890839
H      89.07978753      82.83148224      83.37114242
H      90.62369393      85.28623672      84.86969538
C      86.33212547      80.14807087     100.24261895
O      84.16082994      79.62083723     100.68670463
N      88.00075381      80.92285866     101.86211439
H      89.66749242      81.53324026     101.15724647
C      87.46785099      81.29891420     104.54741548
H      85.77276649      80.26334418     105.09354638
C      89.96606917      80.29735925     105.79274513
H      89.71284585      80.73766548     107.78829611
H      91.45706324      81.50300464     105.03685459
C      90.59723776      77.45521088     105.16724572
H      91.23218580      77.11883959     103.23594543
C      92.64570109      76.51034772     107.00594942
H      92.82333536      74.46944330     106.79241035
H      92.15248252      76.64262856     109.00150041
H      94.35401367      77.60260953     106.63934252
C      88.41460387      75.71666267     105.90045953
H      88.10846821      75.81492844     107.93569476
H      88.89270463      73.82126718     105.25039367
H      86.73652691      76.22310932     104.81953608
C      86.99163996      83.89539815     105.42046903
O      86.60235634      84.28279204     107.62766938
N      86.88014611      85.85315461     103.77640715
H      87.90248804      85.56591621     102.19092677
C      85.89181924      88.39483650     104.26773599
H      85.06600884      88.51955844     106.15179313
C      88.03854833      90.30912926     104.24316955
H      87.41304893      92.18562749     104.80441827
H      89.00986766      90.56424231     102.44603982
C      90.21551305      89.59103326     106.04974791
H      91.27564951      87.99799398     105.29007792
H      89.68638968      88.85781945     107.89978996
C      91.89170029      91.95319115     106.51840003
H      90.64070147      93.44607494     107.18925286
H      92.71562096      92.64672071     104.76284428
C      93.91748689      91.65083494     108.52906882
H      93.02742580      91.83980757     110.37533143
H      95.34045081      93.12104201     108.28151468
N      95.19494188      89.18663183     108.37411127
H      96.66703868      89.27355924     109.58920528
H      95.88658171      88.75199478     106.65068086
H      94.07055473      87.72965284     108.88244764
C      83.83201756      88.88238589     102.33076651
O      83.82823811      87.68240968     100.43537102
N      82.18606594      90.84959098     102.73705767
H      82.41283310      92.16673022     104.09766061
C      80.12059508      91.20674926     100.98150193
H      79.33446894      89.38505309     100.42214294
C      78.12693382      92.96608445     102.14368361
H      78.99053875      94.73108883     102.76162411
C      75.88571842      93.69173936     100.18781688
H      75.52856014      91.93429389      99.17303384
H      76.61893223      95.02021696      98.79508859
H      74.13394212      94.39471755     101.01173755
C      76.96853159      91.98720622     104.62300454
H      78.47653319      90.95163620     105.57164714
H      75.47186835      90.60959574     104.29608189
C      76.20508216      93.99598529     106.36344246
H      74.91439909      95.26966083     105.38456423
H      77.78489336      95.09769573     107.09476656
H      75.15817379      93.24765367     107.97159956
C      81.15805483      92.37082066      98.47194538
O      82.68684342      94.06779489      98.51540909
N      80.06957247      91.52233355      96.34978273
H      78.69385172      90.20141486      96.42159233
C      80.73097668      92.43507136      93.85912346
H      81.80812068      94.17361957      94.10667760
C      82.68495369      90.56613204      92.74796438
H      83.93973196      90.15795115      94.32777559
H      84.07390253      91.33525064      91.43838404
C      81.78355424      88.11326728      91.82388822
C      81.25821032      87.66162269      89.21795564
H      81.61347887      89.11860168      87.83089652
C      80.21886085      85.40339975      88.55844114
H      79.69351694      85.05946956      86.61769222
C      79.67461967      83.44375356      90.26864346
O      78.53889416      81.35182653      89.42771526
H      78.12693382      81.49355601      87.66838006
C      80.36436978      83.60060085      92.82733289
H      80.22264030      81.97165676      94.04809608
C      81.31679184      86.05535533      93.55109806
H      81.63048641      86.35393208      95.54664905
C      78.50298936      92.93206938      92.19049513
O      76.36948835      92.10625898      92.78953836
N      79.05856890      94.37015110      90.15903933
H      80.85002944      94.94651763      89.84723450
C      77.10270216      94.93139982      88.21640068
H      75.31124162      94.57235182      89.17071247
C      77.13671724      97.80756327      87.81199925
H      78.75054351      98.33479691      86.64036895
H      77.06112818      98.75053670      89.63936459
C      74.74810318      98.72408053      86.24541615
H      73.12671800      98.11369893      87.35846494
H      74.79156688      97.69795914      84.46151450
C      74.68385248     101.59268507      85.72385167
H      73.52922970     101.76653989      84.02498772
H      76.50932810     102.45062082      85.29866326
C      73.57269341     103.23485724      87.91404447
H      74.37204764     105.13025273      87.99908215
H      74.02622772     102.25597901      89.66582077
N      70.79101628     103.37658671      87.74963829
H      70.19764221     104.54443757      86.35879972
H      70.11449426     104.09279298      89.38236183
H      69.82725586     101.79866524      87.27720670
C      77.59403100      93.19663106      86.01109007
O      79.68028885      92.98309199      84.93394607
N      75.46430945      92.35570285      84.87158511
H      73.84292427      92.76010428      85.79566127
C      75.36604368      90.54534505      82.86658550
H      77.01010557      89.31513322      83.04988894
C      72.95475290      88.86159890      83.23508212
H      71.15762318      89.81213124      83.55255615
H      73.10971046      87.95075082      85.07945500
C      72.59192545      86.78478968      81.14693454
O      74.24354625      85.03112366      80.93906466
O      70.91384849      86.95297533      79.49342402
C      75.31880052      91.95508088      80.26632208
O      75.18274023      94.40038672      80.20207139
N      75.19407859      90.57558067      78.18195396
H      75.06557720      88.67640572      78.02321696
C      75.10337172      91.56390753      75.63082345
H      76.15216983      93.33458108      75.72719948
C      76.34303218      89.78378534      73.72219986
H      76.38649589      90.70975124      71.87971670
C      79.03400245      88.96742357      74.58391506
H      79.83524641      87.41784800      73.49165325
H      79.21730591      88.30979882      76.52655372
H      80.31712662      90.56046286      74.36092736
O      74.93518608      87.50288568      73.49732244
H      75.49265534      86.63928076      72.00254892
C      72.45208571      92.47286589      74.73887262
O      72.15539867      93.73331334      72.68096066
N      70.54913131      91.87949182      76.26010231
H      70.99510672      90.46219709      77.45818879
C      68.04524394      93.04356323      76.11459337
H      67.66729868      93.77299759      74.22297733
C      66.10638475      91.18974172      76.89316061
H      65.76434428      91.34280955      78.91894723
H      66.91707733      89.32269212      76.58702496
C      63.44187064      91.41272942      75.43240217
H      62.68975957      93.32135300      75.65350015
H      61.95087658      90.12582580      76.03333514
C      63.78580083      90.95919511      72.60159216
O      63.62328437      92.74498647      71.07091385
O      63.62895355      88.85215027      71.63027283
C      68.01122887      95.55123005      77.60936689
O      66.12906146      96.93073026      77.38826891
N      69.98788259      96.42806306      78.90382941
H      71.63383421      95.46808209      78.78099721
C      70.06158192      98.45951884      80.85780643
H      69.10538041     100.15082390      80.17183578
H      72.00233084      98.96974495      81.31134073
C      68.85971598      97.71874613      83.44673148
O      68.59137485      99.46107379      85.00386596
N      67.91107338      95.35847797      83.90215552
H      67.84493295      94.03566955      82.52643475
C      66.97376912      94.63471279      86.39848398
H      66.07236967      96.37137127      87.03721146
C      65.06136610      92.49365287      86.21140106
H      64.19398172      92.52955767      88.07845066
H      66.11583338      90.72675877      86.26809285
C      62.86928357      92.53711658      84.25175488
C      61.89229507      90.30723953      83.42027530
H      62.52913284      88.44774884      83.96829593
C      59.74934543      90.25621692      81.88203809
H      59.09738985      88.47987419      81.11858865
C      58.40575002      92.51443986      81.30945102
O      56.15886543      92.31412888      80.33435224
H      55.32171668      93.86937363      79.90916381
C      59.34305427      94.71975047      82.23352718
H      58.45866236      96.52443910      81.87636890
C      61.68064572      94.80856761      83.64704246
H      62.44787460      96.61325624      84.21773981
C      69.01845299      93.99598529      88.26931303
O      71.18407935      93.58969414      87.53609922
N      68.43263784      93.78244622      90.68249353
H      66.60905195      94.16984011      91.09634358
C      70.37527649      93.19096188      92.56655065
H      72.24988499      93.90527843      92.09600880
C      70.01433876      94.83691350      94.92114964
H      70.97809918      93.96574967      96.51985810
H      68.04902340      94.92006146      95.52775180
C      70.97998891      97.48253034      94.90603183
C      69.28301468      99.51020667      94.90225238
H      67.29691232      99.05100318      94.86445786
C      70.16740659     101.93850499      94.72650784
H      69.00144546     103.60902305      94.58477837
C      72.80357480     102.40526739      94.59800645
O      73.57080368     104.86569105      94.37501873
H      72.13839114     105.97307067      94.27108380
C      74.55724082     100.31145063      94.79075853
H      76.57546852     100.61947602      94.75107428
C      73.61048794      97.91527767      94.71516948
H      74.90684019      96.34302537      94.57344001
C      70.23165729      90.36204159      93.27519803
O      68.23988575      89.12616059      93.39425078
N      72.36704802      89.28111814      93.91203580
H      73.90339551      90.26944500      93.36023571
C      72.89239194      86.56180198      94.12557487
H      71.20675607      85.58670320      94.80209688
C      73.55001669      85.54890867      91.43838404
H      74.46464423      83.73288169      91.76530671
C      71.21998415      85.24277301      89.68093857
H      70.39417375      86.98888013      88.96095285
H      69.74032845      84.57380990      90.95083467
H      71.63950339      83.70831525      88.37324796
O      75.19974776      87.12871987      90.26108455
H      76.81735349      87.22887537      91.07555659
C      75.01455459      86.01189162      96.13435394
O      76.36570890      87.67485078      96.91292118
N      75.28478545      83.61760838      96.80709651
H      73.93741059      82.41763217      96.18537654
C      77.17262204      82.47810342      98.45304813
H      79.08691479      83.21320695      98.24139877
C      76.48854111      82.99777815     101.17992319
H      75.78367320      84.92718872     101.32921157
C      74.17929556      81.51812245     102.24005966
H      73.40450777      82.48377259     103.88790099
H      74.82180250      79.67185984     102.89012550
H      72.58436655      81.16285390     100.98528139
C      79.00187711      82.78612880     102.73327822
H      80.59869584      83.35493643     101.56164791
H      79.19651892      80.88128468     103.48727902
C      79.13037850      84.89695310     104.71371139
H      77.53733921      84.84026131     106.01951228
H      79.13793740      86.75644379     103.82742975
H      80.76499176      84.58514825     105.92691569
C      77.35403576      79.59249134      97.89557887
O      75.91973349      78.67786380      96.40836426
N      79.08313534      78.30936717      99.22405646
H      80.10547727      79.21643580     100.55631350
C      79.60281007      75.60894827      98.48517348
H      78.10425711      74.41653096      99.24106399
H      81.14671647      75.06659682      99.73617229
C      80.03177795      75.20454684      95.62790728
O      81.56812544      76.70687926      94.57721946
N      78.82046338      73.32048970      94.47517423
H      77.68284814      72.17342583      95.48995726
C      78.91494970      73.19765749      91.68782792
H      80.37003896      74.55637071      91.16248401
C      79.54989774      70.53881257      90.67493462
H      77.85859269      69.36151308      90.74674422
C      80.40216430      70.85250714      87.82522733
H      78.82991201      71.57060314      86.70272991
H      80.93884658      68.99868563      87.10902107
H      82.02165975      72.12807240      87.78932253
C      81.70229601      69.46733775      92.36812940
H      80.81223491      68.88530205      94.13124404
H      83.02699415      70.95266263      92.90670139
C      83.19706952      67.34895455      91.14925593
H      84.25342653      66.40787085      92.64402943
H      84.42917108      68.14641906      89.70550501
H      81.93473234      65.80504816      90.62958119
C      76.29389930      73.96110692      90.58044831
O      74.37960654      72.59105535      90.55966131
N      76.21642052      76.34216208      89.57133445
H      77.69985568      77.54402801      89.52976047
C      73.88260852      77.12072932      88.34679181
H      73.60292903      76.04169559      86.61580249
H      74.26433324      79.08226523      87.84601432
C      71.40895678      77.37017319      90.01542013
O      69.39261880      78.03157740      89.16504330
N      71.56580406      77.03380191      92.48907188
H      73.30435227      77.08671424      93.27330829
C      69.24710988      77.16986220      94.00841184
H      67.84115350      75.93398119      93.14102745
C      69.71576200      76.10027711      96.68804374
H      70.96676082      77.44198279      97.62534799
H      70.44141691      74.18031518      96.83733212
C      67.39895754      75.83760515      98.15069192
N      65.64529153      73.83071581      97.84266652
H      66.11205393      72.17720528      97.00740749
C      63.53446723      74.33149328      99.16925439
H      61.90930261      73.14474516      99.50940514
N      63.95398648      76.51223745     100.38056897
H      62.59716298      77.17175193     101.54841982
C      66.26890121      77.52324102      99.74562092
H      67.13439586      79.22777416     100.46182720
C      68.25500356      79.84571466      94.25785570
O      69.64017295      81.46521011      95.36145587
N      65.91741212      80.28791062      93.51897271
H      65.15207296      78.98022001      92.36057049
C      64.81003250      82.82581306      93.46417066
H      66.19142243      84.17318792      92.74418493
C      62.63873696      82.93541718      91.51208338
H      61.23656004      81.56725533      92.14136224
H      63.72343987      82.28157188      89.88880847
C      61.18175797      85.36560522      90.75241339
H      60.57137638      86.08937040      92.58166847
C      62.79180479      87.40650964      89.49196595
H      63.35494323      86.78101023      87.61168826
H      64.49633793      87.58225419      90.63714010
H      61.65985873      89.12805031      89.47684814
C      58.88574050      84.96687297      89.04599053
H      57.72733827      83.35304670      89.58834198
H      59.34872345      84.93285790      87.03910120
H      57.54403482      86.50133074      89.33322893
C      64.14484883      83.83303718      96.11923612
O      63.15463225      82.48944177      97.82376927
N      65.00089485      86.10826766      96.80709651
H      65.97410390      87.00966711      95.43704493
C      64.24311460      87.54634939      99.04831191
H      63.55147477      86.11204712     100.35789224
C      66.68275127      88.64805983     100.14246345
H      66.06859022      89.80835178     101.72983354
H      67.54446647      89.84992576      98.71005091
C      68.41752003      86.86415819     101.21204854
H      68.92774613      85.48654771      99.76829764
C      70.75511148      88.26066593     102.02841030
H      71.48076638      89.24521334     100.36923060
H      72.12138360      86.75077461     102.34966378
H      70.80991354      89.40395035     103.73861263
C      67.16085203      85.53190114     103.45326395
H      65.79269018      84.14862148     102.77296247
H      66.28968820      87.02856438     104.57198192
H      68.74444268      84.82325377     104.56253330
C      62.13229031      89.50410585      98.64013102
O      60.22744619      89.33780993      99.94593191
N      62.37417528      91.37493490      97.03197393
H      63.84060290      91.12360130      95.83955664
C      60.35972703      93.12860092      96.33088548
H      58.47566989      92.36326176      96.65402868
C      60.58460446      95.48131018      98.02974943