 %block lattice_cart
   139.252   0.000   0.000
   0.000 142.425   0.000
   0.000   0.000   162.84
 %endblock lattice_cart

 %block positions_abs
N      95.38863882      45.16451251      82.33084808
H      97.10451033      45.96953591      82.54816661
H      95.78359162      43.37305197      81.80739390
H      94.33417155      45.09648236      83.92010792
C      93.83339408      46.37582708      80.09908131
H      93.98079272      48.41673148      80.33907656
C      94.99746548      45.57458311      77.46102337
H      94.47779074      43.61871638      77.07929866
H      97.03836989      45.75599684      77.24937404
C      93.71245158      47.22998336      75.49381829
H      91.73390814      46.65550656      75.58641488
H      94.50991609      46.78778741      73.64755567
S      94.18110372      50.55401194      76.25915744
C      91.86051980      51.84091557      74.08597219
H      91.37297041      53.78544394      74.56029349
H      90.23346545      50.58046812      74.00093449
H      92.84506722      51.93729162      72.27939382
C      91.10651900      45.67851807      80.23514160
O      90.37897437      43.49966362      80.18033954
N      89.45489821      47.54934712      80.89276636
H      90.19378119      49.29167478      80.65088139
C      86.71101559      47.38683065      81.09496707
H      85.88898466      46.46653394      79.44523600
C      86.04772166      46.08480921      83.64798733
H      86.74881013      44.14972948      83.59318527
H      84.01248642      46.29645856      83.87664421
C      87.09840949      47.26966762      85.92132808
O      87.80894659      49.45230150      85.96101233
N      87.05116634      45.90339549      87.89798181
H      87.75981370      46.63849903      89.51180808
H      86.15165662      44.22720825      88.03404210
C      85.70001203      50.19496396      80.98536295
O      87.17210882      51.94296078      80.65088139
N      83.23580890      50.59369621      81.29149861
H      82.23614370      48.97609048      81.46535343
C      82.04906078      53.08057603      81.34441096
H      82.11520121      53.60025076      79.35263941
C      79.14644116      52.83491161      81.83385006
H      78.41700682      51.61792786      80.33907656
C      78.43212463      51.56123607      84.38120113
H      79.59430631      49.88504884      84.66843954
H      76.42712500      51.09447368      84.33584770
H      78.53039039      52.95963355      85.88920273
C      77.86520673      55.62414764      81.73180484
H      78.53039039      56.72018891      83.34374139
H      75.83564066      55.35391678      81.95101309
C      78.02016428      56.96585332      79.17500515
H      76.58964146      58.43417068      78.96902497
H      77.62143203      55.61280928      77.67456246
H      79.83808099      57.78410483      78.65910987
C      83.32273632      54.99675851      83.07162080
O      83.55139320      57.21718692      82.42344467
N      84.18067206      54.23897826      85.30527731
H      84.19767960      52.36625949      85.66243558
C      85.46190651      55.61280928      87.22712897
H      84.12398028      57.15482597      87.49358037
C      85.46379623      54.28622141      89.79904647
H      86.26126074      55.53533051      91.23334875
H      86.69589778      52.64593897      89.62708138
C      82.86164310      53.37159388      90.62485688
C      81.00404213      55.14037771      91.34862205
H      81.45568672      57.13025952      91.30893780
C      78.58708218      54.32590568      92.09695367
H      77.16033881      55.66194217      92.68465855
C      77.85386837      51.85225392      91.79648719
H      76.01516466      51.36659427      92.53537017
C      79.63399055      50.11748517      90.96689733
H      79.18801515      48.12760336      91.07839119
C      82.04150187      50.84314007      90.36785409
H      83.35297195      49.37293300      89.83495127
C      88.07161855      56.46129640      86.43722336
O      88.61019054      58.75731387      86.66776997
N      89.50214136      54.93439754      84.97835466
H      88.68200014      53.26198976      84.55127651
C      91.73768759      55.62981683      83.47980168
H      92.81294186      56.77688070      84.81016901
C      93.22868166      53.02199452      83.03760573
H      92.00035955      51.77477515      81.95290282
H      93.99213108      52.00154231      84.65710117
C      95.41509500      53.65505282      81.43511781
H      94.77447778      54.87203657      79.90254977
H      95.88752658      51.82201831      80.62064577
C      97.63174396      55.09691401      82.69178582
O      97.34072611      56.09468949      84.85930190
O      99.69343536      55.38226268      81.60330346
C      91.11407790      57.37025476      81.28771916
O      92.31972329      59.33934957      80.95512734
N      89.17710844      56.78443961      79.82696072
H      88.27381926      55.14793662      80.22002380
C      88.26815009      58.16771927      77.60842204
H      89.62497357      58.22441106      76.06073618
C      85.83040313      56.89215400      76.48403488
H      84.21657687      57.36269585      77.67267272
H      86.00614769      54.84558041      76.63332325
C      85.31639759      57.47418971      73.66078377
H      86.62975736      56.40649434      72.48726373
H      85.54316474      59.49241742      73.31685357
S      82.16811354      56.75042452      72.64789045
C      82.06795804      57.64048562      69.24260365
H      83.45501716      56.45184778      68.29018158
H      82.65377320      59.59257290      68.93457826
H      80.30106395      57.26065064      68.25427679
C      87.91099181      61.03254435      78.24148034
O      89.16388036      62.67093707      77.15488772
N      86.49936625      61.45395333      80.21813407
H      85.64709969      59.86658322      80.84552320
C      85.75859353      64.02587084      81.06095201
H      85.54316474      64.89892439      79.20902021
C      83.17155822      64.05421673      82.44990085
H      82.93345269      65.79465466      83.52515512
H      83.24147808      62.44605963      83.73680447
C      80.85853320      63.33045155      80.83607457
H      81.36875932      61.71095610      79.66822371
C      78.59842054      62.91282204      82.65399129
H      78.07874580      64.67971614      83.57806745
H      79.12187472      61.23663480      83.73302501
H      77.11120593      62.29488154      81.36897740
C      80.33129956      65.52442380      79.09941609
H      80.13854749      67.17415487      80.31451012
H      78.64188424      64.99152098      78.04494881
H      81.90922104      65.55465942      77.77471794
C      87.86563838      65.47151147      82.34785562
O      87.89776373      67.82044127      81.95479255
N      89.46812629      64.43405171      83.95601271
H      89.08640157      62.62936308      84.44734155
C      91.81516637      65.66237383      85.01614917
H      91.28415327      67.18549323      86.29738362
C      93.45922827      63.75563997      86.59596038
H      94.16976536      62.34590415      85.27315196
H      92.16287601      62.79565901      87.87719481
C      95.44533061      64.55121476      88.48379696
H      94.36440716      65.25419294      90.09006433
H      96.42798830      66.06866498      87.49547010
C      97.13663567      62.38936784      89.52503617
H      96.00279989      61.06277997      90.61729797
H      98.59739411      63.10368440      90.79115280
N      98.38385503      60.93616832      87.43499886
H      97.78481179      59.14281804      87.17232691
C     100.41909028      61.46529168      86.02526303
N     101.86284117      63.49296802      86.17266168
H     103.33871742      63.62524885      84.97079575
H     101.86284117      64.76853327      87.59373586
N     101.03892050      59.82500925      84.42466484
H     102.58282690      60.18594696      83.36452837
H      99.89563609      58.34724327      84.02593258
C      93.52158923      66.73006919      83.00170092
O      94.61007158      68.75774552      83.52893457
N      93.43844128      65.71528616      80.66221975
H      92.24035480      64.23563046      80.54127727
C      94.96534013      66.46739723      78.63265370
H      96.61696094      67.51619533      79.27327091
C      95.66264914      64.10712906      76.86009042
H      94.03937425      62.84479189      76.72969930
C      96.55837941      64.73262847      74.12187699
H      95.07872371      65.74552178      73.10898368
H      97.52591928      63.23029605      73.09575559
H      98.10417555      66.09134169      74.23904002
C      97.70355356      62.49519252      78.20179610
H      98.18354404      61.05333135      76.81095752
H      97.11395895      61.61646979      79.96869019
C     100.13563132      63.94650232      78.89343593
H     101.24490067      64.42460309      77.22291786
H     101.48489592      62.66715761      79.78160730
H      99.78225251      65.44505530      80.25970804
C      93.53103787      68.43649204      77.02827605
O      94.51369554      70.24496013      75.98703685
N      91.01014297      68.26263722      76.86575958
H      90.20134010      66.63180343      77.44023639
C      89.53804616      70.03331078      75.43712650
H      90.36196684      70.17126081      73.55495908
C      86.70912587      69.07521954      74.81162708
H      85.54127501      70.75140679      74.54706540
H      86.02882440      68.07555432      76.48025542
C      86.22157648      67.47273162      72.49104318
O      84.77215641      65.60379230      72.64978018
O      87.16832937      68.24373997      70.48604355
C      89.31316874      72.70916324      76.68434586
O      89.23002077      74.56865394      75.35019908
N      89.01459198      72.83388517      79.19012295
H      89.03915842      71.29186850      80.31451012
C      88.32484188      75.11667456      80.51860055
H      88.30405488      76.64168370      79.13721062
C      85.51859830      74.74250876      81.32551369
H      85.30316949      73.14757975      82.61241730
H      84.45468238      74.01118467      79.72113604
C      84.06539876      77.00262143      82.28927411
H      84.89309889      77.73394550      84.02782231
H      82.20212861      76.39979873      82.92800161
C      83.80650625      79.17013750      80.30695121
O      81.73347649      79.40068411      79.06729074
O      85.66599694      80.47404866      79.95168265
C      89.99913939      75.58343696      82.73902897
O      90.63597716      77.75851196      83.26437289
N      90.83628814      73.58032707      84.02026342
H      90.38086409      71.84933777      83.35885921
C      92.51058565      73.78441752      86.27848635
H      94.04693314      75.05431359      85.77014997
H      93.47245634      72.00996450      86.69044670
C      91.38241905      74.60833818      88.88819840
O      89.13175501      75.11100538      89.10173746
N      92.89986927      74.72361150      90.84406513
H      94.74424215      74.36456349      90.51903221
C      92.12886094      75.30564719      93.56149156
H      90.08606679      75.05620332      93.61440391
C      93.35151386      73.28175031      95.15831029
H      95.35084431      73.14191057      94.68020954
H      92.73735282      71.41848017      94.52903143
C      93.19277686      73.72394628      98.09872445
H      93.48757416      75.70437945      98.58249437
C      90.30338532      73.08521878      98.95099101
H      90.39409219      72.93593040     101.00512351
H      89.61552495      71.49217950      97.84361139
H      89.14498309      74.74061903      98.55036904
C      94.77258805      71.82477133      99.48578355
H      96.64530683      71.89280147      98.62784781
H      94.02614615      69.93315528      99.14752255
H      94.81038258      72.30287208     101.48700372
C      92.64853568      77.99850720      94.42887595
O      94.80282367      78.67313948      94.56682596
N      90.79660388      79.48761152      95.36806993
H      89.04482759      78.73927990      95.46822541
C      90.88164158      82.00661670      96.38474267
H      92.84506722      82.28440647      96.94032221
C      89.88575581      83.98516016      94.35328689
H      89.33206599      85.63300150      95.45877678
H      88.27570898      83.15557030      93.37062921
C      91.93421912      84.72404314      92.26891876
H      92.79215487      83.04596617      91.43743919
H      93.41765428      85.78606932      93.22512029
C      90.98179706      86.26228036      90.09762324
H      92.68066103      86.94825101      89.15842926
H      89.94622705      87.77973058      91.02547886
N      89.30183038      84.74860958      88.42710517
H      88.87286251      82.96848739      88.96567717
C      88.53271176      85.42891106      86.16510277
N      89.02215089      87.68335455      85.21834990
H      88.74436112      87.83264293      83.33618248
H      89.79126948      89.09309038      86.24825073
N      87.57084108      83.66201695      84.76292586
H      87.26281568      83.91524028      82.89776598
H      87.23069033      81.94425573      85.52637529
C      89.55127425      82.05008041      98.97933690
O      87.26848487      81.50583923      99.21177325
N      90.84573678      82.74927915     101.07315365
H      92.67688157      83.25761552     100.92575500
C      89.87063800      82.51495309     103.63184308
H      88.44389462      81.02962820     103.64507117
C      91.81327665      81.59843582     105.63495298
H      90.94778199      81.64567897     107.50389230
H      93.32505769      82.99116411     105.76534410
C      92.93010489      79.01706968     105.19086730
H      93.89386531      79.20982175     103.37861976
C      94.86707437      78.30653258     107.38106009
H      96.39019378      79.69170196     107.31114021
H      95.58139091      76.40546792     107.04657853
H      94.07338931      78.57298400     109.26322749
C      90.86652376      77.01395978     104.91307753
H      89.54371535      77.16891734     106.48344010
H      91.80193829      75.18470471     104.77701724
H      89.79126948      77.32765435     103.18586767
C      88.56483711      84.93002330     104.41796924
O      86.71290533      84.66546162     105.90140438
N      89.22246186      87.13911337     103.30114099
H      90.74747100      87.24682776     102.15596684
C      87.51981846      89.30285000     103.29925126
H      86.37086486      89.34253425     105.00945357
C      89.20167488      91.68957434     103.20854440
H      87.93933770      93.31662868     103.28413344
H      90.08606679      92.02972506     101.37739959
C      91.12541626      92.02972506     105.40818583
H      92.24602397      90.39700154     105.97321399
H      90.12764078      92.91222725     106.98043811
C      93.09451108      93.97236372     104.69197954
H      92.11374312      95.77138317     104.45765348
H      94.08094822      93.25615744     103.03279984
C      95.12407715      94.00448907     106.83870864
H      95.54737583      92.00704835     107.10327032
H      94.40220170      94.81896110     108.58859521
N      97.25946787      95.48981394     105.94675783
H      98.29692762      94.52038434     104.67119256
H      98.60684273      95.71658111     107.28090459
H      96.75302122      97.16222174     105.18330839
C      85.68111475      89.48426372     101.13551462
O      86.02504494      88.53373138      99.09461020
N      83.61375417      90.93935298     101.57771059
H      83.16588903      91.61776473     103.30492043
C      81.91677995      91.77083256      99.59349796
H      81.01349077      90.13432957      98.72989304
C      79.84186045      93.49615268     100.75190018
H      80.54672837      94.97391866     102.00289901
C      78.28850542      94.73581314      98.64296563
H      76.65767161      95.68445576      99.47066575
H      77.93701633      93.19190674      97.32582638
H      79.15966925      96.36475722      97.73022781
C      77.92945743      91.79917846     102.25045316
H      78.88565894      90.34408919     103.35216359
H      76.86932096      90.68990911     100.87473239
C      76.17201195      93.21458346     104.17608427
H      77.24726623      94.68101108     105.14740358
H      75.62021186      91.69146405     105.44787007
H      74.39566921      93.96669454     103.45609853
C      83.36620002      93.14466359      97.32582638
O      84.89120915      94.81140220      97.82471412
N      82.61030951      92.49270801      94.96744795
H      81.05695447      91.38721812      94.89185889
C      83.40210483      93.70024313      92.73001199
H      84.07295766      95.58996944      93.20244356
C      85.50537021      91.98437164      91.56783031
H      87.07951224      91.85964970      92.89063873
H      86.23858402      92.67223201      89.76881085
C      84.48113856      89.52394797      90.80249115
C      83.71768911      89.02883968      88.27025788
H      83.93689738      90.45747277      86.82839671
C      82.79739240      86.59487219      87.55594134
H      82.23803341      86.31330297      85.61330270
C      82.85408419      84.61632874      89.21134159
O      81.74670457      82.31275236      88.57828328
H      80.85286403      82.41479759      87.00225153
C      83.60997471      85.08876032      91.70955978
H      83.54761375      83.66201695      93.16653876
C      84.39421114      87.54918397      92.58450306
H      84.77593586      87.98949021      94.54036980
C      81.10608735      94.08196784      91.05949392
O      78.96880690      93.54906502      91.79270773
N      81.38009768      95.36320228      88.89008811
H      83.15077122      96.05106267      88.70300522
C      79.45635628      95.44635024      86.84918371
H      77.64788820      94.93801387      87.69389136
C      79.28817065      98.09007735      85.47346294
H      77.94268550      98.11086434      83.91254901
H      81.22136066      98.42455891      84.84229435
C      78.35275612     100.26704206      87.27626184
H      79.64343919     100.61286198      88.84473469
H      76.52350104      99.69823444      88.03593183
C      78.07118689     102.70100955      85.68511229
H      76.57074420     102.57439789      84.27726619
H      79.77572004     102.78982670      84.53426896
C      77.78394850     104.97624003      87.38586598
H      79.14644116     104.86096673      88.92599291
H      76.12665852     104.96301195      88.60662917
N      77.97292112     107.41776643      86.13486715
H      79.68123371     107.78626306      85.36574855
H      77.79906630     108.71600841      87.52381599
H      76.68412778     107.89964664      84.81205873
C      79.91744951      93.44513007      84.88008888
O      82.07362722      93.53016775      83.81050378
N      77.97103140      91.87098805      84.50592307
H      76.45358117      92.17334426      85.62275132
C      77.78961767      90.01716654      82.35919399
H      78.99715278      88.39011218      82.73524951
C      74.95502820      89.09120065      82.13998573
H      74.05362876      90.68046047      81.18756366
H      73.99504723      88.79640335      83.93900518
C      74.87943916      86.69691742      80.49970328
O      75.42179060      84.69758697      81.55983975
O      74.67534871      86.77439619      78.20179610
C      78.66078150      91.16612014      79.87420387
O      78.48314723      93.52638830      79.54161204
N      79.14455144      89.76772268      77.81440219
H      78.91022537      87.88744499      78.03361046
C      79.31462681      90.89399955      75.27083058
H      80.86231266      92.24893332      75.16311618
C      80.08185570      88.88522048      73.26394124
H      79.96847211      89.75260486      71.40067109
C      82.66700128      87.58508878      73.66645295
H      82.35519644      85.97504197      74.91178258
H      84.16177480      88.83986705      74.32407769
H      83.48525279      86.77439619      71.95625062
O      78.15244512      87.05974486      73.07874806
H      77.79717658      86.45314271      74.74926611
C      76.90900522      92.19224153      74.41100511
O      77.01860934      94.00259933      73.00693845
N      74.71881242      91.46469690      75.42767786
H      74.61487747      89.72425896      76.20624510
C      72.20358669      92.54373062      75.16689564
H      71.92390721      93.12576633      73.20913918
C      70.22693297      90.42156798      75.66578338
H      68.32019912      91.16612014      75.89255053
H      70.47826657      89.66756718      77.56684805
C      70.35165491      88.25405190      73.75149063
H      69.46348355      86.61754890      74.63399281
H      72.30185246      87.59453741      73.73259336
C      69.02695676      88.76427800      71.21358819
O      68.39767790      90.94691189      70.59564769
O      68.59609916      86.85187496      69.77172701
C      71.76517018      94.88699125      76.82796507
O      69.75828085      96.14932842      76.90922330
N      73.57174854      95.71469138      78.36431255
H      75.02116863      94.49203845      78.58918999
C      73.46025470      97.80850813      80.19167791
H      72.40389769      99.37698097      79.37720585
H      75.34431183      98.54739112      80.56773343
C      72.26972711      97.11308884      82.80894885
O      72.48704564      98.70990758      84.46434910
N      71.12455296      94.85108646      83.20768109
H      70.89778581      93.80417807      81.62786990
C      69.60143357      94.35597816      85.58306708
H      68.43736215      95.99059141      86.04793974
C      67.82320110      92.10909358      84.94433958
H      66.66290914      91.75760447      86.60918845
H      68.94380881      90.39511180      84.74213887
C      66.16402139      92.63065803      82.59729950
C      65.40624114      90.58975361      81.18567395
H      65.93914396      88.63955606      81.46346370
C      63.83587858      90.85242557      79.08051882
H      63.57320662      89.16489997      77.96369058
C      63.25006342      93.25048827      78.25281870
O      61.60411180      93.69646367      76.24026018
H      61.46049260      95.44635024      75.77538750
C      63.85855529      95.35753311      79.83451962
H      63.19148190      97.23592105      79.39421339
C      65.53663226      95.00793373      81.89999049
H      66.26228717      96.58018603      82.97902421
C      71.41179136      93.81173698      87.79215713
O      73.13333205      92.36042717      87.63530984
N      71.14533995      95.04572826      90.05415953
H      69.80363428      96.39688257      90.18833009
C      72.69113608      94.38432405      92.22356534
H      74.63566445      94.69801863      91.62830154
C      72.08453393      96.38176476      94.34761771
H      73.27506152      95.95846607      95.97278234
H      70.08709322      96.35719832      94.84839519
C      73.08608889      98.97824873      93.96022381
C      71.41746054     101.07962439      93.93565738
H      69.42568901     100.63742842      94.00935671
C      72.48326618     103.44178227      93.64841897
H      71.23037765     105.04615991      93.48590251
C      75.11754466     103.79516109      94.01691560
O      75.97737015     106.22156967      94.35706634
H      74.63944391     107.44611233      94.30415401
C      76.82585725     101.83551490      94.24179304
H      78.83463632     102.14354029      94.44021430
C      75.70902900      99.41099604      94.13218892
H      77.07152167      97.89732526      94.02069506
C      72.57019360      91.58752911      93.07961135
O      70.49905356      90.61432005      93.58794774
N      74.68290762      90.19669054      93.01158120
H      76.24760101      91.28328317      92.88119009
C      75.10053713      87.43202094      92.98701476
H      73.48860059      86.30574406      93.60306554
C      75.81485367      86.58164410      90.31683148
H      77.44568749      87.56052234      89.52503617
C      76.07752564      83.76595190      89.83495127
H      76.72003258      83.62800187      87.88097427
H      74.13110753      83.14045249      90.07683624
H      77.24537649      82.78518394      91.22012066
O      73.83253078      87.21092296      88.69166685
H      73.63221978      89.01372188      88.65387234
C      77.37765734      86.95392019      94.82004928
O      78.86676167      88.66979168      95.38507746
N      77.65922656      84.63900546      95.67231585
H      76.60475927      83.20281345      94.98823493
C      79.44501793      83.63745051      97.54881409
H      81.28183190      84.45381227      97.09716950
C      78.66834041      84.07397728     100.30970423
H      77.70457999      85.88622482     100.47222070
C      76.66900997      82.09543383     101.05425639
H      75.25927415      82.14267700      99.55192397
H      75.66745503      82.85321409     102.68886966
H      77.59308613      80.25484041     101.11850709
C      80.93601198      84.11366154     102.02368599
H      82.28149712      85.52906655     101.36795097
H      81.81095526      82.24850167     102.01234763
C      80.38232217      84.69947670     104.76945833
H      79.07085212      86.26605981     105.02646110
H      82.04150187      85.00750208     105.95053728
H      79.46580492      83.05163536     105.60282763
C      80.15744474      80.82175831      97.06504415
O      78.84975413      79.52540605      95.62696243
N      82.30039439      79.84288007      97.85683948
H      83.43989935      81.15623987      98.63918616
C      82.99203421      77.18403515      97.82849357
H      81.44812781      75.96894113      98.44076490
H      84.69845707      76.86467140      98.94154237
C      83.75548364      76.52074122      95.02602945
O      85.46379623      77.72827633      94.03203342
N      82.75581843      74.47794708      93.98101080
H      81.59552647      73.58032707      95.20177401
C      83.07707189      73.69937984      91.31271725
H      84.49625636      74.77841356      90.28281641
C      83.78382955      70.93282050      91.22767957
H      82.08685532      69.82922034      91.61696319
C      84.47735909      70.38857934      88.61418808
H      86.12142098      71.49028977      88.04160101
H      83.03360819      70.69471499      87.17610636
H      84.65310364      68.33633656      88.65009287
C      85.89276410      70.20716561      93.03992711
H      85.08396124      69.94638337      94.91642533
H      87.32706637      71.67548295      93.22134082
C      87.26848487      67.69949879      92.36340508
H      88.37019531      67.07588911      93.99045944
H      88.37964393      67.89036114      90.63997468
H      86.02693468      66.06677525      92.18766053
C      80.57885372      74.22661347      90.09006433
O      78.73637056      72.82632627      90.40375889
N      80.35586600      76.41869599      88.81260934
H      81.72213813      77.74906332      88.83150661
C      77.84253001      77.28419064      87.84506946
H      77.48726146      75.91980824      86.34273704
H      77.86520673      79.19281422      87.07028168
C      75.37454744      77.15002008      89.56472041
O      73.53395402      76.62845561      88.30616269
N      75.17612618      77.53741397      92.05348996
H      76.84664424      77.85110855      92.91898461
C      72.68735663      77.50339889      93.40275456
H      71.45147563      76.10500142      92.53537017
C      72.86688064      76.70026522      96.23167485
H      74.31441098      77.74339414      97.25968595
H      73.76639035      74.86345124      95.99734878
C      70.28740422      76.46593916      97.41842297
N      68.51295121      74.43826282      97.07071332
H      68.97593416      72.66947899      96.52647214
C      66.36244267      75.05620332      98.34249913
H      64.53507731      74.14913470      98.29903543
N      66.67613722      77.25206529      99.55759315
H      65.39679251      78.25739969     100.55158920
C      69.02884649      78.28196614      98.92453484
H      69.75450140      80.15090546      99.31192873
C      71.64611744      80.28318631      93.40275456
O      72.73082034      81.92724819      94.72367325
N      69.48616025      80.86333228      92.25947014
H      68.62255533      79.37989712      91.42421110
C      68.11043950      83.21604154      92.25758040
H      69.18947323      84.75427876      91.41476248
C      65.90890834      82.81919901      90.36407465
H      64.86955887      81.13167343      90.92154390
H      66.68936532      82.57731404      88.47245860
C      63.93225462      84.87333152      90.04093144
H      63.03652435      85.19647471      91.86640707
C      64.87900751      87.32997572      88.70111549
H      65.98638712      88.53751084      89.94833485
H      63.24628397      88.42034780      88.07750581
H      66.03552000      86.90289758      87.05138442
C      61.99339542      83.60532516      88.33639831
H      61.12790077      82.03874206      89.36062997
H      62.89857432      82.80408121      86.66776997
H      60.48161437      84.93758221      87.91120989
C      67.06542085      83.89634301      94.83705683
O      66.59487899      82.16913316      96.45277282
N      66.94636809      86.34164886      95.33594457
H      67.77217849      87.59453741      94.15864507
C      65.66324392      87.40934423      97.65463875
H      64.83365407      85.90890153      98.79792317
C      67.66068463      88.64711497      99.30625955
H      66.67235777      89.25371712     101.00701324
H      68.26350733      90.27416933      98.19699021
C      70.03607061      87.02950924     100.00356856
H      70.98282349      86.50605505      98.25179227
C      71.97304009      88.70002730     101.32637698
H      72.62310593      90.14755765     100.01301720
H      73.40923208      87.45847711     102.11817231
H      71.20959065      89.68457471     102.96665943
C      69.40490202      84.75049930     101.70054280
H      67.96682030      83.74894436     100.62150908
H      68.46759778      85.34765282     103.43531155
H      71.18502421      83.76595190     102.01990654
C      63.52407373      89.11387736      97.02535989
O      61.54364056      89.03072941      98.38218339
N      63.79430460      90.67857075      95.11484660
H      65.44592539      90.61620978      94.16431425
C      61.66647277      92.26027167      94.18510124
H      60.00351361      91.07730300      93.91487039
C      61.04475281      94.16133634      96.32049199