 %block lattice_cart
   139.252   0.000   0.000
   0.000 142.425   0.000
   0.000   0.000   162.84
 %endblock lattice_cart

 %block positions_abs
N      93.06805492      43.03006663      79.87987305
H      94.97289904      43.15667830      79.90254977
H      92.59751306      41.74316302      78.55139545
H      92.64664594      42.59165013      81.69023086
C      91.85107117      45.36954781      79.25248392
H      92.65798430      46.90589530      80.36364299
C      92.53704182      46.18024039      76.57285201
H      91.99469038      44.71381278      75.22925660
H      94.56471816      45.99882667      76.25726771
C      91.55060468      48.75782709      75.79806422
H      89.49458245      48.78050381      75.93034506
H      92.25925205      48.95435862      73.87432284
S      92.75058090      51.36564940      77.67834190
C      90.98746625      54.07362721      76.57474173
H      91.68099581      55.82918294      77.40244187
H      89.05805567      53.81095525      77.24559457
H      90.96856898      54.23047449      74.52060923
C      89.09207076      45.29584847      79.93278539
O      87.67288630      43.47604204      79.30917571
N      88.01114731      47.24982549      81.06095200
H      89.16954953      48.71436338      81.45212535
C      85.22758045      47.51060772      81.65999524
H      84.18823098      46.41267674      80.25970804
C      84.46035156      46.18590958      84.03160176
H      84.80617147      44.16012296      83.87853393
H      82.43078550      46.34275686      84.33773743
C      85.65465860      47.39533442      86.24447127
O      85.67355585      49.71402860      86.62241654
N      86.79416356      45.92323762      87.92632769
H      87.39698626      46.83030625      89.49669026
H      87.01715126      44.02973186      87.87152563
C      84.32429126      50.31307185      81.42566918
O      85.75859353      51.98925909      80.84363347
N      81.78260937      50.71936299      81.77337882
H      80.69223730      49.23592785      82.28360492
C      80.52783110      53.21002228      81.71857676
H      80.88687910      53.99614843      79.84774771
C      77.71213890      52.87932018      82.12864737
H      76.98081482      51.39399530      80.90410472
C      77.07719085      51.88910359      84.77048475
H      75.60698379      50.47369858      84.50025390
H      76.26649826      53.37442847      85.94400479
H      78.60031026      50.89699728      85.73802462
C      76.24382156      55.38509726      81.57306783
H      77.23214842      56.94412148      82.48202619
H      74.23882194      55.43800961      82.04738913
C      76.53861886      56.11075217      78.70257356
H      75.90745026      54.56684578      77.49692817
H      78.40944791      56.82317898      78.20746527
H      75.25738441      57.67355583      78.31140021
C      81.69379223      55.12053558      83.68011267
O      81.86197788      57.39954551      83.05650298
N      82.15110601      54.22669504      85.97613014
H      82.05095052      52.35586599      86.34273704
C      83.52493703      55.91611036      87.81672357
H      82.34196836      57.58095925      88.06805717
C      83.92744874      54.66700127      90.41320752
H      84.79672285      55.89910282      91.81727417
H      85.34096403      53.24592707      89.93510677
C      81.77694020      53.21380174      91.55649194
C      79.59241657      54.64432455      92.37663317
H      79.54139396      56.68522897      92.27269821
C      77.47025393      53.35742094      93.34984221
H      75.75438243      54.40999849      93.67487515
C      77.40978269      50.72881163      93.37440865
H      75.72036736      49.79339710      94.03581286
C      79.52249671      49.34742170      92.55993661
H      79.24281722      47.33486318      92.73946061
C      81.74859431      50.51338283      91.59995566
H      83.43234044      49.44946692      91.16531860
C      85.98725042      57.00648245      86.73013094
O      86.37275458      59.24580813      86.67343915
N      87.51225955      55.36808973      85.68133283
H      87.31194856      53.47269424      85.61519241
C      89.93299896      56.23925356      84.63064500
H      91.11785736      57.25970577      85.97046097
C      91.43344165      53.69568195      83.81617296
H      92.97545833      54.16811352      82.53682825
H      90.07283871      52.45602148      82.89209680
C      92.33295139      51.95713373      86.00825550
H      93.23624055      50.35464581      85.07662041
H      90.81361143      51.31840623      87.24224677
C      94.34362018      53.11175652      87.76948041
O      94.54771061      52.25382077      89.93321704
O      95.26202717      55.26226506      87.16854745
C      89.60229685      57.76048325      82.18911861
O      91.30682999      59.20612387      81.48614043
N      87.36297118      57.53938527      81.00614994
H      85.99858878      56.29594535      81.49747878
C      86.90376768      58.87164232      78.62887423
H      88.61585973      58.68266969      77.50070762
C      84.71735434      57.61686404      77.26260211
H      83.03549792      57.33340510      78.41911461
H      85.24080853      55.65343841      76.92623083
C      84.22980495      58.63542652      74.59241883
H      85.60363598      57.69812228      73.38299399
H      84.32051182      60.68200013      74.81351681
S      81.18167640      57.66410719      73.26583096
C      81.77694020      57.46757566      69.85487496
H      80.27649751      56.37342412      68.96103442
H      83.41533290      56.30917344      69.39000230
H      81.73536621      59.37619924      69.08764608
C      86.53716077      61.73457767      79.24114556
O      87.81839522      63.44855945      78.17533992
N      84.70412626      62.09929486      81.03638556
H      84.02949397      60.54405010      81.91321858
C      84.09185493      64.59562331      82.01526379
H      83.49281168      65.66331869      80.35986354
C      81.76749157      64.45200412      83.63853869
H      81.45190727      66.43432702      84.10152164
H      82.17567245      63.32005806      85.30905676
C      79.55462206      63.45800808      81.86408568
H      80.11587077      61.68166534      80.97969378
C      77.34175254      62.64920522      83.57050854
H      76.53861886      64.22901641      84.61552719
H      77.91811906      61.15443169      84.86686079
H      75.89233246      61.94055785      82.29116383
C      78.74015002      65.20978437      79.73814358
H      79.99303855      64.84506719      78.14321458
H      78.58330273      67.11840795      80.49781357
H      76.95813810      64.53515207      78.96146606
C      86.31228334      65.87118858      83.28138042
O      86.86219371      68.09539645      82.87508926
N      87.78249042      64.44066575      84.71379296
H      87.18155745      62.68133056      85.14276083
C      89.99535994      65.59906799      85.90621026
H      89.30749955      67.13541548      87.09484812
C      91.54493551      63.75469511      87.45578584
H      93.27592481      64.73168361      87.98868866
H      91.93988831      62.00858799      86.43533363
C      90.22212709      62.87975182      89.98234992
H      88.59696246      61.70812151      89.51180807
H      89.60607631      64.46145275      91.15020078
C      92.11185341      61.31505843      91.60562482
H      93.22868166      62.59440315      92.77347570
H      93.26836590      60.21712745      90.30360340
N      90.86274431      59.35163280      93.12118533
H      90.99691487      57.50348047      92.66954074
C      89.76292359      59.59729721      95.32649594
N      89.92355033      61.72890849      96.41686802
H      88.91254675      62.08039760      97.99856895
H      91.09707037      63.09329090      95.78003025
N      88.92010565      57.46379621      96.32427143
H      87.77304179      57.70379146      97.83227304
H      88.86152415      55.98414050      95.12429522
C      91.84351226      66.69510924      83.96924079
O      93.01514257      68.59995337      84.57017376
N      92.25169314      65.72190020      81.62220071
H      91.49580263      64.00413898      81.27449108
C      93.58206047      66.83683873      79.60397301
H      95.39241828      67.64375186      80.16522173
C      94.12063248      64.94333296      77.51771516
H      92.33862056      64.15720681      76.84875205
C      95.31871896      66.22834685      75.17256482
H      95.95177727      64.78270622      73.84975639
H      96.87963289      67.25068879      76.04750809
H      93.93921875      67.41131553      74.20313521
C      96.14074991      63.09140117      78.49848312
H      95.86107040      62.64353604      80.49214438
H      98.02102759      63.92854992      78.41533517
C      96.07460948      60.50436585      77.27394047
H      94.12063248      59.86185891      77.32496308
H      97.28592405      59.14187318      78.23203171
H      96.85884591      60.61019053      75.37098607
C      92.15909655      69.21600414      78.42856324
O      93.35151386      71.19076815      78.02227209
N      89.67032700      68.99112672      78.02038236
H      88.66121316      67.45099977      78.52304956
C      88.09429526      70.88463248      76.62954379
H      89.21868241      71.66130999      75.08752712
C      85.74158600      69.64497203      75.66011420
H      84.41121867      71.09250237      75.03839424
H      84.95734959      68.40342184      77.10386510
C      86.30094499      68.06138137      73.30551521
O      88.32862133      68.32405334      72.02617050
O      84.65877282      66.60251265      72.38332877
C      87.15888073      73.08238418      78.14699402
O      86.62975736      75.21966464      77.32874253
N      86.94534167      72.70632864      80.62442522
H      87.39131707      70.95077290      81.22346846
C      85.99291960      74.52235563      82.47068783
H      85.11041742      76.12862300      81.53338358
C      83.96713299      73.26946709      83.94845380
H      83.33407468      74.62062140      85.36763827
H      84.60775022      71.59894904      84.96701629
C      81.69568197      72.50601767      82.36864261
H      80.56751536      71.15486334      83.44011743
H      82.52905126      71.47989628      80.78883141
C      80.00059746      74.55259125      81.21779928
O      80.19334954      76.88262380      81.77904800
O      78.27338761      73.80803909      79.72869495
C      87.83351303      75.57871264      84.54560732
O      87.49903148      77.58938145      85.61519241
N      89.95945513      74.35228027      85.14465056
H      89.85363046      72.51924575      84.62308610
C      92.00791846      75.04014064      86.84918369
H      92.58050553      76.97522039      86.45234118
H      93.68221597      73.86662060      86.58840146
C      91.31060945      74.88707281      89.63653001
O      89.44733930      73.51513152      90.08061569
N      92.69388911      76.15318944      91.31082752
H      94.31716400      76.87317518      90.60973906
C      92.18744245      76.65207720      93.97912107
H      90.19945037      76.15885862      94.19643960
C      93.74835638      74.82471184      95.56838090
H      95.62674434      75.28580507      94.86162326
H      93.27403509      72.84994785      95.21122263
C      93.46678716      75.45965988      98.34627858
H      93.87118860      77.44576224      98.70910604
C      90.73424292      75.19887766      99.20799378
H      90.19000174      73.21466503      99.08516158
H      89.57206124      76.45365593      98.06092991
H      90.55093946      75.88106885     101.14496325
C      95.55682447      74.01779871      99.69365344
H      95.29037307      74.61306249     101.64763045
H      97.37852064      74.74534334      99.06437458
H      95.28092442      71.97878402      99.63318220
C      92.77514733      79.43375432      94.42698621
O      94.99935521      80.16318868      94.70855543
N      90.87975184      80.94742510      94.86351299
H      89.11285774      80.35972021      94.44399375
C      91.00447378      83.57603441      95.89530356
H      92.95656106      84.04657626      96.35261732
C      90.12386133      85.25600110      93.71644912
H      89.86307909      87.16462467      94.44588348
H      88.28326789      84.58325853      93.08339080
C      91.73579786      85.24277301      91.32594534
H      92.24791369      83.29635491      90.88941855
H      93.43655154      86.38416770      91.55460221
C      90.48479904      86.45408758      89.04693540
H      89.91410169      88.39483651      89.42866011
H      88.75192001      85.35426686      88.86552167
N      91.92477049      86.25944576      86.62808572
H      92.99246586      87.82791860      86.43344391
C      91.76036430      84.56814071      84.84796353
N      90.29771615      82.55936164      84.98024437
H      90.44322507      81.06458813      83.80294489
H      89.26025639      82.40062463      86.57328365
N      93.04726792      84.47743386      82.82973583
H      92.94522270      82.83337196      81.86408568
H      94.61952021      85.55457786      82.75981595
C      89.45111876      84.11460641      98.25557172
O      87.33273555      83.27556791      98.36139639
N      90.63786687      85.34292851     100.11506241
H      92.40665071      86.06480396     100.06970898
C      89.74402634      85.21631684     102.74556144
H      88.82750906      83.39840012     103.05547656
C      92.10240477      85.41662783     104.52946308
H      91.53359715      85.35615658     106.50800653
H      92.77136788      87.33470003     104.18553289
C      94.25480304      83.46832000     104.15907672
H      94.63463802      83.25478093     102.14462847
C      96.78514657      84.27334341     105.36472211
H      98.34417078      83.14706652     104.62394940
H      96.58672531      84.43397015     107.40751625
H      97.14041513      86.17251835     104.65040556
C      93.73134885      80.67341479     105.03024055
H      94.73101407      79.05391934     104.23655550
H      91.73579786      80.26334418     104.71654598
H      94.09795575      80.55247230     107.05413744
C      87.91477127      87.28556715     103.62995335
O      86.36141624      86.77345132     105.33637622
N      88.04894182      89.38694281     102.36761618
H      89.43978039      89.40395036     101.05992557
C      86.43700528      91.62437877     102.63406759
H      85.11986605      91.56390753     104.21576851
C      88.34562886      93.93551405     103.02902039
H      89.64765028      93.92228597     101.43409139
H      89.28482283      93.61426058     104.83370902
C      87.11541704      96.60191787     103.37484030
H      85.66977640      96.54144663     104.84315765
H      86.08362647      97.09324672     101.66463799
C      89.04671733      98.74108806     104.07403904
H      90.64920524      98.70518327     102.77579706
H      89.69867290      98.62392503     106.02423659
C      87.91666098     101.34324120     104.05892123
H      86.14598743     101.37536655     105.10771933
H      87.42344242     101.37725627     102.05770106
N      89.64387084     103.48997028     104.70142817
H      91.31627862     103.42571960     103.78113147
H      90.02370583     103.62414086     106.56847777
H      88.92955430     105.15103971     104.09293630
C      84.82506874      92.28200352     100.39663163
O      85.45623732      91.69807809      98.23478473
N      82.54416907      93.19663107     100.83126868
H      81.94512583      93.24198449     102.64351622
C      80.66956057      93.72386470      98.87540196
H      79.75304331      91.93429389      98.42942654
C      78.49259586      95.46619236      99.79947812
H      79.10864664      97.42016938      99.99600965
C      76.42901474      95.41705948      97.79825795
H      75.66745503      93.50465646      97.79636823
H      76.88065932      95.96508012      95.86317821
H      75.04384534      96.87781791      98.23289500
C      77.43056967      94.53455729     102.34493946
H      78.74959864      94.68762512     103.91908148
H      76.67278942      92.65050016     101.99156064
C      75.09864741      96.00098492     103.36161223
H      73.43190879      95.28288892     102.39029290
H      75.37832690      97.99086671     102.90807790
H      75.08352959      95.68162116     105.39684746
C      81.90544159      94.94084845      96.47167008
O      83.20935274      96.81734667      96.69276806
N      81.82985253      93.70874690      94.16431425
H      80.52216193      92.35570286      93.83928133
C      82.90132736      94.52510865      91.74168512
H      83.32273632      96.52254937      92.01758516
C      85.18978591      92.94529746      91.06138366
H      86.40487993      93.10781393      92.71678390
H      86.22724566      93.85614555      89.53637451
C      84.39610086      90.34692379      90.35462601
C      84.26759947      89.76299835      87.80349548
H      84.67767008      91.38060407      86.62808572
C      83.77438090      87.33092059      87.10240702
H      83.82918298      86.87360682      85.11252521
C      83.45690688      85.29568534      89.03937649
O      83.08274108      82.94108637      88.29104487
H      82.94101160      82.82014387      86.48446653
C      83.68745349      85.92118475      91.53003578
H      83.53249594      84.51522838      93.00024285
C      84.23736386      88.41562348      92.26702903
H      84.48491800      88.75955368      94.26258002
C      80.57696398      94.39849700      89.91431977
O      78.74959864      93.04167351      90.42832533
N      80.79050306      95.56823759      87.80160576
H      82.30039439      96.72097064      87.62775095
C      78.63999452      95.69862871      85.92510753
H      77.20380252      94.38526891      86.60540900
C      77.41167241      98.29322292      85.61897187
H      76.92790247      98.84124356      87.54649270
H      75.65800640      98.15149345      84.54938678
C      79.22203022     100.13381635      84.24136138
H      79.86453717      99.44217652      82.41210632
H      80.70735511     100.70640343      85.55094173
C      77.86709645     102.58479139      83.71601748
H      76.26271881     102.18983859      82.48769536
H      79.32218571     103.77909842      82.88264816
C      77.11498539     104.06822655      86.13297742
H      78.66456095     104.07011626      87.48602146
H      75.55785090     103.07989968      87.04760496
N      76.03028248     106.57400363      85.64542803
H      75.34431183     107.30154826      87.27059266
H      74.39188977     106.28298578      84.71190323
H      77.02616825     107.57933802      84.36419359
C      79.18990487      94.16228120      83.55917018
O      81.21380175      94.01677229      82.57462277
N      77.11687510      92.92828993      82.68044745
H      75.52572556      92.87159813      83.73302501
C      77.16789772      91.56390753      80.13309639
H      78.74959864      90.24487856      80.11041966
C      74.70180489      89.95197099      79.67767234
H      73.23915672      91.40328080      79.70979768
H      74.16512260      88.76333313      81.27071162
C      74.49960416      88.37404951      77.28905828
O      73.50371839      89.39072226      75.44279567
O      75.38399607      86.22354096      77.17567470
C      77.32474501      93.38371396      77.86731453
O      76.96002782      95.60414239      78.27360570
N      77.97292112      92.41617410      75.70924709
H      78.19212938      90.52266832      75.62231967
C      77.92378824      93.74654141      73.17134464
H      79.47147409      95.08446765      72.94457748
C      77.86520673      91.76799797      71.04729227
H      77.97292112      93.07568858      69.45992216
C      79.84563991      89.64772505      71.01516693
H      79.08974937      87.93941245      71.88444103
H      81.55962167      90.01811140      72.09231092
H      80.41444752      89.15639621      69.09709471
O      75.55407145      90.35637241      70.87154772
H      74.91345423      90.33180597      72.56663222
C      75.53895364      95.34524987      72.60064730
O      75.55407145      97.32757279      71.20980873
N      73.43568826      94.95218680      73.91022763
H      73.24671561      93.43662631      75.05351205
C      70.99794131      96.31467948      73.45669331
H      71.10187626      97.42394882      71.72192456
C      69.04396429      94.14338394      72.74804595
H      67.88556207      93.69740853      74.39210784
H      70.10221104      92.55034466      71.98081706
C      67.01628797      94.95785598      70.77706140
H      66.23016182      96.61136651      71.72381429
H      65.50261718      93.60103249      70.44824902
C      68.04807854      95.50398689      68.09176032
O      67.81942165      93.79378458      66.40990389
O      68.80207934      97.70740778      67.62121846
C      70.07008569      98.08157359      75.68468065
O      68.30319159      99.60091354      75.54862034
N      71.63855853      98.10425029      77.64432682
H      73.30907658      97.18584331      77.58007613
C      71.49871877      99.82768069      79.78160728
H      70.86188101     101.65882550      79.08240856
H      73.34498139     100.23964104      80.59607933
C      70.11354940      98.65416065      82.09274258
O      69.54852123     100.08090402      83.91443873
N      69.67324317      96.13326575      82.14943435
H      70.07386514      95.31501425      80.47324711
C      68.56586354      94.87470803      84.45301073
H      67.32998253      96.29956166      85.27693140
C      67.04085441      92.55412411      83.70089966
H      65.58954460      92.28956243      85.13520193
H      68.32775803      90.95541565      83.87853393
C      65.54041172      92.60514672      81.24047600
C      65.30230619      90.32613679      79.83074018
H      66.12055770      88.54223516      80.39198888
C      63.87556283      90.35826214      77.55739941
H      63.63178814      88.66884681      76.44246089
C      62.89857432      92.64672071      76.66733832
O      61.55497893      92.79789881      74.47903525
H      61.02774528      94.49298332      74.09920026
C      62.77385239      94.73108883      78.32273858
H      61.91969609      96.40916580      77.53661243
C      64.07020464      94.67817650      80.59229987
H      64.24972865      96.40160689      81.67322332
C      70.56141453      94.56857236      86.43344391
O      72.76483540      94.12448668      85.90998972
N      69.60143357      94.77833198      88.75402782
H      67.79107576      95.28288892      89.08850938
C      71.19636256      94.47408605      91.00847131
H      73.07852998      95.03911421      90.39431027
C      70.04551925      96.32790757      93.13441341
H      71.49115987      96.09736095      94.58761295
H      68.21248472      95.56067868      93.67865459
C      69.80930345      99.14171004      92.50891400
C      67.62855930     100.38326023      93.47834360
H      66.23583100      99.17572512      94.35517661
C      67.32431336     103.02887707      93.21378192
H      65.80686313     103.92460734      94.24557248
C      69.35576914     104.44428208      92.13474820
O      69.12522254     106.91037492      91.92498858
H      67.63422847     107.33934278      92.86985173
C      71.49871877     103.14792983      91.08028091
H      72.89900597     104.22885328      90.05793897
C      71.81052363     100.55522532      91.32972478
H      73.54907182      99.67839231      90.71934318
C      71.58753591      91.59792260      91.83617143
O      69.90945895      90.20519431      92.52781127
N      73.96292189      90.76644303      91.89286322
H      75.40100362      91.99476513      91.64152962
C      74.38244113      88.07925221      92.39553042
H      72.64767237      87.21753700      93.09283944
C      75.12888302      86.63550131      90.04093144
H      75.58619680      84.72876745      90.67021030
C      73.06341216      86.75266434      87.92065851
H      72.49460454      88.66506736      87.40287351
H      71.27384134      85.87772105      88.44789216
H      73.55474101      85.64906416      86.25391991
O      77.37387789      87.60115144      88.84662441
H      77.58363751      89.34536884      89.30015872
C      76.72948121      87.72398365      94.24746221
O      78.39244036      89.39639145      94.42320676
N      77.03561687      85.53568058      95.57782953
H      75.72036736      84.20531327      95.19421509
C      79.06896238      85.06324901      97.37117981
H      80.56940508      86.33692455      96.76079821
C      78.25638008      85.74732993     100.08104735
H      77.54962244      87.67485077      99.93742814
C      76.07185645      84.14484203     100.86150431
H      75.19691317      84.94608598     102.54336072
H      76.48192707      82.18141639     101.33960507
H      74.62810555      84.42263180      99.41775340
C      80.33696875      85.69819705     102.09738531
H      81.78071965      86.86982737     101.22055231
H      81.03238802      83.78579403     102.42241824
C      79.89288307      86.98132121     104.60505213
H      81.69379223      87.61815898     105.37228101
H      79.39210558      85.37316413     105.78991053
H      78.37354311      88.36649060     104.71843571
C      80.02516390      82.27590269      97.20488389
O      78.65133288      80.60727436      96.53403105
N      82.37031426      81.61827795      97.95888469
H      83.38320756      83.19241996      98.32927105
C      83.39643564      79.08604469      97.86628810
H      82.09441422      77.83504586      98.86217387
H      85.18411674      79.13517757      98.88863004
C      83.80083708      78.18086578      95.12618495
O      84.66822146      79.64729340      93.52936621
N      83.07518218      75.67886814      94.88996916
H      82.29472520      74.84927828      96.42064747
C      83.15455067      74.31637547      92.48623729
H      84.68333927      74.61306249      91.13886243
C      83.36997948      71.41186613      93.11929560
H      81.63899018      71.00368524      94.15864507
C      83.69690213      69.75457615      90.82705758
H      83.55706238      67.75335598      91.29570972
H      85.47891405      70.20433101      89.89353279
H      82.09819366      70.05126318      89.56661013
C      85.76426272      71.03581059      94.85973354
H      85.73213736      72.43798752      96.36773513
H      87.69178356      71.42698393      94.24935195
C      85.74158600      68.45822390      96.13529880
H      87.46879585      68.40909102      97.25968595
H      85.63576133      66.98990656      94.69343763
H      84.10130356      68.46956225      97.37873871
C      80.52405165      74.80392486      91.15398024
O      78.74203973      73.31671024      91.22767957
N      79.95902348      77.08482451      90.26580887
H      81.33663397      78.34905142      90.63808495
C      77.81985330      77.77835407      88.69922576
H      77.64599847      76.52168608      87.07784058
H      78.06740744      79.71343382      88.03782155
C      75.32541456      77.80103078      90.07872596
O      73.47348278      77.78591298      88.72379220
N      75.36131936      77.87095066      92.58828251
H      77.05451414      77.78213353      93.46700524
C      72.81207857      78.14496098      94.04148204
H      71.53273386      76.67286418      93.38007783
C      73.15411902      77.52891021      96.94977084
H      74.03851095      79.23155361      97.70377164
H      74.48826580      76.00012161      97.30503939
C      70.64267276      77.36639374      98.17998267
N      68.98727250      75.36706329      97.99101004
H      69.41435065      73.72300141      97.11984621
C      66.99361124      76.01145997      99.53491643
H      65.42702814      74.71132827      99.65963838
N      67.54730105      78.12228427     100.87284266
H      66.33787621      79.01234535     102.05203188
C      69.84331853      79.13328784      99.95065622
H      70.99983103      80.68475315     100.59883235
C      71.59509482      80.74144494      93.68243404
O      72.43035385      82.62928152      94.74634996
N      69.52962396      80.75089356      92.10640230
H      69.00994922      79.08226523      91.34295287
C      67.94981276      82.93352746      91.76436184
H      69.10254581      84.59081744      91.35618095
C      66.28496388      82.42330136      89.60062521
H      65.40624114      80.57703874      89.83873072
H      67.45281474      82.43841916      87.90554070
C      64.19303686      84.47176468      89.11496554
H      63.20848944      84.79679760      90.89508773
C      65.23994523      86.97943150      88.04349072
H      63.72249500      88.30035018      87.59184614
H      66.12811659      86.49188211      86.25014045
H      66.36433238      87.87705150      89.51558753
C      62.14835298      83.43052547      87.32350501
H      62.86077980      82.81825416      85.49047048
H      60.65546920      84.82892295      87.10807620
H      61.34899875      81.67308001      88.04349072
C      66.64023242      83.65540291      94.21911633
O      65.49883773      82.02645883      95.47767405
N      66.46637760      86.16306972      94.74257050
H      67.74572233      87.30257470      93.90353202
C      65.32309319      87.35170758      96.92331468
H      64.58798966      85.80591146      98.06848882
C      67.22226814      88.96175439      98.41808819
H      66.14701386      89.76299835      99.98278157
H      67.95359222      90.32424706      97.05748524
C      69.39356367      87.49910623      99.48200411
H      70.34409601      86.52967662      97.93431825
C      71.21337010      89.50221611     100.51757412
H      70.31008092      90.61526491     102.00100928
H      71.85020787      90.94596703      99.19476570
H      73.01616900      88.58380913     100.89362965
C      68.57342245      85.97976628     101.87817706
H      70.27984531      85.40717919     102.88162173
H      67.13912018      84.68341403     101.16952969
H      67.79296547      87.26289044     103.28980262
C      62.94392776      88.81624546      96.26002073
O      60.87656717      88.44774883      97.35228254
N      63.07620860      90.43385120      94.43454512
H      64.75995475      90.57558067      93.55015321
C      60.92192060      91.95886033      93.48023333
H      59.29675597      90.79478891      92.97189695
C      60.11878693      93.99220584      95.43798979