 %block lattice_cart
   139.252   0.000   0.000
   0.000 142.425   0.000
   0.000   0.000   162.84
 %endblock lattice_cart

 %block positions_abs
N      89.32828654      40.69247519      82.39037446
H      88.23980418      39.27140100      81.73274971
H      88.92010565      40.69058546      84.25553433
H      91.19533614      40.30697102      82.32990322
C      88.64798508      43.14911939      81.38692980
H      89.25647695      44.81207855      82.44139707
C      89.67032700      43.37966600      78.74509240
H      88.49113779      42.20425624      77.53377783
H      91.60729647      42.67857754      78.79989446
C      89.58150986      46.06496709      77.64905115
H      87.70123219      46.57141374      76.97630858
H      90.57739563      45.88922255      75.85570087
S      90.65298469      48.72381202      79.57279252
C      88.82372961      51.12754389      77.80022924
H      86.85841425      50.82518768      78.33124234
H      89.09207076      50.75148835      75.79333990
H      89.49836192      53.01915992      78.25565328
C      85.70379148      43.57808727      81.28110512
O      84.28460702      42.14945417      80.11514399
N      84.84018654      45.76072116      82.15604839
H      86.10441345      47.09108848      82.68895122
C      82.16244436      46.46369935      82.66060533
H      81.10797708      45.64733758      81.09024276
C      81.20813258      45.29206903      85.22874339
H      81.70702033      43.29462832      85.27976600
H      79.15588980      45.21270053      85.07945500
C      81.65977717      46.39000002      87.79121226
O      82.46480057      48.59153117      87.96506709
N      81.21380175      44.99727173      89.84156531
H      81.53694495      45.60765333      91.61979777
H      80.27271805      43.37777628      89.47495842
C      81.39143602      49.20569223      82.56800874
O      83.04494655      50.83841576      82.53399366
N      78.91211510      49.77072039      82.56611901
H      77.68001355      48.32696949      82.76831972
C      77.85386837      52.22547487      82.56422928
H      78.25071089      52.99081403      80.69340023
C      74.96636656      51.96280292      82.73052519
H      74.62054664      50.74959862      81.10347085
C      74.10276164      50.60786915      85.05488856
H      72.05051886      50.77794452      85.13803653
H      74.88888779      51.63588026      86.65548675
H      74.63566446      48.62932570      85.24953038
C      73.69458076      54.50826426      82.37525666
H      74.35031578      55.91988982      83.72452123
H      71.63855853      54.41755740      82.45084571
C      74.12354863      55.66099731      79.69940419
H      74.74904803      54.23992312      78.34636015
H      75.67501394      57.00081327      79.92428163
H      72.72137170      56.82317899      78.74131295
C      78.91022538      54.15299571      84.62592070
O      79.27305283      56.31673234      83.82845618
N      79.55651177      53.35175176      86.94650461
H      79.59052686      51.49415079      87.38681084
C      80.53916946      55.09029996      88.86268709
H      79.57918850      56.90821668      88.71150898
C      80.36909410      53.98858952      91.59712106
H      81.08907981      55.50415003      92.79520754
H      81.81095527      52.51838245      91.61790804
C      77.66111628      53.12687432      92.43993900
C      76.03595165      54.70857525      93.73251179
H      76.51783187      56.67011116      94.03297828
C      73.74182391      53.70891003      94.66225714
H      72.47381756      54.96368830      95.65436345
C      73.23915672      51.16911786      94.52430711
H      71.54407221      50.41700679      95.36901479
C      74.94935903      49.56096077      93.34511790
H      74.80951928      47.53706389      93.54920834
C      77.02427851      50.57952325      92.20372321
H      78.15622458      49.33419361      91.04910043
C      83.24525754      55.73658636      88.37324797
O      84.04461177      57.81339558      89.04410081
N      84.62664747      53.94323609      87.14303614
H      83.75548364      52.32940982      86.61769222
C      87.18911636      54.72558279      86.23596751
H      88.05083156      55.97280215      87.62869581
C      88.76514811      52.42578586      86.05455378
H      90.74180183      52.93034279      85.76731539
H      88.08106717      51.11620553      84.61836179
C      88.73491248      50.70424519      88.53009526
H      90.15787639      49.26805319      88.14270135
H      87.03982798      49.54017378      88.60757403
C      89.27159475      52.32940982      90.98673946
O      87.73146780      52.43523449      92.85189933
O      91.18777723      53.79583744      91.04910043
C      87.24391843      56.09752409      83.67160890
O      88.98246663      57.68300447      83.40137805
N      85.44111951      55.59296716      81.91605316
H      84.32807071      54.13598818      82.44706625
C      85.11041742      56.99703381      79.51043157
H      86.67700053      56.48302826      78.27644027
C      82.69534719      55.96902270      78.30856562
H      80.91522499      56.34507824      79.27232604
H      82.87109173      53.92622856      78.10825463
C      82.14543682      57.21435234      75.90861320
H      83.51926786      56.39988030      74.60470206
H      82.41188823      59.25525676      75.98987145
S      78.96691716      56.59074266      74.64438630
C      79.55651177      56.54916868      71.26744539
H      80.71869347      58.20267920      70.86493368
H      77.82741221      56.80617146      70.17896303
H      80.66011195      54.92400405      70.65328433
C      84.89687833      59.85052055      79.82979531
O      86.41810803      61.17899814      78.75076159
N      83.03360819      60.77648644      81.29433321
H      81.98481010      59.60107667      82.37336692
C      82.35141699      63.46934644      81.43228323
H      82.34952727      64.06272050      79.46129867
C      79.75115358      63.83406361      82.70217931
H      79.44879737      65.74079746      83.42027531
H      79.68312345      62.48857848      84.26120352
C      77.41167241      63.40509574      81.00898453
H      77.79717658      62.17110446      79.40460688
C      75.31596594      62.20511953      82.53777311
H      73.65678622      61.67221671      81.43984212
H      74.77550421      63.51658959      84.03065691
H      76.02839275      60.44389461      83.33334790
C      76.62176682      65.83528378      79.78066243
H      78.17323211      66.49290854      78.59958348
H      76.24760101      67.26202715      81.22063388
H      74.97014602      65.26080698      78.69218007
C      84.47168991      65.21545355      82.69462040
O      84.23925359      67.54170664      82.42438954
N      86.24425321      64.16098627      84.04199526
H      86.14220797      62.25992160      84.16293774
C      88.46090216      65.53859675      84.86969538
H      87.79193906      67.13919494      85.98274419
C      89.95567568      63.71312113      86.45706549
H      91.61107592      64.78648568      87.04477037
H      90.54149083      62.23913461      85.14181598
C      88.63853643      62.68511002      88.72284733
H      87.13053484      61.44355983      88.06522259
H      87.85052057      64.21767806      89.85479340
C      90.58495454      61.19411595      90.23273866
H      92.00224927      62.35440791      91.17571209
H      91.60162729      59.93933768      88.95528368
N      89.55883316      59.32517663      91.91837453
H      89.95378596      57.47324484      91.68215874
C      88.05083156      59.71068080      93.83077757
N      87.74280616      62.05583115      94.73217702
H      86.74692039      62.21078871      96.35545192
H      89.01648170      63.46178753      94.54131465
N      86.95290056      57.80583668      94.96272362
H      86.08551619      58.24992236      96.60300607
H      87.11541704      55.99736859      94.37312902
C      90.08228734      66.66865308      82.66060533
O      91.20289504      68.74168285      82.97241016
N      90.37897437      65.34395494      80.56300911
H      89.27537420      63.78682046      80.55167076
C      91.19155668      66.54771060      78.17250533
H      93.02837067      67.47556622      78.24242521
C      91.38430877      64.60129250      75.98231254
H      89.45111876      63.89264513      76.07301940
C      91.99469038      65.71245157      73.32157788
H      93.77292284      66.75180104      73.41984365
H      90.35251820      66.83116955      72.77922643
H      92.18933219      64.23657532      71.90050369
C      93.00380423      62.31661338      76.73064415
H      92.95278161      60.96356934      75.17917886
H      92.42743770      61.39253722      78.47864100
C      95.81571697      63.08006282      77.27110588
H      96.82861027      61.41332421      77.93439982
H      95.94799782      64.48223974      78.77532802
H      96.69821917      63.78304100      75.54767548
C      89.23380023      68.45444445      77.33157712
O      90.06150035      70.52369476      76.74387223
N      86.72046424      67.93099026      77.35614356
H      86.10441345      66.19622151      77.86259021
C      84.98191603      69.75646588      76.22608723
H      86.06850865      70.38952419      74.59336369
C      82.64243484      68.32216361      75.31334942
H      81.27427299      69.83394466      75.02422130
H      81.99803818      67.01825245      76.77221814
C      83.12620478      66.56660786      73.10047991
O      84.65499338      67.06549561      71.37704951
O      82.18512108      64.47657056      73.29890117
C      84.35641662      72.19610255      77.66605868
O      83.78949872      73.98567337      76.24687422
N      83.99925834      72.38129573      80.11136452
H      84.10886246      70.85439687      81.24709004
C      83.52682677      74.79825568      81.43795241
H      82.77471568      76.31003673      80.26065291
C      81.72591758      74.53747345      83.65649109
H      81.47647371      76.28736002      84.71473783
H      82.81817939      73.27135682      84.85835703
C      79.18801515      73.26946710      83.33901708
H      78.19968829      73.00679514      85.12858789
H      79.51304808      71.40619695      82.52454504
C      77.50993819      74.85683720      81.51543118
O      77.89355262      77.17742111      81.15071400
O      75.77705915      73.84583362      80.32301388
C      85.79827779      76.04736478      82.85335740
O      86.02126549      78.33015416      83.14815472
N      87.48769311      74.40519261      83.82278700
H      87.28927186      72.60995261      83.20673623
C      89.35285298      74.96266187      85.68416742
H      90.58306482      76.43475867      84.93583580
H      90.62652852      73.36584314      85.95250857
C      88.39098229      76.04169560      88.20695206
O      86.20078950      76.42719976      88.85512818
N      90.21267846      76.35539016      89.90014684
H      92.03626435      76.00390107      89.46739951
C      89.75536469      77.30214305      92.55899175
H      87.83162330      76.75979160      93.05598978
C      91.62241428      75.79036200      94.13313378
H      93.55371457      76.40452305      93.76841660
H      91.60351703      73.76646512      93.74762961
C      91.16321079      76.17397644      96.95260543
H      91.15754161      78.19409387      97.35322740
C      88.58373438      75.18375985      97.72550349
H      88.27570898      73.43387328      96.68426430
H      87.11352730      76.52357581      97.19260067
H      88.36452612      74.73400499      99.72483394
C      93.14553370      74.86250638      98.59477759
H      92.70522747      72.85183758      98.50596045
H      93.11529807      75.25179000     100.61678475
H      94.95589151      75.46721880      97.81998981
C      89.88575581      80.18397567      93.20338842
O      91.85296089      81.29135529      92.75930274
N      87.97713222      81.26300940      94.54131465
H      86.45968200      80.19909348      94.99484897
C      88.08106717      83.80091184      95.67515044
H      90.08039762      84.24310779      95.89246897
C      86.84140672      85.86638270      94.04809608
H      86.87164233      87.66729187      95.04587159
H      84.90254752      85.22576548      93.78353440
C      88.05839047      86.21409234      91.41381761
H      87.60863560      84.43963933      90.47273390
H      90.10496406      86.36149099      91.58767242
C      86.85274508      88.28145293      89.69605639
H      87.30061020      90.13905389      90.46328528
H      84.82128929      87.94508164      89.70550502
N      87.89776373      88.39294678      87.08634435
H      89.36608107      89.54190038      86.68761210
C      86.94156220      87.34225895      84.94339471
N      85.26537497      85.49788607      85.06433719
H      84.58885295      84.76656198      83.43350338
H      84.77026667      84.67585512      86.71406826
N      87.78249041      88.14728236      82.75131219
H      87.42155270      87.61060008      80.95229274
H      89.12230637      89.50221612      82.81934234
C      87.07195333      83.65729264      98.26029603
O      85.12742495      82.47432397      98.76296324
N      88.32673159      84.81002569     100.17647852
H      89.83473319      85.86827242      99.67948051
C      87.62753287      84.64939895     102.83721316
H      86.31228334      83.14706653     103.33421119
C      89.99724965      84.17507765     104.43214217
H      89.42088313      84.09192969     106.40690618
H      91.22179231      85.80402173     104.12789625
C      91.24446903      81.62205740     103.85199619
H      92.00224927      81.61827795     101.93581371
C      93.38930838      81.52757108     105.71337662
H      92.45767331      81.44064367     107.54830087
H      94.54393117      83.22265559     105.52251426
H      94.34928935      79.77201534     105.22582723
C      89.39820642      79.33170911     104.28285379
H      88.62341862      79.37139336     106.19147738
H      90.50936548      77.64040406     103.90868799
H      87.88831509      79.44320296     102.88634606
C      86.27259910      87.14005823     103.82176057
O      85.84741067      87.38572265     106.14423421
N      85.60930515      88.89372425     102.10966853
H      86.35007788      88.78223040     100.35222307
C      84.09941384      91.13493966     102.58398985
H      83.32462605      90.92140058     104.48316478
C      86.01748604      93.36481671     102.61800492
H      87.34785336      93.13804955     104.17324967
H      85.01782083      94.97486353     103.42680778
C      87.04360743      94.07535380      99.96293945
H      85.42600171      94.39849700      98.73272762
H      88.21712747      92.55979330      99.20704892
C      88.57995493      96.56790281      99.91569628
H      87.24769788      98.01543316     100.52607789
H      89.15821117      96.98931178      97.98439599
C      90.88353130      96.50176239     101.76951781
H      92.33862056      95.11281355     101.33299102
H      89.97457295      96.05389725     103.56286807
N      91.99846983      98.96974495     102.26462609
H      93.09829053      98.35369417     103.69892837
H      90.54716002     100.12625746     102.71627068
H      92.87908229      99.67083341     100.72260943
C      81.92055939      91.44674450     100.59977722
O      82.14543682      90.38471831      98.49462211
N      79.99870774      92.86970841     101.19126155
H      79.68690290      93.30434547     103.02240634
C      77.85953754      93.34402972      99.55097912
H      76.89010795      91.54123082      99.30720442
C      75.72036736      94.96919435     100.79441902
H      76.58397228      96.78522133     101.23850470
C      73.55663073      95.40572113      98.89713380
H      73.09175806      93.58024551      98.06565423
H      74.23693220      96.58868980      97.35322740
H      72.08831338      96.49798293      99.84010724
C      74.72070214      93.65205511     103.21515844
H      76.42901474      93.13238037     104.24316955
H      73.55285129      92.02500075     102.73705768
C      73.26939233      95.55689923     104.91969156
H      74.52606034      97.02332685     105.63400812
H      72.63444430      94.74431692     106.70359321
H      71.56674892      96.25042879     103.98805649
C      78.72692192      94.61392580      97.04898148
O      79.95902348      96.63404323      97.06409928
N      78.16189375      93.51788454      94.86634758
H      76.80318055      92.17995831      94.77375100
C      79.06140348      94.16228121      92.35301159
H      79.88343443      96.05389725      92.37190884
C      81.11931544      92.34814395      91.53098064
H      82.50070537      92.24609873      93.05787949
H      81.91677995      93.17962353      89.82455778
C      80.37476327      89.70063739      90.82800246
C      79.66422618      89.19419073      88.25797467
H      79.49981998      90.59447793      86.78020869
C      79.16344871      86.66573693      87.48318688
H      78.39433009      86.18952590      85.65582154
C      79.13321308      84.70798047      89.30110358
O      78.52283149      82.32503559      88.70583980
H      77.95780332      82.02456910      87.00886558
C      79.77005085      85.28434699      91.86168274
H      79.77949949      83.73855087      93.19393980
C      80.43901396      87.78067545      92.66292671
H      80.93223253      88.41940295      94.53753520
C      76.78050383      94.26432643      90.48974144
O      74.63188500      93.80701266      91.05854906
N      77.32285527      95.00131969      88.14459109
H      79.14077198      95.52855334      87.90837529
C      75.50304883      95.39627249      86.11502502
H      73.65300677      94.96352517      86.90493063
C      75.66934475      98.21952361      85.45929000
H      74.37866168      98.65227093      83.91349388
H      77.54584299      98.73352916      84.78087824
C      74.85676244      99.94106428      87.60790882
H      76.24760101     100.05255813      89.12346931
H      73.07286079      99.38170529      88.47151374
C      74.76038640     102.60935783      86.73674499
H      76.41389692     103.06289215      85.59346057
H      74.83030626     103.80744431      88.40915277
C      72.47192784     103.26887231      85.24197147
H      70.76739470     102.90793459      86.33801274
H      72.37933125     102.17472078      83.49775408
N      72.60987786     105.98062957      84.50875765
H      72.84987309     107.19950304      85.95817775
H      70.96770568     106.41148717      83.63948355
H      74.03851094     106.25086044      83.27098693
C      75.84508930      93.69551881      83.81900755
O      77.60820395      94.06590517      82.32990322
N      73.94780409      92.05145692      83.51854108
H      72.51728127      92.40861519      84.72985563
C      73.45836496      90.56613204      81.21685442
H      75.08352959      89.34914829      80.87292423
C      71.20770093      88.84459137      81.75731615
H      69.74316304      90.24298884      82.13526142
H      71.40423247      87.55012884      83.34657597
C      70.47637685      87.20619865      79.40271716
O      71.58942565      85.08781546      79.13248629
O      69.09498691      88.28334265      77.73219911
C      73.17112657      92.29145216      78.83201981
O      72.38689014      94.49109359      78.91705749
N      73.86843558      91.17462391      76.58891469
H      74.18968904      89.29812568      76.72308524
C      73.94780409      92.71853031      74.14549856
H      74.80385011      94.50243195      74.71430618
C      75.49926938      91.27099995      72.14427840
H      75.45769541      92.42562273      70.43974526
C      78.29606433      90.84770126      72.93985317
H      79.49037136      89.64772505      71.76444340
H      78.04662046      90.00299360      74.80123359
H      79.23525831      92.67884606      72.93418399
O      74.34653633      88.88238589      71.77578177
H      74.97770493      88.21153305      70.21297811
C      71.42124000      93.66150374      73.20630458
O      71.28517970      95.54934033      71.73231805
N      69.29907736      92.70719195      74.19274171
H      69.51450615      91.17840336      75.31523915
C      66.60243790      93.58213523      73.84314235
H      66.67235777      94.44385043      71.97420302
C      64.74105748      91.30501503      74.05290197
H      64.32720742      90.74565604      75.99176116
H      65.81631176      89.73654219      73.26488609
C      62.34299479      91.70941646      72.53167228
H      61.48505904      93.50276673      73.07591346
H      61.19215146      90.06535457      72.99843469
C      62.94203803      91.58469452      69.69330337
O      62.57543113      93.46119275      68.36482577
O      63.60911142      89.55512846      68.74655049
C      65.86544464      95.68918007      75.71397140
O      63.97004914      97.00065013      75.43618163
N      67.55297024      96.32790757      77.43173262
H      69.25183419      95.64193691      76.89505035
C      67.67202299      98.40660651      79.28744386
H      66.14134469      99.73886356      78.94540339
H      69.54663149      99.24186554      79.10980958
C      67.29029829      97.53544268      82.15226895
O      67.08053867      99.26643198      83.71129315
N      66.95014754      95.11092382      82.79666561
H      67.19770170      93.87315309      81.36236335
C      65.74639189      94.20574492      85.31378107
H      64.51995951      95.73831296      85.94494966
C      64.02863067      91.97775759      84.52009601
H      62.94581748      91.33903010      86.15470928
H      65.33443155      90.56802176      83.77743358
C      62.00284405      92.63349262      82.43005872
C      61.23561517      90.75888412      80.69340023
H      61.98772624      88.86348863      80.64237762
C      59.57454574      91.41839861      78.81690201
H      59.22305666      90.02567031      77.36937165
C      58.27252431      93.70307772      78.92083695
O      56.59633708      94.16795039      77.06890517
H      55.75540886      95.77610748      77.05567708
C      58.72983808      95.50209717      80.85591670
H      57.47883926      97.09891590      81.06567632
C      60.77263222      95.03533477      82.50564777
H      61.20348982      96.33546647      84.01931855
C      67.62666957      93.50276673      87.46428961
O      69.57119794      92.18940694      87.07878544
N      67.02573659      94.31345932      89.77353516
H      65.56497816      95.54178142      89.81510914
C      68.54507656      93.92795515      91.92593344
H      70.49338438      94.27188534      91.34956691
C      67.92713604      95.65138555      94.15014131
H      69.01939785      95.06746012      95.79420321
H      65.91268779      95.51154580      94.55265302
C      68.58476081      98.44062158      93.60023096
C      66.57787147     100.09791156      93.07299731
H      64.69192460      99.31745459      93.04465142
C      66.95959618     102.77754347      92.49474106
H      65.47238157     104.05499846      91.93160262
C      69.45403490     103.65059703      92.63458080
O      69.92457677     106.07322616      92.15836977
H      68.35610392     106.90848519      91.79176286
C      71.39289411     102.03110158      93.25441104
H      73.30907658     102.72652086      93.15047608
C      71.07164063      99.45729434      93.70416590
H      72.73271006      98.31778937      94.03108855
C      68.74916699      91.09336568      92.63836025
O      66.89156603      89.79701343      93.39047134
N      71.11321462      90.23920939      92.87646577
H      72.43035385      91.53178218      92.38702665
C      71.89556131      87.60304118      93.29976446
H      70.38755971      86.57503006      94.25407626
C      72.52672989      86.49566156      90.64091955
H      74.29551373      87.41028910      90.11179617
C      73.11065533      83.71020497      90.49730034
H      71.60832290      82.41952190      91.06421823
H      74.80951928      83.35493643      91.60279024
H      73.60387389      83.28690628      88.54332333
O      70.62755494      86.89817326      88.77953912
H      70.73526935      88.64617010      88.31466645
C      73.97237053      87.33470004      95.19515995
O      75.25549470      89.20741882      95.65436345
N      74.20102740      85.12560998      96.33277519
H      73.03128682      83.61949811      96.26096560
C      76.60097982      84.60026607      97.78030555
H      77.97670059      85.76811693      96.79008896
C      76.35909485      85.26356000     100.56198269
H      75.49548993      87.12871987     100.43537102
C      74.61865693      83.31714190     102.00573359
H      72.84609364      82.96943226     101.01551701
H      73.91189929      84.38294754     103.62333931
H      75.62588104      81.55024780     102.32698706
C      78.87621031      85.55457786     102.01329250
H      80.35586600      86.56369171     100.99661975
H      79.58863712      83.66674127     102.42903229
C      78.63243561      87.06635891     104.57954082
H      77.65544711      88.84837082     104.23183119
H      80.57318453      87.20619865     105.25606285
H      77.55718133      85.83614708     105.83431911
C      77.58552724      81.92441361      97.38346302
O      76.08319481      80.31436679      96.57277045
N      79.98358992      81.36883407      97.75384938
H      81.26104491      82.73132674      98.14124329
C      80.94357089      78.67975353      97.84266652
H      79.44312820      77.53457938      98.66658720
H      82.76337734      78.53613433      98.79508859
C      81.53505523      77.72733147      95.14980653
O      82.80684103      79.09549332      93.71550425
N      80.62798660      75.48989551      94.39580573
H      79.49226108      74.50912756      95.57688468
C      80.83585650      74.16141791      91.85601356
H      81.90733131      75.32548932      90.53509487
C      81.96591283      71.42887367      92.09978825
H      80.48058794      70.43676735      93.12779937
C      82.28905603      70.23645636      89.46739951
H      82.43834441      68.18232386      89.46739951
H      83.98980970      71.21155514      88.83434118
H      80.64688387      70.40464200      88.23718768
C      84.58507349      71.21911405      93.65881246
H      84.32240154      71.83705455      95.60901003
H      86.09874428      72.37940600      92.87835549
C      85.63765105      68.58294584      94.15581049
H      86.38220323      67.82138613      92.39269583
H      84.23358440      67.36218264      95.04020241
H      87.24391843      68.75491093      95.43326547
C      78.14677595      74.36361863      90.64091955
O      76.57074421      72.71388756      90.59745584
N      77.49859982      76.64262856      89.94361054
H      78.70235548      78.12417399      89.97006670
C      75.00794054      77.13206768      88.77953912
H      74.86621106      76.01712915      87.05421900
H      74.99471245      79.08982414      88.13325273
C      72.69491554      76.93742587      90.27242291
O      70.77306387      76.81837311      89.13291795
N      72.78751213      77.16041357      92.81221507
H      74.47881717      77.37584237      93.67015082
C      70.44236177      77.21899509      94.50540985
H      69.05719239      75.78658254      93.98384540
C      71.05274338      76.44609703      97.19449040
H      72.26405794      77.94087054      97.92770420
H      72.15445382      74.71321800      97.36267605
C      68.72649028      76.20610179      98.72516871
N      66.56275365      74.75101252      98.02785970
H      66.41346527      73.62662537      96.49151222
C      64.65035063      75.26501808      99.65680378
H      62.87211816      74.26724259      99.75695927
N      65.53474253      77.01679437     101.30842458
H      64.59554855      77.77457463     102.78997001
C      68.04429907      77.64418351     100.68859436
H      69.16679651      78.90652069     101.83187877
C      69.11766363      79.87217083      94.30698859
O      69.83953908      81.60316014      95.68270935
N      67.52651407      80.30491816      92.34734241
H      67.48871954      78.97644056      90.97729082
C      66.17913920      82.70487058      91.82010877
H      67.51706544      84.25633588      91.60279024
C      64.82798490      82.55936165      89.23307345
H      63.27651959      81.21765597      89.41826663
H      66.07331454      81.89039853      87.73641020
C      63.83209912      85.08592573      88.40159386
H      64.90168422      86.37093962      89.60723925
C      64.37067113      85.33347988      85.55377631
H      63.52218402      83.80091184      84.46907341
H      66.33409676      85.43552510      84.93961525
H      63.51462511      87.07391781      84.86213647
C      61.13168022      85.69441760      88.98929874
H      60.72349935      85.16529424      90.93760658
H      59.99028553      84.75711335      87.55310674
H      60.74050688      87.70886585      88.82678228
C      64.36689168      82.99021925      93.85156455
O      63.09321613      81.23088405      94.74351538
N      64.54641567      85.03301339      95.26319010
H      65.36088771      86.56558143      94.46572561
C      63.17447437      85.63394636      97.58566375
H      62.57732085      83.95775912      98.62312350
C      64.92058148      87.32525141      99.22594618
H      63.79619432      88.16995907     100.73016834
H      65.61033158      88.86159890      98.03919806
C      67.27895992      86.14228274     100.36734087
H      68.18035937      85.05757984      98.86689818
C      68.98727252      88.19074606     101.46716159
H      70.92046253      87.54068021     101.75439999
H      68.07075524      88.83703246     103.19815089
H      69.12144308      89.84803604     100.25017784
C      66.74605711      84.19964409     102.51029051
H      65.54608089      84.99521887     103.98427704
H      68.49972313      83.83303718     103.52507354
H      65.99016657      82.48566232     101.65046505
C      60.70838154      86.98888013      96.74473554
O      58.68070519      86.35960127      97.62912746
N      60.87467744      88.93340850      95.14224762
H      62.63968182      89.46820105      94.64524961
C      58.74684562      90.71919987      94.33722422
H      57.01963576      89.59670244      94.27297352
C      58.21961197      92.69018441      96.43482042