 %block lattice_cart
   139.252   0.000   0.000
   0.000 142.425   0.000
   0.000   0.000   162.84
 %endblock lattice_cart

 %block positions_abs
N      91.76697835      40.24555491      79.06445615
H      90.94494740      39.56147398      77.48275523
H      91.35879747      38.94353349      80.40049265
H      93.63969712      40.05847200      78.75076158
C      90.95439604      42.83259023      79.63137405
H      92.16949006      43.60548830      81.10725030
C      91.54777010      44.52011583      77.29567232
H      90.67093708      43.51478144      75.72342004
H      93.58489507      44.56924872      76.98764693
C      90.51031036      47.18840938      77.41661480
H      88.45995730      47.00321621      77.36181274
H      90.79376930      48.20886160      75.65161043
S      91.35123856      49.47497823      79.81278778
C      94.75274592      49.38616108      79.53877746
H      95.42359877      49.96063788      77.67739703
H      95.43115767      47.46430942      79.83546448
H      95.52942344      50.57101948      81.03355097
C      88.21051342      42.95353271      80.46663308
O      86.60991524      41.47387701      79.50665211
N      87.55288867      44.62594051      82.23730663
H      88.65270939      46.14339073      82.60580326
C      85.00742733      44.89239192      83.40515749
H      83.75453878      43.84926300      82.14471004
C      84.73719647      43.65084172      86.08667913
H      85.80678155      41.89150654      86.04888460
H      82.77377082      43.38250059      86.65170729
C      85.94851103      45.20608649      87.94805955
O      84.79577799      46.67818329      89.30677277
N      88.35980180      44.73932408      88.49419045
H      89.30277523      45.82969617      89.74518928
H      89.36135676      43.63383420      87.30555261
C      83.91327580      47.63438480      83.22752321
O      85.35891642      49.44096316      83.64704246
N      81.46796994      47.99910198      82.91571837
H      80.45696636      46.50810791      82.28832924
C      80.23019920      50.41039274      83.10847046
H      80.80845546      51.35147645      81.36992226
C      77.36915357      49.96252761      83.20484651
H      76.86459665      49.04034117      81.43228322
C      76.41295206      48.06902184      85.17394132
H      76.31846573      48.84003019      87.08256489
H      77.47119879      46.31913529      85.42527492
H      74.46653395      47.47942724      84.84512894
C      75.83091635      52.37570811      83.33901707
H      76.08413967      53.44718294      85.08134473
H      73.89583660      51.68406828      83.43917257
C      75.93296158      53.94985014      80.91827767
H      77.82079816      54.76243245      80.75387147
H      74.55535109      55.48241817      80.89749068
H      75.68351770      52.81034517      79.22130343
C      80.94451575      52.19807384      85.20606666
O      81.26576922      54.46007624      84.80355496
N      81.42639597      51.27588740      87.51909167
H      81.29978431      49.43907343      88.02364861
C      82.30511870      53.14293699      89.41826663
H      80.89538287      54.63393106      89.59212145
C      82.31456733      51.83713611      91.92404371
H      83.14226745      53.02577396      93.38858160
H      83.57501479      50.21764067      91.73318135
C      79.78611352      50.99998736      92.79142809
C      78.22142013      52.58924719      94.28809132
H      78.94329558      54.47330433      94.59044753
C      75.81579855      51.70674499      95.15925515
H      74.68385248      52.89160340      96.37623891
C      75.04667993      49.29734396      94.47517423
H      73.18529951      48.81357402      95.15736544
C      76.64538839      47.54367794      93.19016034
H      75.89894649      45.70497423      92.71016986
C      79.01888464      48.46019519      92.50607941
H      80.36248005      47.12982786      91.73318135
C      84.81656496      54.48464268      88.93071724
O      85.23797393      56.75798343      89.35401592
N      86.56834126      53.05223014      87.81388899
H      86.04677679      51.30234357      87.25264026
C      89.11002315      53.80623094      86.98429913
H      90.09268084      55.22919484      88.10490684
C      90.82022546      51.41005796      87.11280052
H      92.59845792      51.98075531      86.24352641
H      89.98874588      50.07591120      85.78054346
C      91.21895771      50.40850303      89.78676325
H      92.59467847      48.87404525      89.79999133
H      89.43694580      49.55056727      90.35557087
C      91.89925919      52.44751772      91.65948202
O      93.06144087      54.38637691      91.24563197
O      91.07533851      52.11114643      93.87424126
C      89.06466972      55.04400166      84.29521858
O      90.56511241      56.65593821      83.82656646
N      87.13903860      54.49976050      82.75131218
H      86.07323296      53.01632534      83.30311227
C      86.52676729      55.88492987      80.38348511
H      88.06878395      55.45407228      79.08713287
C      84.18917583      54.67739477      79.12870684
H      82.46385570      54.73975574      80.25120427
H      84.61247453      52.68751296      78.80367392
C      83.48052846      55.64871408      76.50954617
H      84.78254989      55.01565577      75.04500828
H      83.21785650      57.68961850      76.60781194
S      80.47019445      54.19740429      75.50799123
C      80.59491639      55.21596677      72.24821334
H      78.96597231      54.37692829      71.30901936
H      82.35425158      54.58290845      71.38271868
H      80.50987871      57.26631982      72.06113043
C      85.97118775      58.72896798      80.97496946
O      87.28265780      60.54121552      80.22663783
N      84.36869984      59.29021669      82.79288616
H      83.11959075      57.95795965      83.34468625
C      83.54855861      61.93016436      83.45051093
H      83.51643326      62.99596999      81.68928600
C      80.96530275      61.80922186      84.72040700
H      80.68940270      63.48162965      85.88825786
H      80.80089656      60.23507985      86.03754624
C      78.96786203      61.39537180      82.66627450
H      79.56690528      59.84390650      81.45118048
C      76.44696712      60.53365661      84.04955416
H      75.00888541      60.36925041      82.58501627
H      75.71942250      61.91315681      85.39503930
H      76.62838085      58.75164469      85.07189611
C      78.21764068      63.87280300      81.19606744
H      79.78422380      64.37924965      79.95829670
H      78.12126464      65.51497516      82.43761763
H      76.51877673      63.68572009      80.04711384
C      85.54977877      63.46840158      84.94528443
O      85.50064589      65.72473478      84.82245223
N      87.33934959      62.13425480      86.12447366
H      86.71573992      60.36736070      86.48541138
C      89.51820403      63.25108305      87.49074579
H      88.59034841      64.60979626      88.72851651
C      90.50842062      61.15159712      89.28409605
H      91.78209616      59.87414212      88.29010002
H      88.86246901      60.02909969      89.79999133
C      91.53076255      62.33834524      91.71995327
H      90.31755827      63.77831668      92.54954312
H      93.14269910      63.48540911      91.14925593
C      92.37924968      60.38058877      93.67393028
H      92.96695456      61.19317109      95.47294973
H      94.12724651      59.60202153      92.91048084
N      90.50086171      58.32078710      93.89313853
H      90.89581452      56.81467523      92.78953836
C      88.76042379      58.17149871      95.65058400
N      87.92705448      60.15760108      96.85244993
H      87.18628176      60.11224764      98.60989541
H      88.71507035      61.85268557      96.47072522
N      87.83445789      56.05878469      96.08522106
H      86.85746939      55.73375178      97.69337814
H      88.64892994      54.60747489      95.14980653
C      91.48162967      64.30366061      85.77676401
O      92.48129489      66.34834447      86.19817298
N      91.99374550      62.97329328      83.69617535
H      91.09234606      61.32356221      83.35791434
C      93.57922588      63.85579546      81.70818327
H      95.39147342      64.54365585      82.40171283
C      94.41259518      61.89803901      79.75042680
H      92.64003191      61.17427383      78.98697737
C      95.77697758      63.10746384      77.50543194
H      96.70861265      61.53521156      76.54923042
H      97.15269835      64.43783117      78.26510192
H      94.49385341      64.06366537      76.20907969
C      96.00185501      59.71729484      81.11858865
H      95.25163366      59.35257766      83.00642525
H      97.96717039      60.32200726      81.18850853
C      95.92437624      57.25309173      79.51421102
H      93.95528142      56.74097590      79.18539863
H      97.13002163      55.78477439      80.31356525
H      96.78987088      57.81811989      77.73030937
C      92.41515448      66.29732187      80.43828719
O      93.64158685      68.22673242      80.00931930
N      90.00764316      66.08378278      79.83546448
H      89.19506083      64.38302911      80.13593098
C      88.50720046      68.06988515      78.32746289
H      89.40482045      68.21350434      76.48120028
C      85.67639045      67.11935280      78.07801901
H      84.43672998      68.69727428      78.55423004
H      85.43639520      65.93071495      79.74097817
C      84.95640471      65.73985260      75.62704399
O      86.05244598      66.29543213      73.53700668
O      83.53155108      63.85957491      75.67806659
C      88.52609772      70.70038417      79.44429114
O      88.74719570      72.61845637      78.07612929
N      88.47129566      71.02919655      82.00109084
H      87.92516475      69.54009222      83.06122730
C      88.04421751      73.64835722      83.16894170
H      88.32578674      75.23950677      81.89148671
C      85.28143765      73.84110930      84.02309800
H      85.18506160      72.38224059      85.47251807
H      84.10602787      73.35733937      82.40360254
C      84.30255941      76.58310219      84.87914401
H      85.45529246      76.97427553      86.54021345
H      82.37692829      76.47916723      85.60479892
C      84.41972244      78.50495384      82.75131218
O      82.56968038      78.66369085      81.38881951
O      86.47196522      79.67658416      82.55856010
C      89.75064037      74.02252303      85.44606192
O      90.24007948      76.16925212      86.11124557
N      90.39692677      72.06665630      86.84445938
H      89.70150749      70.33755671      86.44383740
C      91.69705848      72.21972412      89.21417618
H      93.52064437      73.17025646      89.28598578
H      92.20350512      70.31110055      89.79810160
C      90.06433494      73.25907359      91.34200800
O      87.87036270      73.76174079      91.11713058
N      91.17360429      73.42914896      93.50574463
H      92.96884428      72.79231120      93.65881246
C      89.91693628      74.16614223      95.96805803
H      87.87414215      74.14913470      95.70160662
C      90.67849599      72.08555355      97.72739322
H      92.72695931      72.18003987      97.91258640
H      90.22307195      70.25629849      96.89591365
C      89.44639444      72.62979473     100.38623814
H      90.00764316      74.53652858     100.92103069
C      86.53621591      72.31610016     100.42025322
H      86.03354871      70.45660947     101.14590811
H      86.00520282      72.27263646      98.43037140
H      85.53844043      73.92425726     101.23661498
C      90.45361856      70.69660471     102.33076651
H      89.96228971      68.78798114     101.72416437
H      89.77520681      70.71928143     104.27718462
H      92.49074352      70.99518147     102.36667131
C      90.87124808      76.82309743      96.71449992
O      93.00663882      77.17836597      97.19826986
N      89.07600808      78.67880866      96.84489103
H      87.40171057      78.06842706      96.15892038
C      89.31789305      81.26962344      97.88424051
H      91.21139881      81.84598997      98.46249675
C      88.02720998      83.24438743      96.00018336
H      88.00642299      85.13978292      96.80709651
H      86.13370420      82.63400583      95.46917027
C      89.47285060      83.31430731      93.56432616
H      89.81300135      81.42080154      92.82922261
H      91.34178993      84.13066908      93.86668237
C      88.19161616      85.04907606      91.55176762
H      88.25019768      87.02572978      92.13758279
H      86.26598505      84.39334103      91.24752169
N      89.69583830      85.07175279      89.14047686
H      90.71251107      86.66668179      88.90048161
C      89.90370820      83.23871825      87.45295125
N      88.67538611      81.24694673      87.37925193
H      88.97774232      79.97705064      85.99030308
H      87.70784622      80.82742749      88.96851175
N      91.37958445      83.49572103      85.54432768
H      91.59690298      82.09165438      84.27254188
H      92.70239287      84.86766234      85.66904962
C      87.96673874      81.26773371     100.51284981
O      85.65560346      80.82931720     100.43348130
N      89.07789780      81.68158377     102.65579944
H      90.97518303      81.84032078     102.78619055
C      87.83256816      81.78362900     105.14645873
H      86.38881727      80.32098084     105.31086491
C      89.92449519      81.15435014     107.12122272
H      89.42749717      81.56442074     109.07708945
H      91.38525363      82.58487295     106.87744803
C      91.31344404      78.68069839     106.92847063
H      92.42082365      78.46904904     105.20504023
C      93.25230323      78.79786142     108.99583122
H      92.23940992      78.45771068     110.75516642
H      94.24063010      80.58932196     109.26417237
H      94.62046509      77.26718311     108.84465311
C      89.44639444      76.54152820     107.15523780
H      90.49708226      74.80675944     106.78674116
H      88.11035793      76.65680151     105.59243413
H      88.45617784      76.37334257     108.95425725
C      86.59668716      84.28940608     105.99494583
O      85.06978829      84.44625337     107.75428103
N      87.04833174      86.28495707     104.44159081
H      87.64737498      85.63111177     102.75028575
C      85.95606993      88.74349100     104.61355590
H      84.82412387      88.68113004     106.33320685
C      88.06689422      90.58030498     105.05575186
H      88.39003743      90.47448031     107.08720765
H      87.42060782      92.51727445     104.78930045
C      90.62369392      90.49715702     103.69514892
H      91.74808108      88.86443350     104.25450790
H      91.69894820      92.09775521     104.41891409
C      90.41960349      90.45180360     100.71505052
H      89.35568757      88.90600747      99.87034285
H      92.35657295      90.21558780     100.05742577
C      89.22529646      93.03505946      99.82309971
H      89.43694580      94.55817887     101.19504101
H      87.21651739      92.58341487      99.85144560
N      90.20984387      93.83441369      97.27196917
H      92.10334964      94.07818838      97.23039519
H      89.26876017      95.39910708      96.71261018
H      89.72796365      92.55506898      95.93971212
C      84.10980732      89.34442397     102.35533295
O      84.14760186      88.09153543     100.35222307
N      82.36370021      91.25115782     102.74839603
H      82.45251735      92.21680797     104.38867848
C      80.20941221      91.86720861     100.96260466
H      79.46108059      90.00960763     100.48639363
C      78.26299411      93.55662392     102.30242062
H      79.28911551      95.04383853     103.29263721
C      76.59436579      94.68856999     100.17458880
H      77.58269265      96.02460650      98.95382559
H      74.74621344      95.39343790     100.74528614
H      76.12760338      93.03694919      99.03508382
C      76.61893223      91.96358464     104.11655788
H      77.78489336      90.87321256     105.41857931
H      75.70997386      90.49526730     102.99783991
C      74.63849905      93.55662392     105.53574234
H      73.29112419      94.68479053     104.45859834
H      75.57013413      94.86242480     106.82831515
H      73.55568587      92.28294839     106.73760827
C      81.33379938      93.11820742      98.62879267
O      82.70574067      94.93801387      98.65524883
N      80.80656573      92.09208603      96.38001836
H      79.77099571      90.49148784      96.50663002
C      81.42828569      92.99915466      93.89880770
H      82.20307347      94.90588852      93.94794060
C      83.47863874      91.28517289      92.91426030
H      85.03577322      90.83541803      94.18226666
H      84.33090530      92.32074291      91.35334636
C      82.55645229      88.74160129      91.91837453
C      81.95929878      88.48459850      89.36157483
H      82.17850703      90.15889601      88.21640068
C      80.88404451      86.18291186      88.55088224
H      80.13004371      86.03929265      86.66304565
C      80.78955820      84.00594714      90.17226741
O      79.68217857      81.83843106      89.45795087
H      79.65761213      81.75717282      87.64570334
C      81.40749870      84.42924583      92.76119246
H      81.09002469      82.86266272      94.03108855
C      82.24086801      86.71203522      93.58700286
H      82.79644755      87.02384007      95.52586206
C      79.09447370      93.41300472      92.16214923
O      77.41261728      91.92956958      92.23962800
N      78.98486956      95.19501664      90.36501950
H      80.52877596      96.27782981      90.06833248
C      77.18396039      95.38587899      88.20884179
H      75.23754228      95.27438514      88.86835626
C      77.13671723      98.15432804      87.37736220
H      76.17484655      98.27716025      85.55944548
H      78.98675929      98.92911583      86.90871007
C      75.55312659      99.66610909      89.27842688
H      76.36759862      99.76437486      91.16626346
H      73.59914958      99.01226379      89.23874262
C      75.37360258     102.37597664      88.36757879
H      74.71786755     102.35896909      86.41549151
H      77.27277753     103.16021305      88.52442608
C      73.52356052     104.16743717      89.75463790
H      74.03189690     104.65309683      91.68971765
H      71.72265135     103.23013292      90.09100918
N      73.14561527     106.56549986      88.27498220
H      72.78656727     106.32172517      86.41549151
H      74.78967715     107.53492946      88.29010002
H      71.83225548     107.74846854      88.99118848
C      77.84536460      93.48481433      86.12258393
O      80.00721150      93.57930064      85.39503930
N      76.07847050      91.92390039      85.31378107
H      74.34748120      91.96169491      86.12069421
C      76.60192469      90.01149736      83.26531775
H      78.28567083      88.90411774      83.69617535
C      74.31346612      88.21814709      83.63003492
H      72.55413093      89.23859930      83.30878146
H      74.28700996      87.39233669      85.51598179
C      74.32102503      85.82197412      82.04833400
O      72.63538915      85.50261038      80.57812692
O      76.41295206      84.59743147      81.98975248
C      76.49987946      91.02817012      80.53088378
O      76.20886161      93.32418759      80.15293850
N      76.57168906      89.34631371      78.59580403
H      76.75688224      87.46603602      78.88115269
C      76.29767875      90.09842477      75.99743034
H      77.63938444      91.62343390      75.66105906
C      77.02144392      87.92334978      74.18329309
H      76.36570890      88.18413201      72.24821334
C      79.89193819      87.65311893      73.89227523
H      80.75743285      87.21848187      75.71019194
H      80.86892671      89.43324112      73.54267587
H      80.35870059      86.21692692      72.49387777
O      76.10681640      85.50827956      74.91272745
H      77.50521387      84.59365202      75.62137480
C      73.74843795      91.34564414      75.26610626
O      73.62182630      92.73459298      73.46330736
N      71.87571918      91.34186468      76.86481473
H      72.09492743      89.98315146      78.18573341
C      69.38317018      92.56262788      76.65505511
H      69.10160095      93.23914990      74.72942399
C      67.22888217      90.71258582      77.12370723
H      66.56558824      90.99604478      79.05311779
H      67.89217611      88.76805745      77.22953190
C      64.96310032      90.85998447      75.20563502
H      63.91997140      92.63632721      75.24153982
H      63.79524946      89.18379724      75.45129944
C      65.67741688      90.62754814      72.35403801
O      66.70731771      92.43223677      71.27500428
O      65.28813325      88.70191703      71.13327481
C      69.17719000      95.05706662      78.26510192
O      67.23644108      96.28538872      78.23864575
N      71.26722731      95.64666122      79.69940419
H      72.72987548      94.47125146      79.36114319
C      71.53934789      97.91433281      81.24331059
H      71.44108213      99.73791869      80.29277826
H      73.45742011      97.96535541      81.99542166
C      70.03512575      97.86897937      83.70184452
O      70.11827371      99.75303650      85.01142486
N      68.83703927      95.67122767      84.24419597
H      68.99010709      94.37109596      82.85524713
C      67.73532882      95.22525226      86.73296554
H      67.10227052      96.94301348      87.67782868
C      65.68308605      93.21269374      86.52698537
H      64.67586192      93.01994165      88.31466646
H      66.72810470      91.50627087      86.03754624
C      63.71588095      93.35064375      84.51253711
C      62.99400550      91.20958384      83.05933758
H      63.95587620      89.41245412      83.13492663
C      60.87940176      91.50816061      81.38881951
H      59.93642833      89.99071037      80.40238238
C      59.74934543      93.79283971      80.86347560
O      57.71222047      94.02149660      79.31767948
H      57.04514707      95.69768385      79.49909321
C      60.50712567      95.91122291      82.28077033
H      59.59060841      97.70457319      81.93306069
C      62.59149380      95.71847082      83.95884731
H      63.22266240      97.42678341      84.88103374
C      69.67418803      94.37109596      88.75497268
O      71.33336772      92.78372586      88.22206986
N      69.35104483      95.18745773      91.11902030
H      67.99989052      96.48758943      91.46861967
C      70.91195876      94.26527129      93.19960897
H      72.91506865      94.38621378      92.72528766
C      70.30913606      95.80350851      95.55042850
H      71.04234987      94.76037958      97.16614451
H      68.28523918      96.00570922      95.87924089
C      71.42785405      98.36975684      95.75073950
C      69.96709560     100.44089689      96.48206357
H      67.95453707     100.15365848      96.65780813
C      71.23888142     102.74447326      96.76930197
H      70.11638398     104.42821940      97.01685613
C      73.88827771     103.01092467      96.68237457
O      75.06557720     105.22757363      97.05654037
H      73.84859345     106.53526424      97.37779385
C      75.28100599     100.85096749      96.04742652
H      77.31435150     100.93600517      95.86223334
C      74.06969143      98.66455415      95.55798741
H      75.24321147      97.00726417      95.34066888
C      70.74188340      91.42879209      93.71550425
O      68.58570567      90.45747277      93.72495288
N      72.88294330      90.22692616      94.25596598
H      74.54779218      91.13777424      94.05376526
C      73.09648237      87.47548465      94.09911869
H      71.31258074      86.76683728      94.84745032
C      73.93930031      86.91990511      91.38169226
H      75.88760815      87.43580040      90.95272438
C      73.66151054      84.17980196      90.65225790
H      74.56102026      83.06486343      92.13569305
H      74.53456410      83.72815737      88.84190009
H      71.69052600      83.60154572      90.80343600
O      72.37082747      88.15389639      89.59779062
H      72.71097821      89.93401858      89.64692350
C      75.33391833      86.57597492      95.72617306
O      77.06490763      87.94791623      96.23828889
N      75.01455458      84.30452389      96.85622939
H      73.26655775      83.58075872      97.10945272
C      76.90806034      83.24249771      98.68170500
H      78.45574619      84.60121093      98.69682281
C      75.71942250      83.38233745     101.39913144
H      74.87471483      85.26072541     101.28952731
C      73.40828722      81.56631047     101.81865068
H      74.02811744      79.60288483     101.86022467
H      71.93241097      81.78551872     100.40135595
H      72.51255695      81.91213038     103.64034685
C      77.56379538      83.23493880     103.61578041
H      78.22897904      81.30552824     103.90301881
H      76.41295206      83.81130534     105.22393750
C      79.95996834      84.79585274     103.41168996
H      80.94073631      84.48593762     105.19748133
H      79.51021349      86.80463181     103.42491806
H      81.15238565      83.94925535     101.96038017
C      77.91150502      80.68569800      97.59322266
O      76.83436102      79.64823826      95.90191760
N      79.88815874      79.64067935      98.69682281
H      81.03711234      80.93892133      99.49239759
C      80.52688624      76.88545840      98.77052215
H      78.84880928      75.89335207      99.43003662
H      82.18039677      76.75317755      99.99506479
C      81.49442612      75.80075549      96.12679503
O      83.27643803      76.70026522      95.00051815
N      79.91650463      74.23984155      95.05532021
H      78.34047290      73.79764559      96.03041899
C      79.90516629      73.19671263      92.46639516
H      81.39427062      74.26629773      91.52909091
C      80.57601912      70.36779234      92.19994375
H      79.39305046      69.29253806      93.49818573
C      80.32657524      69.37001684      89.41448716
H      78.36314961      69.71016758      88.89481244
H      80.50231980      67.35934805      89.00819601
H      81.50009529      70.56243415      88.21451095
C      83.35202707      69.61190181      93.00496716
H      83.86981209      70.74006842      94.64713932
H      84.60113616      70.00496488      91.41759706
C      83.56178669      66.98140279      93.70038644
H      85.41938766      66.22362253      93.23362404
H      82.19740430      65.93449442      92.56655065
H      82.91172084      66.70928220      95.63735592
C      77.49387551      74.07165591      91.14358674
O      75.57580329      72.69026597      91.19082990
N      77.41072754      76.49617478      90.53509487
H      79.02644355      77.51473726      90.51808733
C      75.46997863      77.53741397      88.86646654
H      75.26588818      76.33365831      87.20728683
H      76.02177871      79.41580192      88.22773904
C      72.83003096      77.80764483      89.89825710
O      70.98187863      77.89457224      88.49419045
N      72.59759462      77.88134417      92.37190885
H      74.29456885      78.08165515      93.22228569
C      70.10315590      78.11000104      93.53220081
H      68.86538516      76.91191456      92.40592392
C      70.27701071      76.65869123      96.13813339
H      71.70942326      77.68103317      97.21149793
H      71.12738755      74.82187726      95.76396758
C      67.83548432      76.45460079      97.86156378
N      66.48621973      74.31543060      98.22061178
H      66.84148828      72.59766939      97.46661098
C      64.63428794      74.75951629      99.87034285
H      63.55147477      73.26852223     100.74528614
N      64.78546606      77.20860159     100.55631350
H      63.88028714      78.19314900     101.91880618
C      66.77912731      78.27251750      99.19949001
H      67.37817055      80.20570752      99.47350033
C      69.08270368      80.79719187      93.76274742
O      69.70820310      82.17102289      95.52775180
N      67.27045616      81.38111729      92.08089100
H      66.88117253      80.33231918      90.53131541
C      65.72088057      83.63178133      92.33033486
H      67.11549859      85.11332676      91.99396358
C      63.50990080      83.74327519      90.39903458
H      62.44598488      82.00283724      90.68816270
H      64.17130499      83.61477379      88.45072674
C      61.61639502      85.98449059      90.65225790
H      60.89451957      86.21881665      92.56466094
C      62.84093767      88.52806220      89.69794612
H      61.36884087      89.77528157      88.97796039
H      63.88028714      87.85154018      88.05577394
H      64.02201662      89.30851918      91.19271962
C      59.30337001      85.46481585      88.96662204
H      57.82749376      86.84809551      89.34645703
H      58.79503363      83.56375119      89.57133445
H      59.72099953      85.26639459      86.95784296
C      64.66641329      84.21192730      94.99106951
O      63.56659258      82.54140924      96.24206833
N      65.13506541      86.62510781      95.74129086
H      66.02890597      87.93846759      94.68115441
C      64.14295910      87.60965522      98.13368438
H      63.47966517      85.95803442      99.17303384
C      66.21031969      89.03828831      99.53019212
H      65.32214833      90.11543231     101.04386289
H      67.20242601      90.34597892      98.28675220
C      68.42696865      87.57375043     100.66780736
H      69.32269892      86.66290233      99.05209136
C      70.28645934      89.46914591     101.93581371
H      70.92707656      90.93746325     100.63946146
H      71.91162397      88.40711973     102.61611519
H      69.27923523      90.33464057     103.50995574
C      67.59737881      85.67457547     102.71627068
H      65.77757236      84.82041918     102.27407472
H      67.09093215      86.60810027     104.48127507
H      69.00333518      84.24783211     103.19626116
C      61.82237519      89.38788768      97.87290214
O      60.06115027      89.15356162      99.34310921
N      61.93008959      91.14344343      96.10222859
H      63.39273775      91.22848111      94.87768593
C      59.83627283      93.00104439      95.63168673
H      58.10717327      91.89177504      95.45972165
C      60.09894480      95.21769335      97.44204454