 %block lattice_cart
   139.252   0.000   0.000
   0.000 142.425   0.000
   0.000   0.000   162.84
 %endblock lattice_cart

 %block positions_abs
N      94.21511879      41.72521062      80.25309400
H      93.14175424      40.31925424      79.53499800
H      94.50235719      41.06002695      82.01998810
H      95.90453411      41.84237365      79.37248154
C      92.81672132      44.19130345      80.04711384
H      93.87496805      45.56135503      81.16016263
C      93.07939328      45.31758034      77.38637918
H      92.16098629      44.05335343      76.04089405
H      95.03337028      45.21742484      76.74765170
C      92.07594860      47.97075607      77.01599282
H      90.01803665      48.03500677      77.09347161
H      92.55026991      48.53767397      75.09603089
S      93.23057138      50.29511944      79.15138357
C      96.43554721      50.40283384      77.93439981
H      97.33127748      48.54712260      77.91739227
H      97.61851588      51.71997308      78.99264655
H      96.43176775      51.03778189      75.97664335
C      90.11819214      43.67918762      80.95040301
O      89.16577008      41.50222291      80.65182626
N      88.83317825      45.55379612      82.10124633
H      89.78560031      47.18085049      82.40549228
C      86.02504495      45.58592147      82.39793337
H      85.14632221      44.48988021      80.88993177
C      85.40521472      44.37271717      84.96607142
H      86.63731627      42.72487583      84.85646730
H      83.50226032      43.58470130      84.97174060
C      86.04772166      45.79379136      87.26208889
O      84.38098306      46.90684016      88.42616030
N      88.48357888      45.82213727      87.81577870
H      88.93711320      46.38905516      89.58267281
H      89.51159000      44.52389529      86.86713609
C      85.06695371      48.36948833      82.41872036
O      86.63353682      50.16850778      82.39604364
N      82.60841977      48.60570413      82.61525190
H      81.65977717      46.96164222      82.41494090
C      81.26860382      50.98864900      82.48108132
H      81.76182239      51.83902585      80.67072351
C      78.50393422      50.09291872      82.42627926
H      78.37543283      48.74176441      80.87670368
C      77.60442450      48.94396513      84.98685842
H      78.03717182      50.10236736      86.63281003
H      78.49259587      47.08636416      85.07378583
H      75.56163035      48.70208016      85.06811665
C      76.61609764      52.24720672      81.78566204
H      76.80129082      53.71741379      83.21618487
H      74.67912817      51.66706075      81.38504006
C      77.40789296      53.44529320      79.21185481
H      79.16155898      54.51487830      79.34791510
H      75.81674341      54.48275296      78.42005948
H      77.57985806      51.88437928      77.87581830
C      81.72969704      52.86325750      84.63914877
O      81.38765658      55.14037771      84.05900279
N      82.74070062      52.19618412      86.88414364
H      83.24525754      50.38393659      87.20728684
C      83.71390967      54.14071250      88.61135348
H      82.38354234      55.69784697      88.83434118
C      84.25626112      53.01443560      91.12091003
H      85.28049278      54.47708377      92.15081086
H      85.52804693      51.39494016      91.17571209
C      82.17000327      52.16783822      92.90481166
C      80.09508378      53.88559943      93.45850147
H      80.23681325      55.73186204      92.59111710
C      78.04473073      53.15994454      95.07988665
H      76.60286955      54.48653240      95.64491483
C      77.95402387      50.67873388      95.88679978
H      76.37232294      49.94552007      96.94693625
C      79.98170020      48.96475212      95.34444833
H      79.90233169      47.00510593      95.91136624
C      82.13031902      49.66962004      93.88746935
H      83.71579939      48.42240066      93.56621587
C      86.04394221      55.40493939      87.50586359
O      86.07039838      57.61025000      86.97107105
N      87.88831509      53.91772478      86.59312578
H      87.60107669      52.02988820      86.57044906
C      90.34495930      54.69818176      85.65204207
H      91.21423340      56.01910044      86.97296078
C      91.96067530      52.45507662      85.41015712
H      93.61418582      53.12970892      84.38592544
H      90.95534090      51.12281957      84.20451173
C      92.47279113      51.17951136      88.04821504
H      94.05260233      49.92284336      87.63814444
H      90.84762650      49.99843241      88.50552881
C      93.24568919      53.05034041      90.08156055
O      91.85296090      53.05411986      92.01475057
O      95.08817235      54.43739952      89.67715913
C      90.23157572      56.30255939      83.23319240
O      91.44666974      58.12614528      82.79288616
N      88.53649122      55.44651338      81.64015312
H      87.47068558      54.13504331      82.52454504
C      87.54060545      56.54633408      79.25909796
H      89.05238650      56.47263477      77.86070048
C      85.26915442      54.96841261      78.40494166
H      84.02193506      55.26887910      80.01498849
H      85.86252849      53.00120752      78.27077110
C      84.10130356      55.82634837      75.78389128
H      85.66221750      55.91138605      74.44218559
H      83.31895687      57.70284659      76.12971119
S      81.57473948      53.86481244      74.41950887
C      81.94134639      53.74009051      70.95753027
H      83.90855148      53.57001514      70.37549456
H      81.59174702      55.62414765      70.20163974
H      80.67145030      52.23964782      70.34147950
C      86.69967724      59.29777559      79.80144941
O      87.49525202      61.03065462      78.48619989
N      85.12553522      59.84768595      81.66471956
H      84.34885771      58.33590490      82.53210393
C      84.31295291      62.37613976      82.52643475
H      83.91611038      63.34367964      80.75009203
C      81.98669982      61.99441504      84.05522335
H      81.38954630      63.86335438      84.68639194
H      82.42133687      60.83601281      85.70306469
C      79.69446180      60.72829841      82.63792860
H      80.15744475      58.98408103      81.64204284
C      77.41356214      60.11224764      84.25553433
H      77.60442450      58.35480217      85.31378107
H      75.66367557      59.60580099      83.29177391
H      76.99215317      61.42749715      85.78432292
C      78.83652605      62.60101719      80.53655294
H      80.28405641      62.44228019      79.07768423
H      78.93668155      64.51342023      81.29811265
H      76.92790248      62.34401441      79.80711859
C      86.38409295      63.86902355      83.90026579
O      86.16488470      66.20283554      84.09490759
N      88.28515762      62.53676650      84.99441733
H      88.23602473      60.63192238      84.87536456
C      90.39220246      63.92760507      86.17549626
H      89.72701880      65.60190257      87.17138203
C      91.93232940      62.20795413      87.94805954
H      93.63308308      63.15092755      88.62836103
H      92.42554797      60.54310524      86.84067993
C      90.50369631      61.27820877      90.27809209
H      89.11474747      59.91760583      89.59968034
H      89.54938452      62.80699737      91.27586759
C      92.50302675      59.95351064      92.02797865
H      93.39119812      61.39159236      93.20716787
H      93.95244683      59.01431666      90.90737096
N      91.32761698      58.09213021      93.67770972
H      91.71312115      56.24775733      93.36968434
C      89.61363522      58.39826587      95.57688468
N      89.19600570      60.54499497      96.55198345
H      88.02626511      60.53176688      98.05809532
H      90.64164633      61.79032461      96.46694576
N      88.05650074      56.78066015      96.46316631
H      87.01715126      57.32679106      97.97116791
H      88.58751383      54.98542015      96.10033886
C      92.09295614      64.93671892      84.06656170
O      93.13419534      67.01163840      84.20451173
N      92.30838494      63.48351939      82.04077510
H      91.32761698      61.85646502      81.87258945
C      93.39308784      64.36413185      79.59924869
H      95.25068881      65.09356621      80.10569535
C      93.64820090      62.02465066      77.94195872
H      92.10051505      60.76420322      78.44840537
C      93.52725841      62.75786447      75.09036172
H      94.01102835      61.16671493      73.87337797
H      94.90108944      64.27342498      74.85036648
H      91.56194305      63.21706797      74.67462192
C      95.88185740      60.39759632      78.65060608
H      95.97067453      60.39192713      80.70851804
H      97.56182409      61.41804852      78.03455531
C      96.02547660      57.63670618      77.72464019
H      94.37196607      56.65782795      78.47108208
H      97.79992961      56.91294099      78.47675127
H      95.95555672      57.51387397      75.66861796
C      92.13075067      66.60345752      78.21407931
O      93.43844127      68.28342421      77.41661480
N      89.67221673      66.67715685      78.23486630
H      88.92388511      65.05199222      78.89816023
C      88.16799459      68.34956463      76.83079964
H      89.28482284      69.00907912      75.23587064
C      85.96457371      66.87935756      75.82546525
H      84.48491800      68.25507832      75.41728437
H      85.29561059      65.48096010      77.18228874
C      86.40865939      65.54332107      73.29323199
O      88.16043568      66.26330678      71.92507014
O      84.79105367      64.00697357      72.61293052
C      87.45367804      70.77975267      78.18573342
O      87.22313143      72.79231121      76.98953665
N      86.95668002      70.79676022      80.69340023
H      86.76959712      69.14702915      81.63448393
C      86.82628891      73.10222631      82.24864498
H      87.12675539      74.77274438      81.08268385
C      84.16177480      73.43292843      83.53176915
H      84.41310840      74.83321562      85.02276321
H      83.48903224      71.76052064      84.52954465
C      82.05472997      74.13779634      81.67227846
H      80.42956534      74.44393199      82.90249029
H      81.48781207      72.55420568      80.48364061
C      82.62164786      76.48483642      79.99420149
O      81.77882992      76.75506728      77.75676554
O      83.66666651      78.24984079      81.04110988
C      88.94278238      73.11923386      84.30844666
O      90.24669353      74.97305536      84.56544944
N      89.24891804      71.16525685      85.91849348
H      87.91477126      69.80276417      85.85802225
C      91.07817311      71.09533697      88.01231024
H      92.90553845      71.69438021      87.27531699
H      91.54871496      69.20183121      88.67560418
C      90.47535042      72.84522354      90.35746059
O      88.43633572      74.00362576      90.33667361
N      92.27059041      72.96805575      92.13758278
H      94.06394068      72.41247621      91.78987315
C      91.74902595      73.97905932      94.67737494
H      89.77615168      73.59355516      95.12901953
C      93.14931315      72.25562892      96.56899098
H      95.12785660      72.29720291      96.00396283
H      92.42554797      70.33755672      96.37434917
C      93.00569395      72.85278245      99.30720442
H      93.46867690      74.76518547      99.91002710
C      90.27692915      72.60144884     100.26718539
H      89.11663720      74.02441276      99.33555031
H      90.19378120      73.08710851     102.26651582
H      89.61363522      70.65692046     100.10655864
C      94.66676338      71.03864518     100.69993270
H      96.64341710      71.34478085     100.20482442
H      93.95055711      69.13002160     100.40891485
H      94.80849285      71.21627946     102.74839603
C      92.26681096      76.84388442      94.93437773
O      94.47779075      77.69048181      94.89469347
N      90.34873875      78.25928943      95.52208262
H      88.56483711      77.59977494      95.36901477
C      90.44700452      81.00884120      96.03797789
H      92.36318700      81.69670158      95.72617306
C      88.94467210      82.54518871      94.14825158
H      88.76892756      84.53696023      94.64147014
H      87.03982798      81.76095229      94.20305364
C      90.01614692      82.43180512      91.52531145
H      90.46779151      80.49672537      90.98862918
H      91.77359239      83.50516966      91.53853954
C      88.06028019      83.55997174      89.55999610
H      87.58406916      85.51772820      89.98140507
H      86.31606280      82.46582019      89.64314405
N      88.97679745      83.44847787      86.91437926
H      90.28448806      84.75805822      86.45517576
C      88.01492676      82.17291262      85.08512418
N      86.39732103      80.36444454      85.12102898
H      85.72457846      79.50839851      83.55255614
H      85.85496958      79.65579716      86.80855458
N      88.87286250      82.81730930      82.85524713
H      88.47790970      81.80630571      81.28299485
H      90.22968600      84.15334579      82.97807934
C      89.64765029      81.47182415      98.91603106
O      87.34785337      81.34899194      99.36011675
N      91.35785260      81.75150365     100.65835872
H      93.21545357      81.38867620     100.40135595
C      90.65676414      81.99905779     103.34932899
H      89.57773042      80.30397330     103.79908387
C      93.26080700      81.65134815     104.58898946
H      93.10773917      82.05952903     106.60343771
H      94.49668801      83.04596618     103.71404617
C      94.49290856      79.12289435     104.16002158
H      94.89730999      78.81486897     102.16447060
C      96.98356784      79.20604230     105.84376774
H      98.06260156      80.74616925     105.00661897
H      97.64875150      77.25584475     105.83809856
H      96.34484034      79.95626366     107.65412554
C      92.96600970      77.09143857     105.33543135
H      92.69766856      77.69615099     107.28751863
H      93.97890300      75.29997801     105.41479985
H      91.27470465      76.61900698     104.25828735
C      89.28482284      84.42546638     104.22616200
O      88.75758920      84.48782735     106.53162812
N      88.91065703      86.30196462     102.50462133
H      89.87819690      86.14133788     100.86811835
C      88.03004457      88.94758146     103.00161936
H      87.23635952      88.99671433     104.90079430
C      90.36574629      90.67101184     103.04508307
H      91.47690536      90.52739265     101.31409376
H      91.59595812      90.11165286     104.59843809
C      89.69867290      93.48670406     103.29074748
H      88.43444600      93.78528081     104.88945594
H      88.91443648      94.23503568     101.53708146
C      92.06838970      95.08352278     103.98994622
H      92.94900216      94.47314119     105.74928141
H      91.57517113      97.07718404     104.15813187
C      94.13575028      94.65266519     101.92258564
H      93.33639605      94.75471042     100.02719014
H      95.04470864      92.80262312     101.92447535
N      96.26169239      96.61987029     102.20226512
H      95.59083955      98.32629314     102.72760904
H      97.50135285      96.89010115     100.77552176
H      97.46544805      96.14176953     103.60444205
C      85.85119013      89.52205824     101.02685537
O      86.02882440      88.75860882      98.86500845
N      83.89532339      91.01116258     101.57865544
H      84.09185493      91.60642637     103.38145434
C      81.82796281      91.71036132      99.94593190
H      80.80184142      90.07574806      99.22405645
C      79.97036184      93.32796704     101.43881570
H      80.85664348      95.01927210     102.20604459
C      77.88977317      94.55250969      99.78341545
H      78.58330273      96.13987979      98.67225638
H      76.41767637      95.31595912     101.00795809
H      77.03939633      93.22781154      98.45682757
C      78.51905203      91.64989008     103.42491805
H      79.77760976      90.64266595     104.70993194
H      77.58552723      90.02094600     102.57454121
C      76.32696951      92.78939504     105.06142103
H      76.57074420      94.52038434     106.14801366
H      75.87721465      91.36832085     106.48060550
H      74.87376998      93.17111977     103.65357493
C      82.89565817      93.06718482      97.68581923
O      84.56995569      94.54873025      98.05053641
N      81.99047927      92.41900868      95.40302985
H      80.85097430      90.88833037      95.32744080
C      82.87487118      93.47347597      92.92559866
H      83.84430078      95.21958308      93.43771449
C      84.68711872      91.55540376      91.74640944
H      85.94945590      91.07541328      93.30354391
H      85.72268874      92.41711897      90.18927496
C      83.43989935      89.14789244      90.78453874
C      82.67833965      88.87010267      88.14837053
H      82.74259034      90.43668578      86.84445938
C      81.81095527      86.53818041      87.36413411
H      81.36497986      86.33975913      85.38181121
C      81.74481485      84.49349654      89.00441655
O      81.00593186      82.25228112      88.10490683
H      80.62798660      82.21070715      86.33234355
C      82.46669030      84.64656437      91.57822379
H      82.06417860      83.07620180      92.81788425
C      83.45690689      86.96147910      92.37757802
H      84.08807548      87.09187022      94.31265777
C      80.39743999      93.90433357      91.47428885
O      78.42834517      92.73837244      91.86357247
N      80.77349552      95.46335778      89.52598102
H      82.56495607      96.03594485      89.19527892
C      78.90455620      95.98303252      87.49452523
H      77.11498538      95.10808923      88.02175888
C      78.45102189      98.82329117      86.71973744
H      77.53828408      98.97635899      84.87725430
H      80.24815161      99.81917692      86.89359226
C      76.62932572      99.98169339      88.55655142
H      77.66678547     100.33696194      90.29887908
H      75.03250699      98.80061444      89.09890287
C      75.52761528     102.46668349      87.53043003
H      74.28606509     102.04338479      85.94305993
H      77.11309566     103.56839394      86.81233403
C      74.16701233     104.09373784      89.42771525
H      75.49737966     104.29971801      90.98673945
H      72.56074497     103.00525550      90.12502426
N      73.63599924     106.68266289      88.43749866
H      75.23848715     107.55760618      87.88002941
H      72.93302105     107.72390209      89.87558038
H      72.23571204     106.73368550      87.14114641
C      79.61320357      94.62053984      85.05677828
O      81.25726546      95.42178379      83.73963905
N      77.89733208      92.81585121      84.33679256
H      76.53861886      92.47759020      85.63503454
C      78.03717182      90.95069134      82.34124157
H      79.94957485      90.26094124      82.01053948
C      76.54239831      88.69435812      83.18783896
H      74.62810556      89.40111577      83.46562873
H      76.96758673      88.02161555      85.08890363
C      76.55562639      86.61376945      81.25653868
O      78.61542808      86.03551321      80.34191114
O      74.44858156      85.54796382      80.95796191
C      77.29639911      92.34908882      79.87325902
O      77.02805797      94.76982822      79.65027131
N      77.26427376      90.83919749      77.77944225
H      77.61198340      88.97025817      77.95707653
C      76.85987233      91.71603049      75.07713363
H      78.59653081      92.72514435      74.61226095
C      76.53294968      89.45024865      73.30268062
H      76.52539077      90.13432957      71.36004198
C      78.79306235      87.62666275      73.73353823
H      80.56373590      88.60743071      74.11337321
H      78.99715279      86.74794003      71.88349616
H      78.55306711      86.15834541      75.15839186
O      74.32008017      88.10476352      73.89227523
H      73.09364779      88.73782184      72.71497573
C      74.69235625      93.58308009      74.81257195
O      75.04573507      95.44257079      73.48976353
N      72.47381756      93.26749580      75.80467826
H      72.23004286      91.71792023      76.89127089
C      70.22126379      94.79439466      75.33980558
H      70.04551925      95.51438038      73.41984365
C      67.92146686      93.07285400      75.50421178
H      67.31864418      92.96891904      77.46952715
H      68.25783815      91.05462628      75.26232681
C      65.72560489      94.11409319      73.88282660
H      65.38545416      96.13987979      74.06046088
H      64.05130738      93.20324510      74.66895274
C      66.05063782      93.28828280      71.12382618
O      66.11866797      94.92100632      69.51377937
O      66.70259340      91.02628040      70.70052748
C      70.11543912      96.93167512      77.47897577
O      68.14634430      98.23180682      77.59235935
N      71.88233322      96.96757992      79.28555413
H      73.31285604      95.70524274      79.29689249
C      71.95036337      98.97635899      81.21685442
H      71.41368110     100.83207024      80.50820705
H      73.87599448      99.11808846      81.94061960
C      70.42913369      98.25259381      83.56389450
O      69.27073146      99.87586871      84.72229674
N      70.29874257      95.86775920      84.12514321
H      71.25116463      94.60731175      83.05366840
C      69.12144308      94.87943234      86.38147643
H      67.93091550      96.39499285      87.09768270
C      67.24305512      92.70057791      85.69550578
H      66.18669811      92.23003605      87.40003891
H      68.30508131      90.95636052      85.41582628
C      65.41757951      93.04261838      83.47696709
C      65.13223083      90.97147834      81.92172233
H      66.26795635      89.28206300      82.06912098
C      63.30108603      91.02628040      80.01309876
H      63.06487025      89.44268974      78.74509240
C      61.74206183      93.10875879      79.67861720
O      59.98650608      93.05017727      77.76243472
H      59.45927244      94.71691589      77.27488533
C      62.22016258      95.31973858      81.08457357
H      61.26396107      96.99025663      80.40427211
C      63.97382860      95.25926734      83.05744785
H      64.41035538      96.93734430      84.12892267
C      71.07542009      94.16889525      88.46206510
O      73.15222930      93.32607731      87.90837529
N      70.30630148      94.34463980      90.93004767
H      68.54318683      94.90588852      91.39869979
C      72.04862914      93.68890477      93.04843087
H      73.91000956      94.36164734      92.47773353
C      71.49871878      95.21391390      95.31610244
H      72.60231895      94.38243433      96.84867048
H      69.60143356      94.62809875      95.85845389
C      72.11287983      98.05039310      95.34255862
C      70.09465213      99.84752282      95.40869903
H      68.11043950      99.36375288      95.35011751
C      70.85621183     102.36085882      95.57688468
H      69.27640064     103.64587271      95.41625794
C      73.30529714     103.16210277      95.59578193
O      73.80229516     105.66976960      95.49562644
H      72.43980248     106.83195127      95.79042374
C      75.36131936     101.30072236      95.71105524
H      77.23214841     102.10385605      95.84900527
C      74.67723844      98.79872472      95.39358122
H      76.08130509      97.33418683      95.18004215
C      72.02595242      90.83730777      93.70227617
O      70.03040144      89.74504595      94.20305364
N      74.28984455      89.81496583      93.66448164
H      75.79595642      90.90911737      93.24307267
C      74.82274737      87.05596542      93.55676725
H      73.15033958      86.14700706      94.34289340
C      75.15344947      86.25283172      90.75430312
H      76.88821823      87.03517842      89.96628725
C      75.24415633      83.44469842      90.07211193
H      76.46491953      82.80030175      91.59712106
H      76.00571604      83.15746003      88.17860615
H      73.36576838      82.60377021      90.17415714
O      73.25238480      87.11832637      89.33322893
H      73.57930745      88.90222802      89.33511866
C      77.20758197      86.42668654      95.27641819
O      78.59653081      88.25594163      95.84711554
N      77.49859982      84.03996222      96.21372245
H      76.25515991      82.66046200      95.76963675
C      79.54895287      83.24438743      97.93148367
H      81.25348601      84.33664925      97.54408976
C      78.94990963      83.81319505     100.79252929
H      78.39999928      85.79929741     100.75662449
C      76.72003258      82.20503797     101.81298150
H      77.09608812      80.18114108     101.81487123
H      75.19124400      82.58109350     100.48261419
H      76.42334555      82.94014150     103.71593590
C      81.32340588      83.72248819     102.46115763
H      82.78794377      84.95458976     101.69959792
H      82.17756218      81.86110777     102.68603506
C      80.74514963      84.63144655     105.14267927
H      82.40243961      85.58386862     105.91368760
H      80.21791599      82.95714904     106.21604381
H      79.06329321      85.82197412     105.15590735
C      80.16878310      80.41924660      97.47228017
O      78.73070138      78.99250324      96.40836425
N      82.27204849      79.51028824      98.54753444
H      83.50792950      80.71782335      99.35066812
C      82.93345270      76.84199469      98.64202076
H      81.28939081      75.85933701      99.40169074
H      84.70223653      76.62278643      99.67381133
C      83.56084184      75.85555756      96.00207310
O      85.42789143      76.67002960      94.90225238
N      82.20590807      73.98850796      95.12335035
H      81.00215241      73.06443180      96.28175258
C      82.47235948      72.72995024      92.51930749
H      84.16366453      73.41781061      91.56499571
C      82.97502668      69.83111007      92.86890686
H      81.45190727      69.10545516      94.04998581
C      83.13943287      68.53853727      90.31588661
H      81.21002230      68.33822629      89.62424678
H      83.85185969      66.61101643      90.47651335
H      84.19201043      69.60245319      88.90048162
C      85.46757569      69.28875862      94.32210640
H      85.57717981      70.41692522      96.03986762
H      87.15888074      69.73095457      93.23173431
C      85.93244836      66.57133218      95.43515521
H      84.10886247      65.80977248      96.00585254
H      86.98313619      67.05321238      97.13779861
H      87.09651977      65.40915050      94.19360502
C      80.03650226      73.42159007      90.89603259
O      78.29039515      71.91736791      90.87335588
N      79.92500841      75.77807877      90.00030232
H      81.45001754      76.91380428      90.15903934
C      77.87087591      76.77207481      88.60001512
H      77.39844433      75.64012875      86.94839432
H      78.31307187      78.63156550      87.83278624
C      75.32730429      77.05742349      89.92849272
O      73.34876084      77.38434614      88.61891239
N      75.21014126      76.87223031      92.47773353
H      76.88632850      76.56798437      93.33566926
C      73.00483065      77.16324816      93.96116867
H      71.53273385      75.85933701      93.34889735
C      73.32230467      76.43381380      96.79008896
H      74.61487747      77.72827634      97.73684185
H      73.99126779      74.49306488      96.96205407
C      70.68613647      76.31287133      98.04675697
N      69.13278144      74.41180665      97.79920282
H      69.56174931      72.69404543      97.08110681
C      66.94069891      75.01084989      99.01618656
H      65.29663702      73.80709423      98.93681806
N      67.08620784      77.42780984      99.95915999
H      65.78607614      78.51251276     100.84355190
C      69.52584451      78.31220176      99.36200648
H      70.43291314      80.04697051      99.94215245
C      71.74627293      79.86177733      93.78542412
O      72.76672514      81.56442074      94.99295924
N      69.65434590      80.13389792      92.42293145
H      68.92113209      78.48983603      91.79365259
C      68.08776279      82.36377497      92.32277596
H      69.13089171      83.97571152      91.57444435
C      65.95048233      81.89512285      90.45950581
H      64.89223559      80.18303081      90.89225314
H      66.84432287      81.70803994      88.61513293
C      64.14957315      84.18169169      90.40281402
H      63.36344700      84.52373216      92.27553280
C      65.23238633      86.62321809      89.23685289
H      66.41346526      87.41501342      90.72784696
H      63.67525183      87.84209155      88.65859665
H      66.37945020      86.28306734      87.55877592
C      61.82332006      83.63934024      88.81922337
H      62.39590713      83.13100386      86.90871008
H      60.56476233      85.26261514      88.67749390
H      60.78586030      82.13511809      89.77731461
C      67.09376675      82.86077300      95.05154076
O      65.95804123      81.20348302      96.23261971
N      67.37722568      85.25694596      95.92648404
H      68.10477032      86.43235572      94.60745508
C      66.30575087      86.28684680      98.27541385
H      65.45537402      84.77695547      99.39224210
C      68.12555731      87.95547514      99.72105448
H      67.29218800      88.82852870     101.38968282
H      68.73971836      89.37465959      98.35478235
C      70.36110354      86.45503245     100.66591763
H      71.16990640      85.63489123      98.95760504
C      72.31508055      88.41845808     101.71660547
H      73.93079655      87.28273257     102.30431035
H      71.66690442      89.78661994     103.11500293
H      73.03884573      89.49560209     100.11789701
C      69.52962396      84.56719585     102.61611519
H      68.30508131      83.18580592     101.70337738
H      68.36744228      85.51205902     104.03152019
H      71.29084889      83.81130534     103.37011598
C      63.91335736      87.82319429      97.50062606
O      61.91780637      86.98037636      98.30753920
N      64.11177862      89.87543707      96.14002311
H      65.80308367      90.55384881      95.57499495
C      62.18047833      91.75571475      95.53153124
H      60.50429109      90.61998924      95.16303462
C      61.34332957      93.37521021      97.71983431