 %block lattice_cart
   139.252   0.000   0.000
   0.000 142.425   0.000
   0.000   0.000   162.84
 %endblock lattice_cart

 %block positions_abs
N      90.08984625      41.65340102      80.31262039
H      89.55883315      41.25655848      82.10408093
H      91.98335201      41.50222291      80.11986830
H      89.19411598      40.36838712      79.22413803
C      89.16199063      44.23665689      79.77026894
H      90.23535517      45.23254265      81.21590957
C      89.98780103      45.15317415      77.15299798
H      89.42844204      43.87004999      75.64121694
H      92.04193353      45.10971044      77.00937880
C      89.00703307      47.90461566      76.81662671
H      86.96801838      47.83280605      76.53505748
H      89.87441745      48.61326303      75.08752712
S      89.82528456      50.11181600      79.18256406
C      90.70967648      52.97853080      77.43456722
H      92.42743770      52.75176365      76.31962868
H      90.89864911      54.41850225      78.89532565
H      89.28293311      53.60025076      76.08719235
C      86.44456419      44.21586989      80.34096627
O      85.23324962      42.28834905      79.67956207
N      85.46190651      46.28323048      81.39921302
H      86.70156697      47.57391355      82.05683778
C      82.78416432      46.76133124      82.13620627
H      81.58985729      45.78434273      80.77182387
C      82.34385809      45.67095915      84.86875052
H      83.01282121      43.72454105      84.95000875
H      80.38043245      45.80890917      85.46968349
C      83.88776449      46.99754702      86.85296315
O      84.50192554      49.22931380      86.61863709
N      83.96713299      45.81079890      88.93922100
H      84.91766533      46.53456408      90.42832533
H      83.36053085      44.00988973      89.12819364
C      82.02449434      49.63182551      81.97180008
O      83.61186445      51.25132095      81.87920349
N      79.46958437      50.27622219      82.24958985
H      78.25826980      48.80412538      82.23825150
C      78.48314723      52.73664584      81.93778502
H      78.87621031      53.49253636      80.06317651
C      75.61643242      52.57979855      81.87920349
H      74.81707819      51.25887986      80.51482110
C      74.53172951      51.61414842      84.41332648
H      74.58086240      53.05789932      85.88353355
H      75.44824677      49.93418172      85.17488619
H      72.52106072      51.25132095      84.13553672
C      74.38244113      55.13848798      81.16299722
H      75.31974538      56.52743683      82.35919399
H      72.42846413      54.84558040      81.74314320
C      74.75660694      56.02665935      78.46257832
H      76.55184694      56.97908141      78.12620705
H      73.32419440      57.39860065      77.90510907
H      74.78306311      54.39960499      77.20024114
C      79.55462205      54.61881324      83.83129078
O      79.77005085      56.84302111      83.34374139
N      80.23681325      53.68339872      86.13486715
H      80.06484816      51.79178269      86.31817060
C      81.23458874      55.21974622      88.13041814
H      80.13098858      56.88459510      88.62930588
C      81.24970656      53.56434597      90.53603974
H      82.22858479      54.68495367      91.96467284
H      82.34385809      51.82012857      90.54737809
C      78.59275136      52.65916706      91.22578984
C      76.99971208      54.28055224      92.61662841
H      77.82552248      56.05878469      93.18543603
C      74.52606033      53.76087750      93.41220318
H      73.48104168      55.00998660      94.64052530
C      73.65678623      51.31179220      92.82260858
H      71.83697979      50.66550581      93.49157170
C      75.25738442      49.63371523      91.53003578
H      74.54873705      47.77800399      91.05760421
C      77.56096079      50.22708929      90.60973906
H      78.54361847      48.99687746      89.30960737
C      83.88209531      56.21563199      87.52003654
O      84.36775497      58.43606040      87.83940028
N      85.51859830      54.64904886      86.37297267
H      84.75892832      52.94451573      85.97046097
C      88.12453088      55.31990172      85.35629991
H      89.23757968      56.54444436      86.58651174
C      89.73457770      52.93695683      85.01236972
H      91.63942182      53.37915279      84.36041414
H      88.89553922      51.56312580      83.72546610
C      90.15220722      51.53477991      87.53515436
H      90.99124570      49.74331936      86.95500837
H      88.29082680      51.18518054      88.34395722
C      92.03626435      52.84813970      89.26047447
O      91.38241905      54.54511392      90.78737333
O      94.21700851      52.13760259      88.99213334
C      87.85241029      56.85624920      82.93556050
O      89.15443172      58.79699813      82.72580088
N      86.02126550      56.10413813      81.32362396
H      85.26915442      54.41283308      81.79983499
C      85.54694419      57.54033012      78.89721538
H      87.23446979      57.44395409      77.71991588
C      83.30761851      56.14004293      77.57062751
H      81.59930592      56.07012305      78.71769138
H      83.84241106      54.19740428      77.14543908
C      82.64054512      57.47985888      75.16689564
H      84.17311316      57.12459034      73.83463858
H      82.53849990      59.52832221      75.38232444
S      79.67745426      56.42917105      73.61354060
C      80.36909409      57.34946778      70.38777778
H      80.69223729      59.38281328      70.28951202
H      78.72692193      56.99986841      69.19536048
H      82.10575257      56.44995805      69.73771193
C      84.94412150      60.33334561      79.42255929
O      85.70568120      61.98685614      77.90321934
N      83.46068634      60.79065938      81.51826578
H      82.77093624      59.21840709      82.34785562
C      82.30795329      63.32856183      81.94534391
H      81.65977717      63.96539960      80.09530186
C      79.94579540      62.94494738      83.48736059
H      79.69635153      64.71184149      84.51726143
H      80.31051258      61.40104099      84.80072037
C      77.57607860      62.28921235      82.11730902
H      77.71780808      60.57901003      80.97402460
C      75.58052762      61.43127661      84.05805793
H      76.26649827      59.69272839      84.92355258
H      73.81174379      61.09301559      83.06217218
H      75.33297347      62.80321791      85.57361844
C      76.49893460      64.66270861      80.78505196
H      76.12287907      66.05921635      82.25336930
H      74.87565970      64.18082839      79.61153192
H      77.85764782      65.38836351      79.41500038
C      84.34696798      64.97829289      83.35507974
O      84.14098781      67.31210490      83.17366603
N      86.16110524      63.78587560      84.69300597
H      85.91166137      61.94150271      85.11819440
C      88.37019530      64.95183672      85.73991435
H      87.99791922      66.69038493      86.78115356
C      89.64954002      63.10746384      87.61263313
H      91.49958208      63.96917904      87.90365098
H      90.02937501      61.34623893      86.61107818
C      88.27003981      62.58211994      90.15620474
H      86.29905526      62.02465066      89.94455541
H      88.21712747      64.32822705      91.24846655
C      89.87630717      60.56389222      91.76058238
H      91.52225879      61.52954237      92.53348046
H      90.47912987      59.15037694      90.38675136
N      88.58373438      59.12770023      93.52747650
H      88.54216040      57.29088625      93.00591203
C      87.45556777      59.54344003      95.82727341
N      87.72579863      61.64292595      97.03102907
H      86.96045947      61.75630953      98.77524646
H      89.43600094      62.41582401      96.67953999
N      85.99480933      57.80867127      96.86473317
H      85.15010167      57.97874664      98.56737657
H      85.76237299      56.15705046      95.93876726
C      90.24291408      65.87024371      83.67066404
O      91.15565189      67.93760431      84.01459424
N      90.51125522      64.54554558      81.48803016
H      89.66276810      62.84668162      81.29905752
C      91.90965269      65.55465942      79.24870447
H      93.82961462      66.08567251      79.77215865
C      92.06649997      63.35879745      77.28527883
H      90.27314970      62.36291167      77.11898292
C      92.80538296      64.47940515      74.63777226
H      92.95467134      62.88636587      73.34142001
H      94.68377091      65.31844363      74.53194760
H      91.32194780      65.58111559      73.72692419
C      94.22078797      61.64292595      78.30762076
H      93.84851188      61.08545669      80.25592860
H      95.96689508      62.70873159      78.05628717
C      94.97478877      59.20517901      76.97347399
H      96.08405811      57.81056099      78.00904400
H      95.99713070      59.41682835      75.19713126
H      93.20033576      58.33023573      76.39899719
C      90.56605728      67.89414060      78.19423718
O      91.76981294      69.84622788      77.63487819
N      88.11697198      67.86768442      77.59708367
H      87.00014373      66.35779311      77.93723440
C      86.54094023      69.93882447      76.46324789
H      87.51603901      70.82888557      74.88343668
C      84.08807548      68.94104898      75.41256006
H      82.90132735      70.60967730      75.17634426
H      83.21691165      67.67304261      76.78072190
C      84.10697274      67.52375424      72.86709871
O      85.71512983      68.21728379      71.29295670
O      82.54227935      65.96850948      72.44568974
C      86.04016276      72.19704741      78.23770090
O      86.26692992      74.33054842      77.34763981
N      85.36742019      71.91169873      80.60552796
H      85.07451261      70.11078957      81.16677667
C      84.75325914      74.03575112      82.31762000
H      84.17500289      75.67414382      81.21779928
C      82.41377796      73.23639689      83.80294489
H      82.01504571      74.63479435      85.26181359
H      82.75959788      71.52997403      84.90465532
C      79.94579540      72.69026597      82.39887823
H      78.72881165      71.64146787      83.68578186
H      80.16689338      71.43926716      80.77749305
C      78.43212462      74.99573208      81.41244109
O      76.21547566      74.47416761      80.75103689
O      79.48659191      77.08954883      81.28771916
C      86.84896562      74.84266425      84.27915592
O      87.21746225      77.10466665      84.50781281
N      88.28137817      73.06821124      85.38275608
H      87.60674587      71.33344249      84.95567793
C      89.98213185      73.35922909      87.65987630
H      91.41832385      74.74439849      87.15720909
H      91.02337105      71.59422471      87.87719481
C      88.60641109      74.12078880      90.04660062
O      86.33684979      74.70093478      90.06171844
N      89.92355033      74.23984155      92.19710917
H      91.83028418      74.22661347      92.13663793
C      88.94278238      74.91069440      94.79926230
H      86.89242933      74.79164163      94.98256575
C      90.01803665      72.86790025      96.48111871
H      92.07216915      72.82254682      96.35072761
H      89.63442221      70.95927668      95.81215561
C      89.39442696      72.76963449      99.38562806
H      89.84418183      74.65558135     100.07348844
C      86.53716078      72.39924812      99.57082125
H      86.01181686      70.52652936      98.89051976
H      85.64332023      73.91291890      98.49556696
H      85.94000726      72.43704265     101.54369551
C      91.01203269      70.70227389     100.51946385
H      93.02459121      70.95738696     100.15474667
H      90.16543530      69.12435243      99.50657055
H      90.74747100      70.63613348     102.56036826
C      89.70056263      77.47883246      95.69499258
O      91.95689584      77.99472775      96.01246659
N      87.74280617      79.13045325      96.14474743
H      85.97780179      78.63345523      95.61940352
C      87.97146305      81.70992968      97.27102432
H      89.97079349      81.98205026      97.68865383
C      87.17966773      83.86610740      95.39641581
H      86.80172246      85.63678096      96.37529405
H      85.42789143      83.27840252      94.49123692
C      89.16388035      84.25917047      93.34039359
H      89.50214136      82.49983528      92.32183111
H      90.94589227      84.67302054      94.28714646
C      88.20956857      85.98260086      91.30326863
H      88.48924806      87.91768061      91.94577557
H      86.27259910      85.45914667      90.84028568
N      90.00669829      85.80307687      89.07150185
H      91.37108069      87.13533391      89.12630391
C      89.96134486      84.09854373      87.26681321
N      88.17177404      82.50550444      86.85674260
H      87.93744798      81.38867619      85.32606429
H      86.95101084      82.05008040      88.25325035
N      91.70367252      84.40656913      85.56228008
H      91.68477526      83.30296896      84.00514560
H      92.94333298      85.85032003      85.70778900
C      86.46157173      81.98771944      99.77113223
O      84.20901796      81.70426049      99.69554317
N      87.74091644      82.27306812     101.91219214
H      89.64576056      82.33731880     101.80447774
C      86.65432381      82.51873253     104.50867609
H      84.92711396      81.42269128     104.73544325
C      88.53460149      81.35088168     106.45698393
H      87.76359316      81.45670634     108.36560750
H      90.35440793      82.31464210     106.46454284
C      89.35663244      78.66180113     106.16974552
H      90.75125046      78.45960042     104.66741310
C      90.86652376      77.83032156     108.44875545
H      92.12319176      79.30619781     109.14606446
H      92.05327189      76.18814939     108.08025883
H      89.56450233      77.00073170     109.81691731
C      87.25714650      76.59633027     105.84093314
H      88.25870145      74.80864917     105.65385025
H      85.94000726      76.98183443     104.30269592
H      86.19512032      76.56987410     107.60404779
C      86.13653880      85.20781307     105.32692760
O      85.06695371      85.62166314     107.35460392
N      86.81495055      87.05596542     103.76412392
H      87.73713699      86.47203999     102.19754081
C      85.91733055      89.70536171     103.73766776
H      84.88365026      89.66945691     105.51778995
C      88.26815008      91.55918321     104.04947261
H      89.63442221      91.25871674     102.53202237
H      88.98057690      91.20580440     105.94864755
C      87.51225956      94.37865487     103.94553765
H      86.12331072      94.87187345     105.38550910
H      86.76203821      94.92100633     102.10683395
C      89.89709416      95.96035579     104.60127268
H      91.37297041      95.59374890     103.21043411
H      90.55471892      95.29139269     106.43430720
C      89.47001602      98.84596787     104.95465151
H      87.89020482      99.12564737     106.24722431
H      88.97679745      99.49603372     103.06492520
N      91.60729648     100.31806467     105.82959478
H      92.96034052     100.53538320     104.50111719
H      92.59751306      99.46201866     107.21665391
H      91.05927585     101.99614164     106.55147025
C      83.98603026      90.39700153     101.65329963
O      84.44523375      89.74882540      99.46877602
N      82.07929641      91.73303803     102.33927028
H      81.99425872      92.38121416     104.13262056
C      80.03083308      92.43601623     100.50434603
H      79.06518294      90.69557829      99.97144321
C      78.04284100      94.16322608     101.91219214
H      77.40033406      93.00482385     103.48633417
C      79.32785489      96.54995041     103.09516081
H      81.11364626      96.06429074     103.99845000
H      78.22236500      97.41355534     104.60505213
H      79.94768513      98.02960612     101.80636746
C      75.71280846      94.53550215     100.29458641
H      75.26872277      92.62498885      99.66908700
H      76.24004210      96.03027568      98.97933690
C      73.34498139      95.49737286     101.86872843
H      73.14844985      94.58463504     103.70554241
H      71.64044825      94.98903648     100.82559951
H      73.63599924      97.51938000     102.12951066
C      81.01160104      93.81362670      98.07982718
O      82.66133211      95.28005433      98.14029842
N      79.92689814      93.15978140      95.82538368
H      78.60219999      91.78406065      95.81404534
C      81.09474900      93.84764179      93.34417303
H      82.28905603      95.49170367      93.68621350
C      83.02982874      91.78595037      92.43143523
H      84.17689261      91.55162430      94.12463001
H      84.19767960      92.62498885      90.95744871
C      82.01126626      89.15545134      91.81160499
C      81.33474424      88.65278414      89.19811350
H      81.38387712      90.13055012      87.79215713
C      80.63176605      86.14133788      88.67276960
H      80.14988584      85.76150288      86.72446177
C      80.64121468      84.27806774      90.51336303
O      79.71713852      82.01039615      89.89731224
H      79.85886799      81.61355363      88.13230787
C      81.13632298      84.87711097      93.15142095
H      81.04372639      83.35021212      94.50257527
C      81.69190251      87.38477779      93.78447927
H      82.08685531      87.91390115      95.71766928
C      79.11053637      94.32385282      91.32594534
O      77.13199292      93.15600194      91.39208575
N      79.40911313      96.31751407      89.77070059
H      81.06073392      97.27371558      89.81794374
C      77.53828408      96.97513882      87.72790643
H      75.68446256      96.28538872      88.30994214
C      77.43623886      99.86830982      87.21579060
H      76.57830311     100.33507221      85.40543279
H      79.34108298     100.63931815      87.08539950
C      76.16067359     101.42922375      89.27559229
H      76.97136618     100.76215035      91.04626584
H      74.14055617     101.01537368      89.23401830
C      76.34964623     104.31483582      88.95433881
H      78.20913692     105.05560855      89.43243958
H      75.08541932     105.20489692      90.31683148
C      75.88099410     105.46189969      86.21990483
H      74.37866168     104.39042488      85.30716703
H      77.54017380     105.18410994      85.02748753
N      75.17045701     108.08483982      86.19155894
H      74.50338362     108.69144196      84.50781281
H      76.84286479     108.96734201      86.46934871
H      74.02906231     108.51002825      87.66176601
C      78.23937254      95.56351327      85.24102661
O      80.38799136      95.93578935      84.43789292
N      76.85420315      93.75504520      84.37931142
H      75.12321385      93.70024312      85.18244509
C      77.27372239      92.38877307      81.95290282
H      78.76849591      91.00549341      82.24958985
C      74.98526383      90.88644064      81.28204999
H      73.32419440      92.05618123      80.94945816
H      74.18779932      89.87165762      82.88831735
C      75.50115911      88.83041841      79.32996270
O      74.63566446      89.09686982      77.18134389
O      76.56696475      86.76305784      79.86097580
C      77.75749233      94.05551167      79.58507576
O      77.52505599      96.40822094      79.63042918
N      78.77794454      93.05962590      77.47236173
H      79.71902824      91.40044621      77.44212611
C      78.45480134      94.28416856      74.96847437
H      79.98358993      95.66177905      74.88154696
C      78.67211986      92.31318401      72.76883294
H      76.97325591      91.15478179      72.85387062
C      79.16155898      93.38276910      70.13833392
H      77.48537174      94.32385282      69.39189203
H      79.70768988      91.77461202      68.97426250
H      80.81317978      94.59975285      70.30085037
O      80.87176129      90.95069134      73.30929466
H      82.37598344      91.96736409      73.33764057
C      75.92445781      95.57107218      74.56974213
O      75.89989136      97.78016224      73.82141051
N      73.79851570      94.29172747      75.04217370
H      73.82308215      92.55695870      75.84152792
C      71.24360573      95.55028519      74.94579765
H      71.06975091      96.28349900      73.02961518
C      69.20459104      93.41111500      75.25760250
H      69.27262118      92.81018203      77.22858704
H      69.64111781      91.85209080      73.98392696
C      66.56275365      94.19157197      74.29762154
H      65.91646725      95.96791470      75.11398329
H      65.28340894      92.66845256      74.82485517
C      66.37567075      94.25960212      71.35720738
O      66.66668860      96.26838119      70.22526133
O      66.07898371      92.26216141      70.21203325
C      70.61621659      97.75748552      76.95079727
O      68.80585878      99.03305079      76.95457672
N      72.34909562      98.54361166      78.64588177
H      74.04040067      97.67244783      78.48336532
C      72.07508531     100.44089689      80.69056564
H      70.93369061     101.92055258      79.82696072
H      73.93268627     101.28371483      80.97780404
C      71.01116939      99.69067555      83.16610712
O      71.10943516     101.15332370      85.03504644
N      69.84709798      97.47024712      83.35319003
H      69.63166918      96.46302299      81.74692265
C      68.42602380      96.81829154      85.60385406
H      67.82509083      98.59274455      86.45801035
C      66.09977070      95.25548789      84.97079575
H      64.82798490      95.24414953      86.58840147
H      66.68558586      93.28072388      85.04449508
C      64.49539306      95.68634549      82.51037209
C      63.51651483      93.74937601      81.11575407
H      63.86044502      91.83508326      81.74125347
C      61.94237282      94.31629391      78.99359141
H      61.07876789      92.76482860      77.98636729
C      61.47750014      96.82585044      78.21880364
O      59.84666633      97.24347997      76.30640060
H      59.41958819      99.00659462      76.29128280
C      62.54708524      98.82518089      79.51137642
H      62.31464890     100.82829079      79.19390241
C      63.87934229      98.22424792      81.84707815
H      64.61444582      99.77760295      82.95256804
C      70.03607061      95.52004956      87.75247287
O      71.88422295      94.20102060      87.12697346
N      69.45214518      95.80728797      90.15620474
H      68.24083062      97.26048750      90.39053082
C      70.90723444      94.80195356      92.30482356
H      72.84987309      95.24414953      91.79081801
C      70.06819596      96.01704759      94.64808419
H      71.19825230      95.21769335      96.17498305
H      68.08020388      95.50871120      94.82760819
C      70.68424674      98.87620349      94.87107190
C      68.63011424     100.49569894      95.13563358
H      66.66290915      99.94767831      95.16020002
C      69.19703213     103.08840345      95.50979940
H      67.59076476     104.33184336      95.69499258
C      71.74816265     103.91610357      95.39263637
O      72.35287507     106.51447726      95.30192949
H      70.89589609     107.53870892      94.96933766
C      73.77772871     102.14543002      95.29626032
H      75.70713928     102.78037807      95.48145349
C      73.27506151      99.58485086      94.94288151
H      74.81518846      98.24881436      94.97500684
C      70.64834194      91.90689285      92.59773114
O      68.65657041      90.80140296      92.60340032
N      72.82719638      90.66534266      92.75835788
H      74.40889730      91.65933871      92.36151535
C      73.15600876      87.93846759      92.56182635
H      71.33053314      87.00683252      92.77158596
C      74.13866644      87.10131885      89.97290129
H      76.10776126      87.67957509      89.79526703
C      73.88544311      84.35932597      89.30960737
H      74.61865692      84.16468416      87.39153515
H      71.88611267      83.86799712      89.33606353
H      74.85487271      83.18769564      90.69666648
O      72.58909086      88.42034781      88.25325035
H      73.31663549      90.08141724      88.19277911
C      74.94368985      87.04840651      94.66509174
O      76.38744075      88.53751084      95.79325834
N      74.76227612      84.65601299      95.47767405
H      73.60387389      83.48816214      94.50635472
C      76.40633801      83.68847313      97.39763598
H      78.18834993      84.71837397      97.49968121
C      74.93802067      84.33475953      99.86372882
H      74.57330349      86.35109750     100.05081173
C      72.52861962      82.70014625     100.07726789
H      71.72926539      83.19336483     101.91219214
H      72.68546690      80.67435965     100.41174945
H      71.19636257      82.90423670      98.52013342
C      76.40822774      83.87933548     102.15596684
H      77.12821347      81.97638108     102.47155113
H      75.35187073      84.20058896     103.89451504
C      78.60408972      85.59142751     102.78335597
H      80.38799136      84.73916095     102.20320999
H      78.54172875      86.11488170     104.77323778
H      78.11276088      87.46414630     102.07281887
C      77.34175254      80.90868571      97.07449279
O      76.30240307      79.32887451      95.73467682
N      79.39777477      80.28507604      98.34627860
H      80.58074344      81.60599472      99.05303623
C      80.26893860      77.72071743      98.32360187
H      78.62487671      76.66625014      98.98500608
H      81.85063952      77.21805023      99.54247534
C      81.08152091      76.82309742      95.74601519
O      82.54794853      78.13645722      94.57816433
N      80.14610639      74.63668409      95.16397948
H      78.78928290      74.03386138      96.36206596
C      80.27271805      73.60867297      92.58450306
H      81.73725594      74.26062855      91.28815081
C      80.75837771      70.67959719      92.67143047
H      79.12376445      69.61568127      93.33850386
C      81.40655384      69.76119020      89.93321704
H      81.28561136      67.71083714      90.09006433
H      83.26415480      70.48306565      89.40598341
H      80.01004609      70.25062930      88.50269422
C      82.91077598      69.94260392      94.38730196
H      82.23803342      70.39424851      96.28269746
H      84.43956457      71.28808906      94.07927657
C      84.04839122      67.19683159      94.66509174
H      84.92900369      66.56188355      92.91520517
H      82.41755742      66.00252456      95.06193425
H      85.42033253      67.07210965      96.19765978
C      77.81418412      74.08866345      91.21445148
O      75.86587629      73.03986535      91.89853242
N      77.78961768      76.27507679      89.89920197
H      79.34675216      77.34277216      90.17699174
C      75.86776602      76.88167895      87.99246813
H      75.61454269      75.18470472      86.85107342
H      76.46869898      78.48038740      86.84351453
C      73.22970808      77.75095304      88.91276484
O      71.50438796      78.02496336      87.43877831
N      72.79885048      77.89268251      91.37507822
H      74.35598497      77.64323864      92.45222221
C      70.32141929      78.31976066      92.62040787
H      68.93058072      77.11033582      91.70011114
C      70.39322889      77.35411053      95.30948840
H      71.79162636      78.50117439      96.29403582
H      71.44580644      75.58154723      95.28303223
C      68.04807853      77.34088243      97.03858798
N      66.90101466      75.26596295      97.97211278
H      67.23171677      73.54820173      97.20677362
C      64.84499243      76.12011924      99.28169311
H      63.43147715      74.89557658     100.10372406
N      65.06986986      78.64101414      99.47444520
H      63.76028953      79.78051910     100.27001997
C      67.00494961      79.50461906      97.94565662
H      67.49627845      81.47938307      97.77180180
C      69.33687188      80.97293641      92.45222221
O      70.52739946      82.63211612      93.53125594
N      67.15990717      81.41702209      91.22767957
H      66.06575563      79.95626365      90.67210003
C      65.93725424      83.97004234      91.03114804
H      67.41690994      85.36088090      90.67776921
C      64.27051563      84.17035333      88.61607781
H      62.90613323      82.63022638      88.62741616
H      65.44592540      83.99271906      86.93422139
C      62.76818321      86.59298247      88.32694967
H      61.32443231      86.78762428      89.78392867
C      64.49350334      88.90978692      88.15876404
H      65.42324868      89.19135614      89.97479103
H      63.36911618      90.56329744      87.65798657
H      66.00339466      88.74160129      86.76603574
C      61.45104397      86.50038588      85.74558353
H      60.28886229      88.17090394      85.42621979
H      60.40035614      84.72593287      85.72857599
H      62.91369214      86.21503720      84.32072989
C      64.52184923      84.62388764      93.37440867
O      62.61322566      83.32564566      93.75802310
N      65.16624591      86.66290234      94.75012942
H      66.52306940      87.86476827      94.15108618
C      63.88123201      87.62477304      96.98378591
H      63.19715109      86.11110225      98.20076966
C      65.59899323      89.27072466      98.43509572
H      64.48405471      90.34408920      99.79758840
H      66.57409201      90.57274607      97.17086882
C      67.51706544      87.96492377      99.99034049
H      68.64334232      86.71581467      98.79981290
C      69.58253630      89.85653981     100.87473239
H      70.42913369      90.52550293      99.11917666
H      71.03762556      88.97403761     102.03313463
H      68.66601904      91.44579963     101.81392637
C      66.46070843      86.60810027     102.28635795
H      67.78729630      85.25127678     103.09327108
H      64.80908763      85.49883092     101.75345513
H      65.81253230      87.99137993     103.66963761
C      61.50206658      89.25749656      96.11829126
O      59.42147791      88.73026293      96.94410167
N      61.80064334      91.25304755      94.68209927
H      63.53541210      91.58185994      93.95644436
C      59.83721770      93.04450809      93.82227380
H      58.15536128      91.97303328      93.30448879
C      59.20793884      94.96824949      95.96522343