 %block lattice_cart
   139.252   0.000   0.000
   0.000 142.425   0.000
   0.000   0.000   162.84
 %endblock lattice_cart

 %block positions_abs
N      90.09551543      40.70570327      82.25053472
H      89.15821117      39.14100988      81.68361683
H      90.06527981      40.98349303      84.13837130
H      91.92666022      40.47137720      81.76487506
C      88.98624607      43.15856802      81.23953113
H      89.87252772      44.64767236      82.35446966
C      89.52103863      43.61777151      78.43895674
H      88.48546860      42.24016103      77.30890041
H      91.56194304      43.52895438      78.16116698
C      88.59129327      46.31630069      77.81156760
H      86.58818338      46.52606031      78.23486630
H      89.11852692      46.58275210      75.83491389
S      90.05961062      48.73326064      79.41783498
C      88.51003504      51.39966447      78.10258545
H      88.89175977      51.34675213      76.07868858
H      89.33017626      53.08341062      78.95485202
H      86.49558679      51.34864186      78.52966360
C      86.25181210      43.34565093      81.87636890
O      84.79672284      41.53907257      81.53810789
N      85.54505446      45.45458549      83.07823484
H      86.77715602      46.85298296      83.48452599
C      82.98636503      46.07819517      83.96073703
H      81.66544634      44.94435939      82.86091631
C      82.45724166      45.09364776      86.66115593
H      82.46291084      43.03384608      86.69517101
H      80.53916945      45.50938755      87.28476561
C      84.17122344      46.09142326      88.70017062
O      85.24836743      48.07185643      88.39214524
N      84.20712823      44.93680048      90.92248876
H      85.52426748      45.56418962      92.15459033
H      82.96368831      43.51950575      91.21917579
C      82.26259985      48.86743121      83.42972393
O      83.82540351      50.57763353      83.26720747
N      79.74926387      49.40222376      83.29555337
H      78.61353834      47.87154545      83.38248078
C      78.57007464      51.93634674      83.33901708
H      78.98959388      52.70735508      81.47574692
C      75.75627216      51.56785011      83.59601985
H      75.26305360      50.04473070      82.29966760
C      74.86054189      50.61353833      86.29643875
H      72.86877035      50.15622456      86.54966208
H      75.20258236      52.11209129      87.66838006
H      75.80918449      48.84853395      86.77264978
C      74.26149865      53.95835390      82.86847522
H      74.51850142      55.48714249      84.22151926
H      72.35854425      53.17411748      82.85902658
C      74.70180487      55.02604927      80.30600635
H      74.06118765      53.55773192      79.01154381
H      76.66712024      55.32273630      79.76554461
H      73.47915195      56.59830156      79.78066243
C      79.48659190      53.96213335      85.32700915
O      79.46391518      56.35452686      84.93016662
N      80.49381603      53.07207226      87.40759782
H      80.17445229      51.21447129      87.70995403
C      81.76182239      54.46480055      89.47306869
H      80.59964070      56.07673710      90.01542013
C      82.11898066      52.60153041      91.77664506
H      83.20368356      53.89032375      92.96150345
H      83.38131784      51.00093222      91.47617858
C      79.60375493      51.73981521      92.78764863
C      78.02583346      53.30261887      94.19738446
H      78.47369860      55.24903697      94.62257288
C      75.47092349      52.57885369      94.56210164
H      74.08575410      53.86008813      95.33688944
C      74.60920828      50.11087113      94.08589061
H      72.67223882      49.77449984      94.63391124
C      76.27783662      48.28728523      93.10512266
H      75.84319957      46.29740343      92.98229045
C      78.70991438      49.19057441      92.44749791
H      79.99114882      47.79028721      91.69727656
C      84.23736385      55.74603499      88.42238086
O      84.73436187      58.05339082      88.76064186
N      85.76804216      54.17756215      87.11091079
H      85.62442296      52.28594611      86.89926144
C      87.99980894      55.32840548      86.29832848
H      88.82750907      56.37153440      87.87058077
C      89.82339484      53.05506472      85.75408730
H      88.74436112      51.65855698      84.69584056
H      90.24480381      52.22169542      87.58712182
C      92.15909655      53.88276485      84.27065214
H      91.63753209      55.31706712      82.88548275
H      92.89231037      52.30295365      83.17083143
C      94.15653727      54.62353756      86.26053395
O      96.48279036      54.09063474      85.95439828
O      93.59339882      55.82162404      88.21640068
C      87.48013420      57.02160025      84.00609046
O      88.30405487      59.16832934      84.11380487
N      85.82473395      56.24492274      82.16927648
H      85.19923454      54.44590329      82.26943198
C      85.36175101      57.72079899      79.90727408
H      87.00014373      57.53938526      78.67139307
C      83.22636027      56.39043166      78.55234033
H      81.52938604      56.89687832      79.60113843
H      83.61564389      54.37787314      78.75454104
C      82.74825952      57.23891878      75.80845772
H      84.15988507      56.38476249      74.57635615
H      82.95423969      59.27793347      75.58924946
S      79.44690766      56.25059192      74.72942400
C      79.70202070      55.85941857      71.36004198
H      81.44623809      54.88998897      70.85737477
H      79.97225156      57.68111474      70.43218635
H      78.00504648      54.90321706      70.68540968
C      84.72113380      60.65176450      80.36080841
O      85.79449834      62.34117982      79.19673699
N      82.98258558      61.14876252      82.14659977
H      82.11520120      59.77682122      83.15193417
C      82.19079025      63.72634921      82.80422452
H      81.85441898      64.78081649      81.06756604
C      79.68501317      63.57328138      84.15348911
H      79.39588504      65.25513780      85.31000162
H      79.90611114      62.03315443      85.50464342
C      77.39088542      62.92888471      82.55289092
H      77.82363274      61.23568993      81.46440856
C      75.11187548      62.15976610      84.17994529
H      74.71692269      63.71312113      85.47629754
H      75.33675291      60.45145351      85.30622216
H      73.43568824      61.88386606      83.01209443
C      76.71247367      65.16065148      80.85024751
H      74.91156449      64.81105211      79.91483299
H      78.14110677      65.35529329      79.38004045
H      76.64822299      66.95211203      81.86881001
C      84.20145906      65.45733851      84.23663708
O      83.95012545      67.70422310      84.37647682
N      86.18000251      64.08539721      85.17205159
H      86.06283948      62.18244281      85.24386119
C      88.30972406      65.31749877      86.45328604
H      87.50659038      66.93888394      87.43594371
C      89.39820642      63.42210327      88.30143838
H      90.50558603      61.89142496      87.47751770
H      87.89020482      62.55471890      89.40692827
C      91.29549163      64.95278159      89.86991122
H      90.60763126      66.85762571      90.23273866
H      93.11529807      65.39119809      89.01386519
C      91.85674034      63.64131153      92.33978350
H      90.02181609      63.28793271      93.20338842
H      92.91498708      64.93388433      93.54731861
N      93.17387958      61.18466732      91.99018413
H      93.29671179      60.60452134      90.17415714
C      94.48157020      59.89020480      93.69093781
N      94.55149008      60.30783431      96.04553680
H      95.67398750      59.14943208      97.06220955
H      93.72378994      61.87252770      96.76552252
N      95.70044366      57.86252846      92.99362881
H      96.72278560      56.84774543      94.24462762
H      95.45477924      57.46946539      91.14358674
C      90.17488393      66.36062769      84.52009601
O      91.15754161      68.35239923      84.72796591
N      90.49991685      64.98301721      82.43383816
H      89.42655231      63.40698546      82.35824911
C      91.96823421      65.58772963      80.12837206
H      93.66142897      66.60251266      80.71985641
C      92.67688157      63.22746146      78.51265607
H      90.87030321      62.66621275      77.70007376
C      94.65731474      64.00224925      76.37348588
H      93.87685777      65.39875700      75.07902336
H      95.01069356      62.35440791      75.18862748
H      96.44121639      64.74113224      77.09347161
C      93.72567967      60.94467208      80.13215152
H      92.80160351      60.61208025      81.94061960
H      95.69666421      61.21112349      80.67450297
C      93.50080225      58.54471966      78.50509716
H      91.47312591      58.18189221      78.55234033
H      94.57038733      57.04049752      79.42350416
H      94.16787562      58.76959709      76.57001741
C      90.57550590      67.78926078      78.83201981
O      91.81138691      69.56749324      78.02132722
N      88.06972881      67.73823817      78.59958348
H      87.15888073      66.10551464      78.98697737
C      86.69589778      69.62418503      77.25787779
H      87.60674588      70.28180979      75.53255767
C      83.97847135      68.74924175      76.54734070
H      82.85408419      70.47645160      76.60214276
H      83.27360343      67.35462373      77.88904639
C      83.78382953      67.76091489      73.81290673
O      82.21724642      66.04882285      73.42362311
O      85.17844755      68.52436432      72.07435852
C      86.45968199      72.07138061      78.90382942
O      87.12297593      74.07071105      77.93251009
N      85.56962090      72.02413745      81.20740579
H      85.10852768      70.31015569      81.91416344
C      84.87420162      74.28425012      82.54533202
H      84.94412150      75.87539968      81.23764141
C      82.03205325      74.14818983      83.25775884
H      81.99992789      72.54381219      84.54844191
H      80.92278391      73.63985345      81.59857913
C      80.86420238      76.44042784      84.43316861
H      81.90922104      76.96388203      86.13014284
H      78.86109249      76.09649766      84.76953989
C      80.67145030      78.67786380      82.70028957
O      81.59930592      78.56448022      80.58379611
O      79.78327893      80.70365041      83.39570887
C      86.70534641      74.96266187      84.76765017
O      86.55038887      77.06781698      85.69550578
N      88.48735833      73.22978284      85.58779139
H      88.82561934      71.64808192      84.57678780
C      90.53771138      73.79481101      87.52665058
H      91.34651424      75.58816128      86.92004843
H      91.92288077      72.26980187      87.56633484
C      89.69489344      74.13685147      90.25730511
O      87.39887597      73.94031993      90.63147091
N      91.29549163      74.96077214      92.04309647
H      93.13419534      75.27257698      91.64814368
C      90.68888949      75.47477770      94.64713932
H      88.71412548      74.92486734      94.84745032
C      91.99091092      73.73433976      96.53119646
H      94.01291808      74.02724734      96.27797313
H      91.59595812      71.71989152      96.33844437
C      91.26525601      74.25779395      99.41302909
H      91.77737184      76.22121959      99.77207710
C      88.38909256      73.79292128      99.78908463
H      87.77682123      71.97689429      99.03130438
H      87.40076570      75.31604069      98.81776530
H      87.93744797      73.97055555     101.78841506
C      92.92065626      72.59672452     101.07409852
H      94.92376615      72.79325606     100.65646901
H      92.24035478      70.70510849     100.62434366
H      92.67310211      72.94065471     103.09043650
C      90.99124570      78.22055003      95.22161612
O      93.17765904      78.99911727      95.26507983
N      89.06372486      79.62083723      96.17970736
H      87.35352255      78.77235012      96.15892037
C      89.16765980      82.19842392      97.35700687
H      91.15376215      82.70865003      97.53464114
C      88.24736309      84.29224068      95.53342097
H      87.38753761      85.68118952      96.78630951
H      86.69400806      83.65162346      94.33911394
C      90.36763602      85.05380038      93.65881246
H      91.15376215      83.21698640      93.16748363
H      91.78682047      86.23865878      94.56966055
C      89.48324410      86.33125537      91.12091003
H      91.21234367      86.81691503      90.11179617
H      88.38531312      88.03011932      91.51964229
N      88.29649597      84.39050644      89.51086322
H      88.06405963      82.65384796      90.26864346
C      87.98847059      84.28657150      87.02776284
N      88.29271653      86.18574644      85.50275371
H      87.40076570      86.35960126      83.82089729
H      88.51948368      87.94886109      86.19061407
N      87.07195332      82.21165200      85.95439828
H      86.69400806      82.04913554      84.09112814
H      86.51826352      80.74711411      87.04854982
C      87.80894659      82.33448422      99.91569630
O      85.50914966      81.77890468     100.02152096
N      89.06183513      83.35304670     101.89423973
H      90.83061896      84.04657625     101.71849520
C      88.13586924      83.57792413     104.39623737
H      87.21368279      81.82236838     104.95748609
C      90.56416755      84.03712762     106.07431435
H      90.00480856      84.25822560     108.04529888
H      91.27470464      85.83803680     105.37700533
C      92.68821992      82.16062939     105.84187800
H      93.38363920      82.20598283     103.90679827
C      94.78770585      82.69920139     107.74105296
H      93.83906325      82.44975752     109.55330048
H      95.58894981      84.59270716     107.66735363
H      96.17098552      81.17230253     107.73538378
C      91.68855471      79.55658654     106.56186374
H      93.15498232      78.11094591     106.53351783
H      90.29393668      78.95943302     105.16913544
H      90.84384705      79.60193997     108.44214141
C      86.35952650      85.87016215     104.80252853
O      85.58662845      86.34448345     106.93225010
N      86.05906002      87.51044459     102.82965427
H      87.37053008      87.29501579     101.46149241
C      84.92900368      90.08236210     102.86177962
H      83.75170420      90.08803128     104.55119493
C      86.96990811      92.15161241     102.78997001
H      86.07984700      93.89205035     102.14179388
H      88.40610010      91.55256917     101.43692597
C      88.33240077      92.52766795     105.38267452
H      89.39442696      90.81746563     105.83053965
H      86.99258482      92.89994403     106.90201446
C      90.11630241      94.74431691     105.38456423
H      89.13553445      96.36948154     104.58521000
H      91.91343213      94.36637165     104.44537026
C      90.85518541      95.40572112     108.09632149
H      91.99658009      93.93551405     108.98071341
H      89.23568995      95.67028281     109.34165113
N      92.11374312      97.94173383     108.03018108
H      93.12474670      98.14204482     106.42580344
H      93.40631593      97.73575367     109.42290938
H      90.85896485      99.34580048     108.34576537
C      83.19045547      90.51321970     100.70749161
O      83.45879661      89.24899279      98.77430159
N      81.32151615      92.20641447     101.08732661
H      81.16655859      92.94907692     102.83910289
C      79.31462681      92.59380837      99.15224686
H      78.56062601      90.73620740      98.67225638
C      76.93924083      94.18684765     100.04419767
H      77.64410874      96.08602259     100.42214295
C      74.71125351      94.01866201      98.05998505
H      75.25549469      95.11470327      96.40269507
H      73.00861011      94.82557514      98.88768518
H      74.40133839      92.11381789      97.33810960
C      76.13610715      93.08135776     102.58210012
H      77.65544710      93.32702218     103.94837225
H      75.94146534      91.07824787     102.13423499
C      73.85331776      94.11125860     103.69136946
H      73.57741773      93.05868104     105.43936630
H      72.09398257      93.96197022     102.63312272
H      74.32952880      96.10114041     103.92758525
C      80.26515914      93.76732841      96.74284581
O      81.25159627      95.90838832      96.88268555
N      80.24248242      92.42751245      94.62824206
H      79.70957961      90.61715465      94.92681882
C      80.83963594      93.25899203      92.05065538
H      81.66733607      95.13926971      92.21317183
C      82.97313696      91.67540138      90.71461887
H      84.62475774      91.52422328      91.93727180
H      83.71201994      92.66372824      89.06299807
C      82.22858478      88.92395987      90.08534001
C      81.41033328      88.15106181      87.53420949
H      81.16466886      89.46442159      85.99408254
C      80.84152566      85.63583608      87.20917656
H      80.25571052      84.91774009      85.39125984
C      80.97758597      83.85571390      89.22740427
O      80.30673312      81.44064367      88.80599530
H      79.76249194      81.36316489      87.07500599
C      81.81851418      84.58892771      91.63680532
H      82.06417860      83.15273571      93.06543840
C      82.44023413      87.16084522      92.11301635
H      83.04494655      87.90161793      93.91581525
C      78.45480133      93.65961401      90.34990169
O      76.29673388      93.06812967      91.00563673
N      78.89888701      94.86147994      88.09734792
H      80.51460301      95.84980681      87.84790406
C      76.92412303      95.14115944      86.08478940
H      75.07408096      94.52888811      86.75375252
C      76.54239830      97.87370369      85.26653792
H      75.64666803      97.87748314      83.41460613
H      78.46236024      98.60880722      85.15315433
C      75.06463233      99.20218129      87.45106153
H      76.01516467      99.00753947      89.26897824
H      73.09364779      98.60880722      87.42082591
C      75.08541933     102.02921185      86.82178267
H      77.06963194     102.51676124      86.57611825
H      74.30685207     103.05344351      88.43182948
C      73.34687111     102.65471126      84.62025151
H      71.36643793     102.73974894      85.17961050
H      73.36954782     101.10513568      83.26342802
N      74.08764383     105.29087947      83.60357876
H      72.79129158     105.80866448      82.30533678
H      75.76572079     105.34001235      82.69839986
H      74.25960892     106.46817896      85.09457281
C      77.24348677      93.19285161      83.97585483
O      79.38832613      92.93584883      83.13492663
N      75.31029675      91.82846921      83.13114717
H      73.67379376      91.91728635      84.10624596
C      75.39344470      90.29590117      80.91827767
H      76.70491477      88.71042080      81.02221262
C      72.66845937      89.10726332      80.79922491
H      71.36265848      90.43952037      79.92995081
H      72.08264420      88.71420025      82.73619437
C      72.60798812      86.72431844      79.28555413
O      71.91634829      84.69853183      80.34380087
O      72.72137170      86.87549655      76.99520583
C      75.84319957      91.98909595      78.51076634
O      75.71847763      94.27566479      78.57879648
N      76.30996197      90.84014235      76.27899956
H      76.74270929      88.98065166      76.31301464
C      75.96603178      92.11381789      73.79211973
H      77.01482988      93.88638117      73.82424509
C      77.22458950      90.57936012      71.75688451
H      75.81296396      89.09403524      71.54712487
C      77.56474024      92.14027405      69.37582934
H      78.90266648      91.28989721      68.05869010
H      78.35653557      93.94685241      69.97487258
H      75.82619203      92.37460012      68.30057507
O      79.55462205      89.54567983      72.27089005
H      80.91144554      90.75132521      72.25010307
C      73.33175330      93.02277624      73.33669570
O      73.13900121      95.02588613      72.29545649
N      71.40423246      91.77744660      74.41761915
H      71.80863389      90.01433195      75.03178021
C      68.88900673      92.76010428      74.48942874
H      68.42413407      93.33647081      72.56757708
C      67.03518522      90.67951561      75.29445216
H      65.10010549      91.35036845      75.52688849
H      67.72493533      89.88016138      77.06323599
C      67.03896467      88.58947831      73.31023953
H      66.11677823      86.92651916      74.09825541
H      68.97026497      88.03578850      72.86804358
C      65.72182543      89.30190513      70.84603642
O      63.51084565      90.15228197      70.92729465
O      66.89534547      88.97120303      68.82402927
C      68.63011424      95.04289367      76.20530025
O      66.61755571      96.05200752      76.73442361
N      70.62188577      95.86492462      77.59046962
H      72.22248396      94.84258268      77.39771755
C      70.58220151      97.80945299      79.49720348
H      69.34821023      99.30800596      78.80934310
H      72.46625866      98.51999009      79.93184054
C      69.73182467      96.93450971      82.13904086
O      69.82820071      98.43684213      83.94183976
N      68.63011424      94.62904361      82.35446966
H      68.49405394      93.66150374      80.71607694
C      67.34887979      93.62370921      84.61647206
H      66.16213167      95.12793135      85.37425231
C      65.27207058      91.67351165      84.10624596
H      64.23461083      91.39761161      85.86180171
H      66.12433714      89.83291823      83.74341850
C      63.33699083      92.54845494      82.07290045
C      62.61889483      90.76644302      80.24364537
H      63.42202852      88.89372425      80.34380087
C      60.69137399      91.02911498      78.54478142
H      60.01296224      89.36615583      77.57913127
C      59.35344776      93.31190437      78.60147321
O      57.27663854      93.85992500      77.08024353
H      56.55287336      95.47753072      77.47708604
C      60.21705268      95.33769097      80.16805632
H      59.28730734      97.15371796      80.16427687
C      62.07276392      94.85770049      82.15604840
H      62.40913521      96.12570685      83.72074179
C      69.05530265      92.99254062      86.89359226
O      71.05463309      91.94941170      86.49863946
N      68.16524157      93.53300235      89.19527892
H      66.52495912      94.45140933      89.52031184
C      69.72048631      93.18151325      91.42704570
H      71.57241810      93.93173460      90.92248876
C      68.60365806      94.73297855      93.58511314
H      69.39167394      94.14527367      95.39358123
H      66.60999680      94.27188533      93.81943920
C      68.89278619      97.54300158      93.27708775
C      66.89723520      99.23619636      93.53220081
H      64.97916299      98.53321817      93.52275217
C      67.35832842     101.85724675      93.58511314
H      65.94481314     103.30099766      93.88180017
C      69.86221579     102.89470650      93.43960422
O      70.25716859     105.40993222      93.65692275
H      68.80963823     106.37747210      94.16525911
C      71.89367157     101.18261446      93.21472678
H      73.75883144     101.99141732      93.04465142
C      71.45147563      98.58046133      93.00874661
H      72.96514639      97.22552756      92.81410480
C      70.00016582      90.42062311      92.24340745
O      68.18980801      89.01088728      92.66103698
N      72.39444905      89.57969490      92.32277597
H      73.82119241      90.81368618      92.03175812
C      73.25049508      86.91518080      92.50418969
H      71.78406745      85.58859293      93.07299731
C      74.00071641      86.14606219      89.80566051
H      75.75060299      87.13438905      89.36346455
C      74.16323287      83.22076586      89.49574540
H      75.64477831      82.34960203      90.63147091
H      74.63377474      82.92218910      87.51153278
H      72.36988261      82.27590270      89.85290367
O      72.10910037      86.68841364      88.15026027
H      72.45681002      88.40617486      87.68160814
C      75.58619679      86.62227322      94.37123929
O      77.18490526      88.21909195      94.71327976
N      75.53895363      84.48310303      95.81499019
H      74.02906232      83.35304670      95.52775180
C      77.58741695      83.76122758      97.48172879
H      79.29950899      84.73065718      96.86756775
C      76.91278467      84.76467225     100.19915524
H      76.27594690      86.72053899     100.07065384
C      74.75093777      83.30013436     101.44826432
H      74.33519797      84.26956396     103.21515843
H      74.95124875      81.26111967     101.64668559
H      72.98026420      83.70075634     100.47883473
C      79.18612541      84.73632636     102.10588909
H      80.85475376      85.57536484     101.23661499
H      79.58863712      82.77479045     102.58210012
C      78.79117263      86.29157111     104.64946070
H      80.51460301      86.28212248     105.77573759
H      77.30584774      85.59615183     105.90045953
H      78.11276087      88.16428989     104.12222707
C      78.26960816      81.02868333      97.36645549
O      76.85609288      79.66241121      96.33277521
N      80.29161532      80.02901811      98.63068239
H      81.18923531      81.22143542      99.81743053
C      80.78861333      77.23789235      98.69682282
H      79.07652129      76.09838738      98.81398585
H      82.02071489      76.74845323     100.27474428
C      82.09819366      76.30814700      96.28742177
O      83.60808499      77.66308077      95.15736544
N      81.84686007      73.87606924      95.62790729
H      80.78483388      72.99356705      96.94693625
C      81.77316074      73.01813349      92.97851099
H      83.12242532      74.00835008      91.77853479
C      82.20968752      69.98512276      92.88591440
H      80.69979619      69.06671577      93.94227141
C      82.12653957      69.15175346      90.02675849
H      80.45602150      69.89819535      89.08189533
H      82.10197313      67.09195177      89.98707425
H      83.90477202      69.78859122      89.19905836
C      84.75136941      69.42765350      93.93093305
H      85.18222701      70.53314339      95.61656892
H      86.07984700      70.22511800      92.57221983
C      85.23891880      66.60629211      94.16525911
H      85.59418734      65.93921872      92.24718692
H      83.68367405      65.67843649      95.15169626
H      86.93589302      66.14141944      95.23673394
C      79.14833090      73.63229454      91.87869029
O      77.34931144      72.13185185      91.82766768
N      78.72125275      75.84705378      90.86579697
H      80.11965021      77.14151631      90.74863394
C      76.42901473      76.35350043      89.26330907
H      76.22303456      74.86628583      87.85357323
H      76.46302980      78.25456511      88.47340347
C      73.99315751      76.44420730      90.68816270
O      71.99949625      76.49334018      89.42771525
N      73.92890681      76.41964086      93.28842611
H      75.46336458      77.01679437      94.25596599
C      71.61021263      76.84671900      94.72461811
H      70.41212615      75.28013589      94.13691323
C      72.07697504      76.73522515      97.60834046
H      73.07097108      78.35094115      98.41336388
H      73.04262517      74.96833105      98.04864670
C      69.36521777      76.62940048      98.83477283
N      67.94981276      74.55070153      99.47727978
H      68.56775326      72.89530128      98.75918379
C      65.69725899      75.20643656     100.45993746
H      64.19492657      73.89307678     100.89835398
N      65.65379529      77.76134654     100.57710049
H      64.16847042      78.83282136     101.11378278
C      67.96682029      78.62873092      99.61145036
H      68.33342720      80.59404628      99.19571056
C      70.57086315      79.49611529      94.11801596
O      71.32108451      81.41418750      95.21027777
N      68.54129710      79.56225571      92.60056574
H      67.99705592      77.90496574      91.82577794
C      66.86699959      81.73355125      92.27553280
H      67.91390796      83.37194396      91.59712106
C      65.03207534      80.94364565      90.13825234
H      63.92847516      79.32981938      90.78453875
H      66.15835222      80.58837710      88.45072674
C      63.13479011      83.07903638      89.45606114
H      62.06142557      83.68185908      91.10768194
C      64.39145812      85.36749495      88.17104726
H      62.90802295      86.69975200      87.66082115
H      65.28907811      84.74388526      86.42494014
H      65.71804599      86.03267861      89.60157007
C      61.36600628      81.92819306      87.55121702
H      62.39779685      81.62016767      85.79566128
H      59.95249100      83.28690628      86.92382788
H      60.62712329      80.10082771      88.15403971
C      65.49505828      82.50833904      94.68304412
O      64.54830539      80.85104906      96.05120598
N      65.36844661      84.97632160      95.19893941
H      66.54574612      86.13850328      94.24840708
C      64.39334784      86.08937040      97.52141305
H      63.84721693      84.53223592      98.75918379
C      66.44748035      87.75988846      98.94815641
H      65.36655690      88.69341326     100.43537102
H      67.44336612      89.06568934      97.70660623
C      68.58476081      86.37282935     100.27663401
H      69.63355891      85.29190590      98.87256736
C      70.17780009      88.30223991     101.64101641
H      70.90156527      89.81591069     100.44670939
H      71.78595717      87.48398842     102.63312272
H      68.96270606      89.00332837     103.14901801
C      67.52273461      84.49066194     102.27785418
H      68.88711702      83.54768851     103.50050710
H      66.11677823      83.18297133     101.53141229
H      66.40590636      85.40717920     103.74428180
C      61.98016733      87.56713638      96.98095132
O      60.05831567      87.05313082      98.07132341
N      61.99906461      89.30568458      95.06854829
H      63.63178814      89.62693806      94.13124405
C      59.68792932      90.76455330      94.33344476
H      58.19126608      89.35292774      94.22573037
C      58.91314153      92.85648033      96.18915601