 %block lattice_cart
   139.252   0.000   0.000
   0.000 142.425   0.000
   0.000   0.000   162.84
 %endblock lattice_cart

 %block positions_abs
N      93.10773916      41.48332564      80.89182150
H      95.01069356      41.60426813      80.79355573
H      92.38586371      39.89784527      80.10947481
H      92.69577883      41.51356126      82.75509164
C      91.87374788      43.85682189      80.28521935
H      92.80538295      45.29112416      81.43417295
C      92.34617946      44.58247680      77.42984289
H      91.06494502      43.39194921      76.33947081
H      94.36440716      44.25933360      77.15394285
C      91.68288552      47.45864024      76.81568184
H      89.69489344      47.95374854      77.03677982
H      91.97201365      47.74776836      74.79745414
S      93.51780977      49.96252761      78.35391906
C      92.61074114      52.90861093      76.67584209
H      93.32694741      52.57790882      74.77288770
H      93.81638653      54.48086322      77.24087026
H      90.65109495      53.53411033      76.78355649
C      89.04482759      43.69619515      80.94851329
O      87.90532262      41.73276952      80.45718445
N      87.93744797      45.76544546      82.07290044
H      89.16388035      47.20919638      82.30722651
C      85.42978115      46.03189688      82.91949783
H      84.29972482      44.52578501      82.08801826
C      85.12364549      45.32891869      85.64448318
H      85.55828254      43.34659579      85.98274419
H      83.12809450      45.59725982      86.08100995
C      86.73369231      46.97109085      87.31878069
O      86.26126073      49.14805556      87.59657046
N      88.73113302      46.15094964      88.34679180
H      89.82150510      47.59470054      88.95906313
H      89.70056262      44.62594051      87.74018966
C      84.42066730      48.76255140      82.30911623
O      85.82851340      50.25732491      81.36803253
N      82.05850941      49.35592546      82.94784373
H      80.99081404      47.91406428      83.59979931
C      80.83774621      51.77288542      82.43761762
H      81.24781682      52.40594373      80.52143514
C      77.93701632      51.16817300      82.67383341
H      77.42301076      49.59592070      81.44740103
C      76.96758672      50.44251809      85.26464819
H      77.33797308      51.92784298      86.64225867
H      77.81796356      48.61137329      85.66338044
H      74.97014601      49.95118926      85.16260297
C      76.22303456      53.49064664      81.95384769
H      76.56318529      54.86636739      83.45051093
H      74.22937329      53.00120752      82.12014360
C      76.70302504      54.84180095      79.40838634
H      78.57007464      55.70162643      79.28744386
H      75.31785565      56.36492035      79.37437127
H      76.29106470      53.82512820      77.66416896
C      81.65788743      53.90827615      84.27443160
O      81.56340112      56.14571211      83.56200478
N      82.64999375      53.32435071      86.44194768
H      82.63865539      51.50643401      87.02398338
C      83.36053084      55.06478866      88.42238086
H      81.99047926      56.60113614      88.47529319
C      83.25848562      53.72497270      90.96406275
H      83.71013021      54.99108933      92.52119723
H      84.55483787      52.13949233      90.73729559
C      80.77160579      52.54389375      91.78231424
C      78.90266647      54.01032138      92.89347331
H      79.24659666      56.01532099      93.05221032
C      76.58964146      52.95963355      93.78542413
H      75.19502344      54.20685291      94.60367563
C      76.32319005      50.31779615      93.43393504
H      74.53361923      49.57891317      94.07455226
C      78.08063552      48.91750896      92.07900127
H      77.82930192      46.94274497      91.62735668
C      80.37098381      49.97197623      91.37413336
H      81.88276486      48.79656648      90.67682435
C      86.01370658      56.03799770      87.68160814
O      86.72991286      58.12803501      87.71751294
N      87.65965820      54.18417620      86.81233404
H      87.13242456      52.38515675      87.18083067
C      90.12953049      54.71896874      85.73141059
H      91.20856422      55.91138605      87.01642448
C      91.70178278      52.37570811      85.22685366
H      90.89109020      51.39494016      83.60735821
H      91.42021356      51.31746137      86.97107105
C      94.51936472      53.00876643      84.81300360
H      94.54015171      54.90416192      84.00420074
H      95.33383676      51.71430390      83.43728284
C      96.30704581      53.06167876      87.12980806
O      98.62762972      52.61948281      86.91626898
O      95.41320526      53.71363433      89.28598578
C      89.85929963      56.23452925      83.31823008
O      91.02526076      58.23952886      82.99886634
N      88.02248565      55.50698461      81.64771202
H      86.78471492      54.14638166      82.16360731
C      87.61241504      56.91483071      79.29689249
H      89.09773993      56.68617382      77.88526693
C      85.17088865      55.86225316      77.93251009
H      83.45879661      56.11547649      79.04933834
H      85.08963042      53.82701791      77.62826416
C      84.47357964      57.21151774      75.49476315
H      86.02882439      56.90160262      74.17951364
H      84.24870221      59.21084819      75.92940020
S      81.55017303      55.90193742      74.10581431
C      82.17000326      55.78099493      70.86304396
H      81.98858954      57.57812465      69.87849655
H      80.69223729      54.53566528      70.14494796
H      83.85941859      54.72841736      70.33581031
C      87.18533690      59.78343526      79.83357476
O      88.53460148      61.37080536      78.72052597
N      85.55639282      60.33901479      81.77621341
H      84.64554473      58.88203581      82.60769299
C      84.71168515      62.88825558      82.54911148
H      84.70034680      63.83689820      80.72174613
C      82.10953202      62.90904258      83.74341851
H      81.84308061      64.80254835      84.50686794
H      81.96780255      61.36513618      85.09835227
C      79.76816112      62.54243567      81.87258946
H      80.27649750      61.01364709      80.58379611
C      77.55718133      61.58623415      83.49019518
H      77.69324163      62.67093707      85.23441257
H      78.04473072      59.67194140      84.08167952
H      75.82052285      61.76575816      82.39982310
C      78.98770415      64.81766615      80.40238238
H      80.56562562      65.05388195      79.10036095
H      78.62298697      66.34456502      81.73463943
H      77.40411350      64.57956063      79.10603013
C      86.74314094      64.33956539      83.97207539
O      86.76581766      66.64881096      83.84735345
N      88.59507273      63.05833096      85.13614680
H      88.20200965      61.19506082      85.01520431
C      90.99880460      64.03154000      86.10368667
H      90.53960110      65.75686013      87.13358751
C      92.44444523      62.29299180      88.01042052
H      94.45133457      62.75408502      88.04254587
H      92.40854043      60.38625796      87.23563273
C      91.14998270      62.53865622      90.56910995
H      89.14309336      62.17771849      90.27998182
H      91.04037858      64.47373597      91.26263950
C      92.46712194      61.05333133      92.60434519
H      91.49958207      61.47096086      94.37312902
H      94.41354004      61.72796363      92.55521230
N      92.55404935      58.35291243      92.21128211
H      94.18299343      57.66316233      91.49507584
C      90.87030321      56.66916629      92.91803975
N      89.22813104      57.13592870      94.65091878
H      88.17366376      55.64871408      95.21027777
H      89.22246186      58.64770975      95.81687992
N      90.86841348      54.26732415      92.22262047
H      89.66087837      53.09947329      93.12968910
H      92.10807394      53.51332335      90.98296001
C      92.73357335      64.88002712      84.01553909
O      94.07527903      66.66770821      84.45962478
N      93.03781929      63.52509335      81.83857438
H      92.17610409      61.82244995      81.87636891
C      94.49668800      64.33956539      79.59735897
H      96.25791293      64.96884425      80.45529472
C      95.40375663      62.12669589      77.98542243
H      93.78993036      61.42938688      76.91016816
C      96.98734728      63.05455151      75.71775085
H      95.69855394      64.22996127      74.62359932
H      97.36529255      61.59190333      74.31746366
H      98.81849208      63.80855231      76.28466875
C      96.94577330      60.17649834      79.58224116
H      97.59772888      58.85557963      78.14415944
H      95.78737107      59.14281804      80.93717493
C      98.99990581      61.31222385      81.07323522
H      99.99768130      62.78243092      80.03199603
H     100.38696492      59.92516473      81.69495518
H      98.20622075      62.05110683      82.82501152
C      93.02648093      66.43905134      78.29155809
O      94.28881811      68.16815090      77.13882504
N      90.49991685      66.36157255      78.31423481
H      89.63253247      64.79309971      78.96996984
C      88.99758443      68.12279747      76.82890993
H      89.74969550      68.38357971      74.92973498
C      86.24425319      67.00785895      76.37726534
H      84.96112903      68.61979549      76.34702972
H      85.80583669      65.45639365      77.66038950
C      85.78127025      65.83622863      73.73353823
O      84.09563438      64.28476333      73.44629983
O      87.31950747      66.19338691      71.98932084
C      88.71223576      70.74573759      77.89471557
O      89.00136388      72.73750913      76.67584209
N      88.12831033      70.76274513      80.36080840
H      87.91288153      69.05254282      81.18661880
C      87.19289580      72.98317355      81.75164697
H      86.96801837      74.59322038      80.48364062
C      84.56428650      72.63924336      82.90249030
H      84.71546461      71.39958291      84.54088301
H      83.42289181      71.61312197      81.53243872
C      83.15266094      75.00140125      83.76798495
H      84.43578511      76.12200895      84.92260772
H      81.53694495      74.57054365      84.96985088
C      82.45157248      76.62656588      81.42850377
O      83.44178907      78.78085388      81.15638318
O      81.00404213      75.65524655      79.81278777
C      89.21112350      73.62379077      83.66971918
O      89.90465306      75.78752740      84.00798019
N      90.23157571      71.55454047      84.95473307
H      88.98813580      70.10512037      84.93583581
C      91.80193828      71.89280147      87.20917656
H      93.47623579      72.87923860      86.52698536
H      92.53893154      70.10134093      87.90837530
C      90.57361618      73.48584075      89.31811113
O      88.25492199      73.88079355      89.53165020
N      92.00413900      74.00173603      91.37035390
H      93.83150434      73.50662774      91.12846894
C      91.07250392      74.80675944      93.90069744
H      89.04293786      74.46471898      93.81943921
C      91.94177803      72.77719338      95.89435870
H      93.95433655      72.58822075      95.49562645
H      91.09707036      70.97250475      95.36523533
C      91.39375740      73.20427153      98.65335911
H      92.08728695      75.06187249      99.21838728
C      88.56861656      72.83388517      99.22405646
H      88.06216991      70.93659995      98.59288787
H      87.35163281      74.23228264      98.32643646
H      88.53838094      72.83766463     101.28196842
C      92.70711718      71.07832942     100.16891962
H      92.38775344      69.32466341      99.13712905
H      91.90020405      70.76463486     102.03785894
H      94.63652775      71.72650555     100.49395254
C      91.86807870      77.45426600      94.87390649
O      94.09606602      78.03441198      94.84178114
N      90.04638253      78.96982651      95.78664430
H      88.25681172      78.62400659      95.21972640
C      90.69077921      81.30174879      97.10945272
H      92.60696169      81.29607961      97.86534324
C      90.39031272      83.53351555      95.20838805
H      90.39409218      85.32875556      96.21750190
H      88.57239601      83.28974086      94.27297352
C      92.74302198      83.73382654      93.35645626
H      93.04537819      81.96693244      92.34167323
H      94.44755512      84.10421290      94.45249752
C      92.36507672      85.84087138      91.38736144
H      94.23401604      86.35298721      90.68060380
H      91.61863483      87.46981546      92.40025475
N      90.61141070      85.10576785      89.16693302
H      90.05205171      83.33887375      88.71339871
C      89.72512906      86.95769963      87.65893143
N      90.23346544      89.35198287      87.87247050
H      89.41521395      90.51227483      86.59690524
H      91.57139167      89.84331171      89.13858713
N      88.40798982      86.15456595      85.59346057
H      87.48769311      87.53784561      84.65615631
H      87.67477601      84.39145130      85.61424756
C      88.95601045      81.72315776      99.33177086
O      86.68455942      81.77984954      99.05398109
N      90.20889900      81.93480709     101.52007393
H      92.09673558      81.66268650     101.47661023
C      88.98624607      82.21826604     103.92191608
H      87.45178831      80.84821446     104.02018184
C      90.98179706      81.43591935     105.91746706
H      90.01992637      81.35466111     107.73727350
H      92.41798906      82.89856751     106.12722668
C      92.33673083      78.90935527     105.62644921
H      93.27403508      78.87534019     103.79152496
C      94.37385579      78.46526959     107.61444129
H      95.08628261      76.53396929     107.50294744
H      93.72001049      78.76384634     109.54196213
H      95.81760669      79.85988760     107.16090698
C      90.54338056      76.65869123     105.93258487
H      91.51281015      74.89557659     105.47905056
H      88.82939879      76.82120769     104.80630799
H      90.16354557      76.46782887     107.94703312
C      88.02815483      84.95647947     104.50206205
O      86.96234919      85.34954254     106.45603906
N      88.40232064      86.85943386     102.96760429
H      89.48135437      86.38700230     101.46527187
C      87.08707113      89.33119588     103.25862214
H      86.24614292      89.47481508     105.13512037
C      89.14120363      91.37587975     103.82365031
H      88.22657610      93.15222249     104.32253805
H      90.38653327      91.71792023     102.21927267
C      90.98746624      90.53117210     105.97037940
H      92.30460548      89.17812806     105.14456900
H      89.80638729      89.61276510     107.38578441
C      92.41043015      92.81207175     107.05886176
H      91.15376215      94.36164734     107.57097759
H      93.75213583      93.46591705     105.63967729
C      93.88441668      91.99193053     109.50605733
H      94.67621200      90.11543230     109.19047304
H      92.43688632      91.65744897     110.93091097
N      95.78170189      93.96102535     110.19202798
H      96.94766303      92.95002177     111.31452541
H      94.99557575      95.39910707     111.16901649
H      96.58861503      94.80384328     108.68213666
C      85.41088389      90.14377820     101.07409852
O      85.97969151      89.44268974      98.90847217
N      83.59485690      91.82941408     101.75062054
H      83.39076646      92.41522922     103.55341944
C      81.67867442      92.50215664     100.01585179
H      80.98325514      90.80518241      99.07287836
C      79.31651653      93.73425819     101.28763760
H      79.96469265      95.52949820     102.06242538
C      77.40978268      94.28416855      99.16736467
H      77.09986756      92.66467310      97.93148366
H      78.23181363      95.74681671      97.97305764
H      75.70524955      95.21769335      99.84955587
C      78.24693144      91.88043668     103.23405570
H      79.72280769      91.45713798     104.60410727
H      77.49859982      90.13999874     102.42714256
C      76.13421742      93.32796704     104.68536551
H      74.57708294      93.48859377     103.34365982
H      76.73137093      95.20068581     105.30141628
H      75.74304407      92.17145453     106.34454521
C      82.89754789      93.73047874      97.62156855
O      84.21657686      95.57485162      97.88235078
N      82.44401358      92.81018202      95.27830792
H      81.45001754      91.18501740      95.23106476
C      83.10919724      93.86275958      92.72339794
H      84.12020082      95.64288177      92.94071647
C      85.03293863      92.07885794      91.59523134
H      86.55794776      91.84453188      92.96150346
H      85.90977164      92.78939503      89.87180094
C      84.11831109      89.52205824      90.78831820
C      83.52115758      89.06096503      88.21829041
H      83.56462128      90.51983373      86.79532650
C      82.63865539      86.74982974      87.36224439
H      82.03772242      86.54573930      85.42338520
C      82.54038962      84.76750684      89.08945424
O      81.55962166      82.49416608      88.37702742
H      80.90388663      82.47904827      86.68761210
C      83.42667126      85.14923156      91.55365736
H      83.38320756      83.56186145      92.84056098
C      84.26570974      87.53406616      92.51363832
H      85.16521947      87.75516414      94.33344476
C      80.62609686      94.17645416      91.10579222
O      78.46236024      93.73992737      91.92593344
N      81.00404213      95.13643512      88.82300283
H      82.69345745      95.53516738      88.02931778
C      78.89888701      95.34430501      86.88414364
H      77.06207304      94.89266043      87.70050540
C      78.56818491      98.00126022      85.72574141
H      77.39655460      97.87842800      84.03254663
H      80.48814684      98.50014796      85.17583105
C      77.48537173     100.22168862      87.24130191
H      78.74392946     100.26893178      88.87213572
H      75.50871801     100.07051052      87.79877117
C      78.10142251     102.80305477      85.68794688
H      77.56851969     102.60841296      83.70940343
H      80.13287830     103.13942606      85.75597703
C      76.46114007     104.97057085      86.74619362
H      76.80129081     104.90254070      88.77764940
H      74.45236100     104.72679616      86.37202781
N      77.33608335     107.51981164      85.71440305
H      79.15211034     107.91476444      86.14715038
H      76.20602702     108.83128171      86.51375728
H      77.07341140     107.57272398      83.82278701
C      79.17856651      93.43946089      84.69395084
O      80.93979143      93.47725542      83.13303691
N      77.34175253      91.75004556      84.41994053
H      75.89800163      91.60075718      85.65960099
C      77.29072992      90.21180834      82.21651964
H      79.03683704      89.11954653      82.15793813
C      75.20636180      88.28050805      82.53588339
H      73.39600399      89.16301024      82.96674099
H      75.77705915      87.15234144      84.16482747
C      74.98337409      86.61187972      80.17561523
O      73.09931696      86.93880237      78.79233557
O      76.85609287      85.27773294      79.59168980
C      76.88821822      91.80295790      79.79200078
O      75.88288382      93.88354657      79.88648710
N      77.80851493      90.91856599      77.58291072
H      78.73448083      89.26127601      77.42984289
C      77.76127177      92.49459773      75.26988572
H      78.03717182      94.42589802      75.93695911
C      79.88532415      91.68012570      73.41795393
H      79.89099333      92.95947040      71.80412766
C      82.57440469      91.83130379      74.61037123
H      83.92366928      90.93746325      73.33858543
H      82.66133210      91.03572902      76.50954618
H      83.09596916      93.80984725      74.85792538
O      79.52816588      89.11576709      72.80379288
H      80.95868870      88.54506974      71.84381191
C      75.13077275      92.69490872      73.94329785
O      75.00227136      94.30684526      72.37671473
N      73.11632450      91.32674687      74.62170959
H      73.33931220      89.68457470      75.56279330
C      70.51984054      92.25460250      74.16061637
H      70.22126379      92.66467310      72.16506539
C      68.62444505      90.22503643      75.01855212
H      66.65535023      90.82218994      75.07146445
H      68.82286631      89.74126649      77.01221338
C      68.44114160      87.80618675      73.47464572
H      67.19014278      86.51550368      74.48375957
H      70.30441174      86.93502292      73.40094639
C      67.34699006      88.19358064      70.81580080
O      65.03396506      87.72870797      70.42840690
O      68.80774850      88.64333550      69.04701697
C      69.79607536      94.79817411      75.47964534
O      67.74383259      95.84319276      75.04878774
N      71.48360096      95.79217015      77.08024353
H      73.12199368      94.83785837      77.29000315
C      71.30029751      98.13732050      78.53722251
H      70.34220627      99.56595359      77.40338673
H      73.25427452      98.69856922      78.87926298
C      70.24960968      97.93323006      81.21307497
O      69.88111305      99.82862556      82.39415392
N      69.94536374      95.60508724      82.20329156
H      70.79952004      94.15944661      81.29622293
C      68.93436017      94.99659537      84.72607619
H      68.00461482      96.71624631      85.37425231
C      66.98983179      92.79884368      84.36513846
H      66.03174055      92.47947992      86.16037846
H      67.94603330      91.03005984      83.91727333
C      64.90357394      93.44324034      82.49052996
C      64.42358346      91.87665723      80.49686870
H      65.46671238      90.13621929      80.27199127
C      62.43370165      92.47759019      78.96996984
H      62.01229268      91.13399478      77.49220386
C      61.10522405      94.63187819      79.19295754
O      59.13801896      95.21202417      77.60369771
H      58.71094081      96.95435183      77.87392858
C      61.77607689      96.54617095      80.92583657
H      60.80097811      98.32629314      81.14882428
C      63.61856005      95.81295714      82.77965809
H      64.20248548      97.11119911      84.24230625
C      70.82975566      94.37865487      86.70272991
O      72.63066483      92.95758068      86.12447366
N      70.48393574      95.37265091      89.10268233
H      69.03073621      96.59341410      89.29732414
C      72.02217296      94.72825423      91.32122102
H      73.87977393      95.42178379      90.76564148
C      71.27006189      96.25893256      93.79676249
H      72.18090997      95.44068105      95.45027301
H      69.26506227      95.84319276      94.01975020
C      71.85965650      99.01226379      93.76463714
C      69.97370964     100.91710792      94.16336940
H      68.06319634     100.47302222      94.73217702
C      70.62188576     103.55894530      94.10667761
H      69.12144307     104.89687152      94.46950506
C      73.15411902     104.23168786      93.66259192
O      73.88544311     106.74313413      93.74762961
H      72.43791275     107.83539595      93.74007070
C      75.06085287     102.27960058      93.26952885
H      76.98459426     102.83895957      92.88591441
C      74.31063153      99.71902142      93.38102270
H      75.76383106      98.32818287      93.02953361
C      72.08075448      91.83886270      92.05821428
O      70.15890282      90.59731251      91.96561769
N      74.19346850      90.78817487      92.81032535
H      75.69769064      91.95791546      92.93126784
C      74.79062201      88.08964570      93.12590965
H      73.17301629      87.12777500      93.96494813
C      75.32352483      87.07675239      90.49352090
H      76.85420314      88.04807172      89.52409130
C      75.61643241      84.11744099      90.43871883
H      73.84953831      83.23493880      91.01886481
H      77.19435388      83.49572104      91.60656969
H      76.29484416      83.48816213      88.59812540
O      73.23537725      87.61721412      88.87969462
H      72.45114083      89.22537121      89.18205083
C      76.94679973      87.42068258      94.87768594
O      78.59653080      88.97970679      95.25185175
N      77.05262441      85.17946717      96.14380257
H      75.51249746      84.07964646      95.90191760
C      79.09163910      84.07775673      97.65747335
H      80.90577636      84.92246439      97.17748286
C      78.57196436      84.52751159     100.48072446
H      77.73670533      86.40212010     100.66780736
C      76.78995245      82.51117362     101.84510686
H      77.65355737      80.65357265     102.02841031
H      75.23281797      82.41857703     100.49962172
H      76.33074896      83.02139972     103.78774551
C      81.09474899      84.38578212     102.00951305
H      82.60653004      85.53095627     101.21204854
H      81.64276962      82.40345922     102.10588909
C      80.53916945      85.47048503     104.69292441
H      79.33163434      84.29129581     105.87022390
H      80.00059745      87.45847711     104.64757098
H      82.22102587      85.40245488     105.88156226
C      79.38076722      81.22804945      97.02063558
O      77.60442449      79.82965198      96.19671491
N      81.61064427      80.15468491      97.71794459
H      82.97691640      81.35466111      98.30187002
C      82.38165261      77.45237628      97.71416514
H      80.68467838      76.35633502      98.11100766
H      83.72902747      76.98561388      99.20137975
C      83.09029998      76.63412478      95.15169626
O      84.26948920      78.03441198      93.70605563
N      82.52716154      74.29086417      94.56021192
H      81.57284975      73.51418664      96.01530118
C      82.24937177      73.20049207      91.98073550
H      83.74225555      74.03575110      90.83367163
C      82.56306634      70.31110055      92.09411908
H      80.93223253      69.56087920      93.10512266
C      82.60464031      68.89569554      89.52787075
H      82.82762802      66.85479112      89.36535429
H      84.21468713      69.51363604      88.40348359
H      80.88120992      69.36812711      88.50174936
C      84.75703858      69.58355591      93.74951933
H      84.41499812      69.76119018      95.77341621
H      86.41432856      70.63613347      93.12401992
C      85.67544557      66.82266577      93.53786999
H      84.13909808      65.46395256      93.71361453
H      87.30249993      66.33322665      94.70572085
H      86.31228334      66.35401364      91.63491559
C      79.64154946      73.96961068      90.82989218
O      77.81229438      72.52963923      90.95839357
N      79.39021586      76.35066584      90.25919483
H      81.05884419      77.28041118      90.28187155
C      77.27372239      77.43347902      88.66426582
H      77.14900045      76.57554328      86.79343677
H      77.77827931      79.36666904      88.16537808
C      74.61865692      77.57898794      89.93038245
O      72.68546690      77.64134891      88.57166923
N      74.40133839      77.92291813      92.43804927
H      76.09831262      78.17425173      93.27519803
C      72.11854900      78.18747981      94.05943445
H      70.81652757      76.79853097      93.27330830
C      72.58342168      77.62245165      96.87701638
H      73.46025469      79.10588680      98.00518299
H      73.94969380      76.08988361      97.03575339
C      70.11543911      77.14813034      98.19415562
N      68.35799364      75.34344171      97.75384939
H      68.82286631      73.77685861      96.76741225
C      66.20748510      75.98783839      99.16547495
H      64.48405470      74.90880466      99.33744004
N      66.51362076      78.18181064     100.13868400
H      65.26829112      79.16635804     101.19315128
C      68.94380880      78.92069362      99.66247297
H      69.84142880      80.70081581     100.09522029
C      70.83920429      80.68569800      93.88180017
O      71.71225785      82.58865240      94.92681883
N      68.64712177      80.83120693      92.58355820
H      67.99327646      79.26840327      91.70105601
C      67.33565171      83.29918949      91.98640468
H      68.75105671      84.60876983      91.26074978
C      65.57442678      83.00061273      89.68849749
H      64.14201424      81.71181939      90.42171130
H      66.62133516      81.88567421      88.30899728
C      64.66357870      85.49694119      88.60568431
H      66.27362552      86.78006536      88.60379458
C      63.83587857      84.75427876      86.03754625
H      65.19081234      83.74705463      84.85835703
H      62.94959693      86.25661117      84.93772554
H      62.41858384      83.26328469      86.14715038
C      62.49984207      86.81030098      90.01353041
H      60.91625142      85.49316174      90.05888384
H      61.93292418      88.44680397      88.89670216
H      63.02329626      87.30729900      91.94105125
C      66.18669811      84.30263417      94.49974068
O      64.99239108      82.79274284      95.93215322
N      66.60054817      86.73471193      95.01941541
H      67.72871478      87.68524426      93.80810085
C      65.82198093      87.96114431      97.31354316
H      64.80530817      86.69124822      98.57965979
C      68.16713128      89.07986228      98.61556459
H      67.64556682      90.56896663      99.93648328
H      69.31986433      89.94346721      97.14157806
C      69.69025069      87.08431130      99.99128534
H      70.24960968      85.58197888      98.70060227
C      72.12988736      88.29373614     101.00039920
H      73.54340264      88.64333550      99.54153048
H      72.90467515      86.83297770     102.22683157
H      71.98626816      90.01338708     102.12856580
C      68.22760252      85.62922203     102.06242538
H      66.93880918      84.24405265     101.24417389
H      67.51328598      86.97470717     103.44759477
H      69.59576438      84.68435888     103.27751940
C      63.88312173      90.04740216      96.97150270
O      61.80064333      89.83197336      97.98817545
N      64.21571356      91.67256679      95.03831268
H      65.81064257      91.52327841      94.00463238
C      62.20315504      93.30906977      94.15770022
H      60.54397534      92.09208603      94.15203104
C      61.69103921      95.52193929      96.04553680