 %block lattice_cart
   139.252   0.000   0.000
   0.000 142.425   0.000
   0.000   0.000   162.84
 %endblock lattice_cart

 %block positions_abs
N      90.74463642      42.21559459      83.07351053
H      90.21929249      40.83420466      81.86597541
H      90.07945276      41.92646646      84.83851490
H      92.64759080      42.34598570      82.98091394
C      89.73174310      44.60231892      81.97746926
H      90.61235558      46.22559382      82.89020708
C      90.15315208      44.90656486      79.07107020
H      89.03254438      43.48927012      78.07707416
H      92.11279827      44.52484014      78.56651328
C      89.54466021      47.50493855      78.12620705
H      87.50942496      47.80540502      78.05250772
H      90.17960824      47.43879812      76.16656086
S      91.19439128      50.11087113      79.74381277
C      88.75475461      52.55995643      79.12776199
H      88.34468399      52.63554549      77.11142401
H      89.49363759      54.45346220      79.46035382
H      87.06722901      52.25760021      80.27293613
C      87.02565502      44.65901072      82.53682826
O      85.54599932      42.87132963      82.11352956
N      86.14315285      46.72448157      83.64798733
H      87.33557014      48.16067357      84.04105041
C      83.49375654      46.91156447      84.57395322
H      82.34858241      45.78339787      83.28704961
C      83.31801201      45.94969379      87.33862281
H      84.05878472      44.02973186      87.24413651
H      81.33379938      45.64544784      87.79215713
C      84.81656496      47.49171045      89.36440943
O      84.24775734      49.80662520      89.63464029
N      86.80077759      46.45047125      90.46800959
H      87.71162567      47.61265295      91.68121389
H      87.37336466      44.66467989      90.10518214
C      82.39204610      49.71024914      84.43600321
O      83.83579701      51.34297268      83.90499010
N      79.99965260      49.93890604      85.12575331
H      78.92250860      48.44980169      85.64164858
C      78.46519484      52.30106393      84.78182311
H      78.70330035      52.89821743      82.82406665
C      75.77989374      51.52060695      85.05772316
H      75.46619918      50.09953276      83.60074418
C      75.14305598      50.36976363      87.60696395
H      75.97264583      48.49326541      87.77892904
H      73.11160019      50.41133762      87.94522496
H      75.86304169      51.56596038      89.12252446
C      73.80135029      53.51048876      84.26781755
H      73.65962082      54.87487117      85.80416505
H      71.96264659      52.58452287      84.23569222
C      74.37015791      55.13376366      82.02849188
H      74.99754705      54.07173747      80.38065054
H      75.76666565      56.54727895      82.56328443
H      72.67885287      56.15988505      81.45968425
C      79.40060936      54.51960261      86.46745898
O      78.94707504      56.71357486      85.93833561
N      80.73475613      53.85252922      88.49135587
H      81.13159866      52.01004607      88.79182235
C      81.82701794      55.72146856      90.24691162
H      80.54956295      57.32773591      90.42265617
C      81.99331385      54.53283070      92.92276408
H      82.80589618      56.10319327      93.98101080
H      83.11959074      52.80940030      92.97189696
C      79.44407306      54.23047449      94.31927181
C      78.05323449      56.51137414      94.62162803
H      78.88093462      58.31228333      94.13974782
C      75.66839989      56.37342412      95.68743367
H      74.84069977      58.09307508      96.40741940
C      74.34748120      54.11142174      96.15230634
H      72.54846174      53.99236897      97.11039759
C      75.62304646      51.85697825      95.38129801
H      74.81802304      49.99559782      95.60050625
C      78.12126464      51.92122894      94.47989856
H      79.02833327      50.13732729      94.07549712
C      84.38948683      56.69845705      89.24724640
O      85.10191364      58.90565738      89.61952247
N      85.78977402      55.02415954      88.03971128
H      85.22285612      53.20246338      88.03404210
C      88.20862371      55.54005482      86.83217617
H      89.38781292      56.76459748      87.99246813
C      89.58056501      53.02482911      86.40509802
H      88.81522585      52.14988581      84.70434434
H      89.41237936      51.83430153      88.07750581
C      92.47373598      53.35175176      85.96479179
H      92.81388673      54.81817937      84.56072513
H      93.28631831      51.69068232      85.05961289
C      94.20472530      53.88843403      88.19277911
O      96.36279275      52.77538523      88.19277911
O      93.52631354      55.21880135      90.06360817
C      87.79666337      57.05372560      84.34529634
O      88.95884505      59.00392316      83.90310039
N      85.78221512      56.34696795      82.93556050
H      84.70318138      54.93156295      83.62342089
C      84.90538211      57.58095925      80.66599921
H      86.26031588      57.49025237      79.11453391
C      82.62070300      56.21279740      79.59452438
H      81.14860620      56.26004055      81.03449584
H      83.19329007      54.23614367      79.55295041
C      81.84024602      56.90821667      76.96780481
H      83.42761613      56.59830155      75.69034982
H      81.41316787      58.92266492      77.03205551
S      78.76188186      55.48903222      75.78483614
C      79.51966212      54.75959786      72.52883771
H      78.04945505      53.65032851      71.60854099
H      81.43017542      53.99425871      72.42868221
H      79.53477993      56.58318374      71.57074646
C      84.40838408      60.45523297      81.21401984
O      85.55355823      62.11630239      79.96113130
N      83.14415719      61.07695293      83.27949070
H      82.47897352      59.53115680      84.17900042
C      82.62826190      63.70367249      84.05049904
H      82.07646182      64.75625006      82.36486317
C      80.34358278      63.83217388      85.90054109
H      80.79711711      65.43844126      87.11185565
H      80.31334717      62.18433254      87.13831183
C      77.81701871      64.19878080      84.62497584
H      77.58269265      62.63219768      83.30783659
C      75.70808414      64.05138213      86.52604050
H      75.43218409      65.81638652      87.54649271
H      76.10681640      62.53204219      87.86018728
H      74.04134554      63.39942656      85.50747802
C      77.73576048      66.59873321      83.17366603
H      78.10803656      68.20878002      84.40198813
H      75.87626979      66.69888871      82.29305356
H      78.85447845      66.75180103      81.45023563
C      84.97341225      65.05293708      85.20890126
O      85.00175814      67.28092440      85.69834038
N      87.03699339      63.75847455      85.72479655
H      87.01809612      61.89142496      85.32606429
C      89.47474034      64.99813502      86.39753912
H      89.10813343      66.74802159      87.41799133
C      91.00730837      63.20478474      87.98679895
H      91.79910370      61.64009136      86.90587550
H      89.77142736      62.15220720      89.25669502
C      93.22017788      64.51058563      89.31338682
H      92.48885380      66.18488315      90.26202942
H      94.51464040      65.41009536      87.98679895
C      94.46172807      62.77014769      91.25602546
H      92.87246824      62.22023735      92.45033249
H      95.70327826      63.92099102      92.42765578
N      95.81099266      60.39854117      90.54359865
H      94.74518701      58.98313616      89.83495127
C      98.22606289      59.95823495      90.46989932
N      99.78886654      61.60607629      91.03870693
H     101.48395104      61.19978513      91.81538446
H      99.21061030      63.41265464      90.83839595
N      99.04998356      57.75859352      89.69889099
H     100.87545918      57.20868316      89.63464029
H      97.84433817      56.30539399      89.40220396
C      90.90904260      66.06960985      84.13931616
O      92.27909418      67.93854916      84.38309086
N      90.62180421      64.75436032      82.06439667
H      89.50119650      63.21234365      82.13242682
C      91.56477764      65.60851661      79.71924633
H      93.36190735      66.58361539      79.97246965
C      91.90492837      63.37674984      77.78227686
H      90.15126236      62.29204695      77.77093849
C      92.54176614      64.01547733      75.05540179
H      94.46361780      64.71845552      74.82107572
H      91.37202555      65.47812551      74.20124549
H      92.35846269      62.37141544      73.82707967
C      94.05354719      61.67410643      78.95201744
H      93.39025326      61.17521868      80.84174375
H      95.82988993      62.71156619      79.07484965
C      94.45983835      59.13431428      77.61409122
H      92.71751069      58.56172719      76.67489724
H      95.09289666      57.77371133      79.02571676
H      95.79209539      59.38375815      76.06262591
C      89.87158286      67.79115051      78.61375643
O      90.80510766      69.57694188      77.33441172
N      87.39415166      67.90642381      79.13343117
H      86.41905289      66.38519414      79.74948194
C      85.67450071      69.62796448      77.99203648
H      86.57401043      70.30259679      76.26482662
C      83.15171609      68.44877526      77.37031651
H      81.82701794      69.86795973      76.68434586
H      82.42417145      67.69666419      79.14287979
C      83.31990172      66.66676336      75.08941685
O      81.78922342      64.85829527      75.20469017
O      84.92616910      67.06360589      73.35842756
C      85.11325200      71.82571619      79.80428400
O      84.22130118      73.79481100      78.81595714
N      85.43450548      71.71422234      82.30250220
H      86.58912825      70.33850159      82.95067832
C      84.43484026      73.66064044      84.19222851
H      84.28177243      75.48989552      83.26248317
C      82.02354948      72.64018823      85.25047525
H      82.34480296      71.07738457      86.55249668
H      80.84624999      72.04681417      83.66499486
C      80.25665538      74.47133302      86.61863709
H      81.60214052      75.69776540      87.58239751
H      78.99431820      73.53591850      87.95467360
C      78.78266885      76.05492367      84.77615393
O      76.69074183      75.23100301      84.06939630
O      79.76721627      77.96732671      83.79349625
C      86.33779466      74.09527750      86.33706788
O      87.35635713      76.20232234      86.72068232
N      87.11069271      72.13563131      87.79971604
H      86.34346383      70.46889269      87.27248239
C      88.98719095      72.10728541      89.84251018
H      90.67471654      72.96711088      89.03181760
H      89.35757729      70.24590500      90.64186442
C      88.25397714      73.83638498      92.07805642
O      86.46251659      75.22533382      91.98168037
N      89.75253009      73.71544250      94.14730673
H      91.15281730      72.42097997      94.16431425
C      88.88892517      74.72266663      96.64741464
H      86.83857213      74.59605496      96.78725438
C      90.09457056      73.02569239      98.74501084
H      92.14492362      73.02569239      98.53714095
H      89.40859991      71.09628183      98.52391286
C      89.38025401      73.81748773     101.38117904
H      89.61080062      75.82815652     101.76668322
C      86.53243647      73.35639450     101.98211201
H      86.37747891      71.31171063     102.17864355
H      85.26443011      74.31259601     100.67064195
H      86.01087200      74.29747821     103.73955749
C      90.95817548      72.23389708     103.32570743
H      90.81077684      70.19110292     103.11405808
H      90.41015486      72.91041909     105.19464675
H      92.88947577      72.81026359     102.91374708
C      89.66560269      77.48922595      97.00835236
O      91.97295852      78.10149727      97.00079345
N      87.87225241      79.24100225      97.36740036
H      86.12047613      78.49267063      97.49212230
C      88.30877919      81.88661909      97.90219291
H      90.34401443      82.18141639      97.99667922
C      87.16549478      83.49288644      95.79703779
H      87.08234681      85.38828193      96.59828176
H      85.27765819      82.74266509      95.45499734
C      89.00419848      83.62894674      93.57660938
H      89.41615882      81.75622796      92.82449831
H      90.77298230      84.59270716      94.01502589
C      87.59257293      84.72876745      91.34295287
H      88.93616833      85.06324901      89.81794374
H      86.56834127      86.43141087      91.89097351
N      85.90882677      82.81069525      90.09762324
H      85.42694657      81.20820733      91.01414050
C      85.29655546      82.84660005      87.70522972
N      85.61780892      84.63806059      86.05360893
H      85.09624447      84.24310780      84.26214837
H      86.30377957      86.39172661      86.38053158
N      83.73942098      81.13450801      86.75658712
H      82.98353045      81.23655322      85.00859028
H      83.51643327      79.54335846      87.78459822
C      87.10502354      82.53479520     100.43064671
O      84.88270539      82.78990826     100.62339879
N      88.65081965      82.67085551     102.49044840
H      90.54054598      82.44408834     102.37139563
C      87.42816673      82.85415896     105.08504262
H      85.90126788      81.47087930     105.18708784
C      89.45584307      82.00756157     106.96532031
H      88.73585734      82.31936640     108.87205416
H      91.20950909      83.05258022     106.67997164
C      90.21173359      79.11817004     106.81414220
H      90.92605013      78.54747269     104.96976931
C      92.39058804      78.95754329     108.70953769
H      91.65548449      79.53579955     110.54635167
H      93.83433894      80.33704350     108.20309103
H      93.23340597      77.08860397     108.89473086
C      88.03665861      77.46654924     107.70042383
H      86.61369469      77.73866983     106.23210649
H      87.47918935      78.11661509     109.57314261
H      88.51664909      75.46910852     107.81758688
C      86.22441108      85.33347987     105.79368999
O      84.39704572      85.21253739     107.24311008
N      87.18817150      87.55201856     104.95087206
H      88.88136626      87.37249456     104.09104659
C      85.85213498      89.97086825     105.56881255
H      84.68806358      90.00677305     107.26767652
C      87.87603187      92.18373775     105.86172013
H      89.34056976      91.85870483     104.45198430
H      88.80010803      92.07602336     107.70042383
C      86.80644678      94.84825186     105.56314337
H      85.03199377      94.98242242     106.60249285
H      86.41338371      94.85392103     103.54113623
C      88.56200252      96.99498096     106.11683319
H      89.37269510      96.71908092     107.98577251
H      87.28643726      98.60691750     105.94297837
C      90.86935834      97.28788853     104.07025959
H      90.07378357      97.55245021     102.18998192
H      91.90492837      95.50965607     104.07970823
N      92.62869355      99.32312377     104.66930283
H      94.04031911      99.45918407     103.38995811
H      93.35056900      99.19273266     106.43241749
H      91.66682285     100.95962676     104.48410965
C      84.03421828      90.36204159     103.32948688
O      84.29500050      89.37371473     101.19031670
N      81.78733368      91.61304042     103.77924174
H      81.49253638      92.13838433     105.58959954
C      79.72186283      92.08925145     102.00667845
H      79.15494494      90.19385596     101.42842221
C      77.51655222      93.65961402     103.31058961
H      78.46708456      95.25832247     104.19120208
C      75.73076085      94.64983059     101.20354477
H      76.71152882      95.84035818      99.84105211
H      74.22653872      95.69484925     102.14840793
H      74.75188263      93.18529270     100.13773914
C      76.02933762      92.05145692     105.24944881
H      77.30112343      91.40894997     106.73666343
H      75.25454982      90.36204159     104.36127744
C      73.79568112      93.27977902     106.58926476
H      72.85081795      91.96075006     107.85916085
H      72.39539391      93.96385994     105.24000018
H      74.25299488      95.04100394     107.55869436
C      80.84813972      93.50465646      99.56515207
O      82.35047213      95.24698412     100.01490693
N      80.06768275      92.89427486      97.25401679
H      78.62582156      91.65083494      97.38251818
C      80.83680136      93.92606543      94.90697671
H      81.53411037      95.85925543      95.04870618
C      82.90605167      92.17617886      93.72967721
H      84.47074506      91.82091030      95.02036028
H      83.84902510      93.13804955      92.17065299
C      81.98197550      89.66095313      92.94355106
C      81.36592473      89.13938866      90.54359865
H      81.55111790      90.64550055      89.17921625
C      80.55145269      86.67140611      89.93699650
H      80.25854510      86.49188211      87.92632771
C      80.21130195      84.94608598      91.79081801
O      79.17006274      82.74077537      91.15586996
H      78.49165100      82.48944178      89.49291082
C      80.91805959      85.33914905      94.31738209
H      81.10325277      83.95775912      95.80648643
C      81.81756931      87.75232956      94.82949792
H      82.13882279      88.07547275      96.81937973
C      78.57668868      94.28889288      93.19488467
O      76.48854110      93.26277149      93.83172242
N      78.82802229      95.63437801      91.10484736
H      80.43617937      96.60002816      90.75146854
C      77.32568987      95.07312930      88.69355658
H      75.98776363      93.57079687      89.13575255
C      75.43785328      97.43906664      88.16443322
H      74.06969143      97.31245497      89.70078070
H      74.59503535      97.03277547      86.32950897
C      76.42995960     100.12814717      88.23057363
H      78.09102903     100.28499446      87.01925907
H      77.20852684     100.42294449      90.11463077
C      74.23409761     102.19739750      87.69578110
H      72.68641177     101.79866524      88.99213334
H      73.49710436     102.10669062      85.77392943
C      75.26966763     104.82978624      88.05482908
H      77.12348915     105.02631779      87.18177553
H      75.35281560     105.23985685      90.07116706
N      73.68985643     106.77809407      86.85107342
H      71.83036574     106.50597348      87.17610636
H      73.99788183     106.76108654      84.96701629
H      74.47976203     108.38436144      87.51814681
C      78.86581681      94.38337918      86.37108294
O      80.91616985      95.40572112      86.10463153
N      77.73953993      92.91695157      84.74024913
H      76.06713214      92.16484049      85.27504169
C      78.82802229      92.40105628      82.33651726
H      80.44562801      93.61426058      81.93589529
C      79.65761213      89.59670243      82.60107896
H      78.11370573      88.24365839      82.79383103
H      80.92561850      89.26600034      84.18844906
C      81.33379938      88.86915781      80.30128203
O      80.99553837      86.72242872      79.45090518
O      82.91927975      90.35637241      79.29405791
C      76.80790486      92.47097616      80.32017930
O      75.47375808      94.40605591      80.40710671
N      76.69263155      90.77589165      78.43612216
H      77.61292826      89.10537360      78.51549067
C      75.61548756      91.26155132      75.97947794
H      76.92695761      92.62593372      75.16689564
C      75.43785328      88.85781945      74.40722566
H      74.28323049      89.06379961      72.71403088
C      78.21008177      88.50255090      73.35842756
H      79.52722102      88.45908719      74.94201820
H      78.65794691      90.02567031      72.04506776
H      78.30078865      86.80935612      72.19057670
O      74.62527096      86.70920064      75.60909159
H      75.96508692      85.52056278      75.88688136
C      72.98687825      92.38404875      75.68846009
O      72.33870212      93.67095237      73.84786666
N      71.40517733      91.89649936      77.66133437
H      71.87382945      90.67573617      79.05217294
C      68.77656803      92.85648032      77.80306384
H      68.27012138      93.48575919      75.90766835
C      66.85849581      90.78156083      78.48147558
H      64.96310032      91.57335616      78.35108447
H      67.37628083      90.09747991      80.35608409
C      66.79235540      88.42696184      76.74292739
H      65.51490041      86.99454930      77.49125901
H      68.69530980      87.67107132      76.52938830
C      65.70954221      89.05246125      74.07841328
O      64.12406184      90.71353068      73.76282898
O      66.54669098      87.91106656      72.12065682
C      68.33059262      95.20918959      79.50381753
O      66.16118680      95.73831295      79.55861959
N      70.26378264      96.30145140      80.57151289
H      72.05902263      95.65516499      80.59041016
C      69.98410313      98.36503253      82.34029671
H      68.90317968      99.92216701      81.53527331
H      71.83792465      99.15871759      82.76737486
C      68.78223721      97.63559817      84.87441970
O      69.06947561      99.11525387      86.68288779
N      67.50289249      95.53989169      85.14087111
H      67.46698769      94.31534905      83.67633322
C      66.66574374      94.50432167      87.59184615
H      65.01979212      95.52099442      88.29482434
C      65.87205869      91.75476989      87.10807621
H      65.32970723      90.85337044      88.88063949
H      67.51801030      90.70975123      86.44100282
C      63.78202138      91.19919035      85.11819440
C      63.75934467      88.84648110      83.86908530
H      65.33159696      87.58981309      84.20356686
C      61.83560328      88.17751798      82.10219120
H      61.97733275      86.36338072      81.18000477
C      59.95154615      89.94441208      81.62975963
O      58.04859175      89.20930854      80.08207377
H      56.84483609      90.56424230      80.00081554
C      59.94398724      92.35381313      82.85619200
H      58.36795550      93.62748867      82.61052758
C      61.82237520      92.83191389      84.69867516
H      61.58049023      94.55345456      85.76637052
C      68.83892900      94.45896824      89.44188820
O      70.94786355      93.96763940      88.67465932
N      68.44964538      94.83124433      91.88152487
H      66.77723758      95.53989169      92.47111949
C      70.11638398      94.32668739      93.95833409
H      72.07791990      94.44762988      93.34417303
C      69.54757636      96.06523560      96.09750428
H      70.49810870      95.48131018      97.82849359
H      67.49722331      96.19751645      96.25813102
C      70.71542723      98.62392503      95.62885216
C      69.33970647     100.89537606      95.64208023
H      67.33281713     100.58735067      95.84806040
C      70.60960255     103.20651134      95.29248087
H      69.61749624     104.97907462      95.47767405
C      73.28734474     103.32367437      94.99957330
O      74.53834356     105.49685963      94.60462050
H      73.33080843     106.84045504      94.78414450
C      74.56668945     100.94072949      94.81815957
H      76.60381442     100.98230347      94.69721709
C      73.25899883      98.67683738      95.17342812
H      74.48921067      97.07434946      94.88241025
C      69.97654424      91.54123082      94.75201915
O      67.97343435      90.35259296      94.89752807
N      72.02122811      90.50377106      95.42476172
H      73.62182630      91.52989245      95.24523772
C      72.40862200      87.59548227      95.67798504
H      70.63983817      86.80179723      96.38096323
C      73.19474815      86.46353622      93.14008259
H      74.08858868      84.65884759      93.57471965
C      71.04423959      86.02134025      91.28059190
H      70.04835384      87.79957271      90.97634596
H      69.84048394      84.43774960      91.81538446
H      71.90406508      85.42796619      89.50613890
O      74.92951690      88.00744260      91.79270773
H      75.76477593      89.07135852      93.00024285
C      74.67062440      87.16651439      97.54881409
O      76.09358830      88.86915781      98.19699021
N      75.00699568      84.71553938      98.38785257
H      73.73520987      83.31714190      98.12896007
C      77.21230629      83.97665638      99.93742814
H      78.84125037      85.07647710      99.31570819
C      76.72853635      84.62861197     102.66619295
H      75.93296158      86.52967664     102.63973678
C      74.68763194      82.96187335     104.01356780
H      73.99221264      83.84248582     105.74266737
H      75.41706629      81.04002169     104.11561303
H      73.05112895      82.77101099     102.77768679
C      79.14171685      84.59081744     104.37639526
H      80.64404927      85.46765045     103.27468482
H      79.62548678      82.62361234     104.74300215
C      78.51621744      85.85504434     106.90106961
H      78.44062838      84.40184480     108.35804859
H      76.79089731      86.95864450     106.67430246
H      80.00154233      87.14005823     107.51901012
C      78.00032215      81.10994156      99.35539245
O      76.65483703      79.81736876      97.89652372
N      80.03177795      80.04035647     100.54025083
H      81.27710759      81.26489912     101.31125918
C      80.55901159      77.30025332     100.85205568
H      79.01510519      76.39318468     101.87061816
H      82.22763991      77.01868409     102.02179627
C      81.20718772      76.24389630      98.19510048
O      82.78321945      77.36450401      96.96110920
N      80.48153281      73.98000418      97.53936545
H      79.62359707      72.85183758      98.82059990
C      80.54200404      73.18064995      94.93532260
H      82.10291799      74.12551312      93.98101080
C      81.36403499      70.41031118      94.67076092
H      79.92973273      69.21600415      95.54570419
C      81.61725832      69.78670150      91.83239199
H      82.70385096      68.11996288      91.29570972
H      82.35614130      71.48556545      90.93666171
H      79.67461968      69.37285144      91.28248163
C      83.82823810      69.61284668      96.02947414
H      85.05656021      71.26635721      96.05404058
H      84.85435950      68.15208823      95.00524246
C      83.38037298      68.76624929      98.81304099
H      85.10758283      67.95555671      99.58782878
H      82.14260223      67.11651821      98.85461496
H      82.63204136      70.31015568      99.95065623
C      77.95874818      73.73433977      93.54448403
O      76.14083146      72.39263408      93.71833885
N      77.77733446      75.93398120      92.28403658
H      79.15494494      77.21710536      92.60340032
C      75.67595880      76.77301968      90.64753359
H      75.25454982      75.60327908      89.00536143
H      75.98965337      78.69676107      89.98046020
C      73.09270292      77.16986221      92.04971052
O      71.04612933      77.00167656      90.71934319
N      73.09648237      77.68386777      94.54603898
H      74.77266962      78.33015416      95.18665619
C      70.84959779      77.92953218      96.02947414
H      69.65907022      76.41019223      95.29815004
C      71.22376360      77.19253892      98.87540196
H      72.21398018      78.72699669      99.82593429
H      72.35948912      75.48611605      99.04169787
C      68.86349544      76.72577651     100.10561379
N      67.23077190      74.80203513      99.45743767
H      67.48210550      73.35450477      98.24234365
C      65.08026335      75.22344410     100.56859673
H      63.48344463      73.97244529     100.35127820
N      64.99144621      77.48544650     101.71755033
H      63.59682820      78.06937192     102.88162175
C      67.46509797      78.29046990     101.70243253
H      67.91674256      80.17641676     102.33549084
C      69.56647363      80.45420653      95.84995014
O      70.62661009      82.41385272      96.59261258
N      67.15329313      80.39373529      95.13185413
H      66.48621974      78.72321723      94.49690609
C      65.64907098      82.65006852      94.63107666
H      67.07959379      84.07492215      94.21344715
C      63.91241250      82.02834855      92.39175097
H      62.14551840      81.39906969      93.24023809
H      64.87239347      80.64884835      91.19933368
C      63.49289326      84.29035095      90.64564386
H      65.31836888      84.75900307      89.81416429
C      61.74300669      83.54957823      88.55560657
H      59.86461874      83.33792888      89.37007861
H      62.68598012      81.91496498      87.72979616
H      61.79402930      85.03868257      87.13264265
C      62.20598964      86.56369170      91.88908378
H      62.00189920      87.91673574      90.34706710
H      63.27179528      87.31391306      93.48401279
H      60.25390236      86.16873890      92.41631743
C      64.26201187      83.65351318      97.01591126
O      62.56881709      82.48188287      98.06848883
N      65.01034349      86.01000190      97.62251342
H      66.30291629      86.90951162      96.53970023
C      63.94831730      87.36304594      99.83916238
H      63.20565486      85.92118475     101.11094818
C      66.04213405      88.76711258     101.19976533
H      65.06703527      89.70819628     102.75312036
H      66.83203965      90.24676829     100.00356856
C      68.11705355      87.26855962     102.59060388
H      69.31891948      86.43519031     101.14307353
C      70.10882507      88.87104754     104.15151782
H      69.26411742      89.52489284     105.91274275
H      70.91951767      90.41684365     103.05925602
H      71.53367872      87.46320142     104.63717748
C      67.13250613      85.31269289     104.46332267
H      65.70387304      84.05602488     103.68097597
H      65.91741212      86.35582181     105.75589546
H      68.57058786      84.33759410     105.57448174
C      61.63718202      88.90317289      99.13807392
O      59.62651322      88.68585436     100.27568915
N      61.70332244      90.68896424      97.32015721
H      63.36817132      91.22186706      96.55292832
C      59.64730021      92.46341725      96.86284344
H      57.89174447      91.38438353      96.87418179
C      59.44320977      94.71219156      98.85461496