 %block lattice_cart
   139.252   0.000   0.000
   0.000 142.425   0.000
   0.000   0.000   162.84
 %endblock lattice_cart

 %block positions_abs
N      91.71784546      40.73971834      81.55133598
H      90.89770424      40.08776277      83.14815471
H      93.62457931      40.78696150      81.59857914
H      91.38147418      39.53218323      80.10947480
C      90.46684665      43.18502419      81.01843316
H      91.38336391      44.41712575      82.39226419
C      91.23218580      44.35854423      78.41250057
H      90.11535755      43.48738040      76.91394761
H      93.17671418      43.96926061      77.86070049
C      91.09234605      47.22714878      78.26699165
H      89.16671494      47.92823724      78.47108209
H      91.78587561      47.72981598      76.39427287
S      92.88947578      49.05829357      80.47986116
C      91.84067767      52.08752485      79.31390002
H      89.79221435      51.88910359      79.27421577
H      92.53798668      52.29350502      77.38637918
H      92.48507435      53.56718056      80.59324474
C      87.60391128      43.10943514      81.38692979
O      86.54377482      41.17246567      80.72741531
N      86.58534880      45.21836971      82.33368267
H      87.56233730      46.85487269      82.26754225
C      84.05500527      45.37332726      83.42216503
H      82.73786602      44.30941135      82.24486554
C      83.81501002      44.68168743      86.20384216
H      84.23263954      42.66912891      86.34179218
H      82.02732893      44.88388815      87.21106629
C      85.66316236      46.20102739      87.86869104
O      85.03199377      48.21925509      88.84945900
N      87.84201680      45.12766284      88.27498220
H      88.78876968      45.90623008      89.73763037
H      88.36358126      43.48171122      87.46239989
C      83.05534005      48.07374616      83.14815471
O      84.63515124      49.84252999      82.78532726
N      80.58357803      48.53105993      83.43539311
H      79.37982237      47.09297821      83.79066166
C      79.49509567      51.12754389      83.25208966
H      80.17728687      51.76438165      81.41716541
C      76.50743837      51.08974936      83.46184928
H      75.85737252      49.69513134      82.09368743
C      75.69107660      50.26015951      86.08856886
H      76.55846098      51.36753913      87.59279100
H      76.18807462      48.30618250      86.50808810
H      73.64828246      50.40566843      86.30777711
C      75.56635467      53.75993264      82.65871560
H      76.90428090      55.26037533      83.11224991
H      73.85426263      54.23425394      83.70184452
C      74.82369223      54.24937176      79.73530899
H      73.32702899      52.87554073      79.38948908
H      76.47909248      53.98858952      78.53722251
H      74.06969143      56.14287752      79.43673223
C      80.64593900      52.99459348      85.08701391
O      81.29789457      55.05628489      84.41427134
N      81.17128291      52.39366052      87.53987866
H      80.92372876      50.52283147      87.82333761
C      81.93473234      54.18512106      89.62235706
H      80.55523213      55.70068156      89.82455778
C      81.91394535      52.64688384      92.06388346
H      83.71485453      51.70013096      92.37757803
H      80.69129243      50.98959387      92.00152249
C      81.64749394      53.85630868      94.63391124
C      83.57690451      54.25315121      96.43671015
H      85.41182876      53.37631820      96.25529642
C      82.86447769      55.37186918      98.73461734
H      84.25153680      55.61375415     100.21049359
C      80.42484102      56.28838645      99.22027701
H      80.01477041      57.25781605     100.96827384
C      78.62393184      56.01626586      97.38157330
H      76.70585963      56.70034678      97.49873633
C      79.15683466      54.68022935      95.10823255
H      77.62048717      54.42511630      93.78920358
C      84.55578274      55.38698700      89.10835150
O      85.00175815      57.52993663      89.93605163
N      86.28866177      53.83174224      88.19561370
H      85.88048088      51.97792073      88.00853079
C      88.79065941      54.39488068      87.05988818
H      89.62213898      55.74414527      88.37513770
C      90.41393431      52.01571525      87.23752245
H      92.33200652      52.35397626      86.56855934
H      89.57678555      50.63054587      85.96006747
C      90.67282681      51.01605003      89.90959546
H      91.85957494      49.34553197      89.68660776
H      88.97396286      50.18834991      90.72973668
C      92.15815170      52.60719959      91.74640944
O      91.09234605      54.35330670      93.01252607
O      94.46550752      52.29917420      92.12435470
C      88.85868955      55.56273154      84.47474259
O      90.42716239      57.33907428      84.29899804
N      87.06911873      55.07896161      82.72863547
H      85.88237061      53.63332098      83.11602937
C      86.42661179      56.47546935      80.39860293
H      88.08390176      56.45468236      79.17406028
C      84.24964708      55.05628489      78.95485202
H      82.46007626      55.16210956      79.97152478
H      84.84113141      53.11364624      78.59580403
C      83.50698463      56.07673710      76.31112491
H      85.17939242      55.64210005      75.19429666
H      83.11014211      58.09874425      76.39049342
S      80.80089655      54.39110123      74.98831649
C      80.87837533      55.00148283      71.66995709
H      82.68495369      54.32496081      70.94808164
H      80.89349314      57.04805642      71.42807212
H      79.42139635      53.94323609      70.67407132
C      85.88992952      59.24580813      80.89182150
O      87.33368042      60.92388509      80.19451249
N      83.76965659      59.76359314      82.27888061
H      82.68306396      58.39543129      83.04988895
C      82.86636741      62.27314968      82.88170330
H      82.45062763      63.38052930      81.19795716
C      80.51365815      61.96134484      84.65237686
H      80.06201357      63.66965743      85.71440305
H      80.99364864      60.61585970      86.13581201
C      78.27811193      60.80483233      83.05744785
H      78.41795167      59.08707112      81.93117097
C      76.27878149      60.03760345      84.95473307
H      77.23876245      58.77337655      86.26998258
H      74.74999290      59.06439440      83.97774456
H      75.61926700      61.60040711      86.12447366
C      77.21986519      62.70400728      81.16961126
H      75.54745740      61.90087360      80.27766044
H      78.54267361      63.10084981      79.64271240
H      76.62649113      64.50113700      81.98975248
C      85.04900131      63.72823894      84.31411585
O      85.03010404      66.00913860      84.27821105
N      86.61558442      62.42999696      85.76353593
H      86.54566455      60.52137339      85.82022772
C      88.66404774      63.87374787      87.22240464
H      87.93650311      65.78237144      87.49830469
C      89.33301086      62.55093945      89.78298380
H      91.03943372      63.52414850      90.40470376
H      89.86402395      60.55916791      89.74518927
C      87.20139958      62.71723536      91.65759230
H      85.47230000      61.75725440      91.07744632
H      86.67794539      64.70900690      91.55365735
C      88.01209216      62.23535515      94.35612148
H      86.52298783      63.03848884      95.53531070
H      89.82622943      63.11974707      94.76430236
N      88.35791208      59.44800884      94.83422223
H      88.27287440      58.12520042      93.46228093
C      88.78121077      58.57117583      97.14913697
N      88.62814294      59.93933768      99.25996126
H      89.08734644      59.18911634     100.95504576
H      88.24641823      61.80449755      99.11256261
N      89.40671018      56.22980493      97.33621987
H      89.77898627      55.52871647      99.07287835
H      90.13803427      55.49281167      95.73562168
C      90.94305768      64.59373359      85.54999686
O      92.25830719      66.26425165      86.38147643
N      91.06400016      63.71690058      83.20673623
H      90.04921713      62.12575103      82.91571838
C      92.42649283      65.06427544      81.13937564
H      94.16693077      65.92410092      81.82534629
C      93.21261898      62.99691486      79.26098769
H      91.61391052      61.88575579      78.58824512
C      94.45227944      64.02681570      76.77032841
H      93.19939089      65.38552892      75.86137005
H      94.95494664      62.56038808      75.41539464
H      96.14736394      64.96978913      77.45818878
C      95.36690697      61.46812627      80.56489884
H      94.85479114      61.04860703      82.51698612
H      97.10356546      62.56038808      80.73875366
C      95.94705295      58.99447453      79.24398015
H      97.33600179      57.96079423      80.35702895
H      97.11301409      59.22313141      77.56212373
H      94.28031434      57.86819764      78.80178419
C      90.76920286      67.15809220      80.02254739
O      91.88036193      69.19899662      79.58980007
N      88.36736071      66.64030719      79.38193017
H      87.79288391      64.82239048      79.49531375
C      86.67416593      68.45633418      78.05345257
H      87.52454278      68.76246984      76.20341051
C      83.96051895      67.39430799      77.64527169
H      82.76054274      68.92309658      76.96308049
H      82.98542017      66.80471338      79.36303291
C      83.96996758      65.51214058      75.55712411
O      83.31045310      63.32572724      75.99932007
O      84.67483550      66.30960508      73.43496146
C      86.45684741      71.06037704      79.30256167
O      86.27543368      72.96144171      77.92495118
N      86.30188985      71.38540996      81.81400794
H      86.11480695      69.79992958      82.86280604
C      86.38314808      73.85339253      83.08579374
H      86.85368993      75.26312836      81.65716065
C      83.82634838      74.08582886      84.49363985
H      83.59013259      72.40397244      85.65960098
H      82.28055226      73.94031994      83.14059581
C      83.34257845      76.39129496      86.30210793
H      85.04900131      76.98655875      87.29421424
H      82.04622619      75.86217160      87.81010953
C      82.08591045      78.69676107      85.02654267
O      79.74642927      78.72699669      84.63725905
O      83.38037297      80.54491340      84.35568983
C      88.46940593      74.25779396      85.13236734
O      89.44450471      76.37050798      85.30811189
N      89.04199301      72.13374158      86.60068469
H      87.97996682      70.57471737      86.32478465
C      90.41960349      72.25657379      88.96662203
H      92.14492361      73.30348217      88.56222060
H      90.99597001      70.38763447      89.61101870
C      89.06655945      73.39229931      91.21917580
O      86.81967486      73.45088082      91.19271963
N      90.35724252      74.27102204      93.08433567
H      92.25641746      74.08393914      93.08244594
C      89.32734168      75.31793042      95.31988190
H      87.28265781      75.43887290      95.09311474
C      90.00953288      73.44143219      97.48550825
H      91.96162016      72.87451430      97.15669587
H      88.93805806      71.70477371      97.20204930
C      89.42938690      74.15763846     100.31253881
H      90.61802475      75.82815652     100.52985734
C      86.60424606      74.60550360     100.71316079
H      86.12614530      75.01368448     102.67469671
H      85.25876093      73.23923147      99.96482917
H      86.29244122      76.34972099      99.66247296
C      90.34023498      72.44932588     102.27974391
H      89.23663482      70.71266739     102.38745831
H      90.37991923      73.35261505     104.12789624
H      92.28287363      71.96177649     101.80164315
C      90.14370345      78.08826919      95.82254909
O      92.19405650      78.82904191      95.04398185
N      88.46184703      79.58304271      97.18693149
H      86.65337895      79.02557344      96.93748762
C      89.00797793      82.02834856      98.37178989
H      91.04510290      82.20598283      98.61556459
C      88.22752096      84.39806535      96.70883074
H      88.22374151      85.96842792      98.03919806
H      86.26976450      84.46420577      96.06821352
C      90.11535755      84.81947432      94.52997630
H      90.13047536      83.26611929      93.17693226
H      91.99185578      84.83648186      95.37846341
C      89.60324172      87.33470004      93.23929322
H      91.33045157      88.13216455      92.45316708
H      88.88514572      88.81246602      94.48273314
N      87.96295928      86.93218834      91.09256413
H      87.73430240      85.08025655      90.68627298
C      87.82689899      88.52333789      89.17071247
N      88.72262926      90.79289920      89.09134397
H      88.62814294      91.55067945      87.34145740
H      90.04354795      91.52233355      90.25919483
N      86.77054198      87.86004396      87.08256490
H      86.57778989      88.96742358      85.53865850
H      86.27921314      86.02322998      86.93894570
C      87.63414690      81.94331087     100.93992795
O      85.49497672      81.03624224     100.98906083
N      88.87947654      82.82203361     102.95248647
H      90.56889187      83.67807963     102.73894740
C      87.73808185      82.87305622     105.51495535
H      86.43228097      81.28946557     105.68881017
C      89.89236985      82.58959727     107.62200019
H      89.11380261      83.24911175     109.41157101
H      91.31344403      83.98043584     107.07775901
C      91.17171456      79.91563454     107.79018583
H      91.80477287      79.31470157     109.65723543
C      89.27820879      77.72166229     107.18169396
H      88.94372724      77.67441913     105.15023818
H      87.39793111      78.01268014     107.96970983
H      90.15315208      75.91319421     107.65223581
C      93.63213822      79.97799551     106.35399384
H      94.79998908      78.35094115     106.82642542
H      94.73762811      81.55969643     107.07775901
H      93.30332584      80.06870237     104.32442778
C      86.22819053      85.36371550     106.13478558
O      84.97152253      85.48465798     108.09065232
N      86.24519806      87.37249457     104.59465864
H      87.39982084      87.27989798     103.07531868
C      84.90916156      89.78945452     105.03874432
H      83.98886484      89.54756956     106.86421994
C      86.66471730      92.03822884     105.17291489
H      87.93650311      92.11759734     103.55152971
H      87.93083393      91.75288016     106.77162335
C      85.73875141      94.69518403     105.65668483
H      84.60869507      94.80667788     107.37633577
H      84.53688547      95.42461839     104.15057296
C      88.05933532      96.49231376     106.05919653
H      89.06277999      95.97641847     107.78451666
H      87.31667288      98.40660651     106.21415409
C      90.07378357      96.70963228     104.00317430
H      90.47251582      94.95029708     103.01295772
H      91.84634685      97.15182824     104.95370664
N      89.22907591      98.62014558     102.05486647
H      87.34123932      98.73163944     101.77896643
H      89.81489107      98.16661127     100.29742100
H      89.76575818     100.41160613     102.43470146
C      82.92305920      89.93307372     102.87122824
O      83.06478868      88.37404952     101.23283553
N      81.09380413      91.67729111     103.23405569
H      81.06167879      92.72230976     104.82898470
C      79.34958675      92.44829945     101.23283553
H      78.02488860      90.87793688     101.08165742
C      77.82646734      94.85392104     102.00573359
H      79.09258397      96.44696032     102.31942816
C      75.90839513      95.63626774      99.84388669
H      74.84447922      97.34080087     100.29553128
H      74.51944629      94.15661203      99.47727978
H      77.08569462      96.06712534      98.21494261
C      76.26555340      94.79722925     104.42458327
H      74.95597307      96.38459936     104.46426752
H      77.48820633      95.17328479     106.04029927
C      74.78589770      92.33869532     105.04441350
H      73.67851808      92.23476037     103.31153447
H      73.48576600      92.67506660     106.60343771
H      75.80634991      90.57369094     105.34676971
C      80.91050068      92.97931254      98.79508858
O      82.82857289      94.06212572      98.83288311
N      79.91650464      92.14594324      96.65402867
H      78.35937016      91.06313006      96.86945747
C      80.61948283      92.81490635      93.99707348
H      81.55111790      94.63849224      94.20872282
C      82.54700367      90.97620265      92.72150821
H      84.15516076      90.81557591      93.99896320
H      83.14982636      91.88138155      90.96973192
C      81.82512822      88.27011457      92.03175811
C      80.81979382      87.68240968      89.76219681
H      80.41161293      89.09592497      88.34679180
C      80.18295605      85.24466274      89.03843163
H      79.38549155      84.79490788      87.21484574
C      80.56846022      83.24533230      90.80532573
O      80.30011908      80.76979083      90.05510439
H      79.78989298      80.73199631      88.31655618
C      81.53222064      83.80280156      93.21094733
H      81.99709331      82.39684519      94.61879343
C      82.05378510      86.39361634      93.81943920
H      82.87203659      86.69975200      95.66381208
C      78.45574620      93.27788930      92.24718691
O      76.48287193      92.23665010      92.70828013
N      78.66928527      95.12793136      90.52186679
H      79.86548203      96.58302062      90.82800245
C      76.93640624      95.22619713      88.32222536
H      75.02022376      94.80478816      88.94583504
C      76.64160894      97.82835026      86.87658473
H      75.12982789      97.55245022      85.50653315
H      78.45385647      98.18928798      85.96195719
C      75.91595404      99.93539510      88.60001513
H      77.00821584      99.93539510      90.34612224
H      73.91095442      99.85224714      89.06110835
C      76.17862599     102.49030507      87.37925193
H      75.37549231     102.21251531      85.50275370
H      78.17228725     102.90604486      87.07878544
C      75.18274023     104.95828764      88.83056174
H      76.45641576     104.94128010      90.45005719
H      73.26088857     105.03765614      89.56566527
N      75.72131222     107.27698182      87.44350262
H      75.33769778     108.87758001      88.40726304
H      74.91061964     107.27698182      85.71629277
H      77.62615635     107.25619483      87.30933205
C      77.77544473      93.14371873      86.50052919
O      80.03933685      92.67884606      85.95250856
N      75.93107185      91.94752197      85.38748039
H      74.14905993      92.26121654      85.99597227
C      76.21453079      90.00488332      83.37114242
H      77.92473311      88.98254139      83.88136852
C      73.86560099      88.23420977      83.33901707
H      72.23665690      89.45497297      83.02910196
H      73.71631261      87.12871987      85.07189610
C      74.06213252      86.19141562      81.24142086
O      75.66273071      84.46987495      81.40960651
O      72.84325905      86.34259373      79.26665687
C      76.56979934      91.44674450      80.76520983
O      76.24854587      93.77110787      80.76520983
N      76.97798022      90.16928951      78.62414992
H      77.32380014      88.29279128      78.60525266
C      76.74932334      91.34280955      76.13538037
H      77.96441736      93.00198926      76.27522011
C      78.12882355      89.70063739      74.15872664
H      77.01010557      89.55512846      72.43529624
C      80.76688148      90.46786627      73.16095115
H      81.51899255      89.12049141      71.79845848
H      81.92339398      90.27322446      74.85603565
H      80.66861571      92.29145216      72.20852909
O      78.28378111      87.14761714      74.91083771
H      76.52255618      86.78667941      74.66895275
C      74.11315513      92.04956719      75.27555489
O      73.83725509      93.43095713      73.38771831
N      71.99855139      91.49965684      76.49631809
H      72.43318844      90.32424707      77.93817927
C      69.55891472      92.87159814      76.34136053
H      69.25655851      93.95441132      74.61604041
C      67.47454659      90.82313482      76.64560647
H      65.73599839      91.88894046      76.94607295
H      67.86383022      89.90661756      78.44840537
C      67.19864655      88.95230577      74.43462668
H      66.15740735      87.29690552      75.08091308
H      69.05057834      88.15673099      74.00565881
C      65.71710112      90.24487857      72.19719073
O      66.03457514      92.58813919      71.61704475
O      64.24878378      88.91262151      70.94997136
C      69.39450853      95.13549026      78.30100672
O      67.36305274      96.23531098      78.70729788
N      71.41840541      96.03499999      79.30067194
H      73.11160019      95.31123481      78.80556365
C      71.37683143      98.08157359      81.18094962
H      70.67196352      99.85980605      80.41938992
H      73.26844747      98.63337367      81.78566204
C      70.02000794      97.48819952      83.63570410
O      69.80457914      99.10013607      85.31945025
N      68.81625228      95.15627725      83.94561922
H      68.64995636      93.90716816      82.50942722
C      67.50478222      94.39660727      86.28132094
H      66.13473064      95.77043830      86.97296077
C      65.92119157      92.03255966      85.71818250
H      64.77223797      91.58658425      87.36791357
H      67.19675683      90.45463819      85.36858313
C      63.98989127      92.00799322      83.71129315
C      63.22077266      89.70819629      82.34313130
H      64.10705431      87.91484602      82.75320191
C      61.20821414      89.80457233      80.51387623
H      60.75467983      88.24554813      79.27799522
C      59.92697970      92.03822884      80.09057754
O      58.31126370      92.13271515      78.13471080
H      57.56671154      93.78244622      78.03833476
C      60.75845928      94.25298807      81.19039825
H      60.00067903      96.11247877      80.81623244
C      62.67653149      94.25298807      83.07823484
H      63.13573498      96.10303014      83.80955892
C      69.20742562      93.68795991      88.54710279
O      71.30880128      92.77711182      88.10490683
N      68.45720428      94.22653191      90.88091479
H      66.62605948      94.71786075      91.08500523
C      70.08803809      93.67095237      93.06921786
H      72.03445619      94.09803052      92.55143285
C      69.32647838      95.33580125      95.31232299
H      70.27323126      94.50432167      96.94504652
H      67.32336849      95.11470327      95.74129086
C      69.97843396      98.19495716      94.92114964
C      68.13217135     100.10736019      95.01941541
H      66.16874571      99.56500874      95.14602707
C      68.90506941     102.71329278      94.53753520
H      67.43297262     104.12491833      94.55643246
C      71.48643556     103.35768945      94.58288863
O      72.33870212     105.85023846      94.23895844
H      70.93652520     106.96139753      93.92904333
C      73.31191118     101.43772752      94.63580097
H      75.31880052     101.78543716      94.74729482
C      72.58436655      98.88092782      94.82099415
H      73.92418250      97.35780841      95.05343049
C      70.08803809      90.87226770      93.71928371
O      68.06981038      89.67796067      93.92904333
N      72.21586991      89.77055726      94.49218177
H      73.81835783      90.74754576      94.83233251
C      72.60137408      87.05313082      94.74351537
H      70.82314162      86.17062863      95.29342573
C      73.68040781      85.97976628      92.22639992
H      75.32446970      87.15139659      91.80877041
C      74.33992229      83.22454531      91.69727655
H      75.34147724      83.16218434      89.89825710
H      72.68263231      82.00378211      91.78798342
H      75.93296157      82.58770754      92.83867125
O      71.88516781      86.46542594      90.27242291
H      72.13083223      88.15673099      89.66393104
C      74.47220313      86.38605743      96.95071570
O      75.72698140      88.10759811      97.86912269
N      74.96920115      84.05980434      97.54220004
H      73.90717496      82.70298085      96.72016909
C      77.36915357      83.26800902      98.76296324
H      78.84502982      84.62483251      98.29242139
C      76.73042608      83.37383369     101.59755271
H      75.71753277      85.15017643     101.84510685
C      75.13927652      81.02301416     102.10021991
H      76.19563353      79.25989951     101.98872605
H      73.30813172      80.97577100     101.15346702
H      74.78778743      81.20631761     104.12033733
C      78.93762641      83.44942274     103.39657216
H      80.46452527      84.60215579     102.63312273
H      79.77666489      81.59560123     103.73861262
C      78.29889892      84.42830097     106.01762255
H      76.80034595      83.36816451     106.95114735
H      77.53922894      86.32936564     105.79085540
H      80.04311630      84.67774485     107.08342819
C      78.36503934      80.75467302      97.84644598
O      77.13482751      79.34493719      96.36679027
N      80.44184855      79.91941399      98.99917903
H      81.29411512      81.21198679     100.11978673
C      81.04467125      77.18120056      99.33555031
H      79.23809289      76.27413193      99.73239284
H      82.51298859      76.84293955     100.74339641
C      81.69473710      76.19665315      96.68237457
O      83.02321470      77.51001294      95.24429284
N      80.66861571      74.05937269      96.00774227
H      79.31557167      73.29214381      97.11701162
C      80.85947807      72.94632390      93.50196518
H      82.02354948      74.11795421      92.27553281
C      81.81567958      70.16464676      93.88935908
H      80.34925197      68.97789864      94.71327975
C      82.28244198      69.20277607      91.20216826
H      80.64404927      68.67554243      90.07022220
H      83.50698463      67.54926555      91.07177714
H      83.29344556      70.58038655      90.05321466
C      84.23263954      69.76780424      95.51830316
H      84.83735196      71.51769080      96.41970261
H      85.75008977      69.22734251      94.23517899
C      83.88304017      67.79870942      97.59322265
H      83.63926548      65.97512353      96.66914648
H      82.13315360      68.42231910      98.48706320
H      85.39671095      67.94988752      98.98028176
C      78.12315437      73.23923147      92.27742253
O      76.52444591      71.60650794      92.69694177
N      77.87182077      75.50123387      91.20027853
H      79.00943601      76.91663888      91.77853478
C      75.54745740      76.20610179      89.78109407
H      75.50588343      75.19320848      87.98774380
H      75.71564305      78.16385825      89.15937411
C      72.97365017      75.95287846      91.13602784
O      71.12927728      75.11572970      89.93605163
N      72.88861248      76.54436280      93.64180493
H      74.52700520      77.20954646      94.36368038
C      70.47732171      76.84860873      95.20460859
H      69.16018247      75.50879278      94.35801120
C      71.01778343      76.12484355      97.94660147
H      72.27823088      77.57615336      98.68926391
H      71.88894726      74.25968368      97.97494737
C      68.74444268      75.98122435      99.36578593
N      67.27801506      73.78347265      99.73995174
H      67.76178499      72.02980663      99.15602631
C      65.15963186      74.49212002     101.12134168
H      63.67808643      73.17120133     101.60322189
N      65.28813325      76.91285943     101.58621435
H      63.77068302      77.90874519     102.17769869
C      67.45753906      77.94464999     100.43726075
H      67.72399047      79.94775989     100.14246345
C      69.39072908      79.46776940      94.73217701
O      70.06725110      81.24978132      96.04553680
N      67.34793493      79.72099273      93.27519802
H      66.55613961      78.14685071      92.54387394
C      66.05158268      82.25511571      93.05410005
H      67.36683220      83.67430017      92.35112186
C      64.01256799      82.27590270      90.94516548
H      62.62361915      80.82270317      91.38547171
H      65.07648390      81.68441837      89.28598578
C      62.42897734      84.74199554      90.56155104
H      62.26268142      85.76433748      92.34356295
C      63.86327961      86.64683967      88.88347407
H      64.13728993      86.00244299      86.94839433
H      65.77379291      86.93785752      89.59590089
H      62.65007532      88.31168855      88.96473230
C      59.79658859      84.10704750      89.48062759
H      58.69487814      85.81158063      89.14992548
H      58.92920421      82.80880552      90.82611272
H      59.73422762      83.19808914      87.63247525
C      65.00089485      83.19430969      95.60334084
O      63.73288850      81.76000742      96.99228968
N      65.49789287      85.57725457      96.29120122
H      66.47866083      86.64117049      95.04587158
C      64.33760092      86.80935613      98.40013579
H      63.52501860      85.50544497      99.77396682
C      66.36905670      88.25877621     100.11978673
H      65.45253944      89.17907292     101.71849519
H      67.21565409      89.77244699      99.00673793
C      68.31358508      86.54290472     101.33110130
H      69.02412217      85.29568535      99.85522505
C      70.48299089      88.16995907     102.38367885
H      69.85749148      89.56079764     103.76695851
H      71.65273147      89.32458185     101.14401839
H      71.96453631      87.08147672     103.31153447
C      67.33848630      84.93096817     103.48349957
H      65.73032921      83.75933786     102.94492757
H      66.69975881      86.03267861     105.10299502
H      68.73121459      83.52501180     104.05041746
C      62.05481153      88.49310227      97.76707747
O      60.07815781      88.20586387      98.97839204
N      62.34204993      90.24109911      95.92081486
H      64.08059814      90.30534981      95.13657844
C      60.19910029      91.65650412      94.99295924
H      58.50590551      90.49054299      94.83989141
C      59.74745570      93.81457157      96.95260543