 %block lattice_cart
   139.252   0.000   0.000
   0.000 142.425   0.000
   0.000   0.000   162.84
 %endblock lattice_cart

 %block positions_abs
N      91.86429925      43.73682427      81.03449584
H      93.76536393      43.63288933      80.90977390
H      91.24068958      42.23827131      80.03105117
H      91.11407790      43.41935025      82.75981595
C      90.87597239      46.20291711      80.23892105
H      91.75658485      47.44824675      81.62409045
C      91.85107117      47.16667753      77.73881314
H      91.18021832      45.85331774      76.30073142
H      93.89008587      47.04762477      78.02038236
C      91.07061420      49.81040464      77.15677744
H      89.02026115      49.62899092      77.10008565
H      91.79626910      50.23748279      75.27649976
S      91.71690061      52.14799609      79.48869971
C      91.13675463      54.83518691      77.60086312
H      89.73835715      54.35519643      76.16845058
H      92.82050076      55.83674185      76.96402535
H      90.37330520      56.36775495      78.74603727
C      87.93933770      46.19157875      80.42978342
O      86.73180258      44.42090520      79.80428400
N      86.68644915      48.10209206      81.63542881
H      87.61241506      49.61198338      82.35163507
C      83.94256656      48.38933046      82.08329394
H      82.83329721      47.55596115      80.56206425
C      83.33218496      46.94935900      84.59662994
H      84.34696798      45.16545737      84.44545182
H      81.38009768      46.29740343      84.66843954
C      84.30161455      48.22303454      86.97201591
O      85.13687358      50.40188898      86.92288303
N      84.30917346      46.89077749      89.08661965
H      84.89120916      47.62399130      90.75146854
H      83.98414052      45.01994844      88.87874976
C      83.09974862      51.04061647      82.21746451
O      84.51326389      52.84152565      82.36297344
N      80.63365577      51.48281243      82.22502341
H      79.58485767      50.02961289      81.56739866
C      79.41289258      53.99425870      82.46690838
H      79.87209608      55.01849036      80.74158826
C      76.51972159      53.58607782      82.67666800
H      75.90745026      52.56562561      80.99481159
C      75.71469819      52.08185567      85.10496632
H      77.10742648      50.59086161      85.38086635
H      73.94969381      51.11809525      84.65332173
H      75.38588580      53.29694969      86.73580011
C      74.99849191      56.09752409      82.64265292
H      75.36131936      57.02160025      84.44734156
H      72.96325667      55.82918295      82.48013647
C      75.52950501      57.77182160      80.39576834
H      75.43501868      56.74947966      78.60997697
H      77.40411350      58.59196282      80.62820468
H      74.10465136      59.25525675      80.29939229
C      80.33696875      55.70824047      84.59474020
O      80.11398105      58.00425794      84.37175250
N      81.41033329      54.74070059      86.66210080
H      81.78638882      52.86987154      86.71879259
C      82.31173275      56.23358438      88.74646892
H      81.11553599      57.90788189      88.84095523
C      82.36842454      54.71802388      91.18421585
H      83.29816988      55.87642611      92.61095923
H      83.44556854      52.99081403      90.86485211
C      79.70202070      53.96213335      92.09884340
C      78.17134240      55.33596438      93.81849435
H      78.88565894      57.09340985      94.57438487
C      75.80351533      54.56873550      94.75012942
H      74.88510834      55.83296240      96.06348920
C      74.60920830      52.49570573      93.60684500
H      72.73648951      52.00437689      94.25502112
C      76.08697427      51.04817538      91.85317897
H      75.36320908      49.34931142      90.98390488
C      78.53228011      51.67178506      91.20878230
H      79.65099810      50.44913214      90.02014446
C      84.99703383      57.19923453      87.97924004
O      85.58095926      59.49147254      88.46112024
N      86.45779228      55.62887196      86.79060219
H      85.87764630      53.86764704      86.33895760
C      88.85774470      56.56428649      85.67188420
H      89.77237222      57.74725516      87.08539949
C      90.55849837      54.22291558      85.17488618
H      92.17043491      54.95801912      84.12797781
H      89.49080301      52.83018729      84.09774219
C      91.52225879      53.07774144      87.63719958
H      92.88097201      51.67178506      86.99280290
H      90.09929487      51.97603100      88.63875452
C      92.86963366      55.09785887      89.27559229
O      91.83028419      55.51170893      91.33161452
O      94.94455314      56.12398025      88.82583743
C      88.47413024      58.23480455      83.24547562
O      89.94244760      59.94689659      82.77871322
N      86.40865938      57.88142573      81.78093773
H      85.32206676      56.33751933      82.05872749
C      85.84930041      59.33651499      79.41877984
H      87.53115682      59.20423414      78.23959061
C      83.76871173      57.97969149      78.06006662
H      81.95835393      57.75292434      79.01248868
H      84.53972007      56.08429600      77.82196111
C      83.24903700      58.80550189      75.24248468
H      84.78538449      58.29149634      73.97069888
H      83.23958837      60.85963439      75.07807849
S      80.42200643      57.52048800      73.95369134
C      81.46513536      56.82884817      70.68824427
H      81.45001755      58.58251419      69.60921054
H      80.22547489      55.47958358      69.74716057
H      83.29439042      55.90288228      70.50305109
C      85.13498386      62.00669827      79.99325663
O      86.03071413      63.69044441      78.67611740
N      83.49281168      62.49613738      81.84518843
H      82.66700128      61.13931389      82.90154542
C      83.05250545      65.12474668      82.70123445
H      82.87109173      66.45889346      81.14409996
C      80.50893383      65.15309258      84.01648396
H      80.28216668      66.85573599      85.15409920
H      80.59775097      63.53926631      85.29393895
C      78.10898142      64.88853089      82.39131933
H      78.38866092      63.90209376      80.60363824
C      75.85642766      63.61863481      83.60074417
H      76.58775174      61.99347018      84.63631419
H      74.40133840      63.16699022      82.21746451
H      75.24226660      64.87530281      85.11252522
C      77.40222378      67.53414773      81.37464657
H      79.13888227      68.57160748      81.00048076
H      76.42712500      68.59428419      82.84674337
H      76.19090922      67.36785182      79.71735660
C      85.19356537      66.19244205      84.25458947
O      85.59040789      68.49034925      84.35474497
N      86.88487041      64.67688155      85.30527729
H      86.60141147      62.79849359      85.49236021
C      89.34151463      65.61040635      86.21045621
H      88.71790494      67.19777645      87.36507898
C      90.54149083      63.60729645      88.02270373
H      91.29927108      62.09362568      86.84729398
H      88.98246663      62.97045869      89.20945187
C      92.66176376      64.71278635      89.71589851
H      91.64698072      65.49702277      91.32783506
H      93.97512355      65.98457216      88.76158673
C      94.00346945      62.64920521      91.15020079
H      94.91809697      63.86051978      92.54103936
H      95.58139091      61.85363044      90.09762323
N      92.30838493      60.79349397      92.30104411
H      92.20445000      59.12108619      91.38641657
C      91.08573201      60.84640631      94.52147253
N      91.00636350      62.56416753      96.29025635
H      90.03882363      61.96512429      97.82471413
H      92.18933219      64.06272050      96.27702827
N      89.61552495      58.81117107      95.06193426
H      88.12075143      58.95479027      96.24112347
H      89.38875778      57.57151061      93.62763198
C      91.13864435      66.56471813      84.06750657
O      92.89608982      68.04626356      84.59474020
N      90.55282919      66.02236668      81.75070211
H      88.92199539      65.03215009      81.68267195
C      91.94366776      67.04470862      79.50570724
H      93.60662691      68.10484508      80.09530186
C      92.88853091      64.96600967      77.64810628
H      91.30871971      63.68477523      77.32307335
C      93.66709815      66.22267767      75.14799837
H      94.51180582      64.77892677      73.94424270
H      95.22612237      67.54737582      75.38799360
H      92.06272051      67.11084904      74.21447356
C      95.15242303      63.58084029      78.98225306
H      94.78959559      63.48257452      81.00803967
H      96.87774316      64.70333772      78.90288456
C      95.92910055      61.10529882      77.65944463
H      94.73290379      59.57839995      78.34730501
H      97.88118783      60.75003027      78.20746526
H      95.88752658      61.33962488      75.61287104
C      90.19189146      69.10451030      78.37565091
O      91.14053408      71.17942979      77.92778577
N      87.72768835      68.73223421      77.98447756
H      86.86786288      67.05415725      78.28872349
C      86.12897989      70.55015093      76.55773419
H      87.04927660      71.09250238      74.79650928
C      83.72335829      69.39741788      75.73003407
H      82.40621906      70.89219139      75.19713126
H      82.97502668      68.26547182      77.27771993
C      83.94823572      67.87240874      73.28283849
O      82.67267047      65.98457216      73.14488848
O      85.45434761      68.67554243      71.56129782
C      85.48647295      73.14474516      78.05439743
O      84.54916869      74.96455159      77.04717332
N      85.93622781      73.18442941      80.49214439
H      86.62408819      71.58950040      81.28393970
C      85.18222701      75.09116326      82.31762000
H      85.16521947      76.93553614      81.39732328
C      82.42322659      74.46377412      83.31539549
H      82.50070537      72.64963686      84.28671482
H      81.04939556      74.48834056      81.77904800
C      81.36497986      76.57837787      85.08795878
H      82.62542731      76.87695462      86.69044669
H      79.58107822      75.71477294      85.64542804
C      80.68278867      79.27123786      84.09018328
O      81.20435313      79.73233108      81.79038636
O      79.33541379      80.69609150      85.36007936
C      86.91888550      75.41997564      84.50025390
O      87.54060545      77.53268965      85.32795402
N      87.82028494      73.27513627      85.56039036
H      87.24391841      71.59139013      84.87064025
C      89.74024687      73.31293080      87.53704408
H      91.38241905      74.33716246      86.83028644
H      90.41109972      71.39674832      87.87908454
C      88.87475223      74.09149804      90.17888146
O      86.66944162      74.56203989      90.63241577
N      90.53582166      73.90252541      92.12718929
H      92.30271576      73.41875547      91.59050702
C      90.11819214      74.56015016      94.70099652
H      88.06405964      74.72833581      94.70855543
C      90.91754638      72.57404781      96.56993586
H      92.96600969      72.37940600      96.60773038
H      90.11441268      70.79014617      95.92175973
C      90.41865863      72.99734650      99.43287122
H      91.37674986      74.75290225      99.92420006
C      87.63320204      73.24490065      99.93931786
H      87.00392318      74.66786456      98.58816355
H      87.21746225      74.17275627     101.72888869
H      86.62597791      71.45721956      99.76735278
C      91.53926632      70.89975030     101.20354478
H      90.89297992      69.02325207     100.65174469
H      90.67944085      71.02636196     103.07059437
H      93.56694266      70.60873244     101.41141466
C      91.10840873      77.15285467      95.42665143
O      93.40253648      77.62150679      95.47389459
N      89.32828654      78.91218986      96.15608579
H      87.53682599      78.47377336      95.67798504
C      89.97079349      81.40284914      97.33716474
H      91.96067529      81.57292451      97.83983194
C      89.46245712      83.48154809      95.36618019
H      89.40009614      85.34292851      96.24868238
H      87.66154793      83.14328708      94.42509649
C      91.03848885      83.63839537      93.05126545
H      91.27848410      81.71087453      92.36907426
H      92.87719255      84.41318316      93.56527102
C      89.96512431      85.40906893      90.89130829
H      91.49769234      86.59014787      90.18644037
H      88.49302751      86.68463419      91.56594058
N      88.84829605      84.01067146      88.81638879
H      88.75758920      82.14740131      89.22456967
C      87.54438490      84.66640649      86.85296315
N      87.74091644      86.93029861      85.70023009
H      86.25370183      87.38005347      84.59285048
H      88.73491248      88.38727760      86.42777473
N      86.08929564      82.90140211      85.92510753
H      85.88709493      82.79179798      84.02971204
H      86.09496483      81.32159091      86.99847207
C      88.17933294      81.85449373      99.52357807
O      85.97780178      81.11372102      99.35728217
N      89.16010091      83.11116173     101.59660784
H      90.94778199      83.69130771     101.25456739
C      87.90910209      82.96754253     104.05892124
H      86.52960187      81.44253340     104.08915685
C      89.96512431      82.37038902     105.94864755
H      89.23568995      82.77290072     107.83270468
H      91.53926632      83.66674127     105.65385023
C      90.69455866      79.62461668     106.17730443
H      91.36541150      79.27123786     108.09348690
C      88.57617548      77.74622873     105.84282287
H      89.34340435      75.89240721     106.30769555
H      87.85996919      78.01456986     103.93041985
H      87.03604853      78.16952742     107.14673403
C      92.83561858      79.14840565     104.38962334
H      93.37041113      77.16230330     104.26868086
H      94.48157019      80.20098321     105.04913781
H      92.55593909      79.83248658     102.46588195
C      86.49369708      85.24466274     104.93575423
O      84.89309889      85.05002093     106.58359559
N      87.10974785      87.29879524     103.54302595
H      88.55349875      87.20997810     102.29958604
C      85.93811754      89.89905865     103.96632465
H      85.00270302      90.01811140     105.79746944
C      88.06972881      91.85303565     104.03813425
H      89.09962966      91.71508563     102.25990179
H      89.34718380      91.23509515     105.52912831
C      87.13431429      94.55912373     104.37261580
H      85.59607708      94.51943948     105.73888793
H      86.35952650      95.18651287     102.57170662
C      89.23757968      96.25609796     105.25889743
H      88.54216039      98.18739826     105.10393989
H      90.82117032      96.22964180     103.93986847
C      90.12386133      96.13137603     108.00655950
H      90.94967171      94.28133397     108.39773285
H      88.58562410      96.49798293     109.32558847
N      92.20067054      97.98708727     108.35048969
H      93.69355433      97.96630028     107.16185183
H      92.84695694      97.89827013     110.14383996
H      91.45422865      99.74264301     108.28623899
C      84.20901796      90.60959574     101.73266814
O      84.72680297      89.72520383      99.59349796
N      82.16055464      92.04956719     102.19754081
H      81.78827856      92.64294125     103.97199381
C      80.18768037      92.38404875     100.31159396
H      79.66422618      90.48487380      99.71255071
C      77.92945743      93.82779965     101.41897357
H      78.42267599      95.23564575     102.84004776
C      76.42523528      95.18462314      99.27980339
H      77.67623410      96.64160213      98.53903067
H      74.87188024      96.25609796     100.10183434
H      75.73926463      93.91661679      97.80581686
C      76.17957086      91.95319115     102.80225323
H      77.30773747      90.64172109     103.91719176
H      75.21581044      90.83636290     101.36228178
C      74.32196989      93.33647081     104.51245554
H      73.68324240      92.20452475     106.10927427
H      72.73271006      94.06779489     103.42775264
H      75.26116386      94.96352517     105.35905293
C      81.48781206      93.74654142      98.04203265
O      82.71613418      95.77043830      98.22344638
N      81.19868394      92.44829944      95.91420082
H      80.41633726      90.71542041      95.75546382
C      81.82985253      93.56701742      93.37440865
H      82.58196360      95.46430264      93.64841897
C      83.67233569      91.84169730      91.86073788
H      85.45056815      91.83035894      92.90008736
H      84.14476727      92.70152277      90.04849035
C      82.95423969      89.08080715      91.32783506
C      81.86575734      88.41751322      88.95811826
H      81.97725119      89.86882303      87.52759545
C      81.03994693      85.87583133      88.46678943
H      80.31996120      85.28434699      86.65076243
C      81.37064904      84.01445091      90.40753835
O      80.85664349      81.49733546      90.08817459
H      80.33885847      81.05891895      88.40631817
C      82.46480057      84.60593524      92.79615241
H      82.75581843      83.02990350      94.06037930
C      83.32084660      87.10793288      93.22323056
H      84.46413101      87.37060484      94.89185889
C      79.48848163      93.88260171      91.75302347
O      77.35120117      93.18340298      92.42387633
N      79.87209608      94.97675325      89.53259507
H      81.59930593      95.76665885      89.34740189
C      77.83686084      95.38493413      87.56916943
H      75.98492905      94.81045733      88.26080925
C      77.81985330      98.25920786      86.52604049
H      77.00160181      98.26109758      84.63631419
H      79.64721865      99.17383539      86.27470690
C      76.30240306      99.98830743      88.13419759
H      77.49859983     100.24531021      89.79337729
H      74.49582471      99.17383539      88.69733604
C      75.84697902     102.43739273      86.78115356
H      73.95725272     102.24275092      85.98557877
H      77.38332651     102.75297703      85.44322733
C      75.61832215     104.64081361      88.77481482
H      77.26049431     104.83734515      89.99746774
H      74.00827532     104.00775530      89.89353278
N      75.05707342     107.14659071      87.51247764
H      73.56229992     107.32611471      86.33706786
H      76.56129558     107.64547845      86.44478227
H      74.82085764     108.58278270      88.74646892
C      78.48125751      93.65016538      85.20512181
O      80.45413178      93.78244622      83.87664420
N      76.51783187      92.17428913      84.61930664
H      75.10809603      92.21586311      85.90432054
C      76.07374619      90.74565603      82.18722888
H      77.32663472      89.11482223      82.28927411
C      73.34498139      89.58158463      82.31950972
H      71.88044350      90.93840812      81.81495280
H      73.01238955      89.01844618      84.27348674
C      73.01238955      87.19486029      80.64899167
O      74.17457124      85.17474286      81.38220548
O      71.67635305      87.29690551      78.75359618
C      76.34586677      92.12515624      79.71924631
O      76.28350581      94.42495317      79.71357714
N      76.76160656      90.78534029      77.55173024
H      76.57452366      88.88616534      77.55550970
C      76.68601750      91.91161717      75.02327644
H      78.12220951      93.38371397      75.12343193
C      77.24348678      89.98976551      72.91245213
H      76.81262918      90.74565603      71.04729227
C      79.97981047      89.05813044      72.97103366
H      80.26515915      88.02445014      74.73036885
H      81.20624284      90.71353069      72.97859257
H      80.28027696      87.82791861      71.34586903
O      75.82997148      87.83358779      73.02772545
H      76.53294967      86.80746640      74.35053387
C      74.14244590      93.11915228      74.29195234
O      74.18968904      94.78778062      72.65922882
N      72.12988737      92.42940218      75.61665050
H      72.26783739      90.75888412      76.52749858
C      69.69780961      93.64071675      75.62420940
H      69.19325267      93.95630104      73.65133513
C      67.69469971      91.85492538      76.74670682
H      66.03552000      93.05868104      76.95268699
H      68.08398333      91.13116020      78.63643315
C      67.03518522      89.58347435      74.98548191
H      65.78229669      88.36838033      76.08152316
H      68.64712178      88.37027006      74.57163185
C      65.99961520      90.46408681      72.32474726
O      65.29663702      92.65616934      71.82963897
O      66.09221179      88.82191465      70.69391344
C      69.76395002      96.22019316      76.95835618
O      68.02162236      97.83590916      76.51993967
N      71.75572156      96.84569257      78.50226258
H      73.25805397      95.66839308      78.59674889
C      71.64989689      98.90927371      80.16333201
H      71.08297899     100.68183699      79.27516063
H      73.55096155      99.46107379      80.73213963
C      70.09654185      98.56156407      82.61619676
O      69.16301706     100.34546570      83.70845857
N      69.69025070      96.14271438      83.24925508
H      70.59353988      94.82368542      82.20612615
C      68.56397381      95.37926495      85.68700201
H      67.48682981      96.93639944      86.49013569
C      66.53251803      93.25521258      85.25425469
H      65.54797061      92.89049540      87.02681798
H      67.59076477      91.53556163      84.83662517
C      64.56153348      93.71252635      83.15665849
C      63.69792855      91.62815822      81.79605553
H      64.34043551      89.76677780      82.33462754
C      61.82332005      92.02878020      79.92333677
H      61.08254735      90.43196147      78.88965647
C      60.90113361      94.44762988      79.31862434
O      59.20415938      94.75754500      77.50826653
H      59.01707648      96.54144664      77.23047676
C      61.92536527      96.58113089      80.50348274
H      61.58899400      98.54455653      80.05561761
C      63.78674570      96.13704521      82.42344468
H      64.44059101      97.77354819      83.45523524
C      70.30441175      94.52510866      87.79782631
O      71.84642842      92.99254062      87.29515911
N      69.85087744      95.38682386      90.10518214
H      68.18791828      96.30712057      90.24880133
C      71.18880366      94.78778062      92.49757565
H      73.21270054      95.04100394      92.21978588
C      70.34787546      96.64727131      94.70288626
H      70.80140976      95.85547599      96.54914887
H      68.29185322      96.77010352      94.73123215
C      71.39478383      99.24186554      94.69910681
C      69.71859660     101.26765215      94.97500684
H      67.71737642     100.88781716      95.08272125
C      70.56330425     103.72618608      95.00902192
H      69.24427528     105.27954111      94.87863081
C      73.12955258     104.25530945      94.97311712
O      73.98748833     106.72140228      94.92020479
H      72.68357718     107.92893740      95.27547333
C      74.89833641     102.26164819      94.80493147
H      76.85420315     102.82667635      94.92776369
C      73.94969381      99.71807657      94.65564310
H      75.21203099      98.11558866      94.56871569
C      70.66345975      92.00232403      93.40464428
O      68.50539230      91.11793212      93.64652925
N      72.71192307      90.83447317      94.07171766
H      74.27094729      91.89649936      94.36651498
C      73.09364779      88.05279604      93.96778271
H      71.26061326      87.28745688      94.50635472
C      74.01961368      87.38572265      91.25413574
H      75.81296395      88.30223991      90.82327814
C      74.28984454      84.51144893      90.75902744
H      74.89644670      84.10326804      88.83339632
H      72.40011824      83.70264607      90.85918294
H      75.67123448      83.69130771      92.04971052
O      72.02406269      87.97153781      89.61574301
H      72.36799289      89.67229149      89.08850938
C      75.09108850      87.25722126      95.82916314
O      76.63499490      88.95986467      96.54158996
N      75.51060774      85.01978531      96.79481329
H      74.24071166      83.69130771      96.27324882
C      77.60253478      84.03523790      98.39730120
H      79.12754391      85.40528947      98.20832857
C      76.70491477      84.42641124     101.21866259
H      76.13988660      86.40684442     101.31692836
C      74.56196514      82.53479520     102.06903942
H      72.99160256      82.63495070     100.73867209
H      73.80796434      83.09226447     103.90396367
H      75.17045701      80.57325929     102.22399699
C      78.92156374      84.04090708     102.99878477
H      80.67900920      84.80813596     102.24856343
H      79.43367957      82.07748144     103.35027386
C      78.21102665      85.45820181     105.45920843
H      76.57452366      86.68463419     105.21165429
H      79.72091797      86.79045886     105.89384549
H      77.92000880      84.15618038     107.02768127
C      78.28850543      81.39529024      97.76235315
O      76.85609288      80.09704826      96.50568516
N      80.50326466      80.53546477      98.69209850
H      81.62954154      81.82614784      99.53113698
C      81.21191203      77.84449450      99.05492596
H      79.61320356      76.84104982      99.88073636
H      82.80873077      77.76701572     100.35127820
C      81.79583745      76.73900460      96.54158996
O      83.48147334      77.61583761      95.24523770
N      80.49570575      74.60928305      95.82538368
H      79.31273709      73.74567812      97.04992634
C      80.62042769      73.49434452      93.19110521
H      82.27015876      74.32960355      92.28214684
C      81.29694972      70.64463724      92.96811750
H      79.61698302      69.66953847      93.64841897
C      81.58985730      70.03992482      90.07305679
H      81.72024841      67.98390259      89.99179856
H      83.22069110      71.03959004      89.31338680
H      79.94201595      70.32527350      88.87308058
C      83.65532816      69.90953371      94.44588348
H      82.75014924      69.26891649      96.18443168
H      84.95734959      71.46288874      94.79926230
C      85.04238727      67.43210251      93.36873948
H      85.81906477      67.57383198      91.46578508
H      83.68178431      65.95244681      92.93221270
H      86.36519569      66.98612710      94.88241025
C      78.16945266      74.17275627      91.75302347
O      76.52539078      72.54948137      91.47901316
N      77.88410400      76.52924498      90.77603498
H      79.28628091      77.81803833      90.93855143
C      75.69013175      77.24167180      89.17732652
H      75.77516943      75.89051749      87.62397148
H      75.96036261      79.18053100      88.53859902
C      73.10687587      77.16986220      90.55682673
O      71.11699407      76.69365117      89.34929160
N      73.11632450      77.41930608      93.13252368
H      74.69613570      78.12228426      93.93754710
C      70.73904881      77.52702048      94.57816432
H      69.25183419      76.45176620      93.64274980
C      71.07919953      76.84671900      97.38629761
H      72.33019835      78.18086578      98.33116078
H      71.85020787      74.94565433      97.56582162
C      68.73593890      76.74278406      98.83571771
N      67.20904004      74.63951867      99.11539720
H      67.32998253      73.15230406      97.92486962
C      65.13223084      75.28580507     100.45710288
H      63.46360249      74.11606448     100.56292756
N      65.42135896      77.75567736     101.10716873
H      64.00028477      78.89329260     101.68731471
C      67.62100039      78.67975353     100.17742338
H      68.20114636      80.63562026     100.26246106
C      69.84898771      80.23877773      94.29092592
O      71.05085364      81.91307525      95.38318772
N      67.84587781      80.68853260      92.91898461
H      67.05597221      79.39218035      91.76058238
C      66.46826734      83.06958775      92.83394694
H      67.82509082      84.54168455      92.33694891
C      64.36122249      82.92407883      90.77036580
H      63.03274490      81.44442312      91.30704808
H      65.11900275      82.29291024      88.96378745
C      62.82676472      85.48276825      90.31683148
H      62.13701462      86.39928551      92.03081324
C      64.67113761      87.38383292      89.06205321
H      65.55552952      86.28023276      87.56350025
H      66.09977070      88.05657549      90.38486163
H      63.48061003      88.80112766      88.16443322
C      60.56476233      84.82514350      88.68410794
H      59.19660048      83.88972897      89.90487115
H      60.98050213      83.68941798      87.01547962
H      59.48572860      86.42574168      87.97168113
C      65.45537404      83.72532278      95.51168911
O      64.73727804      82.15307049      96.95544001
N      65.25128359      86.26322522      95.89341383
H      65.56686788      87.36493566      94.36462525
C      63.98705668      87.28556716      98.09683471
H      63.38234427      85.86071352      99.45554793
C      65.89001108      88.76900231      99.58026986
H      64.92247122      89.55512846     101.22055231
H      66.61377626      90.31479844      98.42753681
C      67.91768742      87.12116097     100.92197556
H      68.88144784      85.92685394      99.55003425
C      70.02851170      88.75388450     102.03691407
H      69.17624514      90.15606143     103.28224371
H      70.83731456      89.73276273     100.41741863
H      71.50627768      87.74855010     103.06114573
C      66.62889408      85.73410185     103.13484507
H      68.04429907      84.68530375     104.20254042
H      65.54608090      84.19586463     102.29391685
H      65.49883773      86.90951162     104.39340279
C      61.71938511      89.04490235      97.58093942
O      59.59722247      88.79734821      98.77713618
N      62.06331530      90.75321494      95.66286723
H      63.79052514      91.15572664      94.96366848
C      60.03374924      92.40672546      94.65186364
H      58.28764212      91.35603763      94.34194852
C      59.32510188      94.51754976      96.42820638