 %block lattice_cart
   139.252   0.000   0.000
   0.000 142.425   0.000
   0.000   0.000   162.84
 %endblock lattice_cart

 %block positions_abs
N      92.40287125      41.21592938      78.15455293
H      91.36919096      40.38256006      76.78072191
H      92.21767807      40.06130659      79.66066481
H      94.24346468      41.38978419      77.67456246
C      91.39753685      43.77083934      78.65722013
H      92.41043015      44.54562713      80.27671559
C      91.75658485      45.41868069      76.27049579
H      90.66243331      44.60231892      74.73036885
H      93.74835638      45.25616422      75.76593887
C      91.08195256      48.24571125      76.68056641
H      89.05427622      48.56885446      76.52182939
H      91.96067529      49.45513610      75.26516140
S      92.28948767      49.97859029      79.38665449
C      91.57517112      53.18923530      78.46257833
H      89.55127424      53.54639357      78.59674889
H      92.01169790      53.39899492      76.46135815
H      92.67877129      54.47235946      79.63609837
C      88.55538848      43.65367631      79.37342641
O      86.96801837      42.50283299      78.07140498
N      87.64454039      45.26750259      81.12898215
H      88.86908304      46.16134314      82.28738438
C      85.01215164      45.51316700      81.93400555
H      83.83485215      44.54184769      80.55261562
C      84.91010642      43.82564140      84.28104565
H      86.26881964      42.33086789      83.87853394
H      83.13565341      42.86943989      84.71568269
C      85.67733530      45.48860056      86.39186993
O      83.98791998      46.55251647      87.69389137
N      88.11130279      45.79851568      86.90020631
H      88.58562410      46.75093775      88.48379697
H      89.41143450      44.95002856      85.79093696
C      83.93689737      48.26271879      82.31384055
O      85.26348524      50.16756291      82.10219120
N      81.46702508      48.29862360      82.69934471
H      80.70546537      46.56574457      82.44801112
C      79.94012621      50.52094174      82.35163507
H      80.39743998      51.41856173      80.55639508
C      77.12443401      49.68946216      82.20990560
H      77.21892032      48.41578663      80.59607934
C      76.25327018      48.44413251      84.76103613
H      74.35220551      47.77705914      84.33584770
H      76.19846812      49.98992864      86.11974935
H      77.54584298      47.01171997      85.48480130
C      75.20636180      51.97225154      81.72046649
H      74.75849666      52.97002704      83.46279415
H      73.40356290      51.02927811      81.40299247
C      76.02272357      53.76749154      79.48114080
H      76.39499965      52.77916468      77.71046725
H      77.72914643      54.81628964      79.95546211
H      74.45236100      55.05061570      79.12776199
C      80.46358040      52.28972556      84.47379772
O      79.93634676      54.48936699      84.15065452
N      81.69568196      51.47525352      86.58273228
H      82.30039438      49.66678545      86.69044669
C      82.03016352      53.29694970      88.65576205
H      80.52783110      54.70668552      88.61607781
C      82.10386284      52.07807622      91.19933367
H      82.65755265      53.42545107      92.65442294
H      83.68556377      50.78172396      91.43743918
C      79.59430630      50.95179933      91.97034200
C      77.77449986      52.59964068      93.04181683
H      78.39055064      54.51204370      93.39141620
C      75.53895363      51.66233642      93.93376764
H      74.28984454      52.75459824      95.11862605
C      74.79062201      49.25104565      93.03236820
H      72.85554227      48.64822297      93.27992234
C      76.46869898      47.61265295      91.70578033
H      75.81485367      45.81174377      91.00280213
C      78.95179935      48.42712498      91.23712819
H      80.26326941      47.27439193      90.18266092
C      84.54349951      54.76526704      88.20033801
O      84.63987556      57.01971053      88.72757165
N      86.49180734      53.53316547      87.15342964
H      86.41432856      51.68501314      86.68099806
C      88.88987003      54.78227458      86.29360417
H      89.35852216      56.02949393      87.86207701
C      90.92510527      52.73570098      85.75314244
H      90.43566616      51.52438641      84.16010316
H      90.85896485      51.41667201      87.33484337
C      93.53103786      53.60119563      85.14087112
H      93.41576455      55.12998422      83.76704008
H      94.72345516      52.02327416      84.56639431
C      94.75747024      54.85219445      87.47279338
O      93.57828102      56.24681246      88.99780251
O      97.09128223      54.27771765      87.78081878
C      88.39476174      56.35263714      83.96735108
O      89.61741466      58.34251895      83.64420788
N      86.61274983      55.69123293      82.39131933
H      85.75292435      54.04528131      82.83540501
C      85.94378671      56.86286324      79.88932168
H      87.36486090      56.60775020      78.41911462
C      83.48714250      55.66477676      78.77627290
H      81.87520596      56.31295289      79.87987305
H      83.50792949      53.60497507      78.82729550
C      83.15266095      56.24870219      75.85664574
H      84.87798107      55.44745823      75.06862986
H      83.55895210      58.25370180      75.60909159
S      80.16311392      55.26226506      74.50360169
C      80.75648798      54.84274582      71.18713202
H      81.24025792      56.55483786      70.14778255
H      79.16533843      54.03394296      70.16101062
H      82.21724642      53.38954629      71.22303682
C      85.49403185      59.63320202      80.45623958
O      86.61652928      61.36797077      79.43389765
N      83.90855147      60.09429523      82.39698850
H      83.12998423      58.63353679      83.35319003
C      82.87676091      62.62841822      83.07728998
H      82.71991362      63.69422386      81.32362396
C      80.29917421      62.08228732      84.26214838
H      79.56596040      63.66020880      85.36574855
H      80.56940508      60.49869666      85.54905200
C      78.16567321      61.51536943      82.44990085
H      78.83274660      60.10374387      81.10630543
C      76.10587153      60.35507747      83.78026816
H      77.01294016      58.73936148      84.68544708
H      74.71692269      59.66532737      82.42722413
H      75.43123923      61.78371056      85.10118686
C      77.58174778      63.93610883      80.88898690
H      77.67245464      65.58017073      82.12486792
H      75.66367557      63.80193826      80.15388337
H      79.03116786      64.06838967      79.43200792
C      84.66633172      64.21011914      84.68166762
O      84.26570975      66.49857772      85.00859027
N      86.85463479      62.99502512      85.34307183
H      87.16454991      61.18277759      84.84040462
C      88.99002553      64.12697120      86.71879258
H      88.40043092      65.90142420      87.58428724
C      89.93299896      62.52637300      88.84851413
H      91.11029845      61.01648168      88.08317498
H      88.27759871      61.79126946      89.82928209
C      91.30682999      63.82650470      90.98579459
H      90.16354557      65.10584943      92.12340983
H      92.65420485      65.06427544      90.03904171
C      92.77325761      62.00102908      92.64308457
H      91.69422388      60.74814054      93.87518614
H      93.91087285      63.14242378      93.92431902
N      94.68566064      60.55727819      91.38074739
H      94.09606603      59.02471015      90.40186916
C      97.12340758      60.86341384      91.19366450
N      98.20622076      62.72290453      92.15742492
H     100.03547583      63.19722584      91.89097351
H      97.17065074      63.96823419      93.16464903
N      98.42353928      59.33651499      89.71211906
H     100.30570669      59.59162803      89.50991834
H      97.59961861      57.91355108      88.74268947
C      91.02715049      64.96223022      84.81016901
O      91.97201365      67.12218739      84.98591355
N      91.49013344      63.42021355      82.81272829
H      90.65487441      61.71001124      82.94311942
C      92.88475146      64.07783831      80.39765807
H      94.82927983      64.65609456      80.75481634
C      93.16443095      61.70245233      78.81028796
H      91.28982245      61.12608581      78.18856801
C      94.76502914      62.36574626      76.42734308
H      93.94488792      63.82083552      75.21980797
H      95.17132030      60.61963916      75.41256006
H      96.67743217      62.83250866      77.02638633
C      94.48157019      59.41399377      80.11608885
H      95.58894981      58.42377717      78.68556603
H      93.26269672      58.20267920      81.24803490
C      96.50735680      60.09240552      82.05872749
H      97.82638577      58.51448405      81.95857201
H      95.66831832      60.25303224      83.93333599
H      97.74323781      61.62308383      81.44078699
C      91.60162729      66.32283316      79.14665924
O      92.93766380      68.10673481      78.30384131
N      89.05805568      66.42676812      79.03327566
H      88.13397951      64.94522269      79.79861482
C      87.57273079      68.49790816      77.90699879
H      88.29838570      69.02136235      76.05317727
C      84.86097353      67.58328062      77.51771516
H      83.72335829      69.26702676      77.17567471
H      84.32996044      66.53259278      79.21090994
C      84.41121867      65.92032147      75.16689564
O      82.88054036      64.25169313      75.54673063
O      85.34474347      66.62707911      73.08252751
C      87.60296641      70.80526399      79.56995794
O      88.71412549      72.87073484      79.03327566
N      86.15543606      70.90352974      81.65243634
H      85.49970103      69.24435005      82.33084809
C      85.47702431      73.18820887      82.88642763
H      85.43167088      74.66030566      81.45023563
C      82.85408419      72.84994786      83.88042366
H      82.99581366      71.68398672      85.57361843
H      81.65599771      71.91831278      82.48958509
C      81.56718057      75.33304822      84.48324636
H      82.74070061      76.68987172      85.49802938
H      79.83052209      75.06092764      85.56039036
C      80.64877358      76.52735526      81.93967474
O      81.58040865      78.58904667      81.32740341
O      79.08219047      75.47666742      80.48458547
C      87.44044995      74.04047543      84.75347722
O      87.56895134      76.32137508      85.25236496
N      88.98057690      72.30381694      85.78526779
H      88.79538372      70.55582011      85.04071562
C      90.77392717      72.79325607      87.84129001
H      91.53548687      74.67542346      87.48791120
H      92.42932742      71.56871341      87.80349549
C      89.53237698      73.15986297      90.44344315
O      87.19667526      73.26946710      90.67776922
N      91.19155668      73.55859521      92.43710441
H      93.07750354      73.48111643      92.15742492
C      90.07472843      74.32582411      94.78414449
H      88.01681648      74.32015492      94.71989379
C      90.86085458      72.16775666      96.57938448
H      92.87341310      71.79359085      96.35450705
H      89.96701403      70.41031119      95.98412070
C      90.35440793      72.34728065      99.44609930
H      91.42966220      73.89307677     100.28324806
C      87.46312667      72.62318070      99.79758839
H      86.73747176      71.01313387      98.74123138
H      86.71479505      74.36928780      99.00201362
H      87.10407867      72.40775189     101.81770582
C      91.25958683      70.03236591     100.92953446
H      91.89642460      70.60873244     102.80036351
H      92.81294186      69.08372331      99.96577404
H      89.82528456      68.55271021     100.94843173
C      90.80038334      76.91285942      95.65152886
O      93.10962889      77.53268966      95.69499257
N      88.87475222      78.42275075      96.35450705
H      87.09651976      77.82748696      96.00301796
C      89.09018102      80.98899908      97.61306477
H      91.04226830      81.47654847      98.05337101
C      88.28893707      83.20942749      95.87262685
H      88.04705210      84.94608598      96.94977084
H      86.40487993      82.75778292      95.17153838
C      90.35251820      83.38139259      93.84684024
H      91.02904022      81.59182177      93.07961135
H      91.80571773      84.46609549      94.82193901
C      89.30372010      84.87427639      91.61885291
H      90.82494978      85.60560047      90.43588425
H      88.02059593      86.31046837      92.35206672
N      87.91666098      83.22643504      89.78770811
H      87.08329168      81.72221290      90.61540824
C      87.81083631      83.57603441      87.30271802
N      88.44767408      85.72087376      86.26903773
H      88.20011993      85.78890391      84.37931141
H      89.06750431      87.27422879      87.19122416
N      86.90376768      82.06992253      85.57550817
H      86.33118061      82.60282535      83.83318051
H      86.39921075      80.26523391      85.93077672
C      87.57273079      81.37072380      99.99223020
O      85.26537496      81.77512523      99.80136784
N      88.67255151      81.38017243     102.33549084
H      90.56416755      81.62583685     102.28068877
C      87.60485614      81.34237791     104.88662135
H      86.00047850      80.05736401     104.75623025
C      89.62119412      80.74522439     106.81414219
H      88.58940355      80.57514901     108.58670548
H      91.08195256      82.17763694     107.05791690
C      91.30305053      78.43219938     106.40407158
H      92.54649045      78.84415971     104.81670149
C      92.95656106      78.19787332     108.75678085
H      93.91276257      76.37050798     108.69441987
H      91.89642460      77.83882532     110.48588043
H      94.39464278      79.63406531     109.10260077
C      89.91221197      75.96610655     106.07336949
H      91.31060944      74.51857619     105.64251189
H      88.64798507      76.13618191     104.45576375
H      88.75380974      75.47855716     107.70798275
C      86.21968675      83.89917761     105.67085778
O      84.89876806      83.90295706     107.53412793
N      86.60708065      85.96275873     104.25545277
H      87.25147732      85.61504909     102.49233811
C      85.62820242      88.50255090     104.76567887
H      84.38476250      88.52522762     106.40596132
C      87.95445551      90.17873815     105.32125841
H      87.33273555      92.13460488     105.50078240
H      89.33773517      89.97086824     103.80947736
C      89.09018102      89.37371473     108.01033896
H      89.19033652      87.40084046     108.59804383
H      87.67855547      90.02378058     109.36149327
C      91.53170742      90.77967111     108.62638974
H      91.10084982      92.79411935     108.58292603
H      92.92065626      90.16173061     107.23555117
C      92.69766855      89.97653743     111.15862300
H      92.86207474      87.97720699     110.69941950
H      91.35785260      90.33558543     112.68363213
N      95.14486413      91.35792736     111.41562576
H      94.95778122      93.03033515     110.51800578
H      96.48090063      90.30534980     110.55202084
H      95.72501011      91.76610824     113.18818906
C      83.94445627      89.23009554     102.51123538
O      84.24114330      88.38160841     100.35694739
N      82.01882516      90.85526017     103.13673479
H      81.84874979      91.35414790     104.96976932
C      80.44657287      91.85492539     101.14307354
H      79.42423093      90.28645255     100.28513778
C      78.54550820      93.72953388     102.12951066
H      79.62265219      94.86147995     103.47121634
C      77.57418887      95.51910470     100.09994460
H      76.23626264      96.85892065     100.90685774
H      76.28350580      94.57235181      98.80359236
H      79.01038087      96.63782267      99.13618418
C      76.29862361      92.46908644     103.72821913
H      77.15844908      91.90216853     105.51212076
H      75.62021186      90.79478891     102.74178199
C      74.11221027      94.29834150     104.28568839
H      74.90589532      96.04066916     105.04724809
H      72.84231418      93.34402972     105.59526873
H      72.91412378      94.65549978     102.64918540
C      82.08496558      93.02655570      98.89429921
O      83.71201994      94.62337443      99.37995889
N      81.31962642      92.46719670      96.55670776
H      79.99114883      91.10281431      96.44521392
C      82.05284023      93.65205510      94.13029919
H      83.08274107      95.40761084      94.45911157
C      83.95957408      91.93051443      92.61473868
H      85.67355585      91.55634862      93.68999296
H      84.62286802      92.81112690      90.87430074
C      83.15644040      89.30001541      91.79270773
C      82.64432457      88.54979406      89.30204846
H      82.85786364      90.05023675      87.93388660
C      81.99047926      86.06480396      88.66143124
H      81.34230314      85.59804156      86.78493300
C      81.81662444      84.22610026      90.50202466
O      81.00404213      81.91496498      89.86140744
H      80.86042293      81.68819781      88.06805718
C      82.41566768      84.82703323      93.00402231
H      82.37409371      83.43052547      94.48934719
C      83.02604928      87.30824387      93.66920597
H      83.23580890      87.79390353      95.64208024
C      79.82485291      94.23220108      92.41253797
O      77.65733683      93.51410509      92.82827775
N      80.34830710      95.48319990      90.23179380
H      82.18890053      95.72130541      89.78959785
C      78.48125750      95.81012255      88.05860854
H      76.60664900      95.21107932      88.67465932
C      78.19023965      98.48975447      86.96634674
H      76.99404289      98.30834075      85.29960812
H      80.05728925      99.21351964      86.47879735
C      76.91089494     100.48908490      88.75402783
H      77.86142727     100.62703493      90.57572398
H      74.99282273      99.88248276      89.20189296
C      76.98648399     103.13281202      87.55216189
H      76.06618727     103.19895243      85.71156845
H      79.01038087     103.39737371      87.26681322
C      76.04540028     104.95072874      89.56661013
H      77.34364226     104.96395681      91.16531860
H      74.27283700     104.11735942      90.20155818
N      75.69391119     107.57177913      88.69922576
H      74.74904803     108.71884299      89.89920197
H      74.81518845     107.50941815      87.00603098
H      77.47970256     108.09901276      88.28159625
C      79.33163434      94.05456681      85.94211506
O      81.53883468      93.53111262      85.71156845
N      77.57229914      92.98309199      84.61741692
H      75.73170572      93.15127764      85.09173823
C      77.90489098      91.06501979      82.66155019
H      79.87020634      90.83258345      82.09085285
C      77.29828883      88.36271115      83.63097978
H      75.27061250      88.09059057      83.88798256
H      78.15433485      88.22476113      85.49991912
C      78.45480133      86.21409234      82.13242683
O      77.22458950      84.21854136      81.87353432
O      80.51649274      86.64306021      81.07229036
C      76.20602702      91.61304042      80.21246489
O      74.04795957      92.39349738      80.27482585
N      77.16411826      90.98943073      77.88054261
H      78.92912264      90.26188609      77.91077824
C      75.88099409      90.79478891      75.28972784
H      77.49104091      90.63983136      74.01416259
C      74.88321860      88.17373853      74.90611341
H      73.49426976      87.89783848      76.40088692
C      73.72670610      87.85815422      72.29451163
H      73.12955258      85.91362585      71.95814036
H      75.38399607      88.10948783      71.09831489
H      72.14122572      89.12616059      71.94869173
O      76.92979220      86.32936564      74.82107572
H      76.13610715      84.70420101      74.98926135
C      74.09898218      92.90939267      74.24281946
O      74.48637608      94.13960449      72.31340890
N      72.00516543      93.29300710      75.66200392
H      71.74249347      92.13460488      77.15677744
C      70.17591036      95.30178617      75.32374291
H      70.01528362      95.78555611      73.32819194
C      67.63800792      94.25676752      76.01160329
H      66.24150017      95.75532050      75.80940258
H      67.48305036      93.65583456      77.97880839
C      66.77251327      91.84358703      74.72469968
H      64.94514792      91.21619789      75.44090594
H      68.35799364      90.55857313      74.99871000
C      66.30197141      92.22342202      71.84664650
O      65.68781036      94.18306820      70.85076073
O      66.73093929      90.34503406      70.45769767
C      70.69369537      97.73386394      76.92812055
O      69.59576438      99.68595122      76.41789446
N      72.33019835      97.49386870      78.88965647
H      73.18624437      95.78744583      78.88776674
C      72.64767237      99.34580049      80.87953827
H      72.22248395     101.24308570      80.20301625
H      74.58086239      99.52154504      81.57117811
C      70.99227212      98.74675724      83.11319478
O      70.12299802     100.48908490      84.35663469
N      70.22693297      96.39026853      83.60074417
H      70.96203650      94.97675326      82.54816662
C      68.78696152      95.65705472      85.77203970
H      67.77973739      97.26332208      86.58273228
C      66.91424274      93.49331810      84.91410396
H      65.81631175      92.85837005      86.53737886
H      67.91579769      91.76988769      84.39253949
C      65.11522329      94.20385519      82.81650774
C      64.06831491      92.14027405      81.44645618
H      64.49728278      90.17684841      81.79983499
C      62.28441327      92.61081591      79.50948671
H      61.36789601      91.08769649      78.50415230
C      61.74773100      95.21863821      78.89721538
O      59.84288688      95.67595199      77.18323360
H      59.29675597      97.40694128      77.16811580
C      62.72471950      97.20285085      80.34096627
H      61.85733513      99.04533401      80.47135740
C      64.39712729      96.77577271      82.32895835
H      65.06231095      98.36692225      83.41933045
C      70.56897343      94.71408129      87.89987153
O      72.54562715      93.47064138      87.51058790
N      69.74127330      95.12226218      90.21289653
H      68.30697103      96.38081991      90.24502188
C      71.16801667      94.45707852      92.44655303
H      73.05585326      95.03722450      91.86451733
C      70.32708846      96.03122053      94.65375338
H      70.80896867      94.98620188      96.36206595
H      68.28807377      96.32601783      94.65942255
C      71.82564143      98.55589488      94.82004929
C      70.61999604     100.91994250      94.70477598
H      68.59042998     100.93506031      94.48178828
C      72.00705515     103.14415038      95.10539797
H      71.00927966     104.92049310      95.20744318
C      74.73770968     103.11202503      95.37184938
O      76.17012222     105.30599728      95.67609530
H      75.09297822     106.74785845      95.45121787
C      75.85264820     100.73285960      95.42098226
H      77.88032453     100.80277947      95.62129325
C      74.45614045      98.47463666      95.15831030
H      75.48226184      96.70963227      95.14319249
C      71.02628720      91.56012807      93.01347093
O      68.99672114      90.37337995      92.74701953
N      73.25994370      90.49432243      93.46322579
H      74.77550420      91.64894521      93.49724087
C      73.83253077      87.82035970      93.22134082
H      72.15067435      86.63550130      93.15331069
C      75.32730428      87.38383293      90.74013017
H      76.96191755      88.63483175      90.73635072
C      75.57674816      84.62861197      90.05793898
H      73.90056092      83.44942274      90.26013969
H      77.11876483      83.84059608      91.17287751
H      76.07752563      84.30924821      88.08695443
O      73.97426024      88.30601936      88.55938602
H      73.88166366      90.11637717      88.58773190
C      75.50682828      86.97754177      95.43421034
O      76.86176205      88.54034542      96.47167008
N      75.50871801      84.57947907      96.21088786
H      74.72070214      83.23777340      95.10539797
C      77.37954706      83.74799949      98.07037855
H      79.14455144      84.77979006      97.80959631
C      76.30996197      84.04846599     100.72166456
H      75.72036736      86.01756080     100.84827623
C      74.08764382      82.26456434     101.31692835
H      73.00483065      82.82581305     102.97610805
H      74.63188500      80.29169007     101.55125441
H      72.82341692      82.28913078      99.69176372
C      78.52850066      83.50989398     102.70209773
H      80.31618175      83.98421529     101.79313938
H      78.49448559      81.53135054     103.27657454
C      78.35842529      85.09537435     105.05102755
H      79.92122895      84.85348939     106.37005651
H      76.80507026      84.47743385     106.25667294
H      78.16567321      87.06446917     104.47466102
C      78.03906154      80.92474838      97.69243328
O      76.61609763      79.44131323      96.48300844
N      80.19145981      80.03846674      98.58816355
H      81.13443324      81.17041281      99.80136784
C      81.05317501      77.34182730      98.72233413
H      79.80595565      76.06626203      99.75412470
H      82.82951775      77.43253416      99.75601442
C      81.76938129      76.25145521      96.19954950
O      83.37753838      77.21143618      94.86729245
N      80.65066331      74.13685147      95.47956378
H      79.75304331      73.07671501      96.78914410
C      80.47869821      73.24490066      92.94355106
H      82.02449434      74.12551311      91.90420159
C      81.05884419      70.38385501      92.60717977
H      79.51304807      69.14041510      93.16464903
C      81.53883468      69.83961383      89.76314168
H      83.27738288      70.49345913      88.87119086
H      79.93067758      70.74101329      88.84662442
H      81.29694971      67.84406284      89.32094571
C      83.19801438      69.60339805      94.28147728
H      82.86542255      69.76780423      96.30726390
H      84.77026667      70.92809619      94.15486563
C      84.24870221      66.91053805      93.82983271
H      84.94223177      66.95211202      91.89097351
H      82.79928213      65.44977961      93.95644437
H      85.97024288      66.48534962      94.87296162
C      77.99370811      74.13307202      91.71711869
O      76.09264344      72.90663965      91.75113376
N      78.22236500      76.43286894      90.60784933
H      79.93067758      77.24356152      90.85918294
C      76.36287430      77.42119580      88.86363195
H      76.26649826      76.09271821      87.28948994
H      77.23403813      79.14084675      88.14175650
C      73.81552323      78.09015891      89.95589376
O      72.11099010      78.75912203      88.46300998
N      73.36576837      78.13740208      92.47489893
H      74.80007064      78.01268014      93.72589776
C      70.81274812      78.08448974      93.62196281
H      69.58253629      77.06025808      92.32561055
C      70.95447760      76.71443816      96.19388032
H      72.25460930      77.59883007      97.52802709
H      71.73682429      74.82282212      95.96333370
C      68.40523680      76.39885387      97.41086406
N      66.90479411      74.24645559      97.49023257
H      67.39045377      72.69876974      96.48111872
C      64.58232047      74.77557896      98.47477997
H      63.08376750      73.41875548      98.75256974
N      64.67869651      77.07348616      99.32893627
H      63.32754220      78.07315138     100.23222545
C      66.94258863      78.21866030      98.60517110
H      67.52462434      80.14618114      98.94154238
C      69.61655137      80.79246754      93.66731623
O      70.36677271      82.41007326      95.21122264
N      67.67391272      81.23655322      92.07238722
H      67.24116539      79.90051672      90.77981443
C      66.35488375      83.66674127      91.92309886
H      67.69469971      85.08970519      91.27303299
C      64.29886152      83.64217483      89.89164307
H      63.18014354      81.94142114      90.20533764
H      65.24750413      83.31903163      88.09073388
C      62.36567150      85.95708956      89.71211906
H      61.49072822      86.46542594      91.50735907
C      63.82076076      88.29090156      88.73891001
H      65.21159933      88.84837082      90.15431502
H      62.54708523      89.86693329      88.36663393
H      64.89979449      87.76177818      87.06650222
C      60.15658144      85.34859768      88.04538046
H      58.93581825      87.00777738      88.09829279
H      58.79597850      83.87650089      88.51970177
H      60.54208561      85.03490311      86.04793975
C      65.16624590      84.30546877      94.46667046
O      64.10044026      82.76723154      95.89908302
N      65.50072746      86.71486981      95.07516234
H      66.40590636      87.80146243      93.79203817
C      64.47082662      88.05090631      97.22567088
H      63.68281074      86.67140610      98.53525121
C      66.66479887      89.57780518      98.57493547
H      65.85788573      90.64928000     100.13773914
H      67.29029828      91.01210744      97.23511952
C      68.83798413      88.02445015      99.70121235
H      69.98693772      87.30068496      98.15352651
C      70.68046728      89.50788531     101.23755984
H      71.53273385      90.97620265     100.07159871
H      72.24327094      88.22476113     101.62684347
H      69.77528838      90.37904914     102.87217311
C      67.73816341      85.78701420     101.42653247
H      69.09498690      85.12183053     102.82681967
H      67.10132564      84.22043107     100.24734326
H      66.35299402      86.63172185     102.69264910
C      62.06142557      89.56079764      96.49434680
O      59.88446085      88.80679684      97.19543526
N      62.50173180      91.78878496      95.49279186
H      64.26673617      92.28011381      94.95988904
C      60.56287260      93.46497220      94.39675059
H      58.69771273      92.58813919      94.41564786
C      60.20571433      95.80823283      96.03892276