 %block lattice_cart
   139.252   0.000   0.000
   0.000 142.425   0.000
   0.000   0.000   162.84
 %endblock lattice_cart

 %block positions_abs
N      97.35584392      42.94502895      80.52804918
H      97.86984948      43.34943038      82.32139945
H      99.02447225      42.93747004      79.60397302
H      96.78703630      41.12333279      80.58663070
C      95.48312514      44.94624912      79.75326139
H      96.20122114      46.70558432      80.54316699
C      95.29415251      45.16167791      76.81284725
H      94.58172569      43.40801190      76.00215466
H      97.04592880      45.65867593      75.85097656
C      93.42521319      47.41612140      76.04561837
H      91.63942182      47.22714878      77.05284249
H      93.17954877      47.34242209      74.00093450
S      94.36818662      50.68912738      76.82418561
C      91.56950195      52.11776047      75.79995395
H      90.13897913      51.63210082      77.20213087
H      91.15187243      51.37887748      73.92345572
H      91.73012869      54.17000325      75.71302654
C      92.84884666      44.29618327      80.63765331
O      92.22523698      42.11921856      80.22380325
N      91.35218342      45.98559858      81.87353432
H      91.81138692      47.82619201      82.09274257
C      88.82372962      45.48104166      82.79950021
H      87.77682124      44.10910037      81.67700278
C      88.87853168      44.41334629      85.54338282
H      89.62119412      42.49527408      85.63975886
H      86.92644440      44.01839349      86.06116783
C      90.10118460      46.27661645      87.40476324
O      89.03537896      48.28917497      87.87341536
N      92.39153290      45.81930268      88.31183187
H      93.08506245      47.17612616      89.45889574
H      93.25702755      44.15634352      87.93955578
C      87.28738212      48.03217219      82.86753036
O      88.28137816      50.03150263      82.18911861
N      84.75325914      47.97548039      83.17555575
H      84.18634124      46.18213013      83.51003730
C      83.04683628      50.09008414      82.88453790
H      83.45690689      50.41322735      80.89465609
C      80.34074820      49.12443399      83.36830783
H      80.09508378      47.52572553      82.09085284
C      79.79083784      48.13421741      86.04605002
H      77.93134715      47.24793577      86.06305755
H      79.97603102      49.76505121      87.29137966
H      81.04561611      46.58464183      86.55627612
C      78.46236024      51.15588978      82.63509402
H      78.16567321      52.67145028      83.99947642
H      76.60853873      50.25826979      82.57651251
C      78.87243085      52.62420712      80.14443474
H      80.24626188      54.13220872      80.43545259
H      76.97325591      53.24970654      79.64176754
H      79.49226108      51.15777951      78.83674413
C      83.75170419      52.43712422      84.39442922
O      84.15799535      54.49314646      83.30783659
N      84.32807072      52.14610637      86.82839671
H      84.33185017      50.39433007      87.58428724
C      85.38820718      54.29661491      88.15309486
H      83.92933847      55.70824047      87.81105439
C      85.50537021      53.88465457      91.03303776
H      85.54127501      55.70257129      92.00246736
H      87.24580814      52.93223252      91.57916866
C      83.36242057      52.25571050      91.90798104
C      81.07207228      53.37253874      92.79615241
H      80.68845784      55.37564863      92.85473392
C      79.22580967      51.87020632      93.78069982
H      77.59875532      52.73948043      94.65564310
C      79.48281245      49.32096553      93.91864984
H      77.91433961      48.29673388      94.73312188
C      81.58229838      48.13043795      92.96622777
H      81.78827855      46.10465135      92.85851338
C      83.57029047      49.67245463      91.90042213
H      85.36175101      48.92412300      91.27303300
C      88.00736785      55.26037533      87.24224677
O      88.54971930      57.50348047      87.58806669
N      89.45678793      53.69001276      85.98746850
H      88.75380974      51.97603101      85.53393419
C      91.89075542      54.67267046      85.01425945
H      92.74113226      55.78760897      86.52226105
C      93.79748927      52.65066330      84.25269975
H      93.33639605      51.85697825      82.40832686
H      93.99213108      51.05384456      85.53960336
C      96.47712118      53.64465934      83.74436337
H      96.46956228      55.21880135      82.41777550
H      97.63363369      52.09886322      83.03382627
C      97.92087209      54.67644990      86.11408016
O      96.86829453      54.77282595      88.27025789
O     100.29058888      55.03738763      86.13486715
C      91.29738136      56.49625634      82.69367554
O      92.72601445      58.20645865      82.38187070
N      89.34907353      55.91611037      81.14598969
H      88.37019530      54.33251971      81.56550893
C      88.45145353      57.29183113      78.81406742
H      90.03315446      57.10663795      77.50637681
C      86.21590730      55.82162405      77.73881314
H      84.45090293      56.44334401      78.60241807
H      86.40676966      53.80150663      78.09408169
C      85.87575657      56.01437613      74.87965723
H      87.47068558      55.07707189      73.96880915
H      85.80394697      58.02315521      74.42990237
S      82.98447531      54.44590330      73.76093926
C      83.33218495      54.24748202      70.38966751
H      82.95990887      56.16177478      69.72259413
H      81.73725594      53.20624283      69.60732082
H      85.09152015      53.32151614      69.85487497
C      87.94500688      60.09996443      79.38287504
O      88.97868717      61.84607154      78.24337007
N      86.41810802      60.63664670      81.35574931
H      85.47702432      59.12297591      82.03794051
C      85.62442297      63.05549637      82.32706863
H      85.37875855      64.31405410      80.71702181
C      82.97880613      62.69833810      83.65932568
H      82.51960264      64.55404935      84.42844429
H      83.40021510      61.43222147      85.22779852
C      80.62609687      61.69678315      82.17400080
H      81.18734559      60.07350826      81.03449583
C      78.51716231      60.93900291      83.85774695
H      76.94868947      60.05839045      82.85241255
H      77.84630946      62.59062370      84.88953751
H      79.42045148      59.51981844      85.04638480
C      79.65288782      63.48824371      80.15766283
H      79.25415557      65.41576453      80.76804442
H      77.87276563      62.74558125      79.43767710
H      81.01349076      63.61863482      78.61564615
C      87.66154793      64.28003903      84.03538122
O      87.65209930      66.64030719      84.08640383
N      89.24513858      62.85518538      85.52637528
H      89.06183513      60.95412072      85.50558829
C      91.72823896      63.83028417      86.42777473
H      91.44100056      65.56127346      87.50869818
C      93.26647618      61.88197633      88.04915991
H      95.26013744      62.37897435      87.90365098
H      93.17576932      60.05650071      87.09673785
C      92.11752258      61.82906399      90.70422538
H      90.13897913      61.26214610      90.67776921
H      92.39909180      63.75847457      91.36562959
C      93.44222073      60.11130277      92.54670853
H      92.32350275      60.27948842      94.26824920
H      95.34895458      60.87664194      92.70355582
N      93.53292759      57.49025238      91.70767005
H      94.26614140      57.38253798      89.94833485
C      92.58050553      55.38320754      92.73379144
N      91.36919096      55.26982397      94.72367325
H      90.49802713      53.65410797      95.24145826
H      90.87975184      56.93656258      95.51357884
N      92.75247062      53.22702983      91.42610083
H      91.80949719      51.71902823      92.12340984
H      93.69544405      53.03805718      89.78014921
C      93.43466182      64.89986925      84.37742168
O      94.88597163      66.64030719      85.00103137
N      93.56127348      63.66965742      82.19100834
H      92.85829529      61.89142496      82.22502341
C      95.20911483      64.65042539      80.09152240
H      97.01380346      65.36285220      80.77371360
C      95.83650396      62.66621275      77.99770565
H      94.16787563      61.77237221      77.19646169
C      97.04403908      63.84351224      75.67145256
H      96.22389786      65.70867211      75.36531690
H      96.97411920      62.77203743      73.91400709
H      99.01313390      64.31216438      76.05695673
C      97.62040560      60.61585970      79.10697500
H      96.87396371      60.41932817      81.01748830
H      99.47989630      61.50592080      79.08429828
C      97.74512754      58.00803740      77.83707891
H      95.84217314      57.43356060      77.29094801
H      98.68810097      56.60775020      79.01815786
H      98.94510375      58.15921549      76.16845058
C      93.76536392      67.03148054      79.05217293
O      95.05793672      68.90986849      78.82351605
N      91.29927109      66.69321953      78.41533516
H      90.60196208      64.92254597      78.56273382
C      89.76670305      68.52814378      76.78828081
H      90.98557652      69.09317194      75.22736687
C      87.40832461      67.07494424      75.89632999
H      85.81339560      68.37318622      75.78861559
H      86.79416356      65.65198032      77.25315348
C      87.64454040      65.70489267      73.34519947
O      86.12709017      63.97957255      72.72347951
O      89.18466734      66.55904896      71.74271155
C      89.18277762      71.01880306      77.94857277
O      88.46846107      72.80270470      76.57663146
N      89.42088313      71.37596133      80.45434986
H      90.07283871      69.72434053      81.15165887
C      89.08073239      73.70410415      81.74314320
H      89.62308385      75.33682769      80.60930741
C      86.22535594      73.95543774      82.26470766
H      85.80772642      72.40019299      83.54594210
H      85.16710920      73.69087606      80.51860055
C      85.37308937      76.44042785      83.54594210
H      86.60519092      76.93553615      85.12008412
H      83.59296718      76.28736002      84.57017377
C      85.14065303      78.62495146      81.52393495
O      86.96045947      79.92886262      80.78505196
O      83.15266095      78.65518708      80.22947243
C      90.22023736      73.71166306      84.38687031
O      91.19344641      75.76768528      85.28260059
N      90.37708465      71.61973602      85.87030547
H      89.46434684      70.07205018      85.22590880
C      91.57139168      71.58194149      88.40631818
H      93.51780978      72.25279434      88.39309010
H      91.85107117      69.68087682      89.14709090
C      90.25992161      73.03136158      90.47934795
O      88.07728772      73.53969795      90.13730748
N      91.52414852      73.39985821      92.63552567
H      93.42710291      73.30726162      92.53914963
C      90.34306957      74.33149328      94.93721232
H      88.32295214      73.93465076      94.95799931
C      91.26714574      72.60428343      96.94410166
H      93.29104262      72.41720052      96.60773038
H      90.36574629      70.77124892      96.69087834
C      90.67944086      73.56993359      99.54814452
H      91.63186292      75.35572495      99.93364869
C      87.92799934      73.80425965     100.39474191
H      87.06628415      72.00712991      99.87317745
H      87.11919648      75.52769004      99.60483631
H      87.84107193      74.12362339     102.42808742
C      91.91532186      71.52902916     101.35472288
H      91.32572725      71.94287922     103.28602317
H      93.96378519      71.66886890     101.18086806
H      91.34651424      69.64686176     100.74623101
C      90.91376692      77.22088482      95.58160899
O      93.06994464      78.01834933      95.60050626
N      89.09773993      78.77235013      96.47167009
H      87.34218419      78.09582810      96.14663716
C      89.50025164      81.09482375      97.87384701
H      91.53926633      81.18175116      98.14218815
C      88.40610010      83.15273572      96.13340908
H      88.13397951      84.81380515      97.32015720
H      86.71479505      82.35905066      95.26413497
C      90.52259357      83.97665638      94.21155742
H      91.69233416      82.38361710      93.63708062
H      91.90020405      85.16340451      95.17720756
C      89.21490296      85.26356001      91.94388584
H      90.67377168      86.42196223      91.06705283
H      87.59540751      86.38605743      92.54103935
N      88.17933294      83.51934261      90.07305679
H      87.74469589      81.77701495      90.72312264
C      88.25870145      83.78012485      87.52570572
N      88.93900292      85.86827243      86.46745898
H      89.60796604      86.00244299      84.68544707
H      89.00703307      87.46887062      87.50680846
N      87.29683076      82.07937116      86.14620551
H      87.38186844      82.21732119      84.24325111
H      86.18567168      80.83593126      87.07595086
C      87.98091168      81.04758060     100.33238094
O      85.71135038      80.64506889     100.41363917
N      89.30938928      81.91307525     102.29958603
H      91.15187243      82.20787255     101.88951542
C      88.39098229      81.99622321     104.86394464
H      86.86030398      80.61672300     104.85638574
C      90.59629290      81.33292927     106.74233260
H      90.18244284      81.72410263     108.72087605
H      92.19878081      82.60282535     106.50611681
C      91.56761222      78.59282613     106.49855790
H      92.65798431      78.31692607     104.77323778
C      93.60095774      78.20732195     108.52623424
H      92.76380898      78.48889118     110.38761465
H      95.22423264      79.44887214     108.25600337
H      94.32661264      76.28169084     108.46576299
C      89.58528932      76.62184158     106.80091411
H      90.37330519      74.73967416     106.53446270
H      88.05839046      76.92797724     105.45353925
H      88.63853644      76.73522515     108.62827946
C      87.07573278      84.45853659     105.80880780
O      85.75481408      84.44719824     107.75900535
N      87.08329168      86.43330060     104.36127744
H      88.08295690      86.15362110     102.75878953
C      85.83985177      88.88049616     104.75434052
H      84.67578036      88.90317289     106.45509420
C      87.68422465      91.08580677     105.00756384
H      86.57117585      92.81112690     105.17574948
H      88.94845155      91.24832324     103.39184784
C      89.41899340      90.49432244     107.32814775
H      90.75314018      89.03167428     106.76500931
H      88.34751859      89.49276749     108.77000893
C      90.69833812      92.68829469     108.70953769
H      92.13641984      92.19318639     110.10226598
H      89.24513858      93.91850652     109.49566383
C      92.11185340      94.19440656     106.72343533
H      90.90620801      94.46841688     105.07748371
H      93.73134885      93.14182901     106.00911879
N      93.07561382      96.64916104     107.59837862
H      93.94110847      97.58079611     106.17352498
H      94.09984548      96.56412336     109.20842544
H      91.66965744      97.84913724     108.08214855
C      83.94445628      89.49843667     102.53958128
O      84.43767484      88.58380913     100.48166932
N      81.81662445      90.66439780     103.21043412
H      81.69757169      91.14249856     105.05291727
C      80.00059746      91.46375203     101.38873795
H      79.00660142      89.78567508     100.72544402
C      77.77827932      92.97175363     102.52257374
H      78.41511708      94.65927923     103.51468005
C      76.03784138      93.67662155     100.34182957
H      74.32574934      94.65549979     100.94087282
H      75.55029199      92.15917133      99.03602869
H      76.91278467      95.00131970      99.03224924
C      76.51972159      91.42595751     104.63528776
H      77.75182315      91.15950611     106.26234211
H      76.03595166      89.49465722     104.10805412
C      74.14433562      92.58435975     105.84471260
H      72.70247444      92.83947280     104.39529252
H      74.52983978      94.55534429     106.30580582
H      73.50371840      91.43540615     107.43019297
C      81.20813257      92.98309199      99.09083076
O      82.55928689      94.81045733      99.57649042
N      80.70168592      92.22342201      96.77402630
H      79.63399056      90.64172109      96.75890849
C      81.65410798      93.20418998      94.27202866
H      82.23425396      95.16950533      94.50635472
C      83.79138844      91.57335617      93.00591203
H      85.29750032      91.22375679      94.36840470
H      84.60963994      92.72608922      91.50924879
C      82.93912188      89.07891743      91.93443721
C      82.93156297      88.75766395      89.32661490
H      83.60052609      90.10692855      87.94900441
C      82.38543207      86.32558619      88.28726542
H      82.14354710      86.00244299      86.28604526
C      81.82796281      84.25822561      89.90865060
O      81.39710521      81.81103004      88.96567717
H      80.98514487      81.73166153      87.20067279
C      81.81473472      84.53223592      92.56749552
H      81.88087514      82.95053499      93.85439914
C      82.30606356      87.06824864      93.55771211
H      82.77282596      87.46320144      95.50413021
C      79.38832614      93.48764891      92.47867839
O      77.31340664      92.66561798      93.09094971
N      79.74170496      94.34936412      90.13352803
H      81.47269426      95.02210668      89.69322180
C      77.94646496      94.42306344      87.85640782
H      76.23059347      93.48764891      88.51025313
C      77.59119641      97.14237961      87.19878307
H      76.35909486      97.21418920      85.54905200
H      79.42801039      98.00598453      86.85296315
C      76.52728050      98.97541413      89.29826900
H      77.33797309      98.81289766      91.18421586
H      74.52795006      98.54077709      89.54015397
C      76.56318530     101.76276044      88.20978665
H      75.25171524     101.89315156      86.62619599
H      78.40566845     101.83268032      87.29137966
C      76.08130509     103.92460734      90.29793422
H      76.81073944     103.24997505      92.09884340
H      74.03095204     103.96240187      90.50202466
N      77.02427852     106.53242966      89.50991835
H      76.88821822     106.56455501      87.60696395
H      78.90833565     106.67604886      89.78770812
H      76.17579140     107.99318809      90.39997944
C      78.72314247      92.84514198      85.57361844
O      80.89443801      92.97553308      84.78938202
N      76.73892984      91.80390277      84.34529634
H      75.07786042      91.75288016      85.28071086
C      76.89577713      89.79323398      82.51604126
H      78.65700205      88.73498724      82.64832211
C      74.76605557      87.92051521      82.91099406
H      73.16167793      88.72931807      81.90565966
H      74.20669659      87.79012409      84.88953751
C      75.36509882      85.29190589      81.68267196
O      77.51560736      84.58703798      81.24425546
O      73.61899170      83.69697690      81.41244110
C      77.14333128      90.97998211      79.77971756
O      77.49671010      93.36103725      79.56239904
N      77.06585250      89.39072228      77.68779053
H      76.90900521      87.49532679      77.83518919
C      76.97514563      90.45274846      75.09319631
H      78.46424997      91.87193292      75.00437917
C      77.33608336      88.66506736      72.81985555
H      75.73359545      87.44430417      72.39088768
C      78.20346774      90.00866278      70.54840452
H      80.09508378      90.74565603      70.89611417
H      76.84286479      91.47886985      70.07030377
H      78.48125751      88.65939819      69.02150566
O      79.38265696      87.06635891      73.50204675
H      78.70802466      85.75299913      74.55840376
C      74.47314800      91.90783772      74.72092022
O      74.47881717      93.94685241      73.63999677
N      72.48704564      90.92706976      75.82263066
H      72.32263945      89.10726333      76.37821020
C      70.15512337      92.37082066      75.79428477
H      69.83009044      93.54434070      74.13321534
C      67.92524632      90.46597655      75.95302178
H      66.13756523      91.45430341      76.21191428
H      68.17846965      89.32647157      77.64810628
C      67.60399285      88.84648110      73.59275361
H      66.05441727      87.55201858      73.98959614
H      69.16301706      87.50666514      73.47181113
C      67.52084489      90.24109911      71.00571829
O      65.58765487      91.60548151      70.60509631
O      68.54507655      88.97687222      69.26528036
C      69.84898771      94.40227646      77.83329946
O      67.84209836      95.48319991      78.20179609
N      71.85965650      94.89738474      79.26193255
H      73.53395402      93.99409558      79.12965171
C      72.18657916      97.18773305      80.75481634
H      71.28517971      98.79966959      79.84018880
H      74.20291713      97.40694129      81.11764379
C      70.89967554      96.90994328      83.34941057
O      71.51572632      98.28188458      85.08606905
N      69.29340817      95.09202656      83.79160653
H      69.00428005      94.03189009      82.23069259
C      67.93091550      94.40416618      85.98746850
H      67.30163664      96.18428837      86.81138917
C      65.36088771      92.99443036      85.33362320
H      64.24972864      92.75254539      87.05138442
H      65.81442203      91.03100471      84.91032450
C      63.73950254      93.92417570      83.28138042
C      63.44470523      92.40483574      80.99481158
H      64.14957315      90.49054299      80.93811979
C      61.71749538      93.22875642      79.10886472
H      61.30931450      92.12326653      77.44212611
C      60.44570957      95.52288415      79.33185243
O      58.94526688      96.16539110      77.39488296
H      57.79820301      97.37481594      78.10730978
C      60.72727879      97.02521658      81.52393495
H      59.66147315      98.74108806      81.80550417
C      62.31464890      96.09736095      83.48547086
H      62.55653387      97.33513170      85.08984850
C      69.59387466      93.23631531      88.06994690
O      71.53840303      92.06279527      87.40665296
N      69.18758350      93.78244623      90.50013494
H      67.62289011      94.80289844      90.88752883
C      70.87321937      93.15694681      92.66765102
H      72.84042446      93.57835578      92.22545506
C      70.09465213      94.63849224      94.87296162
H      70.94124952      93.71252635      96.50568516
H      68.03674017      94.64227170      94.94855068
C      71.09998653      97.24442482      95.23011990
C      69.28206981      99.16249704      95.16397948
H      67.32431335      98.65038121      94.90886642
C      70.24016105     101.62858988      95.22823017
H      69.00994922     103.24430587      95.02225000
C      72.81396829     102.11424953      95.33594457
O      73.71725747     104.53687867      95.40397472
H      72.45303057     105.77464941      94.99390411
C      74.63188501     100.11869855      95.55893228
H      76.64822298     100.34357599      95.77814053
C      73.72292665      97.61292146      95.48145350
H      75.04195562      96.07279451      95.71011038
C      70.96203651      90.29968062      93.38574702
O      68.99483141      89.00332837      93.15709013
N      73.29584850      89.31135377      93.85439914
H      74.75282749      90.46219709      94.29092592
C      73.86087667      86.47298484      93.98290053
H      72.10721065      85.46576072      94.38163278
C      74.61487747      85.85693407      91.27492272
H      76.21736538      87.08336644      90.85540348
C      75.35187073      83.13383846      90.54359864
H      73.88166366      81.74299989      90.94044117
H      76.85609288      82.88061513      91.92876803
H      76.32885923      83.08281584      88.73135111
O      72.72326143      86.26889440      89.44755738
H      71.87666404      87.79201382      89.95778348
C      75.94902425      85.89094914      95.99167960
O      77.35687035      87.68618914      96.47922899
N      76.10020235      83.57036523      96.86662289
H      74.77928366      82.32503558      96.27324882
C      78.33007940      82.58014864      98.26691008
H      79.90422142      83.87650090      97.97778196
C      77.69513136      82.98832952     101.09016119
H      76.70491477      84.79112842     101.22811122
C      75.75627216      80.95687374     101.96132502
H      75.70902900      79.17864128     100.92575501
H      73.92512736      81.87339099     102.18620246
H      76.17201195      80.47499353     103.92286094
C      79.96469266      83.10549255     102.96287997
H      81.59930592      83.92941323     102.01423736
H      80.38232218      81.24978132     103.75278557
C      79.29383982      84.46987495     105.38550910
H      80.96057843      84.22043109     106.56847778
H      77.69891081      83.55146797     106.31147500
H      78.98392470      86.48810266     105.11905769
C      79.24092748      80.04224620      97.43543051
O      78.13921704      79.04636043      95.60050626
N      81.16088942      78.92163849      98.63729644
H      82.13409847      80.03468729      99.84672128
C      81.69190251      76.28924975      98.40297038
H      79.87587552      75.35761467      98.67698069
H      83.01660066      75.62406608      99.83160347
C      82.56306634      75.47477770      95.89152411
O      84.46602074      76.53869361      94.96744794
N      81.35175177      73.55859523      94.77847531
H      80.02138445      72.64963687      95.79892752
C      81.48592234      72.98222870      91.95144474
H      82.95990887      74.07638024      91.01980967
C      82.16622382      70.17598512      91.34484260
H      80.72436264      68.84750752      91.97601119
C      82.18134163      70.06260155      88.31750104
H      80.45035232      70.77880781      87.46145503
H      82.17000327      68.16153687      87.52759545
H      83.67611514      71.30793119      87.64097902
C      84.66822145      69.34450555      92.65820239
H      84.17122343      68.71711640      94.55548760
H      86.03071413      70.87329413      92.90008735
C      86.08551619      67.10706959      91.27114327
H      84.74003105      65.66142896      90.68721784
H      87.42155269      65.99591051      92.37663317
H      86.69967724      68.04626357      89.54393342
C      79.02171923      73.88362815      90.93288226
O      77.10742648      72.60806288      91.07272201
N      79.05951376      76.01712916      89.72534715
H      80.67334003      77.03191218      89.80471565
C      76.91278467      77.19442865      88.47245860
H      76.62932572      76.26846276      86.65454189
H      77.42867995      79.10116249      87.88853317
C      74.37677195      77.16041358      89.90865060
O      72.30563191      77.33426839      88.75402782
N      74.41456648      77.10750124      92.34261809
H      76.07185646      77.40607800      93.24590727
C      72.09776202      77.08104506      93.98667998
H      70.71826181      75.84894352      93.08339081
C      72.51728126      75.69776540      96.56993585
H      73.71158829      76.89018271      97.74912507
H      73.24860534      73.79859047      96.23734402
C      70.09843158      75.29714343      97.92109017
N      68.61877588      73.16742188      97.60361615
H      68.95325744      71.61217713      96.55292832
C      66.36244266      73.69276579      98.79225400
H      64.60121774      72.66664440      98.68076015
N      66.62133516      76.04736478      99.68609454
H      65.40813087      77.22277454     100.57237618
C      68.83231495      77.10750124      99.18720680
H      69.62977946      78.94053577      99.59916713
C      70.85810156      79.75878726      94.19266015
O      71.51005714      81.35182654      95.72522819
N      68.94947798      80.11594553      92.57883388
H      68.55074573      78.80258575      91.25224601
C      67.51517571      82.45542670      92.29726466
H      68.81341769      84.01823036      91.94955502
C      65.80497340      82.17007804      89.94077595
H      64.97349382      80.29169008      90.08817460
H      67.04463386      82.23621845      88.29671406
C      63.51840456      83.91618515      89.45700601
H      62.48472427      84.00122282      91.23712820
C      64.20059576      86.62794240      88.78237372
H      65.23049660      87.47453979      90.35462601
H      62.41858384      87.51233432      88.24947090
H      65.21726851      86.63928076      86.99280290
C      61.88001185      82.91840966      87.25547486
H      63.11211340      83.17541243      85.62653078
H      60.23028077      84.01634064      86.69800559
H      61.31876313      80.96443265      87.57483860
C      66.05252754      83.09415420      94.73312188
O      65.11900275      81.33481900      95.99734878
N      65.96371041      85.61126964      95.36618019
H      66.86699959      86.85093011      94.23045468
C      64.77696228      86.60148623      97.79447850
H      64.09288136      85.04624148      98.96043964
C      66.86699959      88.03956795      99.26846503
H      65.85032683      89.01466674     100.77079745
H      67.98193811      89.27733869      98.05904019
C      68.64901150      86.10826766     100.47600014
H      69.47104244      84.81191542      99.10405884
C      70.80518922      87.64272544     101.77424212
H      71.95603255      86.28590195     102.81737104
H      70.10032131      89.03923318     103.11405808
H      71.87477431      88.83325301     100.47977960
C      67.39045377      84.57758936     102.64162650
H      68.69436493      83.42674602     103.74711639
H      65.85977546      83.33225972     102.04825244
H      66.66101942      85.91362586     104.02868561
C      62.34488452      88.18696662      97.36362091
O      60.32476709      87.69941723      98.45399299
N      62.49606262      90.34503406      96.10506318
H      64.18736767      90.85337044      95.37940828
C      60.29264174      91.89271992      95.41531308
H      58.71283054      90.66250808      94.94288150
C      59.53486149      93.53867152      97.53369627