 %block lattice_cart
   139.252   0.000   0.000
   0.000 142.425   0.000
   0.000   0.000   162.84
 %endblock lattice_cart

 %block positions_abs
N      89.75347496      40.59137483      80.99481159
H      88.57806519      39.87138909      82.31762001
H      91.53548687      40.33437204      81.62598017
H      89.79126949      39.45564930      79.46224355
C      89.09962966      43.09337245      80.22002380
H      89.83662292      44.31791512      81.70534868
C      90.19567092      43.64706227      77.63298847
H      89.27348448      42.34882029      76.32907732
H      92.24980342      43.59226021      77.77093849
C      89.73646742      46.44763667      76.81851643
H      87.68989383      46.67251409      76.74481711
H      90.41676890      46.90684015      74.92879011
S      90.80983197      48.81735346      79.01248868
C      89.28293311      51.75965733      77.86920427
H      89.73268797      52.30200878      75.93223478
H      89.75725441      53.37348361      79.05406265
H      87.25147732      51.80123131      78.19612692
C      86.34818814      43.39572866      80.34096627
O      84.94601122      41.78946131      79.28838873
N      85.48458322      45.39505911      81.68267196
H      86.53338132      46.85014836      82.32895835
C      82.84274583      45.92985165      82.21179532
H      81.70891005      45.03412138      80.74158826
C      82.27582794      44.85081793      84.90087587
H      82.90321708      42.89306147      85.01614918
H      80.31240230      44.67696310      85.50936774
C      83.47769388      46.36826817      87.06839196
O      84.00870697      48.62649110      86.94933919
N      83.63076171      44.99065767      89.09228884
H      84.11831110      45.91095440      90.69288703
H      83.05439518      43.17085124      89.10740664
C      82.26071013      48.72664659      81.76581992
O      83.95579463      50.30834753      81.34630068
N      79.86831662      49.48442685      82.28549466
H      78.57196437      48.12760336      82.63887347
C      78.85731304      52.09602861      82.25714876
H      79.49037135      52.98986917      80.51293137
C      75.91500917      51.78044433      82.44990085
H      75.11943439      50.77888937      80.83418485
C      75.24793578      50.30078862      84.91032451
H      76.27783662      48.53389452      85.17299647
H      73.23915671      49.92851253      84.64576282
H      75.48982075      51.64249429      86.45423091
C      74.46747881      54.36936936      82.20423643
H      74.76794530      55.50509488      83.89554148
H      72.51539153      53.76465694      81.92833638
C      75.22714879      56.14382237      79.94223403
H      73.82686159      57.61591918      79.59641412
H      75.56163035      55.07990646      78.21313445
H      77.05829359      56.99230950      80.35419437
C      79.94957485      53.91583506      84.21112576
O      80.36342491      56.13059429      83.80294489
N      80.55428727      52.95774382      86.47312816
H      80.31996121      51.10203257      86.85485288
C      81.33663396      54.65282831      88.60473945
H      80.13665775      56.31011829      88.83906551
C      81.16088942      53.20718768      91.11429599
H      81.84874979      54.38259745      92.65820239
H      82.33440946      51.51777236      91.01414049
C      78.57385409      52.54200402      92.04593106
C      77.33041418      53.91016588      94.03581286
H      78.20346774      55.48052845      95.00335275
C      74.98337410      53.05411985      94.90886643
H      74.00827532      54.27866250      96.22222622
C      73.83064105      50.79589692      94.12085056
H      72.13555654      49.91339473      94.83705682
C      75.17234673      49.31435149      92.45222222
H      74.46369936      47.43218407      92.10640231
C      77.49859982      50.15527970      91.28059190
H      78.57196437      48.84569935      90.13919721
C      83.90288230      55.65249354      88.01703457
O      84.43011594      57.93717265      88.36663393
N      85.60363598      54.04622616      87.17799608
H      84.97057766      52.24909644      87.06083305
C      88.12642061      54.76432216      86.22368429
H      89.19411597      55.93217304      87.54460299
C      89.50970027      52.27555261      85.80227533
H      88.57995492      51.21163671      84.30561209
H      89.23757968      51.37226343      87.63719958
C      92.55026990      52.26799370      85.45456569
H      92.98301723      53.28088702      83.71412775
H      93.28915289      50.35748041      85.25047524
C      93.98079272      53.70229598      87.59184615
O      95.98201289      54.98542014      87.03626661
O      93.34584468      53.61536858      89.79526703
C      88.00547812      56.33657446      83.79916543
O      89.32072764      58.22063160      83.48925031
N      86.32173198      55.67139079      81.99447681
H      85.21057290      54.15583030      82.33084809
C      85.59418735      57.44773353      80.00648473
H      87.13053484      57.34190885      78.63832286
C      83.24903699      56.52365737      78.48147558
H      81.57096003      57.46474107      79.21468939
H      82.99581367      54.53566528      78.95768662
C      83.33974385      56.99608894      75.61476076
H      84.74947968      55.74886958      74.77572229
H      84.27515838      58.82345428      75.44657513
S      80.39743999      56.89404373      73.98581669
C      81.42545110      56.02099017      70.80162785
H      81.65221826      53.97441656      70.81296621
H      83.35486166      56.64837930      70.44069013
H      80.21035708      56.39515597      69.18213239
C      85.16332975      60.08201202      80.85686157
O      86.38598267      61.77709651      79.87231415
N      83.71768912      60.62247373      82.91477352
H      83.06384381      59.11636187      83.88798257
C      83.11864588      63.26998031      83.64042843
H      82.92967324      64.52853803      82.02093297
C      80.51460302      63.17171453      84.72513133
H      80.20279817      64.89325521      85.81361369
H      80.54294891      61.65804375      86.12163907
C      78.28850542      62.75975419      82.78438241
H      78.45669106      61.04766215      81.64865689
C      75.64288858      62.59912746      84.16388260
H      74.10087191      62.16638013      82.86942009
H      75.36320909      64.36791129      85.18433481
H      75.93201671      61.12703066      85.57928761
C      77.84253001      64.95939562      81.04016502
H      77.95024441      66.66770821      82.18533916
H      76.00193658      64.84979150      80.12175802
H      79.16911788      65.17104498      79.47925108
C      85.30694895      64.57011200      85.04827453
O      85.42789143      66.90770345      84.91788340
N      86.85463480      63.17171453      86.36730349
H      86.62597791      61.27631904      86.35785485
C      89.16199062      64.03720918      87.55405161
H      88.71790494      65.57544640      88.84851414
C      90.08039761      62.05677601      89.68377316
H      91.89642460      62.82778434      90.28092668
H      90.08228734      60.09335037      89.06772240
C      88.44767408      61.82244995      92.07805641
H      86.80739164      60.63192238      91.70767005
H      87.93366852      63.68194064      92.79804214
C      89.83095374      60.36547097      94.11896083
H      88.79160427      60.51097988      95.89152411
H      91.65076018      61.28576768      94.42131704
N      90.06527980      57.56867601      93.46511553
H      91.72256978      57.09624444      92.64686403
C      88.39854119      55.75453875      93.58605801
N      86.48235871      55.86603261      95.14508222
H      85.36175101      54.32212621      95.26035552
H      86.39921076      57.21151774      96.49623653
N      88.87853168      53.66450145      92.52970100
H      88.12642061      52.07902107      93.27992235
H      90.53960111      53.59458159      91.59428647
C      91.24257930      65.05010250      85.72101710
O      92.96600969      66.39180817      86.49580488
N      91.12352654      64.28854279      83.31539549
H      89.84607155      62.87124805      83.26626262
C      92.30649521      65.21639840      80.96268624
H      94.18110371      65.97795811      81.34252123
C      92.66743294      62.97140355      79.17500515
H      90.73235319      62.40826510      78.74225782
C      93.72945912      63.68383036      76.61442598
H      95.78359163      63.76130914      76.47836570
H      93.04537820      65.48096008      75.87743273
H      93.30805016      62.19661575      75.25571276
C      94.07527904      60.61113538      80.27293614
H      93.47434607      60.45239838      82.23447205
H      96.06327112      61.14403821      80.28049504
C      93.93732902      58.05811513      78.85186194
H      91.94177803      57.67450069      78.50982149
H      94.74613188      56.57090052      80.02727171
H      94.69321954      57.99764389      76.93756919
C      90.72857374      67.19305212      79.65688536
O      91.85296089      69.18860311      79.12587225
N      88.32295214      66.69605411      79.02760650
H      87.64643012      65.09545592      79.82129155
C      86.86786288      68.24185024      77.33063226
H      88.08862608      68.99585104      75.85286629
C      84.74381050      66.61101642      76.13254578
H      82.98258558      66.75652535      77.19268225
H      85.46001678      64.69105450      75.91522725
C      84.14665699      67.65225562      73.40756043
O      81.75237375      67.96406046      72.88977543
O      85.91355109      68.04720842      71.83908759
C      85.73780655      70.62290538      78.62887424
O      85.24269825      72.42192483      77.31173499
N      85.21624208      70.55298551      81.07040063
H      85.34285375      68.89758526      82.00770489
C      84.16555425      72.57499266      82.69367554
H      83.55328293      74.10945043      81.46535343
C      81.71835868      71.62257060      83.97113053
H      82.38543207      70.34700534      85.44700678
H      80.72625236      70.33566698      82.70690362
C      79.91744950      73.63323940      85.13709167
H      81.18923531      74.90502521      86.13864660
H      78.81573906      72.75640639      86.64131381
C      78.38866091      74.80864917      83.06973107
O      79.07463157      76.63223506      81.85463706
O      76.33641814      73.81465314      82.46879810
C      85.99669905      73.63701885      84.69867516
O      86.31417307      75.89335207      84.96890602
N      87.23258006      71.93626517      86.20100758
H      86.82250945      70.09000256      85.93455617
C      89.28293311      72.42003511      88.17766130
H      90.70400730      73.72961544      87.46901393
H      90.15598667      70.60967730      88.63119561
C      88.25492199      73.52363527      90.58895208
O      86.10819290      74.41180664      90.79115279
N      89.82150511      73.71449764      92.56749552
H      91.57706085      72.96427628      92.52592155
C      89.19222625      74.63290462      95.02036028
H      87.14565265      74.59322038      95.25090689
C      90.28826751      72.67703788      96.88174069
H      92.23657534      72.36145360      96.29403582
H      89.37175025      70.84589309      96.66064271
C      90.11630241      73.34411127      99.63885139
H      91.19911559      75.05998277     100.00167884
C      87.34974309      73.68048256     100.54969947
H      87.17021909      73.51607637     102.59627306
H      86.03449358      72.42570429      99.58215960
H      86.68644915      75.52863489      99.94120760
C      91.24635875      71.01407873     101.10149956
H      91.19533614      71.20116163     103.15185261
H      93.23813028      70.73817869     100.65174469
H      90.25047298      69.26419216     100.67442141
C      90.12386132      77.24072693      95.61562406
O      92.41043016      77.64890782      95.60050625
N      88.60263164      78.99628268      96.42820639
H      86.74692040      78.67502921      96.12585018
C      89.08829130      81.53229539      97.53369628
H      91.11029845      81.73260638      97.87762646
C      88.27948844      83.57697926      95.67609531
H      87.52926709      85.23426923      96.63985573
H      86.77337657      83.00439219      94.39108142
C      90.38464355      84.35176705      93.94510601
H      90.92321555      82.60565993      92.98701476
H      91.98146228      85.15301100      94.97311712
C      89.44544957      86.08653580      91.80782555
H      91.04226831      86.74605028      90.68532812
H      88.63286726      87.82697374      92.55615717
N      87.90343290      84.83931644      89.88408416
H      87.60485614      82.96659766      90.09762324
C      87.25525677      85.59709669      87.63908929
N      87.63131231      87.84020182      86.73202066
H      87.19667526      88.45625260      84.97646493
H      88.60263164      89.06474447      87.82995166
N      86.37464431      83.83776149      86.14809523
H      86.02504495      84.03807249      84.28104565
H      86.46724090      82.05385985      86.82272754
C      87.79193905      81.88945366     100.05270144
O      85.49403185      81.45859606     100.39096245
N      89.00703307      82.97415657     101.98778119
H      90.75502991      83.59587652     101.53613660
C      88.12264115      83.00439219     104.69575900
H      86.62408819      81.59654608     104.81481175
C      90.36007711      82.37322360     106.55902915
H      89.73457770      82.71526406     108.49221916
H      92.02492599      83.56942035     106.37005652
C      91.25202793      79.66524579     106.59304421
H      92.51436510      79.59154646     104.96410013
C      93.02270148      79.14179160     108.90984868
H      94.48345992      80.58932196     109.02134254
H      94.08850712      77.37867695     108.85693635
H      92.04193353      79.13234298     110.72020649
C      89.31694818      77.45048655     106.32659280
H      90.20134010      75.58910613     106.31147499
H      88.04138292      77.76418112     104.74300215
H      88.14909732      77.25206529     108.01411841
C      86.87920124      85.55741243     105.58015091
O      85.19545509      85.59331724     107.20153609
N      87.60863560      87.67579564     104.31592402
H      89.05238650      87.40367504     103.10082999
C      86.25181210      90.01527681     104.41985895
H      85.18978591      90.21180834     106.17352497
C      88.20011993      92.17145453     104.30647537
H      89.42844203      91.79161954     102.69642856
H      89.52859753      92.13554973     105.88250713
C      86.89998823      94.72636450     104.11372329
H      85.45623732      94.96258029     105.56125366
H      86.03449358      94.77927684     102.24478397
C      88.78404536      96.88821142     104.53324253
H      90.26748052      96.78427646     103.10649918
H      89.89142498      96.41577983     106.20565032
C      87.65776848      99.58107140     104.68253092
H      86.01937577      99.73602896     105.92030166
H      87.15699101     100.06484134     102.74367172
N      89.50403109     101.49158471     105.46109816
H      91.18588751     101.08151410     104.65418503
H      89.65520919     101.18544904     107.33759639
H      88.81428098     103.24903018     105.17008030
C      84.16933371      90.11732204     102.40352099
O      84.64932419      89.26316574     100.26435080
N      82.04150188      91.40233592     102.82304022
H      81.97158200      92.32263263     104.49355829
C      80.15555502      91.85964970     100.84827623
H      79.25415557      90.11165285     100.23222545
C      78.03339237      93.46591705     101.87817707
H      78.87810003      95.17611937     102.65485459
C      76.02272357      94.22747676      99.95821514
H      77.00160180      95.59374888      98.76579782
H      74.69046652      95.60130779     100.71788512
H      75.14400083      92.79695394      98.76768756
C      76.47058871      92.04673259     103.89640476
H      77.63843957      91.67634624     105.55180502
H      75.89233245      90.19669053     103.19153686
C      74.08197465      93.45079924     104.87339328
H      73.20325191      92.16767508     106.22454759
H      72.61554703      93.92134110     103.50712115
H      74.90589532      94.98147756     105.97699343
C      81.35742095      92.99348548      98.34060941
O      82.76337733      94.80762274      98.44265463
N      80.60719961      91.99193053      96.19577005
H      79.11809527      90.82596940      95.93876726
C      81.65788744      92.64577583      93.82227380
H      82.70101636      94.42211857      93.81093544
C      83.52871649      90.56140772      93.11551615
H      84.76837695      90.29495630      94.73501161
H      84.69845707      91.30029070      91.59050702
C      82.50637455      88.09153542      92.31049275
C      81.61064428      87.66445727      89.90109169
H      81.81473472      89.15356162      88.51781203
C      80.80940032      85.32875556      89.15842926
H      80.11020159      84.97537673      87.27437213
C      80.85853321      83.37666828      90.87619048
O      80.21224681      81.06742271      89.95967322
H      79.62832138      81.09954806      88.24380172
C      81.50481960      83.80374642      93.51046895
H      81.42734083      82.25039139      94.83138765
C      82.27960739      86.23015501      94.18510124
H      82.75203897      86.64022561      96.12962963
C      79.55273232      93.18812730      91.83617144
O      77.35120117      93.18623756      92.51647292
N      80.07240706      93.85709040      89.46078547
H      81.88465459      93.78339107      88.86552167
C      78.19590883      94.38432404      87.50113928
H      76.41578664      94.07818838      88.49324559
C      78.08063553      97.12820665      86.62997545
H      76.83908534      97.30206147      84.99347246
H      79.77949948      97.78016223      85.66432531
C      77.21703060      98.87053432      88.61985725
H      78.43779380      98.99714597      90.27336777
H      75.29706867      98.35085958      89.16031899
C      77.48348201     101.62386555      87.43310913
H      76.85609287     101.85630188      85.48480130
H      79.40344394     102.36274854      87.55594135
C      75.81296395     103.22257401      89.06394294
H      76.36854349     102.86919519      91.01603022
H      73.91189928     102.42699923      89.02614841
N      76.13988660     106.00614087      88.48190723
H      75.02683780     107.05682871      89.62330192
H      75.46714403     106.29526900      86.72068232
H      77.94079578     106.60518412      88.67843878
C      77.90678070      92.65900392      85.20512181
O      79.79083784      91.57430101      84.35474497
N      75.58619679      92.35664771      84.26781755
H      74.19724795      93.36009239      85.11252522
C      75.25360496      91.23792973      81.74881239
H      76.30807224      89.46914590      81.71857676
C      72.42279494      90.32141247      81.74503293
H      71.17368585      91.95602573      81.83951924
H      72.02028324      89.24237874      83.45145579
C      71.64611743      88.87955129      79.35830860
O      71.03006665      90.08141723      77.42700831
O      72.11854901      86.57030574      79.26571201
C      75.80162559      93.07474371      79.66822372
O      75.54462281      95.34808446      80.11797857
N      76.56885447      92.19791070      77.41189049
H      76.98270454      90.34786864      77.19268225
C      76.90333603      93.67945613      75.03650451
H      78.38488146      95.03816935      75.49003884
C      77.61009367      92.06562986      72.59119867
H      77.91811906      93.43001225      71.08130734
C      80.11965022      90.67479129      72.78206102
H      79.88910361      89.33686506      74.33352633
H      81.69757169      91.92390038      73.22047754
H      80.42200643      89.50127125      71.11343270
O      75.66556530      90.29117685      72.29073218
H      75.99626740      88.76049853      73.20724945
C      74.79251174      95.47091667      74.52438868
O      75.18179536      97.32851764      73.27905904
N      72.43035385      95.00226455      75.17067508
H      71.92390720      93.33552595      75.94924233
C      70.17402063      96.68979014      74.79461955
H      70.40267752      97.90866362      73.14866793
C      67.98760729      94.94746248      74.38643867
H      66.23016182      96.00948868      74.22014276
H      67.69092026      93.59063899      75.90766834
C      68.43925188      93.65488969      71.74082183
H      69.80741373      92.12043192      71.86365403
H      69.03640539      95.21580362      70.53328672
C      65.97126931      92.58530459      70.91501143
O      65.85599601      90.33842001      70.19880516
O      64.07965327      94.07629865      70.53517644
C      69.60710274      98.53038357      76.95835618
O      68.23705116     100.32751330      76.72969930
N      70.87888855      98.17322530      79.08618800
H      72.09587229      96.71813604      78.87264894
C      70.77873305      99.88153789      81.42566919
H      69.45592463     101.37820113      80.92678144
H      72.51161208     100.98324833      81.57495757
C      70.02284253      98.69667949      83.95601272
O      69.94914320     100.13854068      85.88353356
N      69.30474653      96.24192501      84.02404287
H      69.53529314      95.22903170      82.42344468
C      68.08398333      95.11186867      86.28037607
H      66.78952081      96.53105313      87.02681798
C      66.06575563      93.03883891      85.44133759
H      64.62578418      92.78561558      86.89264740
H      67.12589209      91.33241605      84.99347246
C      64.86011024      94.06118084      83.04138518
C      64.77129310      92.80640257      80.72836018
H      65.54608089      90.96958859      80.29372313
C      63.44092578      93.92701028      78.58541053
H      63.25951205      92.98025739      76.78639108
C      62.46393727      96.40444147      78.87453866
O      60.92192060      97.31717928      77.02638633
H      60.31909791      98.91588774      77.63487819
C      62.49228317      97.66866837      81.17811503
H      61.35844738      99.34296589      81.44456644
C      63.61478060      96.46491271      83.13209205
H      63.38801344      97.50237246      84.87630943
C      69.98315827      94.36542678      88.28348597
O      71.87666404      92.98781630      87.85640782
N      69.29340817      94.91911659      90.55115754
H      67.77217849      96.05484210      90.72879183
C      70.77306387      94.08763701      92.77725514
H      72.73459979      94.58085558      92.38230234
C      69.83764935      95.53516738      95.14319249
H      70.71637208      94.50904599      96.70032697
H      67.80997301      95.23470088      95.33216512
C      70.65212139      98.24692463      95.24334799
C      68.76617453     100.10641533      95.41909252
H      66.78763108      99.66232963      95.63074188
C      69.52773423     102.61030268      95.12429522
H      68.15201348     104.10507620      94.92776369
C      72.17335107     103.29060416      94.81815957
O      73.04262517     105.68677712      95.12051578
H      71.69525031     106.85651771      95.44365898
C      74.00449587     101.30450181      94.77091641
H      75.97925987     101.71268268      95.08839043
C      73.19758273      98.83840896      94.88429999
H      74.65456172      97.40599642      94.84839519
C      70.82975566      91.36076194      93.28559153
O      68.82853550      90.20991863      93.53125594
N      73.03884572      90.16645491      93.44810799
H      74.69235625      91.11698725      93.40275456
C      73.51883621      87.46036683      93.46700524
H      71.71225785      86.62132835      93.99423889
C      74.23882193      86.55707766      90.68910757
H      76.08319481      87.33942435      90.20911709
C      74.02150341      83.75650326      90.25069107
H      74.55629595      83.22549016      88.33450859
H      71.99193734      83.41446280      90.35462602
H      75.13455220      82.61510856      91.55460222
O      72.38877987      87.58697849      88.90520592
H      72.30941137      89.39733630      89.00347170
C      75.58052761      86.59109273      95.43610007
O      77.18112580      88.11232241      95.92175973
N      75.33297347      84.39901020      96.74757013
H      74.16512260      83.08376069      96.00868714
C      77.13766210      83.55430254      98.78091564
H      78.79117262      84.78262465      98.69587796
C      75.91878862      84.03240330     101.36795097
H      75.01549945      85.88055563     101.42842221
C      73.70213966      82.14078727     101.76290377
H      72.07886476      82.41857703     100.52891247
H      73.09175806      82.41290786     103.71121160
H      74.39755894      80.21326643     101.55692360
C      77.54206353      83.71303955     103.84916162
H      77.78394849      81.70615021     104.25356304
H      76.49893460      84.50861433     105.43653172
C      80.10453241      85.02450961     103.71688077
H      80.20279817      86.65723316     102.46399222
H      81.60497510      83.70170119     103.22366221
H      80.65444276      85.64433984     105.60093790
C      77.97103140      80.78207405      98.35383749
O      76.75026820      79.37233821      96.90630713
N      80.11965022      79.92224857      99.55003425
H      81.10230790      81.31686659     100.40797000
C      81.14010243      77.25962420      99.20421434
H      79.90233169      75.88201371     100.11128297
H      82.82951775      77.12356390     100.37773438
C      81.62009291      76.46593914      96.46978036
O      83.08463080      77.68670235      95.04114727
N      80.47302904      74.43259363      95.78569943
H      79.31273708      73.72394626      97.12551538
C      80.52594137      73.24962496      93.37818812
H      81.65410798      74.18692921      91.93065775
C      81.23458874      70.38668959      93.36873948
H      79.82107346      69.58166618      94.62729720
C      80.56562563      69.14891886      90.80060142
H      82.00937653      69.67426277      89.42866012
H      78.71180411      69.66670387      90.06738762
H      80.52405165      67.09856582      90.99146377
C      83.88209531      69.75552100      94.43643485
H      84.34129880      70.92526159      96.06915839
H      85.27482360      70.12779709      92.96622777
C      84.12020082      67.02297676      95.31515759
H      83.76493227      65.70205807      93.77125119
H      82.65755266      66.74518699      96.74001123
H      86.10252372      66.84156303      95.84428095
C      77.85953755      73.97339014      92.45789139
O      75.96792151      72.79042146      93.23456892
N      77.61198340      75.84232946      90.74201991
H      79.24659666      76.72105219      90.28281642
C      75.33864265      76.58688163      89.37763750
H      75.10620631      75.33021363      87.76192151
H      75.56918926      78.41235724      88.45545107
C      72.79129158      76.77207480      90.92910281
O      70.74849743      76.29964323      89.86329717
N      72.85554227      77.22371939      93.41031345
H      74.49015553      77.58843657      94.32683073
C      70.51417137      77.65457699      94.83516710
H      69.20459103      76.31287131      93.98101081
C      70.71259263      77.08954883      97.60361615
H      72.06374694      78.43125451      98.39163201
H      71.48171124      75.22060950      98.00612786
C      68.10477032      77.24828584      98.69965741
N      66.29441251      75.37178761      98.54281013
H      66.37567074      73.71449764      97.59794697
C      64.19492658      76.13523704      99.77302195
H      62.44126056      75.11667455      99.55759316
N      64.63901226      78.46715931     100.67253168
H      63.21037917      79.52351632     101.37550986
C      67.06920030      79.08132036     100.09049598
H      67.89501070      80.90301653     100.49489741
C      69.49749861      80.29074520      94.54414924
O      70.58598097      82.06330848      95.50413022
N      67.28462910      80.54396853      93.29126071
H      66.36244266      78.88478883      93.08905999
C      66.02418165      82.98738465      92.87363118
H      67.37722569      84.38389239      92.19332972
C      64.26106700      82.65290309      90.66454112
H      62.95904557      81.10143779      91.04248639
H      65.46104321      82.08409547      89.08850939
C      62.69826334      85.01695071      90.16943284
H      62.12756599      85.86165837      91.95900366
C      64.21004439      87.09753938      88.81449907
H      64.45192936      86.41156873      86.88697823
H      66.04118919      87.28273256      89.73857524
H      63.21037917      88.89844856      88.81449907
C      60.33799517      84.62577736      88.52348122
H      61.00695829      84.33475952      86.59785010
H      59.04353265      86.20936801      88.77103537
H      59.30809433      82.96659766      89.17165733
C      64.66735816      83.95870397      95.28870141
O      63.48438948      82.64156473      96.76457766
N      65.00183971      86.40400982      95.91420082
H      66.19047756      87.24682776      94.68398899
C      64.00406422      87.71170043      98.04014292
H      63.29541685      86.37755365      99.44043013
C      66.17913921      89.26883491      99.24011914
H      65.43836649      90.53306182     100.68575977
H      67.07109003      90.55006935      97.89463399
C      68.00650455      87.51894835     100.51568439
H      68.94380880      86.31708242      99.12862528
C      70.15323364      89.11009790     101.49267289
H      69.49938834      90.62565841     102.72477446
H      70.85054265      89.95480557      99.74845552
H      71.70091949      88.20869845     102.50745593
C      67.07864893      85.94669605     102.86650393
H      66.76684409      87.08053184     104.55402953
H      68.48460531      84.49160679     103.25200810
H      65.30986510      84.93380275     102.56981690
C      61.66458304      88.97781706      97.06882361
O      59.62934781      88.61876906      98.09494499
N      61.90079883      90.83919748      95.38507746
H      63.67336212      91.29273179      94.85406436
C      59.78430536      92.44735457      94.47233965
H      58.10622840      91.25493727      94.41375813
C      59.23628473      94.63565764      96.31671253