 %block lattice_cart
   139.252   0.000   0.000
   0.000 142.425   0.000
   0.000   0.000   162.84
 %endblock lattice_cart

 %block positions_abs
N      91.78965507      40.65846011      81.94628878
H      90.95817548      39.31675442      80.87670369
H      91.43627624      40.05185796      83.72074179
H      93.63213823      41.12900197      81.77243396
C      90.46495692      43.07164061      81.69873464
H      91.45328378      44.20547640      83.10847046
C      90.71251107      44.19224832      79.04744862
H      89.43694580      43.06786116      77.88337721
H      92.70806205      44.20925585      78.54100197
C      89.75819928      46.85298296      78.77343830
H      87.71729486      46.67345896      78.99075683
H      90.21362332      47.58619678      76.90449898
S      90.94872685      48.89766683      81.15638318
C      93.98173758      49.64788818      80.07357001
H      94.85479115      50.81384931      81.53243872
H      93.82300058      50.70613491      78.31234508
H      95.26675148      48.08130506      79.71641173
C      87.70595650      42.78629193      82.64548752
O      86.55133373      40.95892659      81.80266958
N      86.66282757      44.67412853      83.94939867
H      87.70217705      46.04229037      84.77898853
C      83.82445866      44.89144706      84.01364937
H      82.90416194      43.69902975      82.60958272
C      83.19140035      43.68013249      86.55155181
H      84.20807310      41.90567947      86.78776760
H      81.19018017      43.20014201      86.52131619
C      83.95484977      45.20136217      88.96851176
O      84.60302590      47.44068784      88.80977475
N      83.97185730      44.00327569      91.13035866
H      84.81845469      44.83853471      92.61946300
H      83.39927023      42.19480760      91.32877993
C      82.72652766      47.60887349      83.85491236
O      84.23452926      49.40033404      83.40893695
N      80.33980333      48.04728999      84.03443636
H      79.19084974      46.52417058      84.13648158
C      79.14927575      50.51527255      83.87380962
H      79.77855462      51.18990485      82.03132647
C      76.30712739      50.32252048      83.63570411
H      76.05012461      48.82018806      82.25053472
C      74.93518608      49.52127651      86.13392229
H      75.51911151      47.81296393      87.12224915
H      72.89239194      49.37765731      85.91471404
H      75.38116149      50.92534317      87.57200402
C      74.94274498      52.59964068      82.68328204
H      75.42651492      54.02260460      84.09112815
H      72.93207618      52.18390089      82.84201905
C      75.74587866      53.66166687      80.05845220
H      74.46464423      55.21313217      79.62192542
H      75.73076085      52.20468788      78.60147321
H      77.67150978      54.37220396      80.23608647
C      80.12248482      52.66011192      85.81455855
O      80.69885134      54.77660540      85.16827215
N      80.54578351      51.83430153      88.18049589
H      79.80123134      50.20913690      88.85134873
C      81.64938367      53.49726069      90.20628250
H      80.52688624      55.22069108      90.08911947
C      81.71552410      51.90233167      92.71772877
H      82.36370021      53.22891954      94.15203104
H      83.12148046      50.40188898      92.57788902
C      79.21919564      50.78172396      93.67015083
C      77.50521387      52.32752009      95.05343049
H      78.07024204      54.26448957      95.34066889
C      75.02778267      51.58674738      95.57499495
H      73.98654347      52.94735033      96.68237457
C      74.19063392      49.13955180      94.81721470
H      72.36893775      48.47436814      95.45405247
C      75.97453555      47.52194608      93.65125357
H      75.26588818      45.73426498      92.96717264
C      78.47086401      48.37232293      93.14669664
H      79.85792312      47.09864738      92.36057049
C      84.34980257      54.41944713      89.57133446
O      84.94695609      56.62097827      89.57700363
N      85.95229048      52.67145029      88.80410557
H      85.51009452      50.81573905      88.73418570
C      88.62436350      53.13065377      88.24663631
H      89.17805330      54.57251496      89.60723926
C      90.29866100      50.74581917      88.66048637
H      92.15437224      51.02549867      87.80821981
H      89.23663482      49.37009842      87.55688621
C      90.54054597      49.97481083      91.44216351
H      91.62335916      48.22303455      91.41948679
H      88.72829843      49.50237925      92.30387870
C      91.79154479      52.09697349      92.96150346
O      93.90803826      52.82451812      92.21128211
O      90.82022546      53.02671883      94.91359074
C      88.87569709      54.40243958      85.67660852
O      90.84290218      55.60997470      85.23630229
N      86.97085297      54.06039913      83.90404524
H      85.64237538      52.85853318      84.55978027
C      86.87069747      55.20935273      81.42850377
H      88.73207790      55.13754312      80.54978104
C      84.84491087      53.86953677      79.80144942
H      83.05722977      54.20968751      80.76709956
H      85.23041503      51.86075770      79.55389527
C      84.59924645      55.15833011      77.22386273
H      86.01843091      54.38732178      75.95018719
H      84.68239440      57.18789618      77.56401346
S      81.59647133      54.91833487      75.74987620
C      82.24086801      55.16966847      72.32758185
H      80.98231029      54.01315596      71.17673852
H      84.13437378      54.40621904      72.04412290
H      82.17472758      57.13309410      71.70964134
C      86.17905765      58.07039835      81.70062436
O      87.48296880      59.78626986      80.82379135
N      84.27988269      58.64865461      83.22752322
H      83.41060859      57.24836742      84.18939392
C      83.61469904      61.28860228      83.80200002
H      83.39927023      62.46401203      82.12581278
C      81.17506237      61.20923376      85.29677354
H      81.03333290      62.89109018      86.48163193
H      81.07301714      59.63698147      86.62147168
C      78.84314009      60.82372960      83.53176916
H      79.31746140      59.07951221      82.54155257
C      76.34870137      60.41743843      85.09835227
H      76.68696238      58.75069984      86.26053396
H      74.75188263      59.86752809      83.91916305
H      75.98209446      62.01614690      86.34179219
C      78.42551058      62.81361141      81.54188735
H      79.98831424      62.60385179      80.21718921
H      78.83747092      64.71845552      82.20896074
H      76.59058633      62.36574626      80.72174613
C      85.61969866      62.80416277      85.18716941
O      85.96173912      65.17765902      84.86024676
N      87.12581052      61.37741940      86.78398814
H      86.51920838      59.68611436      87.41893618
C      89.23663482      62.50369629      88.06900204
H      88.74341625      64.31783354      88.90993025
C      90.10590892      60.56672681      89.99841260
H      91.11313304      58.86597314      89.42015635
H      88.35980180      60.20011992      91.02453399
C      91.82367014      61.77237220      91.89758755
H      90.89770424      63.32005806      92.89536304
H      93.37324571      62.69644838      90.90737096
C      93.07844841      59.87697671      93.60590013
H      94.30299106      60.83695769      94.95327499
H      94.28787325      58.74314093      92.37946776
N      91.35879747      58.14976687      94.90036266
H      91.27753924      56.36586522      94.22195091
C      89.92827464      58.48802788      96.89213419
N      89.95662054      60.70467684      98.08266177
H      89.04577246      60.95412072      99.74184147
H      91.41170980      61.88386605      97.71416514
N      88.70562172      56.64932418      98.05431587
H      87.47918935      57.25403660      99.38846265
H      88.75853406      54.89943761      97.29275617
C      91.31911321      63.20667447      86.17360654
O      92.74963604      64.96223022      86.78587787
N      91.46651187      62.02181608      83.98530347
H      90.33267607      60.49491722      83.83412537
C      93.10490458      62.69644838      81.92928125
H      94.76786373      63.50147178      82.83823960
C      93.87402318      60.23980416      80.52332487
H      92.12035718      59.31950745      79.95073780
C      95.38769397      60.77459672      78.07234984
H      94.33889586      61.68355506      76.54923043
H      95.82611048      58.93211356      77.26354698
H      96.95994626      62.01236744      78.55423005
C      95.22895696      58.41054909      82.32045459
H      94.19716639      58.26126072      84.09679733
H      97.11301410      59.16832935      82.65115670
C      95.84122828      55.74981444      81.43984213
H      97.18482370      55.71201992      79.88081792
H      94.10456981      54.90699652      80.71796668
H      96.48562495      54.72369305      83.10658074
C      91.88225166      64.65798428      79.94506862
O      93.14458884      66.13197082      78.64682664
N      89.46907115      64.42932740      79.40649662
H      88.60735596      63.03659910      80.38537485
C      88.10846821      65.69733376      77.46385797
H      89.17994303      65.57639127      75.71019195
C      85.59324248      64.51247537      76.98386748
H      84.31767723      64.97734804      78.53722251
H      85.86158363      62.48101958      76.80434348
C      84.47074506      65.68977485      74.66895275
O      85.88237061      65.73701801      72.73765246
O      82.19173513      66.09795573      74.79178496
C      87.74942021      68.49412870      78.27833001
O      88.14248328      70.17598512      76.71363662
N      87.29210645      69.04025961      80.75576121
H      86.90660228      67.56816281      81.90849426
C      87.12203107      71.76713467      81.67227847
H      88.04610725      73.08427391      80.38348512
C      84.34791284      72.52113547      81.60991750
H      83.08368594      71.27013666      82.65304642
H      83.72997234      72.23011762      79.66727885
C      83.53910999      75.17242149      82.11447442
H      84.10035870      75.53524894      84.06467198
H      81.51710282      75.47288797      81.85369219
C      85.02632460      77.13395740      80.40616184
O      85.18128215      76.70309980      78.13849026
O      86.12803504      79.12005975      81.20173662
C      88.43917031      72.33594229      84.17616583
O      88.98530121      74.60739332      84.57489808
N      89.22151701      70.45944406      85.66904962
H      88.88514573      68.68121161      85.06622693
C      90.45550829      70.49723859      88.21640069
H      92.22051267      71.48178600      87.81577871
H      91.00919809      68.59806364      88.78520831
C      89.01364711      71.73878878      90.44060856
O      86.98219133      72.78947661      90.15525989
N      90.04921713      71.53658806      92.68182397
H      91.43816598      70.24023581      92.88402468
C      88.76987242      72.37940600      95.02319487
H      86.80833650      72.80270470      94.55643247
C      89.20639919      70.33283240      96.97528215
H      91.17927346      70.25913307      97.56865621
H      88.71696009      68.53003350      96.10978750
C      87.70784624      70.16653648      99.54530994
H      87.83256816      72.02602718     100.42214294
C      84.98664034      69.26891648      98.91792080
H      84.15516077      70.77124890      97.78030556
H      83.92272442      69.30860074     100.68103545
H      84.52365739      67.33950592      98.36045154
C      89.16671494      68.54704103     101.27818896
H      90.89203506      69.46733776     101.92258564
H      89.43316635      66.63085855     100.56954160
H      88.11602712      68.22011838     103.02051663
C      89.79977325      74.91352898      96.02474981
O      92.10901881      74.98722831      96.36868000
N      88.29366139      76.77679913      96.49340194
H      86.47763441      76.32326482      96.11923613
C      88.76987242      79.28068649      97.50251579
H      90.79376930      79.61327832      97.66881171
C      87.51320442      81.16474363      95.71294497
H      87.56233730      82.98266034      96.67859512
H      85.54977879      80.71876822      95.28586683
C      88.81522585      81.33292927      93.20527816
H      88.88514573      79.42808514      92.42293146
H      90.72762887      82.08126089      93.38291243
C      87.55855786      82.79746717      91.08311551
H      87.45462291      84.70609074      91.84845466
H      85.63859591      82.05858417      90.97351138
N      88.88325599      82.56881028      88.57166924
H      90.73896723      83.01856514      88.59812540
C      88.18405727      81.22710460      86.51375728
N      85.96929803      80.21232156      86.30777711
H      85.32490135      79.89295782      84.53899328
H      84.91672046      79.87972973      87.86491159
N      89.76008900      81.17608198      84.66560495
H      89.32923141      80.55058257      82.91571838
H      91.61013106      81.42174640      85.06622693
C      87.59257292      79.53957900     100.13301482
O      85.47418973      78.71565832     100.66969709
N      88.89648408      80.62428190     101.84888631
H      90.73707752      80.91341003     101.43314652
C      88.37680934      80.90585112     104.58332029
H      87.03321393      79.43942350     105.12378201
C      90.88825561      80.25389554     106.04218900
H      90.55566379      80.33704350     108.07364479
H      92.19216678      81.79024303     105.61322113
C      92.09390100      77.65741159     105.53574235
H      92.90648332      77.58938145     103.64412631
C      94.16126159      77.24545125     107.52751388
H      95.44438575      78.85360834     107.45948373
H      95.14391928      75.49745441     107.05697203
H      93.19372172      77.14907521     109.34354087
C      90.26275620      75.42942428     105.78707595
H      88.83223338      75.38785029     104.30930997
H      89.39915128      75.60894828     107.65034609
H      91.32100295      73.75134730     105.22960668
C      87.49052771      83.57981385     105.27496012
O      86.88014610      84.10893722     107.48782963
N      87.21273794      85.23899357     103.42302833
H      87.43761536      84.63428115     101.62778833
C      86.56834126      87.88083094     103.63278795
H      85.70095689      88.25877620     105.46204302
C      88.88892517      89.64016614     103.38901326
H      89.92638493      89.70819629     105.16535599
H      88.05177642      91.52233356     103.30964475
C      90.77298232      89.10159414     101.37456501
H      89.63158762      88.81435575      99.68703941
H      91.53076257      87.24210345     101.82809932
C      92.87624769      91.06879924     101.10055469
H      91.75563999      92.77900155     100.86055945
H      93.81544167      90.54534504      99.34310922
C      94.57889110      91.41650887     103.39090298
H      95.78453649      89.78189561     103.73294345
H      93.43560669      91.86248428     105.04630323
N      96.42515371      93.47442083     103.21515844
H      97.26986138      93.85992500     104.88000732
H      95.52564398      95.03533477     102.58021039
H      97.78197721      93.07568858     101.93203427
C      84.70129166      88.57436051     101.55030955
O      84.38192792      87.15517604      99.64735516
N      83.13848800      90.52455805     102.03974867
H      83.42761613      91.70752674     103.50806601
C      81.15994456      91.31635338     100.20104497
H      80.10547727      89.60237161      99.77018737
C      79.36092511      93.30434546     101.27818896
H      80.42106157      94.99565051     101.78463562
C      77.32191041      94.06401544      99.34310922
H      78.36692906      95.02021695      97.84833571
H      75.87060060      95.33958071     100.05931549
H      76.35437054      92.38215902      98.65524884
C      78.07024204      92.31601860     103.67814138
H      79.56501554      91.74343153     104.97260391
H      76.97798023      90.58691903     103.43247696
C      76.51121782      94.11503805     105.38267452
H      75.18085050      95.40194167     104.47749561
H      77.99087352      95.36225742     106.09132188
H      75.53611904      93.11726256     106.89634529
C      82.42795091      92.28389325      97.74251103
O      84.17027857      93.85614554      97.72739322
N      81.39238090      91.45619313      95.58444358
H      79.91272518      90.26188611      95.74129087
C      82.18984539      92.27255489      93.01252607
H      83.20084897      94.05267708      93.21661651
C      83.89059908      90.13338471      91.90892590
H      85.32301162      89.54379010      93.26196994
H      85.08868556      90.94407730      90.44060856
C      82.51865778      87.87138231      90.85634835
C      82.22575019      87.45375279      88.25419522
H      83.14037773      88.87860643      87.11846970
C      81.25254115      85.12749970      87.31122179
H      80.99364865      85.06702846      85.28732490
C      80.42673074      83.18675079      88.99685766
O      79.34769703      80.97955045      88.35624044
H      79.41383744      80.94175592      86.54399290
C      80.64782873      83.67430017      91.62357723
H      80.17728687      82.19086501      92.94638565
C      81.77977479      85.95897928      92.52308696
H      82.64148998      86.19141562      94.35990093
C      79.81067996      92.74120702      91.35334637
O      77.61481800      92.60703645      92.23773828
N      80.35492114      93.66150373      89.03087273
H      82.19929403      93.74276196      88.55088225
C      78.38015714      94.24164971      87.07311627
H      76.65105758      94.13393532      88.18994452
C      78.48598183      97.01765767      86.13581202
H      77.76788583      97.21796865      84.21585008
H      80.45885609      97.61292145      86.13581202
C      76.92884735      98.69384490      87.98774381
H      77.47686798      98.43306268      89.95494890
H      74.94274498      98.21385442      87.73641021
C      77.04034119     101.37347682      86.96918132
H      76.40917261     101.31489530      85.00953514
H      78.83747092     102.33534751      87.26775808
C      74.97864978     102.73030031      88.38836578
H      75.27722654     102.68683660      90.42549075
H      73.26466802     101.71173783      87.87058077
N      74.89172238     105.44772675      87.63436498
H      74.04323526     105.67071445      85.93739076
H      76.62082195     106.24897070      87.73829993
H      73.66528999     106.57967281      88.56033088
C      78.11181601      92.16106104      85.00764541
O      79.99020397      91.39761162      83.96073703
N      75.81201910      91.51099519      84.43883779
H      74.35692983      91.99854458      85.57645303
C      75.04667993      90.13716417      82.05022373
H      76.36948835      88.55924269      81.96140659
C      72.43696790      88.97687220      82.30722651
H      71.16140264      90.58502930      82.12959223
H      72.06091235      87.96397890      84.06089253
C      71.95130823      87.27989797      80.00365013
O      73.10593102      85.23710383      79.97719396
O      70.93274575      88.16806934      78.00431969
C      75.92918213      91.63571713      79.72019119
O      75.97264583      93.96574967      79.94884807
N      76.03878625      90.64550054      77.38071001
H      76.00477118      88.74065641      77.26165725
C      76.34492191      92.02122129      74.87682265
H      78.18173588      92.88293649      74.52344383
C      75.93674103      90.24487856      72.61859970
H      74.00355100      89.55890791      72.42962707
C      76.69074183      91.66973221      70.13549933
H      75.43785328      91.12738075      68.59348265
H      78.60503458      91.55445889      69.38338825
H      76.08602941      93.63882702      70.16762467
O      77.47686798      88.20586387      72.69040930
H      76.89672200      87.17596303      71.31657827
C      74.19441337      93.94685241      74.64438631
O      74.51377712      96.02555135      73.57291149
N      71.99099248      93.22875641      75.70263304
H      71.88705753      91.48453902      76.46797220
C      69.72332090      94.83502377      75.76499401
H      69.72332090      96.04066916      74.09447595
C      67.47832604      92.99820981      75.69885359
H      66.98699720      92.86214950      77.69629430
H      67.91296310      91.10281431      75.02422130
C      65.10860926      94.12637641      74.32880201
H      64.83081949      96.13893493      74.67651166
H      63.30770007      93.24576394      74.79367469
C      65.49411342      93.49709755      71.63594202
O      65.08404282      91.29367666      70.95753027
O      66.11583337      95.22241768      70.13549933
C      69.65907021      96.95151724      77.74164774
O      67.95453708      98.44629077      77.77566281
N      71.48832529      96.78333161      79.53688773
H      72.69019123      95.30556563      79.42917333
C      71.90973425      98.69384490      81.48519556
H      71.59981913     100.49475408      80.53655295
H      73.94685921      98.80911821      81.77621341
C      70.57369775      98.35558389      84.05333362
O      70.32992305     100.13192663      85.53487905
N      69.46820786      96.18617810      84.34435147
H      69.36616263      94.88793612      82.95162318
C      68.31169535      95.29989645      86.72729635
H      67.08526298      96.62270487      87.72318212
C      66.35015945      93.26466121      85.98652364
H      65.20687502      92.59002891      87.56444511
H      67.40651646      91.71130618      85.14370570
C      64.48688929      93.94307295      83.89081716
C      63.74800630      92.20452475      81.98597304
H      64.58893452      90.36960050      81.67605792
C      61.75623477      92.83569334      80.35513923
H      61.40663540      91.53178218      78.82257119
C      60.33705031      95.09391628      80.58946529
O      58.36039658      95.68918007      79.06256643
H      58.15819587      97.49197897      79.08713287
C      61.13451481      96.89482546      82.34691076
H      60.08382698      98.64282230      82.39604364
C      63.17730896      96.31467948      83.98719320
H      63.57037203      97.71496667      85.41960575
C      70.21653947      94.40605591      88.62458157
O      72.15728841      93.18718243      87.91215475
N      69.84048394      94.77644227      91.08689496
H      68.42507893      95.97641848      91.52720119
C      71.57147324      93.93929350      93.00307744
H      73.52545026      94.29645177      92.45505681
C      71.17841018      95.38304440      95.22728531
H      72.64672752      94.66494841      96.48206358
H      69.31702975      95.14493889      96.07388270
C      71.82280685      98.13259619      94.94571609
C      69.86882983      99.94295400      94.87201676
H      67.92241173      99.34580048      94.99862843
C      70.49621898     102.49786398      94.71705921
H      69.03168107     103.91704843      94.80587634
C      73.03979058     103.20084216      94.63580097
O      73.42340504     105.66693500      94.60934481
H      71.84926301     106.56833445      94.56777083
C      74.98053952     101.44906588      94.79264826
H      76.96664186     101.91393854      94.74729483
C      74.32291475      98.94139905      94.81154552
H      75.84036499      97.57701665      94.92114965
C      71.21431498      91.08013759      93.38669188
O      69.07514478      90.08047237      93.64180493
N      73.31380090      89.69685793      93.50574464
H      74.87849429      90.65683891      92.97284182
C      73.58025231      86.99076985      93.60212068
H      71.75477670      86.34448346      94.29942969
C      74.17929556      85.86071352      91.01130591
H      75.02589295      83.98610501      91.06043879
C      71.80768904      85.73788131      89.42015635
H      70.20331140      85.03868257      90.50485925
H      72.24232609      84.34137356      87.96884654
H      71.27289648      87.59170282      88.70206035
O      75.93674103      87.52934185      89.74518928
H      77.58836182      86.90384244      90.15903934
C      75.55690603      86.10070875      95.62034838
O      77.13860697      87.59170282      96.42159234
N      75.36415396      83.68563853      96.42348207
H      73.86371127      82.67841440      95.80176211
C      77.24821109      82.49511096      98.12612547
H      78.97164148      83.47776863      97.57243566
C      76.36759862      82.84848977     100.96827385
H      75.95941774      84.85915857     101.13834922
C      73.74654824      81.48977655     101.19693073
H      73.65395165      79.56225571     100.47316556
H      72.29334869      82.42897053     100.07443330
H      73.20041732      81.34048817     103.17736391
C      78.07969066      81.93575196     103.06964951
H      78.56157088      79.94020097     102.92414058
H      77.06490763      82.24566708     104.83465389
C      80.51176843      83.45509192     103.37578517
H      80.04122657      85.42607646     103.73861262
H      81.77221589      83.00344733     101.81298151
H      81.18451100      82.98643979     105.26740121
C      77.52222141      79.71910300      97.16047533
O      76.29200958      78.79502684      95.41625794
N      79.10014287      78.53235487      98.57965979
H      80.22075058      79.43753378      99.83254834
C      79.59714089      75.82626679      98.57965979
H      77.99654270      74.79069678      99.35822703
H      81.00687672      75.52013113     100.04986686
C      80.55712186      74.99667694      96.04931626
O      82.80778591      75.24990028      95.45594219
N      78.85069900      73.82882609      94.57721946
H      77.11215079      73.39985821      95.23673394
C      79.13226822      73.92331239      91.81254986
H      80.27366291      75.59005100      91.41003816
C      80.32279579      71.47989628      90.58989694
H      78.61826267      70.34795021      90.34234279
C      81.14482674      71.93343059      87.84601433
H      79.49509567      72.68932111      86.86902583
H      81.32057130      69.99079194      87.19216903
H      82.73975576      73.23167256      87.71562322
C      82.02732893      69.96811522      92.32844515
H      80.80656573      69.16309182      93.77786523
H      83.52777162      71.17754007      93.04654115
C      83.57123534      67.76469434      91.26263951
H      85.28143765      68.42231910      90.31966608
H      82.46385571      66.52503388      90.04754549
H      84.21563201      66.72534487      92.92181921
C      76.59814524      74.64518785      90.66926544
O      74.63282987      73.27891572      90.83745109
N      76.21264106      76.85994709      89.48251732
H      77.55623647      78.17897605      89.17449193
C      73.85426263      77.24923071      87.95183901
H      73.48954545      75.60327909      86.76698061
H      74.29078940      78.84982890      86.72918608
C      71.28612458      77.52135130      89.34267757
O      69.22254344      77.21710536      88.31466646
N      71.41273624      77.73866983      91.81066014
H      73.19285842      77.71410339      92.49852051
C      69.15073383      77.74244927      93.47928847
H      67.52556920      77.03569163      92.43426982
C      69.77245379      75.91508393      95.63357647
H      71.54879653      76.47255319      96.51607866
H      69.86505038      74.04236515      94.78319963
C      67.71643156      75.70343458      97.64046581
N      66.25378339      73.45654999      97.83888707
H      66.65629510      71.80681893      96.96394379
C      64.83459894      73.86662060      99.97994699
H      63.56092340      72.50979711     100.82087520
N      65.27868462      76.31570591     100.76985259
H      64.19587144      77.18875946     102.07943292
C      67.02101228      77.53268965      99.30531469
H      67.63328361      79.47721803      99.34121949
C      68.61027212      80.52979559      94.03108855
O      70.23732646      81.82992729      95.00429761
N      66.54480125      81.51812245      93.17693226
H      65.31458942      80.33515377      92.32655542
C      65.55836411      84.05035571      93.60401041
H      66.82259102      85.41095866      92.70828014
C      62.95810070      84.29035095      92.25474582
H      61.76001422      82.87494594      93.14858637
H      62.87873220      83.71209470      90.27809210
C      61.68631490      86.87549654      92.25852527
H      61.69576353      87.70508639      94.14447213
C      63.18675759      88.59703722      90.38580650
H      65.18230858      88.86348863      90.82044355
H      62.29669649      90.44707927      90.55399214
H      62.97888769      87.96397890      88.43749867
C      59.03691860      86.85848901      91.27586759
H      58.94621174      86.21409233      89.32378031
H      58.24890273      88.75010505      91.47806831
H      57.85206021      85.62260800      92.42482119
C      65.28246408      84.71175992      96.32710602
O      64.46232285      83.24344258      97.97872682
N      65.83048471      87.18163221      96.69560266
H      67.08904243      87.92618437      95.46917028
C      65.29191270      88.70664134      98.99917903
H      64.75523043      87.34603841     100.44859911
C      67.73154938      89.77055725      99.91569629
H      67.54635619      91.15383692     101.43125680
H      68.54602141      90.68707452      98.26029604
C      69.69308528      87.76366791     100.91536151
H      70.05780246      86.28779167      99.52452295
C      72.14217060      89.16017566     101.59377326
H      71.68296710      90.90250332     102.58965903
H      73.06435704      89.68362984      99.82876888
H      73.46308928      87.82413915     102.44037065
C      68.70475842      86.67140611     103.42680778
H      68.51389606      88.36271115     104.58521001
H      70.33748196      85.58481347     104.06364555
H      67.16652120      85.30513398     103.32287284
C      63.20376512      90.63038273      98.67792556
O      61.41230458      90.51132997     100.16325044
N      63.36628159      92.22720146      96.63891087
H      64.77601742      92.19885557      95.35200725
C      61.51057035      94.06212571      95.87735116
H      59.65107966      93.23253587      96.18915600
C      61.64663064      96.37704044      97.74062131