 %block lattice_cart
   139.252   0.000   0.000
   0.000 142.425   0.000
   0.000   0.000   162.84
 %endblock lattice_cart

 %block positions_abs
N      92.06649997      41.47482187      81.18756366
H      92.62207950      41.45025543      83.01303929
H      93.55371458      41.18569375      80.02727171
H      91.17643888      39.78540655      81.23102737
C      90.56038810      43.75005236      80.68300673
H      91.41265466      45.05207379      82.03038159
C      91.19533614      45.00294090      78.11297896
H      90.63975660      43.77083935      76.55584448
H      93.25135837      45.02561762      78.00904400
C      90.02559555      47.64855774      77.74637205
H      88.03004456      47.35376043      77.32496308
H      90.83061896      48.51972157      76.06451562
S      90.55849837      50.08819441      80.19356763
C      91.77548212      52.81317975      78.36053309
H      90.13897913      53.13632295      77.15488772
H      93.34962414      52.11209129      77.23047677
H      92.25925205      54.37031423      79.61909083
C      87.69745273      43.40801189      81.21024037
O      86.48991762      41.35765884      80.82095675
N      86.61652928      45.28828957      82.44612138
H      87.36297118      47.04195559      82.51793098
C      83.99925834      45.39600397      83.48358113
H      82.86164310      44.07886473      82.37809124
C      84.20712823      44.52672987      86.25203018
H      85.47324486      42.91668305      86.45801035
H      82.38921152      43.69336057      86.74524876
C      84.91577560      46.43913290      88.30427296
O      83.32084659      47.88855298      89.24346694
N      87.22124170      46.28984452      89.25858474
H      87.72012945      47.31407618      90.79115278
H      88.09429526      44.84420389      88.37041337
C      82.68967800      47.95280368      83.28704959
O      84.10319329      49.76694094      82.87319953
N      80.17067283      48.28728523      83.54972156
H      79.15211035      46.75849665      84.06372712
C      78.60031026      50.66645066      82.90910433
H      79.04628567      51.16722813      80.96079651
C      75.76761052      50.03528207      83.09051806
H      75.20825153      48.59531062      81.72802538
C      74.82085764      49.11309563      85.70400955
H      72.76294568      49.14333125      85.75125270
H      75.41234197      50.46802940      87.13642210
H      75.36509881      47.18368507      86.17077195
C      73.93457600      52.28027693      82.21368505
H      74.08953355      53.62576207      83.76704009
H      71.99004762      51.69635150      81.86219596
C      74.88510833      53.40466409      79.60775247
H      73.59064581      54.87298143      78.95957635
H      75.15533919      51.92689811      78.19612691
H      76.70302504      54.31740190      79.93278539
C      79.47525355      52.76404687      84.60607857
O      79.41100285      54.96557802      83.94467436
N      80.21035708      52.23114405      87.05705359
H      80.26326942      50.50960338      87.87908454
C      81.26671409      54.14543680      88.76536617
H      79.85886799      55.64776922      88.78426344
C      81.10608735      53.35931066      91.61507346
H      81.98103064      54.92589377      92.62796676
H      82.49125674      51.88721386      92.00435708
C      78.50771367      52.68278864      92.52025237
C      76.99782235      54.20401832      94.14919645
H      77.80473548      55.97847133      94.75012942
C      74.49393498      53.59741617      94.97122739
H      73.53017456      54.84085609      96.27135909
C      73.48671086      51.27116308      94.24746221
H      71.59509482      50.85731302      94.89185889
C      74.91534395      49.53261487      92.80371130
H      74.26149865      47.62021184      92.52781126
C      77.36820871      50.27527731      91.97034201
H      78.43590407      48.89955656      90.90642610
C      83.75170419      55.16021983      88.00002702
O      84.04083232      57.39009688      87.81672357
N      85.50348048      53.41033327      87.50869819
H      85.14254276      51.53761449      87.48980092
C      87.87697673      54.26448956      86.40320829
H      88.69333850      55.78571924      87.52759545
C      89.81583593      52.17445226      86.39375965
H      89.48135437      50.81573904      84.88386834
H      89.85174073      51.30706788      88.26080925
C      92.47657058      53.02293937      85.97046097
H      92.35373837      54.30606354      84.36419360
H      93.73323858      51.45824599      85.50747802
C      93.66142898      54.46291082      88.20033801
O      95.14864359      53.40844354      89.67054509
O      92.85451584      56.51893305      88.85796276
C      87.64265067      55.63265141      83.80861407
O      88.95034128      57.36742017      83.23602698
N      85.76426271      54.80117183      82.25903849
H      84.90065779      53.13065377      82.58218168
C      85.13687358      56.26570973      79.93467512
H      86.65243408      56.31673234      78.54194682
C      82.95990887      54.93723213      78.53438793
H      81.27049354      55.23769861      79.67389289
H      83.50226032      52.96246813      78.30762076
C      82.44779304      56.03327339      75.91144780
H      83.78760899      55.26982396      74.55084485
H      82.64999375      58.07606753      75.72436489
S      79.24092748      54.90321706      74.87209832
C      79.30895763      55.42100206      71.51783412
H      81.21191203      55.01660063      70.84131211
H      78.97258635      57.36742017      70.93768814
H      77.95780332      54.11331146      70.67690592
C      84.52460225      59.07762248      80.33907654
O      85.50348048      60.65176450      78.94823799
N      82.98069586      59.56895132      82.22502341
H      82.47613893      58.18756139      83.44011742
C      82.34007864      62.20889898      82.90910433
H      82.13409847      63.30682997      81.17811504
C      79.78894811      62.15598664      84.32828880
H      79.76627140      64.12508146      84.93678067
H      79.98170020      60.95223098      85.98935823
C      77.39844433      61.35474269      82.79194130
H      77.67056492      59.48391364      81.97368982
C      75.20069263      60.96545907      84.59474020
H      74.45047128      62.84006757      85.00481081
H      75.55785090      59.92610960      86.33706786
H      73.67001431      59.98280138      83.62531060
C      76.71436340      63.36730121      80.84363348
H      78.21102664      63.39942656      79.42822847
H      76.65578189      65.25513780      81.67133361
H      74.91345423      62.89864909      79.96113128
C      84.39610086      63.65076016      84.43222375
O      84.14287754      65.88063721      84.39442922
N      86.32362170      62.60952096      85.78904723
H      86.04205248      60.75380972      86.13486715
C      88.50625559      64.00980816      86.92477275
H      88.05272128      65.95811599      87.41232213
C      89.41143450      62.62652850      89.35307106
H      90.91187719      63.77548209      90.17510200
H      90.27692915      60.85963439      88.74079973
C      87.45934722      62.16732500      91.51680769
H      86.10252372      60.85207549      90.69855619
H      86.41243884      63.91343212      91.82294335
C      88.71412549      61.14309334      93.90164230
H      87.00392318      60.72357410      94.97122739
H      89.51914890      62.75125043      94.90697669
N      90.18244283      58.79983271      93.36118058
H      91.25391765      58.91510602      91.78514882
C      90.30338532      56.69656733      94.68209927
N      89.34718380      56.52838168      96.89496877
H      89.88575580      54.95234994      97.82660384
H      88.32673160      57.99669903      97.56204216
N      91.64887045      54.83707663      93.92809847
H      92.14586847      53.55962165      95.25468634
H      92.64097677      54.96746775      92.30293384
C      90.61896961      64.29704656      84.94433958
O      91.94555748      66.23779548      85.07473069
N      90.70778675      62.97423814      82.73902897
H      89.73457770      61.33395570      82.72580088
C      92.11374313      63.69233414      80.46757793
H      93.86929887      64.49357809      81.18378422
C      92.65420485      61.35663241      78.78572152
H      90.80983197      60.60263162      78.25848788
C      93.80315845      62.07661814      76.24592936
H      92.42176852      63.09518062      75.10642438
H      94.50046746      60.40987953      75.25571276
H      95.44155116      63.27092517      76.61064654
C      94.39842224      59.35919170      80.16522172
H      94.83305929      57.90788189      78.77060370
H      93.28726317      58.44078471      81.64109797
C      96.80026438      60.54216037      81.39354384
H      96.26925129      61.96701401      82.78249268
H      97.88118783      61.37930913      79.85152716
H      97.64497204      58.92455465      82.35163508
C      90.67755113      65.76536390      78.98981197
O      91.91910132      67.61729569      78.23203172
N      88.08484663      65.62741388      78.69879411
H      87.15321155      64.01547734      79.12209280
C      86.61274983      67.73823817      77.52716379
H      87.45556776      68.22200811      75.71113680
C      84.02382478      66.64597636      76.75237601
H      82.71802390      68.18043413      76.31584922
H      82.97313695      65.65575978      78.21880362
C      84.20145905      65.18332820      74.19179685
O      82.44590331      63.69044441      73.82896940
O      85.43734006      66.07716874      72.40411577
C      86.49747652      70.16464676      79.06162156
O      87.75414452      72.02413745      78.50226258
N      85.15577084      70.17598512      81.21213010
H      84.25248166      68.56593830      81.69778976
C      84.27515838      72.43042861      82.58407141
H      84.54538924      73.98000418      81.25559381
C      81.51048878      72.02602718      83.09618724
H      81.27049354      70.77880781      84.71757241
H      80.79050306      70.89597084      81.53149385
C      80.02894335      74.41653096      83.34941056
H      80.90577636      75.65619142      84.74213885
H      78.09386361      74.14441037      83.99758669
C      79.90611114      75.89618667      80.74725743
O      81.57662921      77.57993281      80.31262039
O      78.26771843      75.27068726      79.10697500
C      85.94000726      73.22789311      84.76481558
O      85.82095450      75.44832153      85.52448555
N      87.52548764      71.46288874      85.70589927
H      87.17966772      69.70922272      85.03693617
C      89.51347972      71.97311484      87.55216189
H      90.87030321      73.33371779      86.80949945
H      90.48668877      70.21377964      88.00758593
C      88.35696722      72.90663964      90.07494651
O      86.09874427      73.06348692      90.46989932
N      89.97079349      73.24301092      91.97223173
H      91.79815883      73.55292604      91.52058714
C      89.20923378      74.24456587      94.34383825
H      87.20801362      73.84016444      94.62351775
C      90.67755113      72.73467454      96.40741938
H      92.71089664      72.97278006      96.18254196
H      90.27881888      70.71833657      96.26568991
C      90.05205172      73.51891096      99.09461020
H      90.59251344      75.45965989      99.51601917
C      87.12108621      73.31671025      99.57082123
H      86.04016276      74.82660157      98.68076014
H      87.02848962      73.81937745     101.56637222
H      86.33684979      71.41753530      99.41397396
C      91.68288553      71.88807716     100.80859197
H      91.64509100      72.69688002     102.70398746
H      93.64253171      71.90130524     100.16986447
H      91.06494502      69.92654124     100.90685774
C      89.73079825      77.16041357      94.55926705
O      91.70367252      78.01268014      93.82605324
N      87.94311715      78.58526721      95.67042613
H      86.10063400      78.12039454      95.50224049
C      88.21523774      81.12127992      96.82315918
H      90.20322982      81.57859369      97.11228730
C      87.21746225      83.08470556      95.00524246
H      86.67133135      84.76656198      96.05782002
H      85.60174625      82.27968215      94.01124642
C      89.07317349      83.80658101      92.99268394
H      90.03693391      82.08693007      92.39930988
H      90.34495930      85.26922918      93.68621350
C      87.97902195      84.84026131      90.53037056
H      89.56072288      85.31269288      89.29637927
H      86.98124646      86.57691979      91.01036104
N      86.43322583      83.05635967      89.10173746
H      85.69245311      81.53701971      89.98801910
C      85.77371135      83.11683091      86.71123368
N      86.48613817      84.76467225      85.01803890
H      86.12331071      84.56247154      83.15476876
H      87.51603901      86.23487932      85.66999447
N      84.41310840      81.38962106      85.66999447
H      83.87264668      81.43497449      83.84073940
H      84.10886246      79.77957424      86.65076244
C      86.94534166      81.15151554      99.47444520
O      85.05561535      79.86083247      99.79380894
N      88.21712747      82.36660956     101.25834683
H      89.55127425      83.52879124     100.54214056
C      87.49903147      82.59148699     103.88506641
H      86.09874427      81.13639773     104.28946785
C      89.60040713      81.96598758     105.89006602
H      88.77648646      81.82236838     107.77223344
H      91.02148132      83.45698164     105.88439684
C      90.90998747      79.34682691     105.48566460
H      91.75091567      79.36005500     103.60538691
C      93.03781929      78.80069601     107.43586215
H      93.83339407      77.01679437     106.78012712
H      92.19122191      78.62117201     109.30480148
H      94.53259281      80.21610102     107.38106009
C      88.85585496      77.23411290     105.63117352
H      87.88075619      77.16986220     107.44342106
H      89.64954001      75.36328385     105.28346389
H      87.35919172      77.54213828     104.24978359
C      86.12709017      85.09915381     104.47277130
O      85.15577084      85.46576072     106.60438258
N      86.60519092      87.03045410     102.82115049
H      87.83729248      86.76967187     101.38684822
C      85.70379147      89.65528395     103.02524093
H      84.79861257      90.11448745     104.81670148
C      87.96957332      91.41839860     102.63028814
H      87.01148208      93.20796942     102.27690931
H      89.39064751      90.90628277     101.23000093
C      89.59284822      91.48075957     105.13984468
H      90.36952574      89.67796067     105.76345437
H      88.48546861      91.87193292     106.83114973
C      91.68288553      93.65961401     104.71654598
H      90.50747576      95.22808685     104.07970821
H      93.14742342      93.27222011     103.32192797
C      92.93199462      94.38904837     107.25822788
H      94.36629689      92.95852555     107.61727588
H      91.48824372      94.31912849     108.72465549
N      93.85040161      96.96852478     106.81225247
H      94.53259281      97.79622491     108.39206366
H      92.45200414      98.07401468     106.13006126
H      95.33761622      97.00820904     105.61416598
C      83.76304255      90.11448745     101.05047694
O      83.45123771      88.92395987      99.09272047
N      82.04150188      91.97964732     101.44920919
H      82.52905127      93.30056601     102.73233335
C      79.96469266      92.72986866      99.73522743
H      78.87432058      91.02155608      99.37239997
C      78.37543283      94.85581076     101.01079268
H      79.61320357      96.45262950     101.41519412
C      76.08130509      95.37359577      99.35917188
H      76.60853873      95.78744584      97.41086406
H      74.94180012      96.90805354     100.12829050
H      74.90211587      93.69173936      99.20610405
C      77.49104092      93.98275721     103.66963761
H      79.18423569      93.27033039     104.60505213
H      76.19468867      92.38971793     103.53735676
C      76.47436816      96.18050891     105.33070704
H      74.65267199      96.91183299     104.70142818
H      77.87843481      97.68473106     105.41574472
H      76.20791675      95.37170605     107.20531555
C      81.03616748      93.64449620      97.17653800
O      82.70290609      95.26777110      97.21811197
N      79.95902348      92.82624470      94.92020478
H      78.50582395      91.62626850      95.22823016
C      80.65066331      93.69929826      92.45978113
H      81.42923055      95.58146567      92.76780650
C      82.66133211      91.90783772      91.20689257
H      84.37720360      91.95130142      92.34450782
H      83.17533767      92.88671595      89.46834436
C      81.67678470      89.24521334      90.62107742
C      80.75459826      88.63672147      88.19466884
H      80.72814209      90.00866277      86.68477750
C      80.02327418      86.19897452      87.56161051
H      79.35242133      85.87016215      85.66432529
C      80.01004609      84.29035095      89.39275532
O      79.27116310      81.93386224      88.89197784
H      78.53605957      81.96976704      87.23090842
C      80.71113455      84.86860720      91.90609131
H      80.68278866      83.34359807      93.25913535
C      81.47458398      87.40273019      92.50513455
H      81.82985253      87.73721174      94.48745745
C      78.46802942      94.31156959      90.63430551
O      76.52539077      93.16072626      90.67776921
N      78.81195961      96.34491510      89.09795802
H      80.48247767      97.25765291      89.23779776
C      77.07152168      96.99120150      87.12886319
H      75.07219124      97.01765767      87.62208175
C      77.18301553      99.66138478      86.06872673
H      75.95280370      99.44406625      84.43222375
H      79.04250622     100.06389648      85.27882114
C      76.34019759     101.62103097      87.97546058
H      77.86709645     101.69473029      89.35496079
H      74.44102265     101.19206309      88.64631343
C      76.18901949     104.28743479      86.91343439
H      74.90778505     104.34034713      85.29960813
H      78.01449511     105.00364107      86.29171444
C      75.18746454     105.96740149      89.07528129
H      76.71058395     105.99763711      90.46045068
H      73.47348278     105.20584178      89.92754786
N      74.55062677     108.45050186      87.89987152
H      73.26372315     108.33711828      86.49391515
H      76.13043797     109.17804649      87.10996592
H      73.63033006     109.76386165      88.93544155
C      77.42679022      95.12226217      84.96512657
O      79.55651178      94.48542441      84.23758193
N      75.37454745      94.24353944      83.88987230
H      73.70402939      94.37582028      84.80638955
C      75.35187073      92.52199877      81.78660690
H      76.89766685      91.16895473      81.93589529
C      72.79507103      90.97053347      81.71290758
H      71.04707419      91.82657948      81.03638555
H      72.18468943      90.56046286      83.64042842
C      72.80640939      88.61404475      80.13309639
O      70.91857280      88.01689124      78.74981673
O      74.74715831      87.30068497      79.95357239
C      75.86209683      93.89771952      79.26760173
O      75.95280370      96.13704520      79.01059896
N      75.87721465      92.42751245      77.15110825
H      75.92445780      90.52077860      77.22669731
C      75.63532968      93.39883178      74.51871950
H      76.99404290      94.93517927      74.32029825
C      75.91878862      91.25966159      72.55340413
H      75.85075848      92.11003843      70.67879564
C      78.14677595      89.41906816      72.85953980
H      78.02016428      88.41751322      74.65666952
H      79.98547965      90.34503406      72.83497336
H      78.27905679      87.90161793      71.47248068
O      73.99882669      89.63071751      72.37010068
H      72.95758749      89.86882302      70.90367306
C      73.17679574      94.65172032      74.15211260
O      73.02183819      96.69451447      73.07118915
N      71.30596669      93.64071675      75.52972309
H      71.73304484      92.06468500      76.51804995
C      68.85688139      95.02399641      75.85664574
H      68.37500118      95.82146091      74.01794204
C      66.72149066      93.03600433      76.25159853
H      64.99617053      94.14149422      76.03994918
H      66.77062354      92.22909119      78.14699402
C      66.62700434      90.79289919      74.40722566
H      64.97538355      89.66662231      74.90233394
H      68.25216897      89.54379010      74.59619828
C      66.35299403      91.24454378      71.59342317
O      67.51328598      89.78567507      70.05140651
O      65.05097260      93.04167350      71.04351281
C      68.94569853      97.22552756      77.65566519
O      66.95770645      98.38204006      77.98258784
N      71.05085364      97.62237009      78.95768662
H      72.62877511      96.57168226      78.74225782
C      71.46470370      99.64248752      80.59418960
H      70.34220627     101.23363707      79.92333677
H      73.46970332     100.04121977      80.84363348
C      70.25149941      99.31367514      83.26437289
O      70.93558034     100.59113012      85.08228960
N      68.32964775      97.71496668      83.70467912
H      67.60399285      96.61325624      82.32517891
C      67.26006266      97.13482070      86.25203018
H      66.48338514      98.93384015      86.88508850
C      65.15868700      95.13549026      85.90432055
H      63.94548270      95.17895396      87.56916942
H      65.88812135      93.25332285      85.49236020
C      63.32943193      95.84224790      83.83318051
C      62.89479487      94.28133397      81.76204046
H      63.80942241      92.47097616      81.53905276
C      60.91625143      94.92195119      80.15577310
H      60.60255686      93.80512293      78.47580641
C      59.55375875      97.26521181      80.40143751
O      57.58466394      97.59213447      78.82540577
H      56.87034739      99.23241691      79.12965171
C      60.33421572      98.92817097      82.29683300
H      59.34588886     100.71396233      82.33462753
C      62.11811736      98.20251606      84.13742643
H      62.62078456      99.47430187      85.65109721
C      69.11010472      95.74587186      88.18522020
O      70.77306387      94.40794563      87.33673309
N      68.70570329      96.14838356      90.70611510
H      67.53596270      97.60347282      91.09350899
C      70.52739945      95.27155055      92.62229758
H      72.45114084      95.47375127      91.91742967
C      69.96615074      96.72663981      95.02225001
H      70.80896867      95.96508011      96.74001121
H      67.92524632      96.90994327      95.23200963
C      70.77684333      99.52154503      95.06571370
C      69.09498691     101.46985286      95.33405484
H      67.11644346     101.09568705      95.66853640
C      69.97559937     103.91326898      95.60239597
H      68.73215946     105.49874936      95.92553917
C      72.60231894     104.48018688      95.28681169
O      73.32797385     106.89714683      95.85183985
H      71.97492981     108.10468195      95.76491244
C      74.28039591     102.49975370      95.01469110
H      76.30051334     102.79077155      95.11106713
C      73.30907659      99.98641770      94.92965342
H      74.49960416      98.36503253      94.58950268
C      70.27795558      92.27444462      93.13063397
O      68.12366758      91.32769174      93.52180730
N      72.31886000      90.90439304      93.42732100
H      73.96292189      91.87382264      93.36118058
C      72.72704088      88.13405427      93.47834361
H      70.96770568      87.08903562      93.72022857
C      73.79473625      87.06824863      90.95177953
H      75.85075848      87.00210821      91.05949392
C      72.91979297      84.52467701      90.05226980
H      70.86943992      84.56625099      89.85384853
H      73.44135743      82.93541718      91.25413574
H      73.73993419      84.04090708      88.22679417
O      73.20892109      88.76900231      88.96378744
H      74.62999528      89.87827166      89.16787788
C      74.62621583      87.40650964      95.47767405
O      76.26271881      88.96553385      96.24679265
N      74.67723844      85.04813120      96.37718376
H      73.32419440      83.85760362      95.74412546
C      76.59720037      83.81980910      97.81148604
H      78.36787393      84.85915857      97.63385177
C      75.71847763      84.05980434     100.49489741
H      75.16667755      86.03645806     100.68764948
C      73.26561288      82.34582257     101.13929407
H      71.76705991      82.51778767      99.73711715
H      72.49460454      82.75400346     103.00445394
H      73.74371364      80.34271268     101.16197080
C      77.68379300      83.50989398     102.50178675
H      78.48881641      81.62016767     102.33549084
H      76.79940109      83.38706177     104.35560827
C      79.79650702      85.45064290     102.55847854
H      81.21947093      84.86104830     103.92853012
H      79.25226584      87.40839937     102.89107037
H      80.91333527      85.42607646     100.82748924
C      77.23403814      81.19308952      96.85528453
O      75.99815713      80.02523866      95.19610483
N      79.50548917      80.19909348      97.69621274
H      80.59964070      81.47654847      98.60328137
C      80.01193582      77.64796296      98.21021830
H      78.27716706      76.69365117      98.77713619
H      81.45190727      77.51190266      99.67286646
C      80.88687910      76.32515454      95.87829602
O      82.86920200      76.75601214      94.91453560
N      79.14644117      74.78880705      94.91831505
H      77.57607860      74.58660633      95.98223096
C      79.33919325      73.33371779      92.56749552
H      80.97758596      73.93087130      91.46767481
C      79.95146458      70.57660710      93.32149632
H      78.33763830      69.84150356      94.37407387
C      80.26326942      69.05537741      90.76469662
H      80.25193106      67.00124491      90.91965418
H      82.08685531      69.59961859      89.97668074
H      78.77227536      69.58261105      89.44377793
C      82.47613893      70.33850158      94.93721231
H      81.85252925      70.41409063      96.89874823
H      83.78760899      71.91264360      94.71989380
C      83.88209531      67.70422310      94.86351299
H      84.64554474      67.51147102      92.96055859
H      82.67267047      66.04504340      95.04870616
H      85.48269349      67.58139089      96.15230634
C      76.86554151      73.82315690      91.20311313
O      75.02872753      72.44365669      91.66609607
N      76.79184218      75.87917913      89.80660538
H      78.46613969      76.76168132      89.56283068
C      74.59786993      76.70498953      88.28537569
H      74.22748357      75.05336873      87.11374539
H      75.28006113      78.38495622      87.30649746
C      72.04673941      77.29836359      89.54771288
O      70.03040143      77.34371702      88.32505994
N      71.94847364      77.88606847      91.98923926
H      73.56607936      78.19598359      92.95299968
C      69.62788973      78.46621445      93.40653400
H      68.04429908      77.35505538      92.70166608
C      69.86410552      77.44576224      96.15608579
H      71.07730981      78.62117201      97.33527500
H      70.79574059      75.61461745      96.29970499
C      67.45470447      77.31348140      97.64896957
N      65.94670287      75.14974477      98.09305525
H      66.36811184      73.40552739      97.43920995
C      64.09666081      75.92264283      99.62373358
H      62.68125580      74.66408511     100.38340356
N      64.38767866      78.37739732     100.19443093
H      63.36155727      79.48855639     101.35661260
C      66.47015706      79.31470157      98.89618895
H      67.16746607      81.23088405      99.00390334
C      68.81152796      81.23655323      93.47456415
O      69.96048156      82.80313634      94.81626983
N      66.88400712      81.82614784      92.08750503
H      66.35110430      80.44475790      90.88563910
C      65.78607613      84.43963933      91.92309884
H      67.18069415      85.78512446      91.22578984
C      63.56753744      84.37727836      90.01636500
H      62.61511538      82.61605344      90.50580412
H      64.40279647      83.91807486      88.19277910
C      61.60789126      86.62227322      90.02581362
H      61.16569530      87.07013836      91.98545981
C      62.68881471      89.16395511      89.02425868
H      62.86266953      89.19041128      86.97201591
H      64.62389445      89.31513321      89.71211906
H      61.63812688      90.79289919      89.72345741
C      59.26652035      85.73410185      88.54615793
H      59.72383412      85.58670320      86.54304803
H      57.75662903      87.10415343      88.82961687
H      58.52385791      83.88594952      89.06394294
C      64.84688216      85.21631684      94.67454036
O      64.07020464      83.56091659      96.13907826
N      64.77885201      87.65406379      95.33972402
H      65.44214594      88.92207014      94.07738684
C      63.78674569      88.72742833      97.80959631
H      63.19526136      87.06824863      98.87918140
C      65.71804599      90.29779090      99.20610405
H      64.72782940      91.35036845     100.67253168
H      66.65912969      91.71508563      98.04203265
C      67.69092026      88.51955844     100.40419055
H      68.59042998      87.73910147      98.72422384
C      69.69025070      90.36015187     101.58149004
H      71.14911941      89.37560446     102.65674431
H      68.88522729      91.71508563     102.90807790
H      70.69369537      91.27288968     100.03191446
C      66.71960093      86.74321570     102.36194701
H      66.14134468      85.18608122     101.14307353
H      65.41757950      87.57847473     103.72254994
H      68.39011899      85.94575120     103.26712591
C      61.25262271      90.01433195      97.28236268
O      59.33832995      89.18096265      98.31415324
N      61.27907888      92.04578774      95.82538369
H      63.00628873      92.83002416      95.60428570
C      59.02463539      93.43284685      95.12618495
H      57.46561118      92.14027405      94.75579860
C      57.97016810      95.09202655      97.24267842