 %block lattice_cart
   139.252   0.000   0.000
   0.000 142.425   0.000
   0.000   0.000   162.84
 %endblock lattice_cart

 %block positions_abs
N      89.88008663      42.05118839      81.62220072
H      89.16954954      40.70570326      80.46946767
H      89.56828178      41.77339862      83.48736059
H      91.77170267      41.81686233      81.52582468
C      89.05049677      44.66279017      80.96646569
H      89.85174074      45.85898692      82.43856249
C      89.77426196      45.51127727      78.32840776
H      88.88987004      44.44547164      76.80339862
H      91.82839445      45.39978342      78.22447281
C      89.12986528      48.30807221      77.68968026
H      87.16077046      48.82018804      78.01849264
H      89.62875302      48.40444826      75.69412928
S      90.78715526      50.84597465      79.26760173
C      89.04293786      53.42545107      77.75771041
H      89.15632145      53.19490446      75.71491627
H      90.39409219      54.97313692      77.93156523
H      87.13431429      53.74103537      78.46446805
C      86.13275934      44.63444426      81.27638080
O      84.78916394      42.90156523      80.51104165
N      85.34474348      46.65078225      82.44423167
H      86.69400807      47.93957559      82.84674337
C      82.86731228      46.93424118      83.35319002
H      81.65977716      45.73048552      82.19667752
C      82.84841502      45.56796906      85.84573903
H      83.22825001      43.54974137      85.67566366
H      80.90955582      45.68135265      86.52793023
C      84.17878233      46.88321858      88.01892429
O      83.63643088      49.19246413      88.47245860
N      85.78882916      45.72859580      89.46078547
H      85.61875378      46.37299248      91.24657683
H      86.32929089      43.91445855      89.20189296
C      81.66733607      49.62899092      83.39287427
O      83.02038011      51.51493777      83.29082905
N      79.22014049      49.85386834      83.64798733
H      78.16567321      48.27594688      83.45523524
C      77.86142727      52.23681322      83.34752084
H      78.49259586      53.11931542      81.59763428
C      74.90589533      51.75493301      83.31539550
H      74.56196513      50.57007461      81.66377470
C      73.78339790      50.19779854      85.46023486
H      71.76139074      49.85575807      85.25992387
H      74.36732333      51.06329318      87.23657760
H      74.71314324      48.35909482      85.48102185
C      73.33175331      54.18134159      82.88831735
H      73.36009920      55.24525751      84.65521145
H      71.38911466      53.62954151      82.49147482
C      74.25393974      55.87075692      80.55072590
H      74.23882194      54.66700126      78.87831811
H      76.10398181      56.70601595      80.90221499
H      72.83853473      57.34096399      80.27104641
C      78.45102189      54.15110597      85.50369857
O      78.14866568      56.43578509      85.08606905
N      79.45068711      53.29883942      87.79593658
H      79.90044196      51.47336379      88.12663869
C      80.33507902      55.10730750      89.69511153
H      78.90833566      56.59263237      89.73101633
C      80.68278865      53.38576682      92.07994614
H      81.55395248      54.42511629      93.63330117
H      81.78827856      51.77949945      91.41665220
C      78.23370336      52.30106392      92.96244832
C      76.48570652      53.87520593      94.13596836
H      76.51405241      55.90477199      93.91487039
C      74.12921780      52.76026742      94.77847531
H      72.64956211      54.03205322      95.37184937
C      73.63788897      50.13354784      94.61406912
H      71.78406745      49.41923130      95.08461097
C      75.57674816      48.60853871      93.54448403
H      75.10053713      46.62621581      93.43865935
C      77.75749233      49.70835942      92.66765102
H      78.99148360      48.45736059      91.63019127
C      82.80495131      56.28460698      88.81260934
O      83.03927737      58.56739638      89.14142172
N      84.36964470      54.91266568      87.50302901
H      84.12020082      53.05317499      87.16476800
C      86.83384781      55.96146378      86.80760972
H      87.60674588      57.18978588      88.26836816
C      88.74436112      53.78449907      86.36163431
H      88.17933294      52.63932492      84.74591832
H      88.76136865      52.56184615      88.02270374
C      91.48257453      54.42700602      85.80605478
H      91.62052456      55.68934319      84.18277987
H      92.45578359      52.67334001      85.34307183
C      92.82805968      55.96335351      87.92632770
O      94.60251268      54.87298142      89.06205321
O      92.10807395      58.16110521      88.53670930
C      86.58251420      57.44111949      84.23947166
O      87.33462529      59.58973830      84.19033878
N      85.13309412      56.53405086      82.29494329
H      84.57373514      54.71046496      82.32328918
C      84.43200567      57.91733052      79.95546211
H      85.97780178      58.02126546      78.59863862
C      82.27582795      56.31862205      78.60808725
H      80.58263317      56.57562483      79.74948194
H      82.83707666      54.34574779      78.40777626
C      81.76560183      57.19356534      75.88688136
H      83.39832537      56.57373511      74.79461955
H      81.65788744      59.24958757      75.80373340
S      78.97447607      55.70824047      74.75871475
C      78.85353358      57.01215161      71.83152869
H      77.26427376      56.26948918      70.75627442
H      80.59964070      56.44901317      70.89044499
H      78.49826504      59.03793822      72.00538351
C      83.60997472      60.67066175      80.38442998
O      84.73058242      62.46401203      79.41311066
N      81.72591759      61.01081249      82.13809600
H      81.33474424      59.46312665      83.18311465
C      80.96435788      63.59973754      82.99414202
H      80.55050782      64.86585417      81.42566918
C      78.41322736      63.46178752      84.34151688
H      78.14299650      65.11151859      85.54716227
H      78.42645545      61.80827699      85.56983899
C      76.13988661      63.05171692      82.71446253
H      76.62176682      61.54182558      81.39543356
C      73.82119241      62.23724488      84.10152164
H      73.15222931      63.92288075      85.08039987
H      73.99315752      60.57239598      85.29960812
H      72.41901549      61.71945986      82.68611663
C      75.48793102      65.40253644      81.14221024
H      73.61521224      65.18521793      80.31639984
H      77.00916070      65.76347417      79.80239428
H      75.28762004      67.03148052      82.38565015
C      83.11297670      64.94711240      84.51726143
O      83.37942811      67.15620246      84.34718606
N      84.73436188      63.67343686      86.04227057
H      84.39610086      61.83851261      86.44100282
C      86.89431905      64.79215484      87.40476324
H      86.25748128      66.47212153      88.41009764
C      87.73524726      63.11596760      89.61385330
H      88.39098230      61.36041187      88.76158673
H      86.11575181      62.71534562      90.81949869
C      89.89709416      64.27625957      91.18799532
H      89.15254200      66.06583038      91.88719405
H      91.54304579      64.38019451      89.95400403
C      90.76069908      62.83061894      93.52558677
H      89.06183513      62.48290929      94.63674584
H      92.10996368      63.90209375      94.65753283
N      92.06083080      60.46279186      92.97378668
H      91.54871495      59.56706159      91.36940904
C      93.50647142      59.08896083      94.46856020
N      94.24913387      59.74091642      96.73623177
H      95.15242303      58.44078470      97.80392714
H      93.46678716      61.30183034      97.50724011
N      94.59495377      56.99325435      93.71455940
H      95.73067930      56.12964942      94.98256575
H      94.18677290      56.43956454      91.93254748
C      89.05238649      65.80693788      85.66621503
O      90.38275382      67.59461896      86.33517814
N      89.22813104      64.91309734      83.28327015
H      88.50625559      63.19155665      82.88642762
C      90.90620802      65.79937897      81.25559381
H      92.67877130      66.41165030      82.11163983
C      91.86051980      63.56761219      79.50003807
H      90.17488393      62.82683948      78.57785163
C      93.54048649      64.62963838      77.30606582
H      92.51247537      65.98646188      76.14577386
H      93.92221120      63.15187240      75.92278616
H      95.24312991      65.50458167      78.06762552
C      93.15309260      61.43789064      81.10819516
H      91.83784309      61.00514331      82.63131457
H      94.89353053      61.94433729      82.08707339
C      93.62741390      58.88298066      79.61153192
H      91.93799857      58.48991759      78.49848312
H      94.03937423      57.42033249      81.00237049
H      95.40564636      59.03037931      78.58163108
C      89.64765028      67.91398272      79.98191828
O      90.94967171      69.79237068      79.73625386
N      87.17966773      67.82705531      79.39610312
H      86.29338608      66.14330916      79.50759698
C      85.81906478      69.84339329      78.25092898
H      86.86408343      70.40842145      76.56718283
C      83.10541779      68.91364794      77.46291310
H      81.95079501      70.61818107      77.42133913
H      82.47613893      67.89130601      79.13343117
C      82.96557805      67.24312987      75.04595315
O      81.09663873      65.74835636      74.73414831
O      84.43389539      67.73445872      73.23181589
C      85.57717981      72.09594705      79.89877032
O      85.92110999      74.15952818      78.95579689
N      85.26348524      72.09216760      82.39320906
H      84.96490848      70.31960432      83.03382628
C      84.31484264      74.15952818      83.91632846
H      84.18445152      75.87917913      82.79194131
C      81.64087991      73.38096094      84.70434434
H      81.95457446      71.64808192      85.77203970
H      80.47113932      72.91986771      83.07351053
C      80.21224681      75.29525369      86.29171444
H      81.15333051      75.72422157      88.07183663
H      78.39055065      74.37306725      86.56572475
C      79.74170496      77.67819857      84.82528682
O      79.60186520      77.46654922      82.52548990
O      79.84375017      79.71343382      86.00258631
C      86.22157648      74.75101251      86.00069659
O      86.50314570      76.93553614      86.92288303
N      87.88831509      72.94254444      86.66588025
H      87.55194380      71.17754005      86.02337330
C      89.96134486      73.30915133      88.26647844
H      90.81172170      75.00045639      87.45767557
H      91.19344641      71.66697917      88.11530033
C      89.12797556      73.90441512      91.01791995
O      87.00392317      73.12206844      91.77381047
N      90.68888949      75.13273724      92.65253321
H      92.30649521      75.87162023      91.95900365
C      89.89520443      75.68075787      95.35484184
H      87.84107194      75.65241196      95.50601994
C      90.83250868      73.59261029      97.09716950
H      92.73735281      72.84049921      96.86473316
H      89.50592081      72.06571143      96.70788588
C      90.58117508      74.28425012      99.78058086
H      91.65642936      76.00957025     100.12073160
C      87.75036508      74.87384472     100.55347892
H      87.65398903      75.17431122     102.58682444
H      86.52015325      73.26568764     100.16608503
H      87.10029922      76.51601690      99.48956301
C      91.52981770      72.16586693     101.58715922
H      93.54615567      72.08838814     101.16763998
H      90.35818738      70.51802557     101.20354478
H      91.39186768      73.03325129     103.44853963
C      90.71345593      78.33204387      96.06348920
O      92.91876654      78.79502682      96.42820638
N      88.90120839      79.95531879      96.51702352
H      87.18722662      79.48666666      95.82349396
C      89.15821118      82.50078013      97.67731547
H      91.01014297      82.87683567      98.49556697
C      88.60452136      84.57758935      95.75924327
H      88.26248091      86.29724029      96.84016672
H      86.80172246      84.16184956      94.85217464
C      90.41487917      84.88939419      93.53692512
H      91.43155192      83.11494117      93.27425317
H      91.99280065      85.95897928      94.32116154
C      89.24891804      85.96086901      91.09539873
H      90.76825799      86.51644855      89.82361292
H      88.19823021      87.59926171      91.77570020
N      87.30816911      84.24310779      89.85573827
H      87.04360743      82.55180273      90.70044593
C      86.49747652      84.45097768      87.50302901
N      87.10407867      86.34448344      86.19911785
H      86.55794776      86.65061911      84.39820867
H      88.30972406      87.62382817      86.94367002
N      85.14443248      82.75211373      86.48635625
H      84.27704811      82.97699116      84.80072038
H      85.07073315      81.14395663      87.51247764
C      87.43478078      82.69920138     100.01112747
O      85.17655783      83.39462067      99.76735278
N      88.43066654      82.42141163     102.35816755
H      90.31472367      82.16629857     102.52446347
C      86.93211358      82.48566231     104.83181930
H      85.15577085      81.45387175     104.68631037
C      88.73869194      81.41040804     106.97287921
H      87.77304179      81.58237313     108.78134729
H      90.52637302      82.43274998     106.95587167
C      89.63631193      78.68920216     106.64217710
H      90.36007711      78.08071028     104.80914258
C      91.56572250      77.84638422     108.66229453
H      90.82872923      77.56859445     110.56524893
H      93.09640081      79.22210498     108.71898632
H      92.44255551      76.08704902     108.04624375
C      87.43856023      76.98655874     107.16563129
H      88.08106718      75.03069201     107.06169635
H      85.85874904      77.29647386     105.88061740
H      86.84707590      77.31159168     109.11204939
C      86.08173674      85.14639696     105.60849681
O      85.07640233      85.42607646     107.71554165
N      86.29716554      87.09659452     103.99467054
H      87.11730676      86.50888964     102.37328536
C      85.18789618      89.73654217     104.32915210
H      84.10319329      89.96330934     106.06392085
C      87.32139720      91.70185754     104.53891172
H      86.45779228      93.55756879     104.30836511
H      88.62341862      91.49020819     102.95721079
C      88.85018578      91.65461439     106.88406207
H      89.97646266      89.93118399     106.86705454
H      87.53115682      91.50532601     108.46009382
C      90.56227782      93.99787502     107.12972649
H      89.60796604      95.69484925     107.80057933
H      91.41265467      94.43062235     105.30425087
C      92.57672607      93.16450572     108.98921718
H      93.40442619      91.41272942     108.29001845
H      91.71879033      92.31979804     110.65973525
N      94.50802637      95.09958545     109.54101727
H      94.08661740      96.31090002     110.95453255
H      94.85951545      96.05011780     107.92530127
H      96.10106565      94.32290794     110.24777491
C      83.33785413      90.50755052     102.21076890
O      83.79894735      89.72331410     100.09427543
N      81.32718533      91.82280003     102.77768679
H      80.95868871      92.49743233     104.52379391
C      79.40344395      92.48231451     100.68953922
H      78.43023489      90.76455329     100.09616516
C      77.29639911      94.04133871     101.75534486
H      78.17134239      95.73075404     102.54147100
C      75.20258236      95.02588612      99.69932263
H      76.25327019      95.93295475      98.17998267
H      73.88166365      96.30712057     100.61961934
H      74.10654109      93.51410508      98.82626907
C      75.70902901      92.33869531     103.71310132
H      76.92979220      91.59225342     105.19275702
H      74.60542883      90.90817250     102.72099500
C      73.85331776      93.96952912     105.12094742
H      72.95380803      92.88671595     106.62705929
H      72.33586754      94.41739426     103.80380818
H      74.67912816      95.75532048     105.72754957
C      80.61664823      93.72008525      98.36328613
O      82.07740668      95.56445813      98.55981766
N      79.84563990      92.78845017      96.14663716
H      78.62487671      91.32013283      96.10884264
C      80.69412702      93.30245573      93.58794773
H      81.82985254      95.02210668      93.61440390
C      82.60841978      91.24265404      92.63930512
H      84.07862685      90.99887935      94.06415876
H      83.52304731      91.87949181      90.90831582
C      81.66355662      88.51766871      92.31238247
C      80.48247767      87.63705624      90.08061570
H      80.38043244      88.84837081      88.44411271
C      80.07051734      85.05191065      89.81605401
H      79.33352407      84.43963933      88.01703456
C      80.72625236      83.27556791      91.76814129
O      80.30295367      80.71120930      91.39208576
H      79.98736938      80.41452227      89.62897111
C      81.71835868      84.14862147      94.08494575
H      82.26071013      82.78990826      95.50790967
C      82.25315122      86.75455405      94.27769784
H      82.90888625      87.39895073      96.09750428
C      78.33574857      93.60859140      91.75113376
O      76.27972635      92.66183851      92.34639755
N      78.68156849      94.63660250      89.45889574
H      80.36720437      95.41328003      89.02047924
C      76.64255381      94.60636688      87.40287351
H      74.74526859      94.15661203      88.06616745
C      76.60475928      97.16316658      86.14620551
H      75.02305836      97.15182823      84.82528682
H      78.36031503      97.54867076      85.14276084
C      76.10209208      99.40627172      87.84695919
H      77.67434436      99.71996630      89.13575254
H      74.65456172      98.72219080      89.14520117
C      75.11943439     101.82323168      86.58651174
H      73.43379853     101.18261446      85.59251570
H      76.41389691     102.57345303      85.16921701
C      74.84353436     104.01342447      88.50458395
H      76.68979696     104.38192111      89.33795326
H      73.79662597     103.63547922      90.23746298
N      73.96103217     106.30188304      87.27626185
H      73.80607461     107.75130313      88.50269423
H      72.15067436     106.33211866      86.67343915
H      75.10242686     107.00675096      85.91943836
C      77.41356214      92.53144740      85.47346295
O      79.50548917      92.50121178      84.44923128
N      75.66367557      90.89305468      84.87064025
H      74.09142327      90.76455329      85.94589452
C      75.85831739      89.20741881      82.82028720
H      77.73103615      88.35137280      82.84863310
C      73.69269103      87.19486029      82.98469339
H      71.80296472      88.00555288      82.89209680
H      73.83064105      86.42007249      84.88953751
C      73.88166365      85.14639696      80.87953828
O      75.73926463      83.67996935      80.94378897
O      72.44736138      85.18797095      78.96146607
C      75.65044749      90.71731014      80.33529710
O      74.67534871      92.77711181      80.51671083
N      76.45925035      89.68551957      78.23770089
H      77.35876008      88.01311179      78.41155571
C      76.34019760      90.79667865      75.70357791
H      77.55529162      92.45396861      75.79239504
C      77.55718133      89.20363936      73.67779130
H      76.02839275      88.07547274      72.88221652
C      78.57007465      91.09147594      71.69735812
H      80.00248719      92.29712133      72.56285278
H      77.14711073      92.46908643      71.13421968
H      79.44312819      90.28078335      70.01928116
O      79.60186520      87.66918159      74.39777703
H      78.90644592      85.99299436      74.34864414
C      73.62655061      91.60170204      74.68123597
O      73.27884097      93.35158861      73.23937480
N      71.71981675      90.44518955      75.92089643
H      72.23382231      88.86159890      76.85442123
C      69.09687664      91.32013283      75.66389365
H      68.78129234      91.61870959      73.65133513
C      67.45848392      89.04679207      76.47836570
H      65.67080283      89.88961000      77.06607058
H      68.28807378      88.21909195      78.17156047
C      66.86510986      86.86037873      74.67556679
H      65.95615151      85.34481822      75.73759298
H      68.58854025      86.12149575      73.81763105
C      65.10577466      87.65406379      72.44568974
O      63.47683058      86.07614231      71.73326292
O      65.22671715      89.84614631      71.52728276
C      68.51106148      93.77488731      76.97536372
O      66.45881870      94.84447241      76.48403487
N      70.35543435      95.05990121      78.26982624
H      72.10532093      94.30967985      78.14321458
C      70.04173979      97.12726179      79.98002855
H      68.67357795      98.51054145      79.29594763
H      71.83886951      98.09102221      80.25781832
C      68.90790401      96.35247401      82.69556527
O      68.83609440      97.88882150      84.29238400
N      68.30130186      94.02055173      82.99225230
H      68.56019437      92.77144263      81.57117811
C      67.19392224      93.10781393      85.38464581
H      65.97504876      94.68006621      85.92888699
C      65.47805074      90.75510467      85.00292109
H      64.38011976      90.55668340      86.73580012
H      66.59298926      89.05246125      84.69300598
C      63.69414911      91.01777662      82.79761049
C      62.82487501      88.76711257      81.74692266
H      63.45793331      87.08714588      82.71446253
C      60.85578019      88.80301737      79.99892582
H      60.15658145      87.06068971      79.19390241
C      59.91280675      91.17084445      78.95201744
O      57.98339619      91.10470403      77.22102814
H      57.26907964      92.73364811      76.87709795
C      60.81609593      93.46497220      80.01215390
H      60.40791505      95.36603686      79.39232367
C      62.65290991      93.29678655      81.98502817
H      63.44659496      95.08446765      82.56517415
C      69.07231020      92.61837481      87.54460298
O      70.88266800      91.13682938      87.18366526
N      68.65657040      93.97519829      89.68944235
H      67.34887980      95.36414713      89.68944235
C      70.05307815      93.62748866      92.05726942
H      72.04295996      94.00165447      91.67743443
C      69.07231020      95.33958069      94.13974782
H      69.36143832      94.66116895      96.06537893
H      67.02384686      95.47753072      93.98667999
C      70.06630623      98.02677152      94.22856495
C      68.25972787     100.01854305      94.46289102
H      66.24905908      99.66138478      94.52147253
C      69.08175882     102.49975369      94.82382874
H      67.73060451     104.02098338      94.97878630
C      71.70280922     102.99675172      94.81626984
O      72.60987785     105.42505003      95.07516234
H      71.14345024     106.45306115      95.37373910
C      73.50182867     101.09568705      94.59895131
H      75.48793102     101.43205832      94.93154314
C      72.63444429      98.62959421      94.36273552
H      73.97426024      97.08946726      94.29470537
C      69.95670211      90.97053347      93.10984698
O      67.98949701      89.81780040      93.54448403
N      72.16579216      89.92173535      93.74290529
H      73.66434514      90.99887935      93.26480453
C      72.75538678      87.16273494      94.01124643
H      71.09242762      86.21409234      94.77658558
C      73.52450538      86.11771629      91.42799056
H      75.18746454      87.07391781      90.67398976
C      73.89300201      83.25478093      91.31082753
H      75.57485843      82.52345684      92.24813178
H      73.98559861      82.47810342      89.40598340
H      72.37177234      82.35905066      92.37285371
O      71.52328522      86.48054375      89.62141220
H      71.84453869      88.16617962      89.02992787
C      75.08352960      86.74321570      95.68932339
O      76.47058870      88.61026530      96.15986525
N      75.23659742      84.66829621      96.81371055
H      73.77772871      83.45698164      96.59072284
C      77.14522100      83.85382417      98.76390810
H      78.77416509      85.08025654      98.47289025
C      76.39499966      84.56247154     101.57771058
H      76.04162084      86.59203759     101.60038730
C      73.83253077      83.38517205     102.60761143
H      73.65111705      83.76122758     104.62772885
H      73.80229515      81.38962106     102.10494423
H      72.44547166      84.16562900     101.30370027
C      78.71558357      84.12027557     103.45420881
H      80.39177081      84.60593524     102.36005728
H      78.76093699      82.10393760     103.86805888
C      78.79873152      85.82858816     105.91463247
H      77.02616824      85.48654771     106.90673879
H      78.68912739      87.86571312     105.63117353
H      80.29917421      85.12372025     107.14106485
C      77.76505124      81.07025730      98.53525122
O      76.18524004      79.57170435      97.63763122
N      80.00059746      80.34460241      99.34405408
H      81.24592711      81.78835331      99.27224448
C      80.79617224      77.77646434      99.90719252
H      79.39966449      76.84293955     101.09960983
H      82.49503619      77.77268489     101.06559475
C      81.43867918      76.43853812      97.42031270
O      82.60841978      77.51568212      95.69121312
N      80.56940508      74.05559324      97.12740512
H      79.40155422      73.39796847      98.48422861
C      80.63176605      72.57404781      94.82382874
H      82.19456972      73.24868009      93.66353679
C      81.17789695      69.76402477      95.35862129
H      79.40344395      68.99868561      96.07293784
C      81.84874980      68.41664991      92.86985173
H      80.68845783      69.07238494      91.29948917
H      81.52749633      66.38897359      93.03047847
H      83.72335829      69.14230482      92.42009687
C      83.27549317      69.20466579      97.28992158
H      82.80684104      70.32149404      98.96043964
H      85.12931468      69.89441589      96.72111396
C      83.54005485      66.49668798      98.31604297
H      84.30917346      65.20978436      96.90252769
H      81.74670457      65.65387004      98.87729168
H      84.60963994      66.31905371     100.06781926
C      78.06929716      73.02758212      93.28937098
O      76.38177158      71.46666819      92.81882912
N      77.90678071      75.49934414      92.60340032
H      79.31462681      76.66341555      93.15520041
C      75.76194134      76.37617714      90.98957405
H      75.58619680      75.17809066      89.32283545
H      76.38177158      78.15818905      90.16187393
C      73.12766287      76.56326006      92.17254273
O      71.31541533      76.06248258      90.76091717
N      72.88199843      76.91285941      94.55926706
H      74.42779456      77.58182254      95.45877678
C      70.33086791      77.33804783      95.72522819
H      69.08175882      75.90374556      94.93721232
C      70.58976042      76.94876421      98.67887042
H      71.70658868      78.45487608      99.52735754
H      71.32108451      75.03825092      98.91130676
C      68.05374771      77.06781697     100.02813501
N      66.17913920      75.24612081      99.90152335
H      66.24527962      73.51513150      99.09649994
C      64.27807454      76.01334970     101.36795096
H      62.79841883      74.88518308     102.20887917
N      64.83365407      78.33960278     102.24667370
H      63.55619909      79.36005499     103.23122111
C      67.15045853      79.09738304     101.30936945
H      68.22760254      80.78868809     101.70054280
C      69.37277667      79.97988523      95.14886167
O      70.22126379      81.99433348      96.22789539
N      67.59265448      80.14429141      93.25913536
H      67.39801268      78.46432472      92.37663317
C      66.09977070      82.49889040      92.70166609
H      67.35832842      84.00311255      92.06860778
C      64.38578893      81.89606771      90.43588424
H      62.62645373      81.02679360      91.05760420
H      65.45726375      80.62050244      89.22267995
C      63.67336212      84.11460639      88.71623330
H      65.39679252      85.08025654      88.13230787
C      62.25795711      82.93541717      86.44667200
H      61.58143509      84.41507289      85.18244509
H      60.50429108      81.95086977      86.88697823
H      63.50895593      81.63528548      85.45078623
C      62.25228792      86.16306972      90.10329241
H      61.87812212      87.52745212      88.60662917
H      63.38234427      86.95297532      91.63397073
H      60.53263699      85.45253263      90.99146378
C      64.69570405      83.37194396      95.13185413
O      63.49950730      81.90929580      96.58883312
N      65.09254658      85.78134501      95.91798028
H      66.33787621      86.89628353      94.99579384
C      63.83776830      86.91896024      98.08927581
H      63.13101066      85.50166551      99.40452533
C      65.83331929      88.57436050      99.40641505
H      64.77129310      89.75354972     100.71788511
H      66.59109954      89.84047713      97.96644360
C      67.84965727      87.17596303     100.77835635
H      68.65846013      85.87205187      99.39885615
C      69.78473702      89.05435098     101.67030717
H      70.54062753      90.09181073     100.06215008
H      71.18313448      87.94130218     102.69831829
H      68.98160332      90.41684365     102.99122587
C      66.85755095      85.43363537     102.83437858
H      68.39389845      84.64750921     103.96065547
H      65.74639189      83.92374403     101.98211202
H      65.71993571      86.45786702     104.21009934
C      61.56442756      88.65939819      97.35228255
O      59.50273615      88.37027006      98.41241901
N      61.83276868      90.33747514      95.53436584
H      63.59777306      90.42629229      94.82193902
C      59.64635535      91.62437877      94.36840470
H      58.04575715      90.32613679      94.34005881
C      59.15124704      94.11125859      95.86695767