 %block lattice_cart
   139.252   0.000   0.000
   0.000 142.425   0.000
   0.000   0.000   162.84
 %endblock lattice_cart

 %block positions_abs
N      89.18277761      39.79107574      81.09118763
H      88.46279189      38.26606660      80.19734708
H      88.96923854      39.62666955      82.98091393
H      91.04793749      39.58509557      80.73591907
C      88.24547337      42.23638158      80.08396351
H      88.97679745      43.57052836      81.47102262
C      89.21490296      43.22848790      77.53850216
H      88.80105289      41.83953906      76.07585399
H      91.27092519      43.34754066      77.60275286
C      88.28704734      45.83253076      77.00748907
H      86.24614293      45.77205952      76.74103766
H      89.06561458      46.42212537      75.19335180
S      89.23568995      47.93579614      79.43956683
C      92.46145277      48.17390166      78.23014198
H      93.73701802      46.55629594      78.20935500
H      93.52725840      49.54962242      79.32996271
H      92.22334725      48.88065930      76.31018005
C      85.33907430      42.48393573      80.42222452
O      83.92366929      41.22726773      79.14665926
N      84.51515363      44.23571202      82.05116860
H      86.01937577      45.21459025      82.70690362
C      81.82796280      44.56074495      82.84674337
H      80.58452289      43.96737089      81.31984451
C      81.29883943      42.91668306      85.26181360
H      81.75993266      40.94191906      84.90087587
H      79.30895763      43.00550019      85.78715751
C      82.78038487      43.74816263      87.67499410
O      82.67078073      45.95725269      88.40820791
N      83.89343367      42.18346925      89.14898063
H      84.30350427      43.12833240      90.75335827
H      83.80083708      40.27862512      89.11496555
C      81.14010243      47.34053236      83.40232291
O      82.90699653      48.84853395      83.27949069
N      78.90266648      48.04540027      84.02026341
H      77.51938681      46.76605556      83.71412775
C      78.12031978      50.66645067      84.15821343
H      78.66645069      51.56029121      82.38376042
C      75.14589057      50.77416507      84.52482034
H      74.47881718      49.56474023      82.99603175
C      74.39755895      49.47970254      86.97390563
H      72.36988261      49.16600797      87.14587073
H      74.93613093      50.62298696      88.59907026
H      75.10053713      47.54462280      87.06083305
C      73.83442050      53.40088464      84.24514085
H      74.34464661      54.60841976      85.83251094
H      71.78784691      53.18545584      84.28482510
C      74.38433086      54.74070060      81.72424595
H      76.17201195      55.75737335      81.87164459
H      73.05018408      56.29972481      81.52204522
H      74.62810555      53.62765180      80.00837445
C      79.52627616      52.27649749      86.20289730
O      79.93445704      54.54227933      85.90432054
N      80.06484815      51.06140347      88.48568668
H      79.73414605      49.18301551      88.51592232
C      81.44812781      52.21413652      90.63808496
H      80.62987632      53.91866965      91.45822617
C      81.35931068      50.41133761      92.85284419
H      81.98669982      51.36186995      94.57060541
H      82.75014925      48.91278465      92.61284896
C      78.77227536      49.42301075      93.23834837
C      76.90522576      50.98770414      94.23423414
H      77.24915595      52.98136540      94.50824445
C      74.37110277      50.06362797      94.36273553
H      72.91601352      51.34297269      95.00335275
C      73.82686159      47.43123922      93.98667998
H      71.98626817      46.63188499      94.35706634
C      75.79595642      45.78339787      93.16275931
H      75.34809128      43.80674415      92.93221271
C      78.18079102      46.89833640      92.74135035
H      79.52627616      45.53395400      92.04215161
C      84.34885771      52.67711946      89.94455540
O      85.29183113      54.65188346      90.51336302
N      85.67544557      50.95368907      88.59340109
H      84.77593586      49.34931143      88.08317498
C      88.18689184      51.55273231      87.71278863
H      89.14120364      52.76782633      89.07528129
C      89.56072288      49.10742646      87.19311390
H      91.26903547      49.39088541      86.08006510
H      88.27759871      47.95847286      86.06116783
C      90.36952573      48.06240781      89.74991360
H      91.35785259      46.33519796      89.22267995
H      88.62152890      47.55785088      90.71934319
C      92.08539724      49.74237450      91.25035629
O      93.82205572      50.91589454      90.06549789
O      91.69800334      49.89355260      93.59172718
C      88.13208979      53.27616270      85.28260059
O      89.88764553      54.76904649      84.90276560
N      86.23291484      53.21947092      83.62720033
H      84.91577560      51.83808098      83.61208253
C      86.37842377      54.75581841      81.28204999
H      87.94689661      54.43834439      79.98569774
C      84.15043644      53.69379222      79.74759221
H      82.31362247      54.01315597      80.62442523
H      84.53972007      51.69446178      79.44145656
C      83.94445627      54.85408418      77.07173976
H      85.84552095      54.72180333      76.28561361
H      83.62887198      56.88931942      77.09252675
S      81.63521071      53.28372161      74.98548191
C      78.81951851      54.73881087      75.76593887
H      78.19401910      54.41377795      77.70101862
H      77.44757721      53.93945664      74.45446882
H      79.07274184      56.77971529      75.63743748
C      86.00803741      57.56017226      81.83951924
O      87.45745748      59.14754236      80.78505197
N      84.22035632      58.46157171      83.44578662
H      83.07518218      57.12175575      84.18277987
C      83.58729801      61.08640156      84.02026341
H      83.07329244      62.20700926      82.37053235
C      81.46702508      61.23757966      85.97046097
H      81.37442849      63.24446901      86.41832611
H      81.75993266      60.15476648      87.69578110
C      78.84597469      60.63475697      84.50970252
H      79.03116787      58.79227381      83.60452363
C      76.67845861      60.47979941      86.47690762
H      76.40822773      62.29582640      87.41043242
H      77.16033882      59.10029920      87.93010716
H      74.89833642      59.85430000      85.64731776
C      78.09008415      62.45267368      82.49903373
H      78.83463632      62.26748050      80.58852043
H      78.33574857      64.37452534      83.20012220
H      76.06051809      62.28070859      82.20045698
C      85.88331548      62.53771136      85.11819439
O      86.11764154      64.88286172      84.80261011
N      87.52737737      61.12230636      86.57706312
H      87.28738212      59.27982320      87.01170017
C      89.89709415      62.33362092      87.46712421
H      89.12230637      63.80004854      88.68788740
C      91.49769234      60.59507272      89.14520118
H      93.21545357      61.50025162      89.83117183
H      92.29893631      59.00959234      88.10207225
C      89.87441745      59.47257529      91.37129877
H      88.19067130      58.74314093      90.43777397
H      89.40387560      61.13553444      92.49001674
C      91.30494026      57.30694893      92.72812226
H      93.02837067      58.10063398      93.52558677
H      91.76792321      55.83863159      91.36185013
N      89.55127425      56.22224603      94.73501161
H      88.45145354      54.76526704      94.17943207
C      89.13931390      57.04049752      97.03102907
N      90.17677366      59.09651975      97.83416275
H      89.59284823      59.64265065      99.56704179
H      91.39186768      59.93177878      96.62284819
N      87.60485615      55.75548363      98.48233888
H      87.31005884      56.11831108     100.33238095
H      87.04360743      54.03961214      97.86250865
C      91.67721635      63.50525124      85.33551292
O      92.69199937      65.61607553      85.46590405
N      91.76414375      62.08039760      83.30027768
H      90.51314494      60.64420560      83.43822771
C      92.74113227      62.86085456      80.79261087
H      94.66109420      63.56383275      81.02504720
C      93.22868164      60.44956379      79.05028320
H      91.45611837      59.73335752      78.28683377
C      94.60251268      61.39820640      76.80906781
H      93.21923302      61.94622703      75.38610389
H      95.39430800      59.98658084      75.53728200
H      96.13886017      62.72290454      77.17000552
C      94.61952021      58.15921550      80.45057041
H      93.86173996      57.61119487      82.28549466
H      96.47145201      58.84329642      81.03827528
C      94.89164081      55.65721786      78.89721538
H      95.08628262      56.04272203      76.88654658
H      93.13608507      54.61786839      79.18634350
H      96.57916640      54.61597866      79.45468464
C      90.98935597      64.79593431      79.50948671
O      91.93421912      66.78392639      78.99359141
N      88.54027067      64.25925204      79.41122093
H      88.08106718      62.56038808      80.15010392
C      86.54094023      65.42521317      77.77471794
H      87.32517664      65.58017073      75.87743273
C      83.95012546      64.14586846      77.80306384
H      82.80306158      64.64853566      79.43956683
H      84.22602550      62.11819212      77.57629668
C      82.34763754      64.82050075      75.49003884
O      83.27549315      64.78270622      73.26583096
O      80.10642214      65.22112273      75.88688136
C      86.06850865      68.15208824      78.67989686
O      85.52237775      69.78481178      77.16622607
N      86.36519569      68.66231435      81.08362873
H      87.13620402      67.44722033      82.33651726
C      86.07795728      71.19076815      82.10975010
H      86.44645392      72.50412794      80.56962316
C      83.35486167      71.34572571      82.92044269
H      83.05628491      69.83205493      84.28671482
H      82.02638407      71.06415649      81.36897740
C      82.54038963      73.88929733      84.08640383
H      83.64776925      74.33149328      85.76637053
H      80.57507426      73.68709661      84.66466009
C      82.37598343      76.13240246      82.19667752
O      84.41310839      76.85805736      81.17622532
O      80.37854273      77.24356153      81.76393020
C      87.79193904      71.85973127      84.35852443
O      88.84640633      73.89307678      84.57584295
N      88.02815484      69.95866660      85.86841574
H      86.92833412      68.48845952      85.34874100
C      89.50970026      69.96811523      88.14931541
H      91.24257930      71.07549485      88.01325511
H      90.13897912      68.03114576      88.44033326
C      88.10563362      70.98856744      90.47556850
O      85.94378672      71.74256824      90.16565339
N      89.33395572      70.87329413      92.70544555
H      91.20856423      70.56526874      92.87930037
C      88.23791446      71.54792643      95.24523772
H      86.18189223      71.63674356      95.10728768
C      89.30938928      69.64686175      97.26535513
H      91.26336629      70.17598512      97.64330040
H      89.37930916      67.73256900      96.50568516
C      87.87508701      69.59583914      99.77869114
H      87.66343765      71.50257299     100.52891249
C      85.19356537      68.51869515      99.09461021
H      84.32429126      70.14197005      98.16864431
H      84.14098782      67.88941628     100.75001047
H      85.43167089      66.86707435      97.88707510
C      89.01459198      67.64753132     101.59660784
H      87.84296166      67.30171140     103.25578756
H      90.86841348      68.30137662     102.21265862
H      89.32450708      65.86740913     100.60261181
C      88.85774469      74.32582411      95.76302273
O      91.07628338      74.92486735      96.30348445
N      87.07195333      76.12673328      95.75168436
H      85.26537497      75.56359484      95.50224049
C      87.59729724      78.76101176      96.54347968
H      89.57962013      79.09549332      96.98756538
C      86.76203821      80.72443740      94.47800882
H      87.10785813      82.58959727      95.27736305
H      84.97435712      79.98555441      93.76180256
C      88.37775421      80.63939972      92.03837215
H      88.18311239      78.76479121      91.20689258
H      90.34495929      80.94175593      92.56182635
C      87.43856023      82.40818355      90.08250542
H      87.78060068      84.28090232      90.86485211
H      85.40332499      82.27401298      89.79715676
N      88.68200015      82.18141639      87.66176602
H      90.31661340      83.14517681      87.45200640
C      87.98658085      80.75656275      85.64542804
N      85.89654355      79.49800502      85.70589929
H      85.47513459      78.26779319      84.30750181
H      84.99514411      79.39784953      87.38586598
N      89.25647693      80.74333466      83.44200715
H      88.51948368      79.76067698      81.98124871
H      90.63597714      81.98299513      82.98658312
C      86.31417308      79.11439058      98.97555746
O      84.22980495      78.15629934      99.39696643
N      87.53871573      80.74711412     100.57615563
H      88.94656183      81.78079441      99.81270621
C      86.94912111      81.07592650     103.34082524
H      85.45245787      79.73611054     103.79624928
C      89.12608583      80.24444692     105.19464675
H      88.40987956      80.41074283     107.11649841
H      90.66054360      81.60316014     104.97354877
C      90.24480381      77.72922120     105.02079192
H      91.37297041      77.67252941     103.29925126
C      91.98146228      77.24734099     107.25255871
H      93.71056186      78.32070553     106.93697441
H      92.40665071      75.23289274     107.26200733
H      91.16510052      77.94464999     109.01000418
C      88.19256103      75.58438183     104.98866659
H      87.16832937      75.42375509     103.20665467
H      86.85652452      75.73933939     106.54580107
H      89.06939404      73.76835484     105.42141391
C      86.08740592      83.70642552     103.94931711
O      84.66822146      83.93697213     105.80502835
N      86.74314094      85.67174089     102.48477922
H      88.10941307      85.28056754     101.20543450
C      85.77560107      88.30223992     102.63028815
H      85.00648247      88.77656122     104.48410965
C      87.83918221      90.33369570     102.13706957
H      89.45111876      90.02944977     103.38428895
H      87.00203344      92.17617886     102.52257374
C      88.96167963      90.12771553      99.50279109
H      87.41399379      89.78945452      98.18376213
H      90.20322982      88.48743310      99.40830478
C      90.40165108      92.42751246      98.56359711
H      91.55627387      92.99443035     100.17364394
H      89.14687281      93.98842639      98.07415801
C      92.41798907      91.77366715      96.54536942
H      92.29137740      93.13804955      95.00713219
H      92.15909655      89.97653743      95.57216037
N      95.09573124      92.02311103      97.66030793
H      96.17854443      90.54534505      97.12173594
H      95.19588674      91.75854934      99.54814452
H      96.02925605      93.68607018      97.56960108
C      83.40588428      88.43452076     101.08071256
O      82.88054035      86.92273971      99.43287123
N      81.84874980      90.26755528     101.52479824
H      82.40432932      91.68296029     102.67753129
C      79.72658714      90.95352593      99.89963361
H      78.61353834      89.44552434      99.04169788
C      77.78394850      92.43885082     101.32070781
H      78.60597943      94.12448669     102.17486411
C      75.72036736      93.19285161      99.34594380
H      74.89833642      91.39194244      98.77902592
H      76.34775649      94.35125384      97.76235315
H      74.25016028      94.31912850     100.24545353
C      76.56507502      90.82691427     103.42019375
H      78.12220951      90.12204636     104.57292680
H      75.60698379      89.21497773     102.56981690
C      74.87943916      92.48042479     105.03590973
H      73.05585326      92.62593372     104.08915685
H      75.57674816      94.38148947     105.41385501
H      74.60164939      91.49587739     106.82548056
C      80.95679897      92.40861519      97.65463876
O      82.55739716      93.99220584      97.93620799
N      80.10831186      91.69240892      95.40019527
H      79.05006513      90.10503882      95.44743843
C      81.08719009      92.34247477      92.95299969
H      81.92244912      94.22275245      93.02291956
C      83.07518218      90.44141010      92.14041737
H      84.43578512      90.20897377      93.67298541
H      84.25248167      91.23887461      90.65131304
C      82.13976765      87.93185356      91.32216589
C      81.81662445      87.52178295      88.77292508
H      82.53849990      88.83514274      87.39153516
C      80.59397153      85.27867782      87.84317975
H      80.39932971      84.87616611      85.85140821
C      79.95524403      83.50422481      89.72534716
O      78.85353359      81.36694435      88.91465457
H      78.00504648      81.78079441      87.36507898
C      80.34641738      83.96720775      92.31994138
H      79.79272757      82.47432397      93.59550663
C      81.39710521      86.15173137      93.18165658
H      81.80150664      86.54857390      95.14319249
C      78.97258634      92.67695633      90.91020554
O      76.87687987      91.71319591      91.25980491
N      79.49981999      94.07535380      88.81260934
H      81.17411749      94.94651763      88.52159149
C      77.66489574      94.68573540      86.79627136
H      75.75249271      94.87092858      87.54460299
C      78.43023490      97.28788853      85.50936774
H      77.99748757      97.35780841      83.49680922
H      80.45035233      97.60725228      85.74369380
C      77.19057444      99.53477312      86.92288303
H      78.08630471     101.25442407      86.22179457
H      77.77638959      99.23997582      88.87497031
C      74.29740345      99.64437725      86.55627613
H      73.54529238      98.07968386      87.66932493
H      73.74749309      99.30989569      84.59851966
C      73.34687111     102.25030983      87.34807145
H      74.21236577     103.49186002      85.95156371
H      73.77205954     102.76431539      89.29637927
N      70.55574534     102.23141257      87.19122416
H      69.54663150     101.51520630      88.64442370
H      69.59198493     101.87047484      85.58306708
H      70.09465213     104.07200600      87.39531461
C      77.71780807      92.58058029      84.83662517
O      79.64910837      91.38060408      84.34907578
N      75.58430706      92.30090079      83.56672909
H      73.99315750      93.05679132      84.29994290
C      75.00794054      90.81368619      81.24992464
H      76.59909010      89.67229149      80.60741770
C      72.91979296      88.95419549      82.10408094
H      71.33242287      90.09936964      82.74469816
H      73.73804445      87.85626451      83.64231814
C      72.38877987      87.20997811      79.90632923
O      73.50749785      85.23332438      79.78538675
O      70.63133440      87.72776312      78.41911462
C      74.35976442      92.51255014      78.89532565
O      73.79851569      94.74431692      79.10886472
N      74.67723843      91.25588214      76.74859656
H      74.75660695      89.34914829      76.79017054
C      74.87188024      92.65805907      74.28439345
H      76.00760576      94.37204083      74.42234347
C      76.04729002      90.98187183      72.27372465
H      76.13232770      92.21019393      70.62210386
C      78.92156374      90.53778614      72.94457750
H      79.86264744      92.31790833      73.36976592
H      79.66800563      89.50221613      71.32886150
H      79.05006513      89.28678733      74.57730102
O      74.78495284      88.62538312      71.77672663
H      75.75060299      87.82791861      70.46336684
C      72.22248396      93.53867153      73.47181113
O      72.09587229      95.28288892      71.88255130
N      70.33464736      92.85081115      74.92123122
H      70.75416660      91.63949659      76.33474649
C      67.65123601      93.71819553      74.50738115
H      67.43013803      94.63282306      72.67434662
C      65.96182068      91.31446366      74.53572705
H      66.14890358      90.44896901      76.39521773
H      66.75928519      89.87260248      73.29984604
C      63.10077505      91.45619313      74.17856878
H      62.35244343      92.69396387      75.64499639
H      62.37700987      89.52867229      74.22203247
C      62.43181193      92.52955768      71.56507729
O      63.87178338      92.22720147      69.71692494
O      60.42303286      93.78622568      71.50271632
C      66.87266877      95.72319515      76.60308764
O      64.73538831      96.37704045      76.75048628
N      68.76617452      96.70774256      78.00715429
H      70.51795083      95.94996231      78.00904400
C      68.40523681      98.65416066      79.89877033
H      67.02951605     100.09791156      79.37720587
H      70.22882270      99.60847245      79.93467513
C      67.40368186      97.85858588      82.43478304
O      66.27740497      99.56878819      83.59885445
N      67.79485521      95.51343553      83.16988657
H      68.65657040      94.20763464      82.07573504
C      66.81786670      94.61014635      85.69645066
H      65.26640140      95.62681911      86.58651174
C      65.76528914      91.87193292      85.26181360
H      65.09821576      91.16139583      87.07784058
H      67.26573183      90.65683890      84.54749706
C      63.47494086      91.76988770      83.57617773
C      62.74172705      89.31891267      82.97902422
H      63.77729707      87.67674051      83.61019280
C      60.44759930      88.91262152      81.50314797
H      59.89957867      87.05313082      80.86819992
C      59.05109156      90.99321019      80.58285125
O      57.22372621      90.70408206      78.92178182
H      56.53586584      92.32168778      78.46824750
C      59.94682183      93.44229549      81.18945340
H      58.91503126      94.91250256      80.22569298
C      62.00095433      93.82213048      82.85052283
H      62.48472427      95.77232803      83.20579137
C      68.84365331      94.51566003      87.67877355
O      71.09809680      94.60825662      86.99847209
N      68.21626418      94.02055174      90.08439515
H      66.37000156      94.10558942      90.55493700
C      69.91701786      93.47064138      92.13852765
H      71.85020787      93.57646606      91.43743918
C      69.62600001      95.46997182      94.27580811
H      70.28551448      94.51754976      95.97845152
H      67.66446409      95.88382188      94.75390886
C      71.18124475      97.94551329      94.09628412
C      70.10788021     100.39459859      94.18132180
H      68.07642442     100.48341573      94.35328689
C      71.64044825     102.48085644      94.54603898
H      70.95825706     104.39703892      94.71233489
C      74.28984454     102.20495640      94.43832457
O      75.83564066     104.26853753      94.67643010
H      74.84353436     105.72929597      95.08839043
C      75.33675292      99.84846769      93.93943683
H      77.29072992      99.45540462      93.50291006
C      73.78150816      97.71685641      94.02258478
H      74.68290762      95.88571161      93.93754710
C      69.93213567      90.62282383      92.78859350
O      67.90823879      89.44552434      92.90197708
N      72.14689491      89.61748943      92.92654352
H      73.60387389      90.75699440      92.45033249
C      72.51917099      86.77912051      93.09472916
H      70.75227689      86.10637794      93.91487039
C      73.09175806      85.89850805      90.32816984
H      73.85898694      83.98799474      90.26769860
C      71.07353036      85.96086901      88.24380172
H      70.55763508      87.84492615      87.58428724
H      69.53529314      84.89317365      89.10173747
H      71.80674416      84.86104830      86.66588025
O      75.06652206      87.43863499      89.18866488
H      75.74304408      88.66506737      90.34139792
C      74.78873229      85.83992653      94.84272601
O      76.24382155      87.50666514      95.56460146
N      74.79062201      83.40217959      95.71955902
H      73.30907659      82.35716094      95.12429522
C      76.67467914      82.43841917      97.63574149
H      78.40188900      83.54768851      97.46944558
C      75.40289334      82.83904115     100.37206520
H      75.05518370      84.85726885     100.57048647
C      72.91790324      81.38584161     100.62906797
H      71.97115035      81.41985668      98.79981291
H      71.63288934      82.13228350     102.05959079
H      73.44135743      79.49800502     101.26401602
C      76.97514564      82.13984241     102.68509020
H      77.36820871      80.12161471     102.81737105
H      75.77705915      82.81636443     104.21576852
C      79.44501793      83.75933786     102.83815803
H      80.65633249      82.87872540     101.42275302
H      80.17067282      83.64595428     104.76189942
H      79.15588980      85.72276350     102.29202714
C      77.03183742      79.61705778      97.03669826
O      75.71469819      78.59849530      95.32838567
N      78.79306235      78.41141239      98.47289026
H      80.01193582      79.28824540      99.64830001
C      78.92534319      75.63162499      98.42753683
H      77.12065456      74.73589472      98.86028415
H      80.13476802      74.86061665      99.90719252
C      79.63965974      74.27291177      95.85939877
O      81.83363199      74.46377413      95.20933292
N      78.00504648      72.85183758      94.58950269
H      76.39688938      72.44743615      95.53436583
C      78.33385886      72.29058887      91.84750980
H      79.79272757      73.37340204      90.87430074
C      78.73259111      69.48623502      91.50168988
H      76.98081482      68.67554243      92.21411671
C      79.13699253      68.91364794      88.70111549
H      78.81951851      66.88597161      88.53859902
H      81.06073392      69.55048571      88.33072914
H      77.73292589      69.68087683      87.40476323
C      80.97947569      68.18988277      93.00024286
H      80.24626188      67.99335123      94.91264588
H      82.60653004      69.45221994      92.93788188
C      82.16244436      65.75591528      92.10073313
H      83.12431506      65.63875224      90.28281642
H      80.77349553      64.24035477      92.21411671
H      83.49848087      65.18710766      93.56149157
C      75.98114960      73.35639451      90.50769385
O      74.07819520      71.99957101      90.57005481
N      76.08697427      75.53713867      89.42299095
H      77.74993342      76.47444292      89.47401355
C      73.97992942      76.95254368      88.19844829
H      73.23915672      75.69965513      86.73957957
H      74.62054664      78.67219463      87.26492350
C      71.48927015      77.62528625      89.78959785
O      69.87922332      78.75156313      88.67654905
N      71.14345023      76.81648339      92.10451258
H      72.51917099      75.72044212      92.85095448
C      68.79074098      77.43631362      93.53503539
H      67.33754144      76.22688878      92.71678390
C      69.00616977      76.24011686      96.17687279
H      70.17968982      77.30970195      97.48645311
H      70.06630624      74.47700221      96.05215084
C      66.50228241      75.72422158      97.42598187
N      65.15679728      73.48300617      97.46755586
H      65.59143432      72.09216760      96.23167485
C      63.12723121      73.71544251      98.91508622
H      61.71371593      72.24523543      98.96610882
N      63.28407850      75.92075311     100.17742338
H      62.07276393      76.33649290     101.59093867
C      65.55741925      77.12639850      99.40641505
H      66.45881870      78.85549808     100.01301720
C      68.06319634      80.33326405      93.50291006
O      69.76772948      81.96598759      93.76936147
N      65.62166995      80.93608675      93.15709014
H      64.32531769      79.59060161      92.76969625
C      64.64468143      83.51745289      93.07772163
H      66.26417689      84.64184005      92.48245784
C      62.19937560      83.38517205      91.43177002
H      60.97672267      81.90362662      92.17443246
H      62.65668936      82.87683567      89.48724164
C      60.75184524      85.93630257      91.15586996
H      60.37389998      86.74321571      93.01347094
C      62.25606738      87.96775836      89.78014921
H      63.87178338      88.40806459      90.97823569
H      61.12223160      89.66473259      89.50991835
H      62.70204279      87.34414868      87.86774619
C      58.27630377      85.37127440      89.81227456
H      58.45960722      83.69886662      88.62363670
H      57.58277421      86.90006299      88.61796753
H      57.00262823      84.80246678      91.32594534
C      63.91902654      84.22610026      95.80081724
O      62.80219829      82.95809390      97.30125993
N      64.62578418      86.54668417      96.32238170
H      65.42702814      87.68807886      95.02036028
C      63.89068065      87.89783849      98.69776769
H      62.93069968      86.59203760      99.97144321
C      66.32842759      89.12805032      99.97144321
H      65.60655214      90.09936964     101.63818183
H      67.15234826      90.43385120      98.60895054
C      68.09154224      87.05124110     100.98622625
H      68.65468068      85.83803680      99.41964314
C      70.32141928      88.37971870     102.37706482
H      69.53907259      89.14316813     104.12128220
H      71.27195162      89.81780042     101.25078794
H      71.75005237      86.93974724     102.72855391
C      66.78196189      85.14450725     102.85327585
H      65.58954460      83.97287693     101.65140992
H      65.48183020      85.94197175     104.23466579
H      68.01217372      83.73099197     103.71121160
C      61.90268856      90.00677305      98.28958680
O      60.05264650      90.31668817      99.73711715
N      62.28819273      91.50154656      96.22222622
H      63.59399361      91.09903486      94.88807944
C      60.39657669      93.40072151      95.39452608
H      58.47094558      92.67506660      95.47767405
C      60.32665682      95.66272391      97.28236268