 %block lattice_cart
   139.252   0.000   0.000
   0.000 142.425   0.000
   0.000   0.000   162.84
 %endblock lattice_cart

 %block positions_abs
N      90.99030083      43.86816025      80.31451012
H      92.77798193      44.16673701      79.70979769
H      90.26842539      42.38661482      79.35263941
H      91.12636113      43.52423006      82.18722888
C      89.50308623      46.18307498      80.12175802
H      90.09079112      47.26399844      81.77337882
C      90.30433018      47.33013886      77.73881314
H      89.40104100      46.18685444      76.28183415
H      92.33578597      47.29990324      77.40055213
C      89.33679032      50.05701394      77.44401584
H      87.29588589      50.25165575      77.63865766
H      89.86969314      50.63149072      75.53728200
S      90.70873162      52.29067043      79.65499562
C      94.01575266      52.24909646      78.74414755
H      94.90014457      53.63237611      79.98947718
H      94.02331157      52.73475611      76.74292737
H      94.70928222      50.33291397      79.05784211
C      86.69117347      45.58025230      80.44868067
O      85.78410485      43.66595954      79.46791272
N      85.33434999      47.23943199      81.59007537
H      86.25086724      48.83058155      82.10975011
C      82.58479820      47.17140185      82.01526379
H      81.65883231      46.51944627      80.29372312
C      82.01221112      45.29112416      84.35474496
H      82.80211673      43.42407457      83.98624833
H      80.02043959      44.77333915      84.43222375
C      82.75487356      46.12071402      86.94555974
O      83.53344080      48.30334791      87.30460774
N      82.70952014      44.43507814      88.83150661
H      83.60147095      44.77711861      90.48501712
H      81.92717344      42.70597857      88.63875452
C      81.56812543      49.87937966      82.35163508
O      83.11581129      51.63493541      82.47446729
N      79.11148123      50.04378584      82.58029197
H      78.16283863      48.38649587      82.67855773
C      77.67906869      52.42484100      83.05272353
H      78.00788107      53.53977953      81.34819040
C      74.82369223      52.04122655      83.19823247
H      74.26433323      50.76188184      81.68456168
C      74.18118528      50.48787153      85.49236020
H      75.36226423      48.80601512      85.63219996
H      72.18941374      49.96630706      85.38275608
H      74.27567160      51.68406828      87.16665772
C      73.39505913      54.63960023      82.91855297
H      74.01866881      55.92461413      84.40576757
H      71.44675131      54.19740428      83.41555100
C      73.69741534      56.03421825      80.29183339
H      72.80546453      55.03644276      78.72336055
H      75.63627455      56.35736145      79.68145180
H      72.61838162      57.78788427      80.32962792
C      78.80156611      53.93095287      85.19945264
O      78.71274897      56.25342652      84.96134711
N      79.80312106      52.85380887      87.25925431
H      80.16594851      50.97731064      87.22145978
C      80.75743286      54.28244196      89.34362244
H      79.64249433      55.98508537      89.66298618
C      80.49665061      52.65160815      91.79270773
H      80.88026507      53.87615080      93.40275456
H      82.02354949      51.26832849      91.74924404
C      78.08347011      51.15872437      92.55615717
C      76.04445542      52.20752247      93.87329640
H      75.88571841      54.16338920      94.43832457
C      73.90150578      50.60314483      94.46478074
H      72.24610553      51.27966685      95.45310760
C      73.86371127      48.05390403      93.53314568
H      72.47665215      46.78211823      94.32305127
C      75.83469580      47.12226896      92.12907902
H      75.74209921      45.29301389      91.22956930
C      77.96063790      48.69074180      91.63586045
H      79.52911074      47.81957797      90.66076168
C      83.45407230      55.42950584      89.14898062
O      83.92650387      57.45718217      90.37919245
N      84.94506637      54.18606593      87.54082354
H      84.20807310      52.59869583      86.78115356
C      87.59824210      54.60558517      87.20067280
H      88.26531549      55.54099969      88.90898538
C      88.95884505      52.12248479      86.66399053
H      88.57712034      51.59903060      84.70812378
H      88.28799220      50.70519005      87.99813729
C      91.85579549      52.41917182      87.00981043
H      92.38869831      54.19362483      86.11219044
H      92.78932029      50.75432294      86.23502265
C      92.54554559      52.80278626      89.77448003
O      92.59278874      50.83180171      91.09917817
O      93.01419771      54.93250782      90.60218015
C      87.85902434      56.41972242      84.93300122
O      89.30655470      58.21874187      85.06717178
N      86.29244123      56.18539636      82.98469339
H      85.11325200      54.68684339      82.94878859
C      86.18850627      58.02976924      80.97213487
H      88.11791684      58.34724326      80.32962792
C      84.86569785      56.97719169      78.67989685
H      85.61969865      55.27454828      77.79739466
H      85.31923217      58.26787476      77.13976990
C      81.91205562      56.64271013      78.84808249
H      81.22041579      58.32456655      79.80995318
H      81.61536859      55.02132495      80.08207377
S      79.95807862      55.84146618      75.93790397
C      80.61948283      58.61369467      74.08219273
H      79.57446418      60.19539560      74.88154696
H      80.31901634      58.45117821      72.05073694
H      82.46574544      59.37336465      74.58863938
C      85.29277600      60.58089976      81.65810552
O      86.50409056      62.35724250      80.83985402
N      83.59958122      60.88136625      83.47413251
H      83.06100923      59.35257766      84.47568745
C      82.74353521      63.49107829      84.42655457
H      82.64337971      64.70050313      82.76359541
C      80.06957248      63.10746384      85.51503693
H      79.66895050      64.72884902      86.72068231
H      80.13382316      61.37458481      86.62808572
C      77.77544472      62.83723298      83.65932568
H      78.13449273      61.30655468      82.33084808
C      75.44163273      62.52542814      85.29960812
H      73.82591673      62.32889660      84.03727095
H      74.97298061      64.22807155      86.35785486
H      75.44919164      60.85679980      86.50714324
C      77.32191042      65.25419293      82.13053709
H      79.11715041      65.68127108      81.21590957
H      76.90239118      66.83211442      83.38720509
H      76.09358830      64.74207710      80.55828480
C      84.79577799      64.65892915      86.12919797
O      84.69751222      66.96250552      86.35596513
N      86.68550430      63.31344401      87.06272277
H      86.53999536      61.41804852      86.88697822
C      88.98530121      64.43783117      88.12096951
H      88.26720522      66.07244443      89.14520117
C      90.16638016      62.76920283      90.13919721
H      91.95595099      63.47785020      90.87052130
H      90.60857612      60.88703543      89.42677039
C      88.37491961      62.38747813      92.43899414
H      86.77054198      61.33112111      91.69822142
H      87.72674349      64.27909417      92.93599215
C      89.26876017      60.83034364      94.76335751
H      87.80233254      61.14214848      96.17687279
H      91.00163919      61.56544717      95.59861653
N      89.55410883      58.08457130      94.12840945
H      90.74085697      57.51765341      92.74512979
C      88.26720522      56.22508061      95.21689181
N      86.26598506      56.30822858      96.64174545
H      85.39860067      54.64715914      96.99890372
H      85.45340273      57.96362883      97.13496403
N      88.99852931      53.96118849      94.87863081
H      87.91949557      52.43428963      95.26035552
H      90.52542816      53.72497270      93.75991283
C      90.84290218      65.77386767      86.28604526
O      92.47373599      67.28375901      87.07973031
N      90.39692677      65.17671416      83.91065928
H      88.90593272      64.07122426      83.46468387
C      91.84445713      66.27464514      81.87353432
H      92.98018264      67.67493235      82.87130982
C      93.33734091      64.44727980      80.28427449
H      91.99752496      63.52698308      79.01815786
C      95.41037069      65.89481016      78.91422291
H      94.57511166      67.50674671      77.93912414
H      96.38169000      64.70995176      77.53850216
H      96.58955991      66.90770346      80.26348751
C      94.62613427      62.46117744      81.98313844
H      93.01230800      61.41426907      82.72391117
H      95.87335362      63.57422624      83.18689410
C      96.10201052      60.56200250      80.53560808
H      95.86579473      58.65715838      81.28582943
H      98.04275943      61.18183274      80.23136215
H      94.97006445      60.43539085      78.82162632
C      90.13614454      68.10578994      80.23514160
O      90.82589465      70.25629850      79.74381277
N      87.92327502      67.21005967      79.43578738
H      87.39604139      65.45639365      79.96869019
C      86.15071174      68.44783040      77.81251247
H      87.13525915      69.35111958      76.24592936
C      84.62570261      66.17637938      76.65977942
H      83.10825239      65.63402792      77.94479331
H      85.71229524      64.43594144      76.46324789
C      83.35391680      67.13447063      74.11053863
O      81.05034043      67.52753369      74.13888452
O      84.71640948      67.13069117      72.18490751
C      84.42350190      70.53219853      79.08807773
O      83.80556139      72.39357896      77.81440219
N      83.98130595      70.49629373      81.63164935
H      84.94884581      69.07144009      82.45934947
C      83.31045309      72.73183997      83.12831259
H      82.73597630      74.32109979      81.95290282
C      80.93695686      71.84555832      84.49458472
H      81.55678708      70.66825883      86.06683700
H      79.78233407      70.71361225      83.21524000
C      79.30423332      73.87512437      85.56983899
H      80.57979857      75.01084990      86.72257203
H      77.83780570      73.09088795      86.78493300
C      78.19874343      75.44359722      83.36830783
O      78.71841815      77.72449687      83.12264341
O      76.41673151      74.40802720      82.21368505
C      85.35324725      73.71638737      84.96323684
O      86.05433570      75.94815414      84.90843478
N      86.48141385      72.11956864      86.48446653
H      85.59513222      70.44527113      86.72635150
C      88.49208264      72.87167970      88.39120037
H      89.84512668      74.19259840      87.57483860
H      89.56922665      71.28241987      89.13386282
C      87.43761536      74.15102443      90.74201990
O      85.16049516      74.87856905      90.95366925
N      89.22529646      74.53274913      92.41820714
H      91.05833098      74.57999230      91.89286323
C      88.79254914      75.73839452      94.82004928
H      86.78943924      76.00484593      95.21878154
C      89.58245473      73.70693873      96.73623177
H      91.43060707      73.05687288      96.09750427
H      88.35413263      72.07043576      96.51324406
C      89.52576294      74.41558610      99.63318220
H      90.55944324      76.14657540     100.06592953
C      86.74408582      75.10533620     100.30781450
H      86.84802075      75.30186775     102.35438810
H      85.54033014      73.53308391      99.73900688
H      86.34346383      76.91380430      99.40074587
C      90.33456580      72.23295222     101.17897833
H      92.16949005      71.65469597     100.44765426
H      88.96262450      70.74573760     100.78780498
H      90.49708227      72.66380982     103.18775740
C      89.93583356      78.31220176      95.07516234
O      92.18271814      78.54274838      94.74634996
N      88.31066893      80.09043422      95.97278234
H      86.45684741      79.64256908      95.98601043
C      89.06466973      82.58865241      96.95732974
H      91.11313304      82.62455721      97.17842772
C      88.40893469      84.65790272      95.05815481
H      88.55066417      86.47015025      96.03136385
H      86.48330357      84.52184242      94.34005880
C      90.26086648      85.04718635      92.74135035
H      90.33267607      83.18580593      91.86451734
H      92.13358525      85.62355286      93.37251894
C      89.32734167      86.82919825      90.61918769
H      90.86746863      87.56430180      89.46645464
H      88.31822782      88.46948069      91.35051178
N      87.39415166      85.61410423      88.94111073
H      86.71196047      83.99082934      89.67810400
C      86.45117824      86.33220023      86.74524875
N      87.12958998      88.57530536      85.90243082
H      86.19039600      89.27828356      84.39631895
H      88.24830796      89.63166237      87.03437689
N      84.82979305      84.91868496      85.41866088
H      84.06445389      85.71614945      83.86530586
H      84.16082995      83.26895389      86.11408017
C      87.66816198      82.89289834      99.43098149
O      85.38159314      82.89289834      99.68609455
N      89.17994303      83.13667304     101.48511399
H      91.02809536      82.80597094     101.14307353
C      88.16515999      83.11021687     104.10616439
H      86.59668715      81.79685708     104.35749800
C      90.32322745      82.27684756     105.81069752
H      90.07189385      82.74172025     107.80057933
H      91.91437701      83.52784639     105.42897281
C      91.15848648      79.48761153     105.69731395
H      91.52887284      78.77140525     103.80191845
C      93.28442857      79.01706967     107.53979710
H      94.78865072      80.37956235     107.18263882
H      94.11968760      77.16135844     107.22232308
H      92.75719494      79.31375671     109.50889193
C      89.09112590      77.79819621     106.60627231
H      89.66182323      75.84799865     106.92941550
H      87.58312430      77.84354963     105.20220566
H      88.42783196      78.52952028     108.41474039
C      87.11258245      85.64056041     105.01134330
O      85.82378909      85.72370836     106.95020249
N      87.43005646      87.59075795     103.34082523
H      88.10657849      87.12210583     101.61928457
C      86.47385494      90.23826453     103.47877526
H      85.49308699      90.40267071     105.28157416
C      88.69428337      92.25649222     103.46554717
H      89.92071574      91.91823121     101.84416199
H      89.89803903      91.99193055     105.11338851
C      87.88737022      95.06840499     103.45420882
H      86.41338371      95.38398928     104.86016519
H      86.87258719      95.44446052     101.70243252
C      90.12291645      96.76726894     103.80380818
H      91.51753448      96.28538872     102.36572646
H      91.04321318      96.78427647     105.64818107
C      89.35001840      99.48847482     102.89107037
H      88.23507987     100.26704206     104.43497677
H      88.26909495      99.51682073     101.13929409
N      91.65359478     101.16088261     102.50934566
H      92.55121476     100.63175924     100.91063719
H      92.80821755     100.94734353     104.01545753
H      91.20761936     103.01281441     102.38462372
C      84.58223890      90.75038036     101.50023180
O      85.04522185      90.18157274      99.41964314
N      82.56023176      92.17901345     102.08604696
H      82.49031188      92.72514435     103.91530203
C      80.35114169      92.88199163     100.40608027
H      79.26643879      91.17556877      99.99789938
C      78.41984140      94.66967272     101.67786607
H      79.40249909      96.30617571     102.45265387
C      76.46586439      95.70335302      99.66152811
H      77.25954945      96.41389011      97.89841345
H      75.34147723      97.20001626     100.52135357
H      75.26777791      94.10464457      99.15319172
C      77.02144392      93.47158624     103.88884586
H      78.39716468      92.97080877     105.33448649
H      75.77989374      91.90122368     103.40318620
C      75.45864026      95.53894683     105.24566936
H      73.85615236      96.26271200     104.17797400
H      76.98175968      96.80317374     105.82014616
H      74.75566208      94.69990835     106.99177647
C      81.31679184      93.88354659      97.86250865
O      82.87581604      95.57107218      98.01368675
N      80.26610401      93.17111976      95.68365422
H      78.86959626      91.88043669      95.85561931
C      81.00498699      93.83441369      93.16842850
H      82.12181524      95.56351327      93.21945111
C      82.73786603      91.75760447      92.01002626
H      84.55956219      91.85209080      92.96811750
H      82.85691879      92.29428676      90.02392391
C      81.68150902      88.97025816      92.09695367
C      80.56657049      87.99893884      89.90109169
H      80.27744236      89.29907055      88.35529557
C      79.90138683      85.44024942      89.81038483
H      78.92817777      84.76372739      88.14742567
C      80.13193345      83.67902449      91.80593582
O      79.12470932      81.33009469      91.91553994
H      78.09102902      81.15057068      90.43399451
C      81.38293226      84.72215342      93.88085531
H      81.46608022      83.35588129      95.39452608
C      82.19362485      87.22982024      94.04904095
H      83.26320994      87.85720936      95.67420558
C      78.62393185      94.29361719      91.44499810
O      76.50365892      93.41489445      91.91931940
N      78.86770653      95.87153867      89.31338682
H      80.60058557      96.62176000      89.03181759
C      76.81357404      96.12287226      87.40098378
H      74.95219361      95.92256127      88.26080925
C      77.12726860      98.62486990      86.17266168
H      76.06902186      98.64754662      84.40387786
H      79.08691479      98.70990758      85.54149309
C      76.02366844     100.73947365      87.81294413
H      76.99876722     100.67900241      89.62519165
H      74.05457361     100.27838042      88.20411746
C      76.21264106     103.49847407      86.75847683
H      75.45864026     103.40398774      84.84229435
H      78.11370573     104.28271048      86.70367477
C      74.41929079     105.22379419      88.26080925
H      74.97109088     107.19855818      88.05293937
H      74.58747643     104.67010437      90.23746298
N      71.70375408     104.75514207      87.35940980
H      71.33336773     105.42032572      85.60763352
H      70.58881557     105.69244631      88.58962164
H      71.16896153     102.92210754      87.30082830
C      77.27466725      94.09708566      85.34118211
O      79.36848401      94.10464457      84.20356686
N      75.64572318      92.27349976      85.16165811
H      74.14528049      92.38877307      86.33517815
C      75.40950738      90.31385357      83.28327015
H      77.37104329      89.75449459      82.99414203
C      73.89772634      88.32019231      84.48513608
H      72.04390482      89.13088490      84.86119163
H      74.90872991      87.92523951      86.23502265
C      73.78812220      85.89756318      82.86564063
O      72.04201509      85.55552273      81.33685205
O      75.67406906      84.44247393      82.97335503
C      74.50810793      91.35509278      80.71702181
O      74.31724558      93.62843352      80.27860531
N      74.42307025      89.59575757      78.88587701
H      74.42873943      87.74382579      79.34697024
C      74.34559148      90.09086587      76.09097180
H      76.21642053      90.91667627      75.85286629
C      74.40606272      87.49249220      74.77761202
H      74.34559148      87.79862786      72.74048704
C      76.80412540      85.95992416      75.05351205
H      78.22708932      86.86132360      73.86865366
H      76.63971921      83.97949098      74.51305034
H      77.61103854      86.17913240      76.93756919
O      72.33870212      86.04496184      75.66767310
H      72.25933362      86.49849615      77.42511857
C      72.17996512      91.61965445      75.01193808
O      72.23476718      92.20924906      72.74426650
N      70.32047443      92.33208128      76.56718283
H      70.62849981      91.65933871      78.32651803
C      68.01500832      93.91567192      76.12876633
H      68.14161999      94.54873025      74.17289960
C      65.59048946      92.27538949      76.42356363
H      63.94831730      93.50182187      76.24026018
H      65.80024908      91.62532364      78.36620228
C      65.25789764      89.96992338      74.65100035
H      63.83115427      88.72270402      75.45980321
H      66.89440061      88.73971155      74.40911538
C      64.63617767      90.58786389      71.98459653
O      62.98077742      89.37088015      70.73548743
O      65.87961759      92.31318401      70.89422444
C      67.80146924      96.16255652      78.05817690
O      65.71899086      97.35497381      78.30951049
N      69.84048395      96.56884768      79.47925109
H      71.20675606      95.23659062      79.45279491
C      70.09748672      98.69478978      81.19512257
H      69.01656327     100.21224000      80.31639983
H      72.08925826      99.20501587      81.06473146
C      69.08270368      98.36597739      83.88231339
O      69.87827846      99.82862557      85.45267596
N      67.70509320      96.37609559      84.45490046
H      67.24588972      95.14777348      83.06784134
C      66.86605472      95.86397976      86.98146454
H      65.87961759      97.43623206      87.87530508
C      64.63995712      93.85898013      86.77737410
H      63.90674331      93.55473420      88.67843878
H      65.67930659      92.08074767      86.79627136
C      62.62361916      94.23881513      84.75536694
C      62.42897734      92.23570524      82.96390641
H      63.80469809      90.73715227      83.14532012
C      60.56381746      92.40200115      81.12709243
H      60.40130101      90.72392418      79.97813883
C      58.75534939      94.47125146      81.15732804
O      56.52169289      94.39188297      79.72869495
H      55.44832835      95.81484688      80.06317651
C      59.14274329      96.53294288      82.74847760
H      57.81048623      98.07873900      82.71257280
C      60.96443944      96.38554422      84.71568269
H      61.34616416      97.79905951      86.13675688
C      68.77278857      95.04950772      88.90709565
O      70.67385325      93.86275959      88.16632295
N      68.43830702      95.59374890      91.33539396
H      67.08526298      96.84096826      91.84562007
C      70.42440937      95.11564813      93.28181207
H      72.23854664      95.62965370      92.45222221
C      69.98788260      96.87120388      95.52491720
H      71.09526222      96.20224076      97.12929485
H      68.05091312      96.68223126      96.19954949
C      70.76644984      99.63398376      95.15453084
C      68.78601665     101.37631142      95.34728293
H      66.88306227     100.90576956      95.91609055
C      69.36238318     103.89720632      94.89941779
H      67.80335898     105.18977911      95.14697195
C      71.86627055     104.89120235      94.75201914
O      72.06847126     107.43099452      94.58383351
H      70.50755732     108.29648918      94.25691084
C      73.79379139     103.09596236      94.52336225
H      75.73454032     103.65910080      94.24368277
C      73.24955021     100.44845580      94.65564310
H      74.79912579      99.12564737      94.76146777
C      70.24488537      92.26783058      94.18321153
O      68.21342959      91.30407016      94.46856019
N      72.41807064      90.97336806      94.26635948
H      74.00922019      91.94279765      93.84306078
C      72.66373506      88.27672861      94.61028966
H      71.01589370      87.50949972      95.57782955
C      72.93207618      87.17690789      91.83050226
H      74.35315037      88.24649300      90.79304251
C      73.54434751      84.42357666      91.83995090
H      73.42529475      83.81319505      89.87841498
H      72.12705277      83.35399157      92.88496955
H      75.47375808      84.27617800      92.54859826
O      70.66440461      87.36777026      90.27714724
H      70.38472511      89.13088490      89.95589376
C      74.95597306      87.47359492      96.33560979
O      76.60948360      89.02128078      96.82504891
N      74.81802305      85.31363776      97.51479901
H      73.32513927      84.20247868      97.08394141
C      76.53767400      84.38011295      99.49901164
H      78.28945029      85.37032955      99.06437458
C      75.55312659      84.71648423     102.16163601
H      74.87471484      86.66290233     102.22588672
C      73.35159542      82.78329421     102.74745117
H      72.20264183      82.39401059     101.08260230
H      72.46720351      83.28218197     104.53891171
H      74.19441337      80.96537750     103.21799302
C      77.44663236      84.38011295     104.27812948
H      77.83024679      82.40156950     104.69953845
H      76.35248081      85.01506099     105.90140438
C      79.73320118      86.02228511     104.00789862
H      79.29667441      87.96303405     103.46932662
H      80.90861096      85.07931168     102.60194225
H      80.89727260      85.72181864     105.67841669
C      77.49387551      81.66268651      98.92831429
O      75.99154309      80.10177258      98.00045868
N      79.74076009      81.13167343      99.69365346
H      80.89727260      82.46204074     100.42119809
C      80.92750822      78.63912441     100.01112747
H      79.66328132      77.57142905     101.23755984
H      82.72463794      78.87156075     100.99189542
C      81.36592472      77.36166943      97.59227780
O      82.63582080      78.35566546      95.91420082
N      80.27933210      75.05242387      97.11228730
H      79.31179223      74.38724021      98.61839917
C      80.05256494      73.79575587      94.65186364
H      81.39993979      74.60077928      93.31771688
C      80.41161293      70.91014380      94.73690133
H      78.79589694      70.01441353      95.64963914
C      80.12815398      70.17315053      91.97034200
H      78.49543046      71.02919655      91.05193502
H      79.70863474      68.16248174      91.85128925
H      81.87615082      70.59266977      90.96878707
C      83.06289895      70.37346153      95.74034600
H      83.22919486      71.25029453      97.59794697
H      84.61814370      71.24273562      94.70288625
C      83.37470380      67.51052616      95.96900288
H      81.96496796      66.56566301      97.13496403
H      85.23797393      67.41226038      96.84394617
H      83.21218733      66.74896645      94.06226903
C      77.26521863      74.49873407      93.89030394
O      75.48698617      73.52741474      94.97689657
N      76.99498777      76.12011924      92.00435708
H      78.62960102      77.06120294      91.71900842
C      74.60070452      76.30531242      90.38486163
H      74.28323051      74.39668884      89.67810400
H      75.06179774      77.39946395      88.70300522
C      72.19319320      77.38623587      91.70200087
O      70.37527649      77.95126404      90.30738286
N      72.11193497      77.75851195      94.26635948
H      73.63883383      77.38812559      95.35106238
C      69.58726062      78.15157502      95.55515282
H      68.16240697      77.11978446      94.48367801
C      69.84615311      76.75506728      98.15163678
H      70.95353273      77.80764483      99.53491644
H      70.47543199      74.81809781      97.83227304
C      67.31958904      76.55097684      99.50279109
N      66.10260529      74.38535049     100.18120283
H      66.76589922      72.60900775      99.97144321
C      64.02768581      75.06187250     101.58715921
H      62.72755410      73.61245242     102.19754081
N      64.00689881      77.65646674     101.83660310
H      62.47433077      78.44070315     102.66052376
C      66.02701624      78.56164563     100.46844124
H      66.64684647      80.50806374     100.50056659
C      68.73499404      80.95592887      95.75168437
O      70.02756684      82.46204074      96.90819686
N      66.52212453      81.41513237      94.52525198
H      65.49411342      80.04886024      93.67676488
C      65.33348668      83.89067384      94.11896083
H      66.91140816      85.00561236      93.40275456
C      63.17919869      83.58453818      92.32750028
H      61.96032521      81.97260163      92.73001199
H      63.96154539      82.89856753      90.55304727
C      61.57104159      85.91835018      91.58672757
H      60.70743667      86.61943863      93.31960659
C      63.25856719      88.08964571      90.66076168
H      64.77979688      88.43546563      92.01002626
H      62.14173895      89.79606856      90.37163354
H      64.35649817      87.57186069      88.99591279
C      59.46966594      85.58197888      89.67621426
H      58.64574527      87.44713875      89.37385805
H      58.10906299      84.21003759      90.38297190
H      60.36350649      84.80719110      87.98868866
C      64.31114475      84.97159729      96.70977561
O      62.94109317      83.75083409      98.09683471
N      64.65129548      87.39233670      97.12362566
H      65.83237443      88.26161081      95.90475220
C      63.72155014      88.64333551      99.40263559
H      63.39273776      87.32619628     100.95032145
C      65.71521139      90.58030498     100.30781450
H      64.81570167      91.99759972     101.50212154
H      66.28968819      91.59886746      98.61273001
C      68.02067751      89.26127603     101.59660784
H      68.60082347      87.73626688     100.33993985
C      70.17685522      91.15478179     101.70432225
H      70.78345737      92.12421138      99.99034049
H      71.94185961      90.49148786     102.52824293
H      69.56458389      92.63632721     102.99500532
C      67.58415073      88.05185117     104.20254044
H      66.75456088      86.17724268     104.01167807
H      66.35771834      89.25182738     105.34015567
H      69.43797224      87.66067784     105.00945357
C      61.09105111      89.62221375      98.79414372
O      59.18998645      88.43924508      99.31381846
N      60.96066000      91.88421615      97.55070381
H      62.66519313      92.57018679      97.03102907
C      58.78558501      92.93112453      96.37907350
H      57.45710742      91.35698250      96.33938924
C      57.40419507      94.98336729      98.01557648