 %block lattice_cart
   139.252   0.000   0.000
   0.000 142.425   0.000
   0.000   0.000   162.84
 %endblock lattice_cart

 %block positions_abs
N      93.00002476      41.48616024      82.73713924
H      92.55215962      41.66946369      84.58340184
H      94.81794147      40.98538276      82.43478303
H      91.84918144      40.19925662      81.92077747
C      92.49735756      43.96737089      81.37842602
H      93.08128299      45.33931219      82.79572075
C      93.64631116      44.34909560      78.72336055
H      92.79404459      43.08486870      77.33630143
H      95.66831832      43.96737089      78.77627288
C      93.10395971      47.17234671      78.02983099
H      91.14809297      47.33297345      77.40433158
H      94.16031672      47.65800637      76.32718758
S      93.71245158      49.64599846      80.47324711
C      92.66554320      52.27082830      78.65155095
H      93.39119811      54.00559706      79.49436889
H      90.62274906      52.18201117      78.40210708
H      93.64631116      52.00815635      76.85820068
C      89.53615643      44.08075446      81.42188972
O      88.58184464      42.34787543      80.39765807
N      88.44578435      46.07819518      82.35541453
H      89.77237222      47.29517892      82.99036256
C      85.73969627      46.35409522      83.05461327
H      84.82695846      45.15411901      81.65243633
C      85.33151538      44.87632924      85.62464105
H      86.51826351      43.19447282      85.72479655
H      83.33407467      44.37933122      85.54149308
C      85.97402233      46.19913766      88.04349072
O      87.06250469      48.24004208      88.02648319
N      85.25592633      45.13900120      90.09384377
H      85.91166136      45.93079652      91.70200087
H      84.14287753      43.59131535      90.09384377
C      84.62664747      49.02427850      83.12831259
O      85.95701479      50.90266645      83.17177630
N      82.12276010      49.26238401      83.27949069
H      81.20624284      47.58808650      83.20012218
C      80.85475375      51.75682275      83.51570648
H      81.43112027      52.66389138      81.75637129
C      77.94079577      51.19557403      83.78971680
H      77.53261489      49.92189850      82.22313368
C      77.20380251      49.84630944      86.32761924
H      77.73859506      50.94235071      87.98679893
H      78.05039990      47.96981122      86.23691238
H      75.15155973      49.67056490      86.36730348
C      76.13232769      53.45568670      83.46090442
H      76.34208731      54.84085609      84.96890602
H      74.18590959      52.78105441      83.47224277
C      76.31752087      54.75959786      80.79072113
H      77.96347249      55.99925832      80.78127251
H      74.59786993      55.86130830      80.52426972
H      76.61420790      53.27049352      79.39799284
C      81.74292511      53.62009289      85.59818488
O      82.02071488      55.91988981      85.04827452
N      82.39866015      52.76593660      87.89231263
H      82.33440945      50.86865138      88.10774143
C      83.63832061      54.17945188      89.85573826
H      82.46291084      55.85752885      90.04660062
C      83.69123294      52.73003180      92.30293383
H      84.55483787      53.94701554      93.72211830
H      85.11419686      51.26549391      92.02892352
C      81.13254352      51.70202068      93.24212782
C      79.56785013      53.24592708      94.73501160
H      79.92500840      55.18478628      95.26602469
C      77.38710596      52.22925433      95.73845627
H      76.12287906      53.39521546      96.83827698
C      76.75971683      49.77072039      95.15453084
H      74.90778504      49.22269976      95.81404532
C      78.11654032      48.33074894      93.52747648
H      77.46647447      46.45236099      93.06260382
C      80.37476326      49.30206827      92.51647291
H      81.57096002      48.37043319      91.14831107
C      86.40110048      55.17344792      89.19622377
O      87.02282043      57.23324960      89.57038959
N      87.89776372      53.65599769      87.89987152
H      87.60485614      51.77005083      87.91120988
C      90.28826750      54.63487592      86.79816109
H      91.39942657      55.81595487      88.07183663
C      92.05138215      52.56373588      86.22935347
H      91.54493550      51.80217618      84.38498058
H      91.69611361      50.99715277      87.51625708
C      94.88975107      53.47269424      86.13486715
H      95.09951069      55.28305205      85.17488618
H      95.98957179      52.02894334      85.15976837
C      95.90642383      53.82418333      88.91087511
O      96.65097600      51.97981045      90.06927733
O      95.38674909      55.76682198      90.21856571
C      89.95189622      56.40554948      84.47379772
O      91.28793272      58.30661415      84.08262437
N      88.12075142      55.71390965      82.76737486
H      86.90565740      54.28905601      83.14154068
C      87.49147256      57.13498383      80.49970328
H      88.96923854      57.02915916      79.07107019
C      85.11797631      55.94823571      79.33752160
H      83.46068633      56.42633647      80.46190877
H      85.49970102      53.92622855      79.24681474
C      84.53216115      56.76648720      76.68623558
H      86.08740591      56.50759470      75.35964771
H      84.20145905      58.78849436      76.91300275
S      81.68812305      55.23580889      75.36153744
C      82.31551219      55.21313217      72.03750885
H      82.57440469      57.17277836      71.46492179
H      80.59397152      54.40810876      71.24004435
H      83.90666174      53.94890527      71.70491703
C      86.89620877      59.85052055      81.26882190
O      87.93366852      61.64198109      80.22569298
N      85.33529484      60.27381924      83.13209204
H      84.27515837      58.82817861      83.78404761
C      84.49625635      62.77392715      84.05994766
H      84.02949395      64.06838968      82.52737962
C      82.04528132      62.40354079      85.66243558
H      81.56529084      64.14397873      86.65265216
H      82.39110124      60.85018577      86.97012618
C      79.73981522      61.65709890      84.05049902
H      80.27271804      60.14342812      82.75981595
C      77.46080529      60.51381448      85.66810476
H      76.55940584      61.98780101      86.78871245
H      78.28094651      59.17777798      87.00414125
H      75.96036260      59.79004930      84.46056963
C      78.39999927      63.79815881      82.67855772
H      79.69824124      64.53515208      81.25937326
H      77.74048478      65.39875700      83.79538598
H      76.63310516      62.93644361      82.06817612
C      86.38031349      64.26681094      85.70589927
O      86.53149159      66.58928458      85.62275132
N      88.22279664      62.84573675      86.86808096
H      88.21712746      60.95978989      86.58084256
C      90.54149083      64.09862530      87.89987152
H      89.76292359      65.80693788      88.74835864
C      91.73201841      62.37897435      89.90865059
H      93.57450156      63.18777721      90.34328765
H      91.85863007      60.51381448      89.04504567
C      90.19756064      61.92544004      92.30104411
H      88.44767407      60.86908303      92.04782078
H      89.57017150      63.79059991      92.90575653
C      91.96256502      60.94089263      94.48934718
H      90.63030796      60.90120838      96.05970974
H      93.65387007      61.99724964      95.00335273
N      92.84884666      58.26692990      94.13407863
H      93.51780977      57.80961613      92.40497905
C      93.24946863      56.59452211      95.84806040
N      92.40287125      56.80428173      98.13273951
H      92.51625482      55.42667125      99.45176847
H      91.42588274      58.36330594      98.63351698
N      94.65353528      54.71802388      95.34539320
H      95.05415726      53.42734081      96.69465779
H      95.27903469      54.42700603      93.56527101
C      92.41420960      64.86018500      85.87786438
O      94.04882286      66.34928934      86.50903297
N      92.38586371      63.79815881      83.55350101
H      91.56761222      62.07283869      83.47980168
C      93.87685777      64.77136786      81.35763903
H      95.45099979      65.66520841      82.34029671
C      94.97100931      62.60007233      79.76648948
H      93.26647617      61.59473793      79.19579213
C      96.39775267      63.57328138      77.49314872
H      95.32816758      64.76002951      76.19301701
H      97.15931238      61.95189621      76.47458624
H      97.98512277      64.71089662      78.14699402
C      96.48845953      60.64420560      81.46724315
H      96.79648492      59.00581288      80.25403886
H      95.33194703      59.97713221      83.03571600
C      99.00179553      61.58339957      82.33651726
H      99.77658332      60.01303701      83.42499961
H      98.71455713      63.26525599      83.48925031
H     100.22255873      62.01614690      80.73402934
C      92.36507672      66.88408188      79.92144703
O      93.46489743      68.81538217      79.21279966
N      89.88197634      66.68188117      79.66633398
H      88.95034127      65.03215010      79.91766759
C      88.30216515      68.60940201      78.34730502
H      89.22057214      69.07994386      76.56529310
C      85.68300448      67.81571696      77.58952476
H      84.22602549      69.26702676      77.68401108
H      84.97246738      66.53826197      79.04083457
C      85.48458321      66.69510925      74.96469491
O      83.92933846      65.00002475      74.51305032
O      86.59385256      67.78548133      73.22425698
C      88.13397951      71.00557497      79.97813883
O      88.81617070      72.98411842      79.24492501
N      87.25336704      70.81093316      82.36864261
H      86.90943685      69.01569316      82.92233241
C      86.53338132      72.82538141      84.00892504
H      86.25748128      74.49967892      82.83918447
C      83.79516789      72.31893476      84.91599369
H      83.74414528      71.17754007      86.63186518
H      82.67456019      71.09817156      83.69145102
C      82.29283547      74.60928305      85.56605953
H      83.18667602      75.61650718      87.12508374
H      80.55617699      73.59638975      86.01203494
C      82.01882516      76.16641753      83.20012218
O      83.30761850      78.13929180      83.19823247
O      80.41822697      75.61461745      81.52582467
C      88.55916793      73.38474040      85.97046097
O      89.53615643      75.38407084      86.46745898
N      89.19033651      71.36462297      87.39909405
H      88.45901243      69.69410491      86.83595562
C      90.95534089      71.44399148      89.48724164
H      92.79215487      72.18854364      88.92410320
H      91.28604300      69.46166857      89.93321704
C      90.09173597      73.12584789      91.74546457
O      87.99791921      74.18787408      91.75491320
N      91.62241428      73.06726638      93.76180256
H      93.12285697      71.88807716      93.73156694
C      90.87408266      74.11417476      96.33183033
H      88.82750906      73.87606924      96.38663241
C      92.10807394      72.40964162      98.30092516
H      94.14519891      72.43420806      97.98912031
H      91.70934169      70.43109817      97.89274427
C      91.48068481      73.23545202     101.02591049
H      92.13641984      75.18564958     100.90874746
C      88.63664670      73.19387804     101.64196127
H      88.02059593      71.26635720     101.25834683
H      87.57273079      74.57715770     100.54969947
H      88.61585971      73.58883084     103.66396844
C      93.15498232      71.84272373     102.90051900
H      95.14675385      71.92776141     102.37328535
H      92.74491171      69.82449603     102.84571693
H      92.94333297      72.49089985     104.84315765
C      91.68666497      76.85994709      96.59639203
O      93.68032623      77.59127117      95.54948364
N      90.04449281      78.33393361      97.79258877
H      88.47601997      77.52135130      98.50501560
C      90.66432304      80.78679837      98.98122662
H      92.65420485      80.90585113      99.49523218
C      89.84607154      82.85793841      97.09905922
H      89.23380022      84.55869209      98.08738608
H      88.13208978      82.26078489      96.12207071
C      92.01169790      83.81602965      95.30570894
H      92.62018977      82.16440885      94.23423413
H      93.65764952      84.54924346      96.30159471
C      91.07250392      85.88905941      93.49157168
H      92.74869116      86.87738627      92.81504967
H      89.80260784      87.26478017      94.34761770
N      89.80449757      84.83270240      91.25413573
H      89.48702355      82.95053500      91.26547410
C      89.05427622      86.05157588      89.17354706
N      89.51536944      88.48743309      88.80316070
H      89.20356460      89.36993528      87.13831183
H      90.47724013      89.38505309      90.18455065
N      87.79382877      84.86482775      87.46712420
H      86.85841424      85.86827242      86.14053633
H      87.27415403      83.04880076      87.72790643
C      89.16765980      81.01167580     101.39062767
O      86.93589302      80.17263732     101.81014691
N      90.45834287      82.24566708     103.15941150
H      92.28192876      82.47621369     102.64540594
C      89.52859752      82.61227399     105.73699819
H      87.99980894      81.26867858     106.05825167
C      91.66587798      81.87906018     107.68719575
H      90.94022308      82.15684994     109.59581932
H      93.16443095      83.24155285     107.31114021
C      92.87341310      79.32792965     107.45475941
H      93.97323381      79.32792965     105.71243175
C      94.91620724      79.00478645     109.53345835
H      95.76469436      80.82081344     110.00966940
H      96.37507596      77.81614860     108.69441987
H      94.24535440      78.27724182     111.34003671
C      91.00447377      77.01868410     107.78357180
H      92.21389861      75.35194549     107.71932109
H      89.48702355      76.98088957     106.38895377
H      90.21456818      77.02246355     109.68463646
C      88.26248089      85.20875794     106.24155512
O      86.67322107      85.25411137     107.87805810
N      89.10340910      87.10226371     104.74867133
H      90.58684426      86.71298009     103.61294582
C      87.99225003      89.61748943     104.78835558
H      87.01148208      90.04456757     106.54769079
C      89.98402157      91.68107056     104.84882683
H      89.12041664      93.54623043     104.70331790
H      91.25391765      91.59036370     103.22933138
C      91.60918619      91.61304041     107.27901486
H      92.13830956      89.66662231     107.70042383
H      90.29960586      92.33680559     108.69441987
C      93.89008585      93.37048589     107.07114497
H      93.19844602      95.27344028     106.68753053
H      95.13352577      92.54656521     105.65385023
C      95.31493949      93.43851603     109.59392960
H      95.77036354      91.49587738     110.10982488
H      94.08661739      94.45518879     110.90162021
N      97.55426518      94.88793612     109.34637546
H      97.31615966      96.77577270     109.50889191
H      98.51235642      94.57991073     107.72688000
H      98.90352976      94.69329430     110.68430168
C      86.05906001      89.96708880     102.68886965
O      86.12520043      88.89750370     100.71410565
N      84.42633648      91.80768223     103.20287521
H      84.76459749      92.75632483     104.82615011
C      82.40999850      92.65616934     101.42464275
H      81.41222301      90.96108484     100.81615087
C      80.49948520      94.47975523     102.78713543
H      81.48025316      96.16917056     103.43909100
C      78.42645544      95.40005195     100.95221118
H      76.97703535      93.94307296     100.83882759
H      79.12754390      95.61359102      99.02658005
H      77.74615396      97.21418921     101.64763045
C      79.09541855      93.34969890     105.03024055
H      80.48058794      92.73364812     106.42674831
H      77.85197864      91.76421852     104.59560350
C      77.62332175      95.40572112     106.65162573
H      78.92345346      96.94584807     107.08626279
H      76.94868946      94.47786551     108.36182804
H      76.18146058      96.17861919     105.40062692
C      83.62698225      93.72386471      99.01902115
O      85.49592157      94.96352517      99.15508144
N      82.43834440      93.20796942      96.93465303
H      80.92467362      92.07035418      97.16519965
C      83.35297193      93.81457157      94.37218415
H      84.07862684      95.74209241      94.32683071
C      85.11230713      91.84736648      93.51046895
H      86.58818338      91.79256441      94.94855067
H      86.15543606      92.39538711      91.82105362
C      84.18634124      89.28300787      92.91898461
C      82.85786364      88.73687697      90.68910757
H      82.50070537      90.16362033      89.27181283
C      81.97725118      86.31802729      90.23368353
H      80.92656335      85.75299912      88.57828328
C      82.19456970      84.42452152      92.06671805
O      81.28939080      82.06614308      91.44688781
H      81.12120516      82.04724582      89.64030947
C      83.65721787      84.89506337      94.24557248
H      84.03138368      83.32659053      95.49657131
C      84.51326389      87.33281032      94.68587872
H      85.47324486      87.71075558      96.44899336
C      80.99648322      93.98653666      92.70733526
O      79.26171447      92.44074054      92.67709964
N      81.03427775      95.98019792      91.01791995
H      82.40810878      97.30300634      91.05571448
C      79.56029122      96.29011304      88.66332096
H      77.61765257      95.99342601      89.27559229
C      79.74170495      98.90360453      87.56727969
H      78.38110200      99.03777510      86.02526303
H      81.72402785      99.12281278      87.04571524
C      79.13321308     100.99175211      89.49669026
H      80.63932495     101.12025350      90.89508774
H      77.31151691     100.66482945      90.40186916
C      79.17289733     103.57311825      88.12285923
H      77.88977316     103.63358949      86.51092268
H      81.05695446     103.95295324      87.38775569
C      78.48881640     105.76520077      89.81605400
H      79.91367004     105.72173707      91.30515834
H      76.51216268     105.75008296      90.39242053
N      78.86109249     108.06877715      88.39309009
H      80.67522975     108.34278746      87.86585645
H      78.41889653     109.65425752      89.35685051
H      77.89166289     108.05743879      86.74902821
C      80.39177080      94.37582028      86.62808571
O      82.62731703      94.17361957      86.00825548
N      78.50582394      92.76388374      85.97424041
H      77.15089017      92.68829469      87.31594610
C      78.67400958      90.86281907      84.00892504
H      80.53161055      89.98031688      84.14120589
C      76.80318053      88.81057629      84.60040938
H      74.91345422      89.50410585      84.16010316
H      76.89010794      88.46286665      86.62997544
C      77.67056491      86.54479444      83.08484888
O      76.44980171      85.76055802      81.19701229
O      79.61509329      85.51111415      83.85018804
C      78.46047051      92.19318639      81.38409520
O      78.07685607      94.49865249      81.18756366
N      78.30173350      90.77400193      79.33752160
H      78.27338760      88.89372425      79.66633398
C      78.02961291      91.63004795      76.77694245
H      79.79839674      92.50499123      76.18545812
C      77.87087590      89.47009078      74.90044423
H      76.09453316      88.45530775      75.14610864
C      78.02961291      90.53967587      72.25104794
H      78.12220950      89.01277701      70.87343744
H      79.71146933      91.71886509      72.13577462
H      76.18712975      91.40706025      71.94113282
O      79.89855223      87.65217406      74.94012847
H      79.16533842      86.14228274      75.62987857
C      75.73737489      93.46497220      76.32151840
O      76.18712975      95.40005195      74.97225382
N      73.51127730      93.13049064      77.50448708
H      73.18624437      91.78122606      78.81217768
C      71.31541532      94.75376555      77.12654181
H      71.23037764      95.28666837      75.13666002
C      68.70570328      93.62748866      77.96180084
H      67.13534072      94.92006146      77.63487819
H      68.81908686      93.04356323      79.93467511
C      67.87233398      91.34280955      76.35553348
H      65.86733436      90.98187183      76.65599996
H      68.93813962      89.67607094      76.93190001
C      68.15390320      91.66028357      73.57952552
O      69.32175406      90.00677305      72.21892259
O      66.89534547      93.28733793      72.52883769
C      71.65745578      97.11403371      78.77627288
O      70.49527410      99.09068744      78.33407693
N      73.48104167      97.00253986      80.62820467
H      74.70747405      95.54556087      80.73024990
C      74.25960892      98.93384015      82.41966523
H      73.70024993     100.82923564      81.83385006
H      76.27972634      98.92439152      82.81083856
C      72.81396829      98.67872710      84.98213411
O      72.77239431     100.59679931      86.35785485
N      71.92579692      96.47908567      85.56605953
H      71.77650854      95.05990121      84.29994290
C      70.52739945      95.94051367      87.85073864
H      69.74127330      97.64882626      88.68788740
C      68.42791351      94.03189010      87.16098854
H      67.42257911      93.66717292      88.92221346
H      69.36143831      92.28956243      86.57895283
C      66.34354539      94.48920386      85.10118685
C      65.32120345      92.42373300      83.68767157
H      65.96748985      90.51699915      84.01648395
C      63.51651483      92.77900155      81.71668703
H      62.42614274      91.34280955      80.75859579
C      62.89290514      95.29422727      81.09874652
O      61.36033710      95.78177666      79.18067432
H      61.21104872      97.59024474      79.20146130
C      63.80564295      97.37103649      82.44990085
H      63.50895592      99.36091830      82.11163983
C      65.61411103      96.85892066      84.38876003
H      66.53251802      98.46896748      85.24291634
C      72.22437368      94.77266281      89.98612937
O      73.79284652      93.20607970      89.45322656
N      71.89178184      95.57579649      92.37285371
H      70.62188576      96.94017889      92.77536541
C      73.46403414      94.89738475      94.54414924
H      75.46147485      95.26399165      94.20777796
C      72.85554226      96.63782268      96.76835712
H      74.02150340      95.93862395      98.31604296
H      70.81841730      96.39404799      96.95166056
C      73.86087666      99.39493337      96.66064271
C      72.36610315     101.57945699      97.13118456
H      70.35543435     101.22607817      97.17653800
C      73.41679098     104.03421147      97.45999695
H      72.12799763     105.56677951      97.86061892
C      76.04729001     104.36680330      97.15764074
O      77.09419838     106.65904132      97.56960107
H      75.91878862     108.04232098      97.60550587
C      77.59119640     102.38637013      96.77402629
H      79.55462204     102.73407977      96.34694814
C      76.60475927      99.81634234      96.55103859
H      77.95213413      98.32345855      96.20143923
C      73.07475052      92.13271515      95.14886166
O      70.97337486      91.20674926      95.51357884
N      75.13266247      90.66628753      95.16775893
H      76.80129081      91.59225343      95.12429522
C      75.24037687      87.95264055      94.92020478
H      73.68702184      87.11171234      95.98034124
C      75.37832689      87.21375756      92.11774065
H      77.00349152      88.09059057      91.20500284
C      75.44068786      84.34515301      91.60562482
H      73.56418963      83.53823988      91.86262761
H      76.60097982      83.36816451      93.00213257
H      76.05673864      84.19019546      89.64597864
O      73.24482588      88.03578850      90.90642610
H      73.85520748      89.53812092      90.09195406
C      77.56096078      87.15895550      96.48111871
O      79.09541855      88.82002492      97.31637774
N      77.68379299      84.76845171      97.27480377
H      76.46680925      83.46265083      96.59828174
C      79.61509329      83.81413992      99.09838965
H      81.26860381      84.90640173      98.54469984
C      78.72314247      84.45286741     101.78935992
H      78.00882592      86.37849853     101.64007155
C      76.52350104      82.75022401     102.48477922
H      77.23781758      81.04002169     103.38050948
H      75.47659266      82.35527121     100.75567963
H      75.43879813      83.94642076     103.76412392
C      80.84530512      84.68719348     103.86616915
H      82.21535669      86.11582657     103.30114097
H      82.07362722      83.03368295     103.94175819
C      79.73981522      85.39206139     106.46454282
H      79.14077198      83.91429542     107.76845398
H      78.03339236      86.51077937     106.18486334
H      80.95490924      86.67518556     107.52467928
C      80.12909884      80.90396140      98.65430397
O      78.89510756      79.65674203      97.14630237
N      81.88276486      79.84193521     100.09238569
H      83.01093147      81.05702923     101.04102830
C      82.45346221      77.10939096     100.05648089
H      80.81317977      76.02468806     100.67064195
H      84.02760423      76.83538065     101.35661260
C      83.11864587      76.12673328      97.42787159
O      84.73247214      77.31348140      96.33183033
N      82.18134162      73.87606924      96.65308382
H      81.10230789      72.92175745      97.90597236
C      82.24559231      72.98411842      94.05282040
H      83.43423016      74.20299189      92.89441817
C      82.93345269      70.12307278      93.97345189
H      81.28939080      69.18576853      94.79170339
C      83.58540827      69.21978361      91.37885767
H      84.13153917      67.23746070      91.23334875
H      85.16899892      70.28369952      90.59840071
H      81.89410322      69.31049047      90.20911709
C      85.10096877      69.47111721      95.66853640
H      85.11230713      70.65408588      97.35228254
H      86.98313618      69.62040558      94.84461572
C      85.11041740      66.76691885      96.80237218
H      83.53816511      66.74235241      98.13273951
H      86.85841424      66.50424689      97.85872919
H      84.88176052      65.14364395      95.55515282
C      79.58485767      73.51702124      93.04559627
O      77.93701632      71.92398196      93.25346617
N      79.13888226      75.80170035      91.91553994
H      80.49759547      77.13584713      92.04971052
C      76.74270929      76.38940524      90.50202466
H      76.10020234      74.65652621      89.59306630
H      77.17545662      77.71977256      88.99213333
C      74.69424597      77.61205816      92.12152011
O      72.93113132      78.81581382      91.08783981
N      74.59786993      77.29080469      94.65564310
H      76.18712975      76.85805736      95.62318296
C      72.11287982      77.86150204      95.91420082
H      70.66723919      76.74467378      94.96177876
C      72.08453393      76.94498477      98.60139163
H      73.14278066      78.10527673      99.93175897
H      73.18624437      75.22155438      98.83193825
C      69.53340341      76.36672852      99.55003424
N      68.39956762      74.08771859     100.09238569
H      69.03451566      72.37940600      99.52735753
C      66.20370564      74.34472137     101.50212152
H      64.87522804      72.89908074     102.05203188
N      65.78229667      76.88640326     101.55881331
H      64.07398409      77.59127117     102.03502434
C      67.78351684      78.03346713     100.36072683
H      68.06886551      80.05358456     100.28702751
C      71.20014201      80.54302367      95.74601517
O      72.34531616      82.28157188      96.88363042
N      69.27640063      81.22521487      94.21911631
H      68.38444981      79.81169959      93.29504015
C      68.15201347      83.67618990      93.87140668
H      69.58631574      85.00088805      93.21378192
C      66.23394126      83.60249057      91.72656731
H      64.97160409      82.09826843      92.34828726
H      67.08431810      82.90329184      89.98423965
C      64.76751364      86.03078889      91.18799531
H      64.13067588      86.87360682      92.95677914
C      66.11110905      88.06413440      89.70078070
H      67.91201823      88.33625499      90.66454112
H      65.03585478      89.81024151      89.49480053
H      66.46070842      87.45942198      87.76381123
C      62.44315028      85.46009154      89.58361767
H      63.08754695      84.74766472      87.76192151
H      61.37545491      87.19108084      89.25669502
H      60.99939938      84.26578451      90.44344315
C      67.09943592      84.59648661      96.40741938
O      65.62355966      83.23777340      97.44109968
N      67.81375246      86.80557667      97.30314966
H      68.80396905      88.04901659      96.24868238
C      66.59109954      87.89594876      99.68042536
H      65.99772547      86.24432796     100.75945909
C      68.55641490      89.39450172     101.12795571
H      67.74194286      90.12771553     102.87217311
H      69.19892185      90.96675402      99.96577403
C      70.87888854      87.90539739     102.05770107
H      71.91445856      86.94919587     100.55347892
C      72.70436416      89.80835179     103.26145673
H      73.58686635      91.06124033     101.88384625
H      74.04418012      88.74632560     104.41041033
H      71.70280921      90.85903962     104.72221516
C      70.07575486      86.11771630     104.27057057
H      68.68680602      84.74577499     103.61483554
H      69.28395953      87.25722126     105.79180025
H      71.76517018      85.16340451     104.96410013
C      64.34421495      89.63449697      98.92453484
O      62.31086944      89.35481747     100.02813500
N      64.75239583      91.46942121      97.12362566
H      66.45125979      91.75665961      96.30537417
C      62.63212291      93.16639544      96.29592553
H      60.94081786      92.02878020      96.01624605
C      62.08599201      95.20918959      98.48800807