 %block lattice_cart
   139.252   0.000   0.000
   0.000 142.425   0.000
   0.000   0.000   162.84
 %endblock lattice_cart

 %block positions_abs
N      94.32283318      43.91634828      82.33651726
H      94.53259280      42.74282824      80.84552321
H      93.52347895      43.00550019      83.80861407
H      96.10484509      44.31319080      82.89587625
C      92.98301723      46.40133838      81.93022611
H      93.18521794      47.67123446      83.54027293
C      93.91654202      47.57485842      79.46980244
H      93.60095773      46.28984453      77.88999126
H      95.95744644      47.82808174      79.60775248
C      92.69199937      50.16000401      78.76871399
H      90.70211757      49.99748755      78.25281871
H      93.82016598      50.96502742      77.24559458
S      92.77892678      52.71491399      81.11008488
C      95.98012316      52.41822696      82.26092822
H      96.16909579      50.50393420      82.99225230
H      96.25980265      53.81095525      83.74814283
H      97.38607954      52.33696873      80.75670607
C      90.16165584      45.70780882      81.92455693
O      89.46434683      43.87099484      80.71702182
N      88.79160426      47.26305358      83.29082905
H      89.55505369      48.70113530      84.28860454
C      86.07795728      46.77550419      83.89554147
H      85.22191126      45.93835543      82.21935423
C      85.75859353      45.28073067      86.34840622
H      86.50692515      43.36076874      86.34084732
H      83.77060145      44.89711623      86.71501313
C      87.00203345      46.57330347      88.63497506
O      85.73024764      47.98114958      89.95400403
N      89.45300847      46.25393973      89.27937174
H      89.81583593      47.29517892      90.83650622
H      90.71912510      45.10687585      88.43088463
C      84.60775021      49.23403812      84.02404287
O      85.80394696      51.24848637      83.83884969
N      82.10575257      49.29450936      84.38120113
H      81.20813257      47.61832212      84.56450459
C      80.72436263      51.78894810      84.42088538
H      81.22891956      52.68089892      82.63509403
C      77.92378824      51.27494254      84.30750181
H      77.52505599      49.70080052      83.03949546
C      76.94491001      50.17890128      86.72635149
H      76.71814285      51.74359466      88.04349074
H      77.94079577      48.48948595      87.36129954
H      75.11565494      49.50426898      86.05360892
C      76.53861885      53.58229837      83.28893933
H      76.41389691      55.16966847      84.59662994
H      74.62999527      52.85664346      83.02059819
C      77.32474500      54.55739714      80.79450059
H      78.95746853      55.68934321      81.33307260
H      75.98114959      55.54383428      79.58318603
H      78.14299649      53.14955104      79.53216342
C      81.42923055      53.61820317      86.47690761
O      82.05095051      55.84619049      85.98368906
N      82.09819366      52.56751534      88.72379220
H      81.88654432      50.68345820      88.95244909
C      83.17344794      54.10575256      90.84406513
H      82.03205324      55.80650624      91.05949392
C      82.92589379      52.55617698      93.27614289
H      83.61375417      53.86197786      94.71422462
H      84.34507825      51.06518292      93.18543603
C      80.32185093      51.66422616      93.97156218
C      78.81195960      53.12498460      95.39074663
H      79.49981998      55.01471091      95.73845628
C      76.48003733      52.25004132      96.27324882
H      75.22147961      53.58418809      97.16330992
C      75.60509405      49.87465534      95.54948365
H      73.83253077      49.08663947      96.18632142
C      77.19057443      48.27783661      94.12651973
H      76.81640862      46.28417535      93.88841422
C      79.65288781      49.19057442      93.34417304
H      81.01349076      47.88666326      92.55615717
C      85.97024288      54.90510679      90.57005481
O      86.87731151      56.25815083      92.26513931
N      87.24580814      54.18701079      88.49135587
H      86.46535117      53.20624283      87.05138442
C      89.67788590      55.12809449      87.93199688
H      90.23535517      56.29405563      89.53637452
C      91.50903070      52.88498936      87.78270850
H      93.19277685      53.69379222      86.91532413
H      91.03470940      51.38454667      86.45234117
C      92.27059041      51.73603576      90.28281642
H      93.23246110      49.95780330      89.88219444
H      90.56983672      51.01605003      91.19744395
C      93.77103310      53.48214287      92.07238724
O      93.41387483      53.20246338      94.49312664
O      95.63052379      54.72747251      91.25791520
C      89.65142974      56.80995091      85.49047049
O      90.59629289      58.87542177      85.69078147
N      88.29082679      56.02760422      83.44578662
H      87.51036982      54.29283546      83.59885445
C      87.41966296      57.62820240      81.36708767
H      88.83128852      57.97402232      79.90632923
C      85.39009690      56.13531862      79.85341690
H      84.03138368      55.27171369      81.13843078
H      86.29338608      54.54416906      78.90855373
C      83.91044120      57.49403184      77.76148986
H      85.22758044      58.55038884      76.58230065
H      82.92589379      59.05494577      78.68367631
S      81.69757168      55.52871647      76.15144305
C      82.41188823      56.27704809      73.00693846
H      81.19490449      55.51737811      71.52917249
H      84.26948920      55.54194455      72.50805071
H      82.56306634      58.32740114      72.88788571
C      86.48235871      60.10563360      82.29683302
O      87.49525201      62.06716951      81.45779454
N      84.43389539      60.24925280      83.91065929
H      83.58729800      58.58062447      84.27915591
C      83.42100208      62.69455865      84.61930666
H      83.11675615      63.78682046      82.89965570
C      80.81317977      62.49802711      85.80605478
H      80.23114407      64.14964791      86.88697823
H      80.84152566      60.86908303      87.06650222
C      78.63621506      62.02559553      83.87097503
H      79.28628091      60.51759394      82.62564539
C      76.33263868      61.02970977      85.47535268
H      74.80007064      60.53082202      84.19033877
H      75.61832214      62.63219768      86.55438639
H      76.92790247      59.36864034      86.53926859
C      77.78394849      64.30649519      82.41966522
H      77.61576285      65.99402079      83.58751609
H      76.19468866      63.69422387      81.25937326
H      79.22014049      64.93388433      81.08173899
C      85.39576608      64.23468559      86.33517814
O      85.38820717      66.59117431      86.28226581
N      87.26470540      63.13297515      87.61641259
H      87.35163281      61.23191048      87.74113453
C      89.49269273      64.59940277      88.59529081
H      88.66310287      66.15653725      89.65920672
C      91.05549639      62.97612787      90.43588425
H      92.48979866      64.23657532      91.20311312
H      92.16476573      61.54560505      89.45322656
C      89.51914889      61.91032223      92.56182635
H      88.08862608      60.61585970      91.83995089
H      88.67255151      63.46556698      93.61440390
C      91.30871971      60.50625558      94.33627935
H      92.63341786      61.75914412      95.29248086
H      92.47468085      59.10785811      93.37251893
N      89.65709892      59.23824922      96.24868238
H      88.91254675      57.67166611      95.44932815
C      89.00703306      59.61241503      98.63540671
N      89.66087837      61.69678316      99.76735278
H      89.01081252      61.92544004     101.54558524
H      91.23502039      62.64164631      99.24011913
N      87.73902671      57.89276409      99.78058086
H      87.31572801      58.03827301     101.63629210
H      87.74091643      56.12586998      99.06059513
C      91.14053407      65.80882761      86.54682750
O      91.71690060      68.04437384      86.99469262
N      91.33517588      64.62774867      84.36797305
H      90.64920523      62.85896484      84.17144151
C      92.75436034      65.88441666      82.24770012
H      94.46267293      66.81416201      82.92422214
C      93.55371457      63.75847456      80.29750258
H      91.86996843      62.59629288      80.05183816
C      94.00346943      64.91120761      77.70479808
H      94.26425167      63.49580261      76.23270128
H      95.71745120      66.04315368      77.55361996
H      92.30271575      65.94110845      77.16433635
C      95.81382724      62.40732025      81.35763904
H      95.37919019      61.58339958      83.19445301
H      97.38041036      63.73957730      81.41622055
C      96.67743217      59.97524248      79.96113130
H      95.46044842      58.31795251      80.07451486
H      98.69754960      59.56706160      79.94034430
H      96.35806842      60.17366375      77.93534468
C      91.20667449      67.93476971      81.03071639
O      92.19122190      69.92843097      80.39387862
N      88.74058165      67.59272925      80.66599920
H      87.79949795      66.22456740      81.60897263
C      87.03793825      69.32749801      79.31673462
H      88.01114730      69.84339329      77.57629668
C      84.69278789      67.93287999      78.66099959
H      82.99203421      69.03459043      78.29439268
H      84.28082755      66.61196130      80.18222926
C      84.96679821      66.43621675      76.30073143
O      86.76014848      66.62140993      74.80784764
O      83.33407467      64.80538294      75.96247042
C      86.46346145      71.70855316      80.83607457
O      85.63576132      73.56993358      79.81184291
N      86.89242932      71.51769080      83.36452838
H      87.73902671      69.96055632      84.06939629
C      86.14787715      73.61906646      85.08039988
H      85.17655783      75.02124339      83.92388737
C      84.23736385      72.78569716      87.20256252
H      84.01248642      74.30125766      88.58206273
H      85.14632221      71.38729969      88.41009763
C      81.60875455      71.77658331      86.06494728
H      80.41255779      70.84305851      87.45578585
H      82.01882516      70.12496251      84.90087587
C      80.05539952      73.59072057      84.30372235
O      80.73570099      75.69965513      83.79538598
O      78.03906154      72.80270470      83.46657361
C      88.22657610      75.11572970      86.29171443
O      87.94689660      77.32670949      86.52604050
N      90.26559079      73.83449526      87.26681322
H      90.06716952      71.93909977      87.13453237
C      92.30838493      74.89274200      88.79371208
H      92.33673083      76.84293955      88.12474897
H      94.02236670      73.87795897      88.26836816
C      91.67721634      74.75857143      91.60373510
O      89.82339483      73.57938221      92.19710917
N      92.99246586      76.11728465      93.27992234
H      94.67432228      76.85994709      92.76591679
C      92.34428973      76.40830250      95.91609056
H      90.34306957      75.93776065      96.04270221
C      93.94677765      74.35605973      97.49401202
H      95.96500535      74.54881181      97.12362566
H      93.46111798      72.49089986      96.76457766
C      93.47623579      74.38629535     100.34371931
H      93.99968998      76.26468330     100.99756461
C      90.72668401      73.82315691     100.92764474
H      90.35818738      73.75701648     102.95532106
H      90.16354557      71.96933539     100.22844599
H      89.39253723      75.10628107     100.02435555
C      95.15620249      72.21688954     101.58149004
H      94.78392640      70.44243653     100.60828098
H      94.66487364      71.85217236     103.54869512
H      97.14230484      72.62696015     101.21677285
C      92.95467133      79.15029538      96.87229207
O      95.08817234      79.87028111      97.36551063
N      91.00636350      80.59215656      97.50157093
H      89.28860228      80.02523867      96.89307905
C      91.08195256      83.09982338      98.52769231
H      92.95467133      83.65162346      99.18342735
C      90.02937500      84.77223116      96.56048723
H      89.79504894      86.68085474      97.29370103
H      88.09996443      84.16751874      96.15608579
C      91.74146704      84.73632636      94.18132180
H      92.24602396      82.81258498      93.64086008
H      93.46489744      85.77189638      94.62729720
C      90.14653803      85.97598682      92.10262285
H      89.64954001      87.94319192      92.45600168
H      88.37019530      84.93663735      92.01947490
N      91.71123142      86.10070876      89.84251019
H      92.43688632      87.70697613      89.11118609
C      92.03437462      84.25633588      88.34017776
N      90.84006759      82.10393761      88.39686955
H      91.16699024      80.82459290      87.01925908
H      90.13330995      81.42363614      90.03337254
N      93.36852139      84.63617087      86.46367954
H      93.55560430      83.35115698      85.06339234
H      94.60440240      86.08370122      86.31250142
C      89.53993588      83.12250009     100.93142418
O      87.37053008      82.50266986     100.84827623
N      90.66621277      83.47020973     103.17263959
H      92.46523222      84.09570914     103.08760191
C      89.77804140      83.04313159     105.69731394
H      88.53271176      81.41796696     105.90707356
C      92.10240476      82.26456435     107.16185185
H      91.34651424      81.66930056     108.98543774
H      93.48379470      83.77634540     107.39428818
C      93.62363445      79.86461193     106.29257774
H      94.73668324      80.20476266     104.59371379
C      95.60784707      79.18997963     108.31836434
H      94.66109419      78.40385349     109.96998515
H      96.79459520      80.79813673     108.80780345
H      96.84183836      77.80292052     107.42452379
C      91.84162253      77.59316090     106.02612633
H      90.63597715      77.83693559     104.37261581
H      90.83061896      77.29836360     107.79491015
H      93.14364396      76.01145998     105.81447697
C      88.27759871      85.47331963     106.75934014
O      87.02659989      85.55079840     108.72654522
N      87.89965344      87.27989798     105.09449126
H      88.38342338      87.03612329     103.26334646
C      86.50503542      89.62504834     105.33637623
H      85.18978591      89.67607095     106.91996688
C      88.47979942      91.74343153     105.57448174
H      89.48324409      92.04956719     103.80380819
H      89.96323458      91.07824787     106.84059837
C      87.56517189      94.49298332     106.05069277
H      86.31606279      94.44007098     107.68719576
H      86.51826351      95.05423203     104.36694662
C      89.74402633      96.31467948     106.45698393
H      90.96856898      96.38837881     104.80158367
H      90.73046346      95.81012256     108.19364240
C      88.54593984      98.83746411     107.07114498
H      88.07350826      98.92250180     109.07425487
H      86.80550191      99.15115868     106.01478797
N      90.25047298     100.91238360     106.59304422
H      91.82650472     100.86891990     107.66640876
H      89.50025163     102.66415989     106.69130999
H      90.94211281     100.97852402     104.81292204
C      84.65310364      90.11070800     103.11594780
O      84.86853244      89.05813044     101.02780022
N      82.75392869      91.55634863     103.73577804
H      82.74825951      92.11192816     105.56125366
C      80.79806196      92.21019393     101.90085379
H      79.87020634      90.47542518     101.27913383
C      78.89699729      94.13771477     103.09327108
H      79.85319880      95.86681435     103.67908625
C      76.96002782      95.25454302     101.17897834
H      77.85008891      96.57735144      99.87695691
H      75.28195085      96.08035342     102.04258326
H      76.20791675      93.71630580     100.03380419
C      77.42679022      92.97553309     105.38550911
H      78.86676167      92.38782820     106.73477370
H      76.48381679      91.26155132     104.73733298
C      75.41612142      94.44196071     106.67997163
H      76.20035784      96.21641371     107.37350119
H      74.65456172      93.36859616     108.26356229
H      73.80229515      94.66116896     105.41952417
C      81.91300048      93.55189961      99.51035000
O      83.28305206      95.28855810      99.84105210
N      81.36497985      92.39916656      97.26724487
H      80.21224680      90.87793688      97.22000170
C      82.27204848      93.08513721      94.61028967
H      83.34730276      94.84069296      94.53848006
C      84.49058718      91.24265406      94.07171768
H      85.75103463      91.23320543      95.69877203
H      85.44300924      92.02878021      92.42387633
C      83.80650625      88.49877145      93.37440867
C      83.48525278      87.80335217      90.76847607
H      83.67611513      89.17907293      89.27559228
C      83.11864587      85.26356000      90.12407941
H      82.72747253      84.71742910      88.19655857
C      83.08652052      83.47020973      92.00246735
O      82.59708141      81.02868334      91.38641657
H      82.58007387      80.69420178      89.60251493
C      83.40021509      83.99744338      94.53848006
H      83.59863636      82.51211849      95.92931863
C      83.74981446      86.62983213      95.18098701
H      83.84241105      87.01155684      97.18409690
C      80.20090844      93.27977902      92.66954075
O      78.00315674      92.52577823      93.13630314
N      80.77160579      94.46841688      90.51903221
H      82.58007387      95.00320942      90.23368353
C      79.08219047      94.50243195      88.39497983
H      77.24159704      94.15850176      89.25480530
C      79.04250621      97.20096112      87.16476800
H      77.70269026      97.12915152      85.60196433
H      81.02860857      97.64504681      86.84162480
C      78.11843005      99.27588062      88.95244909
H      79.33163434      99.57823683      90.59273153
H      76.22870373      98.72219081      89.55716151
C      77.94457523     101.88181320      87.62208176
H      76.97892508     101.75142209      85.80794450
H      79.91933922     102.46573863      87.56350025
C      76.53483940     103.79988541      89.11874500
H      77.30017855     104.13058751      91.00280213
H      74.68101788     103.02698735      89.57416904
N      75.84697902     106.23763235      87.82050302
H      75.08730904     107.32800444      89.19055460
H      74.48637607     105.92771724      86.51281242
H      77.40411350     107.10690646      87.13075292
C      79.58296794      92.45774808      86.41265692
O      81.74670457      92.18562749      85.53960337
N      77.57040942      91.18218282      85.57550817
H      75.92067835      91.81902058      86.29549389
C      77.23403813      89.58536408      83.36074892
H      78.63999451      88.08114194      83.27571124
C      74.79440146      88.28145293      83.53649348
H      73.12955258      89.43985516      83.90121065
H      74.88321860      86.97943150      85.12953276
C      74.17457123      86.72620817      81.26126300
O      72.34909561      87.57847474      79.94601349
O      75.65422694      85.04624148      80.58852043
C      77.40600323      91.20485953      80.85119238
O      77.39655460      93.50276673      80.94378897
N      77.66300601      90.08803128      78.63076396
H      77.76505123      88.19074606      78.46257833
C      77.99937729      91.58658425      76.25915744
H      79.50170971      92.92828993      76.69001504
C      78.90077674      89.97842716      74.10864889
H      78.64755342      91.06501979      72.37765960
C      81.65788743      89.21119827      74.64533117
H      81.69001278      88.06413440      76.35742322
H      82.82195884      90.86281907      75.03839425
H      82.47046975      88.26444539      73.00693846
O      77.41167241      87.87138232      73.78172624
H      78.14677594      86.75833352      72.54962470
C      75.60131460      92.93395911      75.28405867
O      75.94146534      94.54778538      73.71747555
N      73.39033481      92.01555212      76.07207454
H      73.51127730      90.44518955      77.15110827
C      70.91668307      93.46497220      75.85097656
H      70.76739469      94.26243671      73.95936052
C      68.59420943      91.84547675      76.42167391
H      68.50728202      91.52611301      78.45312970
H      68.85121221      89.94063263      75.68468065
C      65.95993095      92.53333713      75.42578814
H      65.44214594      94.47408605      75.87176354
H      64.51429032      91.28233831      76.19490674
C      65.69725899      92.38782820      72.50994044
O      65.05853150      94.36448193      71.44980398
O      66.41535499      90.50755052      71.38177383
C      70.78062277      95.53611224      77.67078299
O      68.95703688      97.10647481      77.53850216
N      72.76861486      95.75909995      79.22413803
H      73.97803970      94.28889288      79.09563664
C      73.17679574      97.52410432      81.31984451
H      72.33775726      99.33068268      80.79450059
H      75.20258235      97.75654066      81.60519318
C      72.21303532      96.87403847      83.88987230
O      72.32074972      98.49731337      85.53393418
N      71.19447284      94.56290319      84.27348674
H      71.22281873      93.41017014      82.75225706
C      69.67702261      93.92417570      86.43344391
H      68.41657516      95.47564100      86.92855220
C      67.83831891      91.60548151      85.91565890
H      66.95581672      90.95352593      87.65798656
H      69.07419991      90.02189086      85.46779377
C      65.83142956      91.93240416      83.85963667
C      65.23994522      89.80268261      82.39509878
H      66.29252278      88.05846522      82.50281319
C      63.15935655      89.87260248      80.54316700
H      62.97227365      88.23232004      79.33941133
C      61.73261319      92.23853983      80.28805395
O      59.71627521      92.23098092      78.80461879
H      58.84133193      93.79756403      79.08051883
C      62.44881946      94.34936412      81.72424595
H      61.51718439      96.16161165      81.65810552
C      64.39334784      94.15850176      83.57617773
H      64.61633554      95.69862871      84.89709643
C      71.29273861      93.26655094      88.82583743
O      73.16734711      91.94563225      88.54993738
N      70.50472273      94.02433119      91.26925354
H      68.72271082      94.70085321      91.35618096
C      71.78595717      93.46686193      93.63141143
H      73.77205953      93.78433595      93.18165658
C      70.98282349      95.04667313      95.85750903
H      72.11099010      94.29078260      97.40519489
H      69.00050059      94.82746487      96.37340431
C      71.34754067      97.74331258      95.65908777
C      69.34821023      99.31745459      95.94254672
H      67.50383735      98.55400516      96.37151460
C      69.65434589     101.94417417      95.65530832
H      68.07264497     103.22351888      95.80837615
C      72.06563667     103.01942844      95.40586444
O      72.42279494     105.54977197      95.68743367
H      70.87132964     106.45684061      95.93309809
C      74.18779932     101.40371244      95.16208976
H      76.06051809     102.20684613      95.04303699
C      73.83253077      98.79966958      95.49090213
H      75.55407144      97.71874613      95.31893704
C      71.67257359      90.59636766      94.23612385
O      69.64489726      89.45308324      94.34194854
N      73.78528761      89.52678257      95.06193426
H      75.23092824      90.68707452      95.51924802
C      74.59409047      86.88872463      94.89752806
H      72.89711625      85.71709432      94.89374861
C      75.86776601      86.37471908      92.36907426
H      77.69324163      87.32714114      92.46734004
C      76.13988660      83.55335769      91.87585570
H      74.28039591      82.73510620      92.21222697
H      77.43434912      82.79935689      93.29126071
H      77.09041893      83.48532754      90.05038007
O      74.23882193      87.23832400      90.33005958
H      74.35220551      89.04679208      90.26769860
C      76.61042845      86.35960127      96.98378591
O      78.05417935      88.08681112      97.62629287
N      76.86554150      84.09759887      98.17053405
H      75.49360020      82.83337197      97.77558125
C      78.99526306      83.41729740      99.93553841
H      80.63365577      84.49444140      99.30248011
C      78.51338285      84.27145369     102.57359636
H      77.92945742      86.23865878     102.38840318
C      76.51783186      82.58770755     103.75467529
H      75.66934475      83.63461592     105.31180978
H      77.25482512      80.78301892     104.42363841
H      74.91156449      82.07559171     102.57359636
C      80.88876882      84.25633588     104.11561302
H      82.37787316      85.34292851     103.19720603
H      81.40844356      82.31369723     104.55780899
C      80.40688861      85.67552034     106.70831753
H      82.15677518      85.59615184     107.78924098
H      78.86109249      84.77412089     107.72688000
H      79.97225156      87.61626926     106.17352497
C      80.07429678      80.65451753      99.79569868
O      78.61920752      78.91407959      99.27035475
N      82.39299097      80.10838662     100.65930360
H      83.46257606      81.45009231     101.50023180
C      83.54383429      77.68764722     100.37773437
H      82.54416907      76.41397168     101.65140991
H      85.38253800      77.57993282     101.29614137
C      83.60808499      76.63884911      97.68676411
O      84.95734957      77.56103555      96.02002549
N      82.17378272      74.68109265      97.24267843
H      81.14955105      74.00268091      98.70532658
C      82.42889577      73.12395817      94.99201439
H      83.93122819      73.97244528      93.86573750
C      83.26604452      70.37062693      95.77625080
H      81.58796756      69.43521241      96.51702352
C      84.22980494      68.98734727      93.34795249
H      84.52082280      66.97289902      93.65219842
H      86.04394220      69.71111245      92.69410719
H      82.76526705      69.19710689      91.91553995
C      85.35986128      70.31960432      97.84172166
H      84.66822145      71.22478323      99.55948288
H      86.71290532      71.59327986      96.95921947
C      86.51448406      67.70233338      98.41619847
H      87.99602949      67.09762096      97.12173594
H      84.95923930      66.35873797      98.53903067
H      87.26281568      67.87618820     100.32671176
C      80.02327417      73.39040958      93.31771688
O      78.26204925      71.87295935      93.31015797
N      79.75682276      75.66752979      92.28970575
H      81.15522023      76.96577176      92.32372083
C      77.56474024      76.34027235      90.69288703
H      77.06585249      74.97400023      89.23212858
H      77.82174302      77.95220890      89.43432929
C      75.14778028      77.02057383      92.19332972
O      73.29962795      77.71410338      91.03114804
N      74.97203574      76.82215256      94.71233489
H      76.50649350      76.23066823      95.68176449
C      72.62121620      76.92419779      96.16175498
H      71.31352559      75.47477770      95.50035077
C      73.01805873      76.25712440      98.95666019
H      74.17457123      77.71788284      99.83349319
H      74.05740820      74.52802482      99.37051025
C      70.53495835      76.08893876     100.20010010
N      69.21970884      73.91008432     100.50434603
H      69.34254105      72.49467931      99.23067051
C      67.06920030      74.45621522     101.77046266
H      65.57820623      73.09183282     102.05581134
N      67.27518046      76.77112995     102.49422785
H      65.95237204      77.81236915     103.39751703
C      69.37844585      77.82559724     101.62684347
H      69.92457675      79.78335370     101.78935993
C      71.26439271      79.49611530      95.95766453
O      72.18279970      81.38773134      96.94221193
N      68.96459579      79.56792490      95.09216987
H      68.06508606      77.97299589      94.54981843
C      67.48494008      81.84693483      94.59517185
H      68.70570328      83.31714190      93.82983271
C      65.56686788      81.34615736      92.45033249
H      63.83965803      80.58270793      93.27425317
H      66.31897895      79.88350919      91.21256175
C      64.72593967      83.58359331      90.71745347
H      66.52873857      84.55491264      90.50013494
C      63.83209912      82.49889041      88.09262362
H      62.13890435      81.36505462      88.39875928
H      65.18514316      81.29702447      87.10240702
H      63.32187302      84.18452628      87.02303853
C      62.82865445      85.35048742      91.99112899
H      61.00317883      84.99521887      91.10295763
H      63.30675521      87.27800825      91.44877755
H      62.90613323      85.05757984      94.02825397
C      66.33976594      83.02045487      96.93654277
O      64.81097735      81.81480948      98.29714570
N      66.96904480      85.40717920      97.52991682
H      68.08587305      86.26322522      96.23923375
C      65.92213642      86.84526093      99.60105687
H      65.20593015      85.56213676     101.04669749
C      68.07264497      88.33058581     100.87284267
H      67.31297499      89.61370998     102.29202714
H      68.97404442      89.51355448      99.44987876
C      70.05874732      86.87549655     102.18620246
H      71.07353035      85.71142514     100.82182006
C      71.82564143      88.78789958     103.47499580
H      73.19380328      87.89216931     104.72788435
H      70.80707894      89.82346960     104.93575424
H      72.67979772      89.79134425     101.89329488
C      69.33687187      85.19741958     104.45009458
H      70.99794130      84.43585988     105.40251664
H      68.03674017      83.68374881     103.93419930
H      68.39389844      86.21031289     105.97699345
C      63.59021415      88.41562349      98.67131152
O      61.49072822      88.04145768      99.64830001
N      63.99650531      90.03889840      96.75890849
H      65.73883297      90.10314909      95.98034125
C      61.99528515      91.59414315      95.71577956
H      60.31909791      90.46219709      95.32838567
C      61.24128435      93.76354896      97.56582163