 %block lattice_cart
   139.252   0.000   0.000
   0.000 142.425   0.000
   0.000   0.000   162.84
 %endblock lattice_cart

 %block positions_abs
N      91.48162967      40.82286629      79.30634112
H      93.04065388      40.74160807      78.20652041
H      90.17204934      39.44714554      79.12114795
H      91.99752496      40.52051008      81.11858866
C      90.31377881      43.38344546      79.16272192
H      91.07533852      44.58909084      80.64804681
C      90.86557890      44.63255454      76.51899481
H      90.23252058      43.52139547      74.90327881
H      92.91215249      44.85743197      76.44340576
C      90.07567330      47.45013648      76.22419751
H      88.07067368      47.55407142      75.75932483
H      91.11691250      48.05295917      74.55367945
S      90.88636589      49.19813331      79.05500752
C      91.69705847      52.19523924      77.87203885
H      93.36757653      52.12531937      76.66639346
H      92.10712908      53.28372160      79.57279253
H      89.99819452      53.05695445      77.08402298
C      87.39982084      43.07353034      79.72208091
O      86.42850151      41.02506701      79.55767472
N      86.13937339      45.15222928      80.51765569
H      87.05589065      46.81518843      80.71796668
C      83.49942573      45.03317653      81.22063388
H      82.52054750      43.99193733      79.73530900
C      83.47107983      43.57808727      83.73396988
H      84.34224366      41.71670684      83.85869181
H      81.47741857      43.37399682      84.20451173
C      84.77310126      45.08041968      85.88636815
O      83.86981209      46.89833640      87.07689572
N      87.13525915      44.65901072      86.40037370
H      88.16327027      45.84764857      87.48507661
H      88.09335040      43.28328996      85.49141535
C      82.43928927      47.79595639      81.51921064
O      83.93973196      49.57040940      81.49842365
N      79.91650464      48.13610713      81.73841889
H      79.03967163      46.44291235      81.86503055
C      78.68251336      50.71558355      81.76487506
H      79.19651891      51.48281242      79.92239190
C      75.83280608      50.24882115      81.63448394
H      75.59659029      48.86554149      80.12648234
C      74.51377711      49.33608333      84.09868705
H      74.68007303      50.78928287      85.55188659
H      75.32069025      47.52005636      84.63347960
H      72.47287269      49.18490524      83.87191990
C      74.36448873      52.62231739      80.86536533
H      74.54968191      53.97158199      82.41116146
H      72.33303294      52.28027693      80.84268862
C      74.96164225      53.80528606      78.21029986
H      75.06746692      52.17823171      76.95363186
H      76.80223568      54.72936223      78.17061561
H      73.36104406      54.98636501      77.67928677
C      79.52533129      52.52594136      83.85491236
O      79.57446418      54.80117183      83.43728284
N      80.49665062      51.52060695      85.99030309
H      80.52688624      49.65166763      86.37769699
C      81.32624047      53.01727020      88.14648082
H      80.09980809      54.64432455      88.43749867
C      81.25821032      51.54706313      90.61068393
H      82.05567483      52.87176126      91.97128687
H      82.63960026      50.04473070      90.32722498
C      78.91305997      50.63432531      91.70483546
C      77.10459189      52.34641735      92.95394456
H      77.80757007      54.21346696      93.39047133
C      74.75188263      51.47903297      93.77219605
H      73.38750023      52.68845781      94.69249276
C      74.06024279      48.99782233      93.32055146
H      72.31035623      48.18146057      93.97439677
C      75.84792389      47.24982549      92.26041500
H      75.42840465      45.26372313      92.06388346
C      78.36125988      48.06996670      91.57822380
H      79.44785251      46.58464182      90.69950106
C      83.91327579      54.19456968      87.71373349
O      84.82601360      55.89721309      89.04032136
N      85.40426985      53.24970654      85.98652364
H      84.72396838      51.85319878      84.87725429
C      87.96295928      54.06984775      85.25897901
H      88.67727583      55.57029044      86.47785248
C      89.81111161      51.94768510      84.92638718
H      91.53454201      52.56940505      83.98719320
H      88.87380736      50.60031024      83.67916781
C      90.46117747      50.57763352      87.32633960
H      91.57989544      48.93735108      86.77831897
H      88.79065940      49.96914166      88.36757879
C      91.99563523      52.01760497      89.29732414
O      91.08478715      53.89977238      90.37068869
O      94.02709102      51.15211032      90.12313454
C      87.62847772      55.46824522      82.67572314
O      88.71318063      57.43545031      82.25998335
N      86.14315284      54.47424918      80.82190163
H      85.32112189      52.80940030      81.26409758
C      85.33623970      55.89343365      78.45785401
H      86.93494817      56.15799533      77.18417847
C      83.27454830      54.11709090      77.32968740
H      81.93851179      54.00370734      78.89249106
H      83.97185731      52.28405638      76.70985717
C      82.19362485      55.44556850      74.91083772
H      83.42761613      56.00303777      73.35559296
H      81.44907268      57.17655781      75.74042757
S      79.52911074      53.85819840      73.62393410
C      79.65194296      54.85219445      70.37738429
H      80.51743761      56.69089814      70.03912328
H      77.78678308      54.68211907      69.51755882
H      81.09002468      53.67867440      69.48354375
C      84.19106556      58.65432378      78.86036571
O      84.92994855      60.35696719      77.36748193
N      82.89471331      59.27037456      80.88615232
H      82.06134400      57.94756614      81.98030386
C      82.32968514      61.98591127      81.58157160
H      82.10669744      63.09896008      79.86192066
C      79.71430392      61.93866811      82.85902659
H      79.09258397      63.80004854      83.48074655
H      79.83713613      60.75758917      84.54088301
C      77.53355976      60.74436109      81.27165649
H      78.29889891      59.09463001      80.30600634
C      75.37738204      59.80705683      82.93272592
H      76.13138283      58.02504492      83.63759383
H      73.64072355      59.44044993      81.88959699
H      75.02400321      61.07506319      84.51631657
C      76.48287193      62.73991207      79.49342403
H      76.36381917      64.56538769      80.43639746
H      74.62905042      62.17677363      78.78855611
H      77.80190089      62.94778197      77.92873064
C      84.40271491      63.28604299      83.19728760
O      84.61814371      65.61607552      83.22185404
N      86.24708779      61.75914411      84.08356924
H      86.42661179      59.94689658      83.51098217
C      88.66215802      62.83628812      84.97174061
H      88.20295452      64.62018975      85.89581678
C      89.65804378      61.04104812      87.01642448
H      90.97707275      59.63509174      86.28887985
H      88.04232778      60.03382399      87.79877117
C      90.83534328      62.32606201      89.29354469
H      89.62591844      63.68288551      90.26297429
H      92.37358049      63.55438411      88.69639117
C      91.67627148      60.32295213      91.16248401
H      92.45105927      61.39442694      92.74229521
H      93.36568681      59.33462525      90.51997707
N      89.74497119      58.51448404      92.13002388
H      89.62969789      56.70979542      91.51775256
C      88.16704972      58.95479028      93.99896321
N      88.11224766      61.16388034      95.09500447
H      87.05778038      61.29238171      96.67859512
H      89.61080062      62.31472366      94.81532497
N      86.91794063      57.18222698      94.90981129
H      86.09024050      57.46379621      96.60678552
H      87.21273793      55.38887672      94.32777559
C      90.62369393      63.51847932      82.93839510
O      92.44161064      64.82428020      83.55822533
N      90.39125759      62.60196206      80.60458310
H      88.94561696      61.51536942      79.99231178
C      91.85957494      63.54304576      78.45029510
H      93.64914576      64.19689106      79.23264180
C      92.33200652      61.21679266      76.52655372
H      90.57645077      60.20200963      76.16183654
C      93.40537106      62.30149557      74.05290197
H      95.06455076      63.43911081      74.48753903
H      91.93705372      63.08006281      72.83780795
H      93.82111085      60.73302273      72.78300589
C      94.07811363      59.15699099      77.55078538
H      94.31432942      57.89843327      75.93884883
H      92.84034289      58.13086960      78.84335818
C      96.72750992      59.70879106      78.81123283
H      96.17193038      60.74814054      80.50064815
H      97.98606764      61.04104812      77.87203885
H      97.75363131      57.96268395      79.18161919
C      90.68794462      65.75591528      77.19740656
O      91.90114892      67.62296487      76.44718521
N      88.05366614      65.68599539      77.07457435
H      87.28643726      64.11941228      77.85314159
C      86.36992000      67.38485936      75.61570563
H      87.41115920      67.80626832      73.88849578
C      83.73564152      66.11118382      75.10170008
H      82.12748443      67.38674908      74.91839663
H      83.25376131      65.03970899      76.79489485
C      83.86414291      64.29893628      72.82835932
O      85.72741305      64.35751780      71.35626253
O      82.08780017      62.79282441      72.52411339
C      85.67261099      69.79992959      76.97819831
O      84.72207865      71.57627232      75.79333991
N      86.26031587      69.92276179      79.45373978
H      87.00675777      68.46578281      80.43261801
C      85.81811991      72.23578679      80.99386672
H      86.50031111      73.84961306      79.91105354
C      82.98919962      72.40586217      81.47952638
H      82.63582080      70.75424137      82.65871560
H      81.77788506      72.11295459      79.83924394
C      82.05756455      74.81337348      82.90249030
H      83.12714964      75.21966464      84.61458234
H      80.10169782      74.60928305      83.51098217
C      82.15394059      77.00167655      81.06945577
O      80.14327180      77.42497525      80.00553986
O      84.09279979      78.31314663      80.84457834
C      87.24864273      72.48712040      83.58090204
O      87.95917983      74.53936318      84.43127888
N      87.82122981      70.19866183      84.59190562
H      86.71762964      68.71711641      84.11758432
C      89.23474509      69.97756385      87.07878545
H      91.14714812      70.70888794      86.85390802
H      89.47851978      67.96122587      87.41515673
C      88.10846821      71.27958528      89.47495841
O      86.03921789      72.40397244      89.24063235
N      89.42749717      71.10762019      91.58011353
H      91.10746386      70.28936870      91.18894018
C      88.31444837      71.54036751      94.10856733
H      86.28677204      71.67831753      93.76274742
C      88.92294025      69.25757813      95.87924089
H      90.93360904      69.27647540      96.32521630
H      88.54499498      67.50958128      94.85311950
C      87.33745987      69.37663088      98.28864194
H      87.59635237      71.15108389      99.29586606
C      84.47452451      68.87774315      97.84077680
H      83.40493941      68.66042462      99.58688391
H      84.33279503      67.04470861      96.90914173
H      83.50887436      70.25157416      96.64835950
C      88.39381688      67.41320525     100.30309019
H      90.37047060      67.67776693     100.81331629
H      88.22563124      65.48190496      99.60389145
H      87.14092833      67.64942103     101.91880619
C      88.97774231      74.10094667      95.07610721
O      91.24163443      74.71510772      95.41247849
N      87.20328930      75.64674279      95.79987238
H      85.42694657      74.96644133      95.62979702
C      87.54344004      78.23188838      96.76930198
H      89.50119650      78.69109188      97.21338767
C      86.60991524      80.33137433      94.85500923
H      86.60991524      82.11527596      95.88679979
H      84.63326152      80.09704827      94.32777559
C      88.11791684      80.38995583      92.37190885
H      88.31633810      78.52101651      91.52531146
H      90.09835001      80.80758535      92.74607466
C      87.20328930      82.47810341      90.49919008
H      87.36580576      84.36405028      91.31177239
H      85.22474585      82.09259925      90.06833248
N      88.60168677      82.59148699      87.99719244
H      89.89425957      83.98799474      87.85546296
C      87.97618736      81.48410738      85.86180170
N      86.11669667      79.85516330      85.62369619
H      85.59324248      79.45076187      83.83601510
H      85.00175815      79.44887213      87.11846970
N      89.42371772      82.00567183      83.93239114
H      89.27631907      80.89829221      82.38281556
H      90.71251106      83.41351793      83.88136853
C      86.20929326      78.53046514      99.38279347
O      84.42917107      77.25489988      99.91947575
N      87.48485852      79.81736876     101.09488551
H      89.14592795      80.56759012     100.52229844
C      86.82345431      79.69831601     103.80286332
H      85.18884105      78.46621445     104.03907911
C      88.99286012      78.71943777     105.41857932
H      88.24074905      78.55881104     107.32909262
H      90.69172408      79.87784000     105.30141629
C      90.03220959      76.01334969     104.47749561
H      90.94683713      76.07382094     102.63501246
C      91.67438176      75.17053176     106.70926239
H      92.54365586      73.39040958     106.14423422
H      90.52920761      74.96644133     108.41001607
H      93.12002239      76.59160596     107.07775902
C      87.97618736      74.10283639     104.19592639
H      88.59790732      72.14507994     104.03907911
H      86.82912349      74.55637071     102.54808505
H      86.89715364      74.18787407     105.94959241
C      86.07323297      82.36849929     104.81575662
O      84.93372800      82.50266985     106.93225009
N      86.08268160      84.29035095     103.08854677
H      86.80833650      83.85949335     101.37645473
C      84.99797869      86.86415819     103.45893313
H      83.66194219      86.51077936     104.98772172
C      86.91038172      89.02222564     104.31686888
H      88.23507987      88.32491662     105.73416361
H      85.90693705      90.67762588     105.01795734
C      88.44106004      89.83858740     102.01707195
H      87.22974547      90.99321019     100.81709574
H      88.98152176      88.18885633     100.90591288
C      90.87124808      91.24454378     102.82398509
H      92.24318938      89.83858740     103.44003587
H      90.48007473      92.95096664     103.91057772
C      91.98807633      92.16673023     100.42592240
H      90.72384942      93.61426058      99.68137023
H      92.06177565      90.64739027      99.03508383
N      94.59778836      93.32324273     100.83977246
H      95.72784470      91.83980757     101.24417389
H      94.47306643      94.28322370     102.48572408
H      95.25919257      94.17172984      99.26563044
C      83.41060859      87.56146720     101.16858484
O      83.82823811      86.56369170      99.06154000
N      81.75331862      89.46631132     101.53897120
H      81.79111314      90.34125460     103.23594543
C      79.97130670      90.36771078      99.51318459
H      78.84125037      88.77845095      98.84800093
C      78.14772081      92.41050491     100.54497516
H      79.22108536      94.01299282     101.26496088
C      76.26177395      93.31379409      98.57210088
H      77.33324877      93.92417570      96.92236981
H      75.02022376      94.77833198      99.31854278
H      75.28478545      91.59603287      97.98817545
C      76.82869184      91.26155131     103.01673717
H      78.13827218      90.30534980     104.28663326
H      75.34525669      90.00488332     102.33454597
C      75.47375808      93.25899204     104.49828260
H      76.85892746      94.72919910     104.90268403
H      75.00132650      92.22720147     106.22171300
H      73.82591673      93.96197022     103.48727902
C      81.43206514      91.51666438      97.25685137
O      83.05911950      93.10403447      97.52141305
N      80.72152805      90.60014710      94.96650308
H      79.22675453      89.49276749      94.54509411
C      81.76654670      91.56201781      92.58166847
H      82.62259272      93.43095712      92.70261096
C      83.94918059      89.95952988      91.43649433
H      85.36269587      89.82346960      92.92748839
H      84.75609373      90.93273894      89.80755025
C      83.06289895      87.43863498      90.40659349
C      83.13659828      86.98510068      87.68538760
H      83.74131070      88.42885158      86.37769699
C      81.96118851      84.71175991      86.94839433
H      81.71552409      84.21287218      84.98496869
C      80.81034518      83.02423432      88.68883227
O      79.41950662      81.08915458      87.78932254
H      79.32691003      81.08348539      85.97518528
C      81.00687672      83.37572342      91.35712582
H      80.32468552      82.01512046      92.71583904
C      82.17850704      85.61126964      92.10923689
H      82.39393584      85.88905941      94.11990569
C      79.53477992      91.75476989      90.73729559
O      77.44285290      91.03667388      91.28909567
N      79.77855462      92.66939742      88.36757879
H      81.51143365      93.07379886      87.67593896
C      77.69229677      92.93206937      86.44005796
H      75.81012936      92.61648508      87.21862520
C      77.70741458      95.64004718      85.36858314
H      76.52255618      95.43784647      83.69428562
H      79.58580253      96.34491510      84.90182074
C      76.43562877      97.53922213      87.09201353
H      77.50710359      97.77165847      88.83434119
H      74.52889492      96.82112613      87.39436974
C      76.36948835     100.25664857      86.06400242
H      75.33391833     100.41349586      84.29332886
H      78.24409685     101.05978225      85.76920511
C      75.12415871     101.79677552      88.21262124
H      76.50743837     101.62103096      89.72629201
H      73.28167555     101.03899527      88.73985488
N      74.51566684     104.49719441      87.35090604
H      76.15783900     105.18883425      86.67060457
H      74.00166128     105.65181720      88.78142886
H      73.51033244     104.41782591      85.72952086
C      78.01921942      90.79478891      84.59190562
O      80.08469028      90.12771553      83.78688221
N      75.98776363      89.82535931      83.56578423
H      74.33614284      90.57936011      84.15159939
C      75.82713690      88.18318716      81.24897977
H      77.38805083      86.83770201      81.22630306
C      73.41962557      86.49188211      81.36803253
H      71.94752878      87.80335217      80.77087902
H      72.82247206      85.72843267      83.18594924
C      73.64828246      84.43019069      79.25720824
O      75.76288620      83.32848025      78.77910748
O      71.59981914      83.90862623      78.14604917
C      75.91595403      89.79890316      78.74698214
O      75.67217934      92.18562748      78.98697738
N      76.40350342      88.73120779      76.47175165
H      76.99120831      86.91518079      76.49442837
C      76.57357879      90.09747991      74.10014513
H      77.65261252      91.80579249      74.50832602
C      77.63371525      88.47042555      71.89294480
H      77.25388026      89.59292299      70.20730893
C      80.31712662      88.08870083      72.14427840
H      81.41505761      89.82157986      72.31435377
H      81.10136304      87.03612329      70.55690829
H      80.66105681      86.95108559      73.82802454
O      76.41862123      86.24432795      71.56980160
H      76.74554389      85.41662783      69.98810067
C      74.08291951      91.18785199      73.27433473
O      73.90339551      92.79411935      71.55279406
N      71.90406507      90.63227245      74.67462193
H      71.98532330      88.95041603      75.57413166
C      69.54946609      91.83791784      74.51588492
H      69.11104958      92.53900630      72.62993806
C      67.48777468      89.94819154      75.18673776
H      67.05880681      89.82913877      77.19740656
H      68.05847202      88.04334740      74.65383494
C      65.07459418      90.47164571      73.73920741
H      64.39051325      92.31790832      74.34203010
H      63.71210150      89.02789481      74.29289722
C      65.31269969      90.42062311      70.81958025
O      65.15018323      92.48987342      69.68952392
O      65.86072032      88.50255090      69.53834581
C      69.37750099      94.21897300      76.22986669
O      67.49155413      95.50020743      76.45474412
N      71.41651568      94.86336968      77.45440934
H      73.04357004      93.96008049      77.03111064
C      71.84737328      97.08379809      79.23264180
H      71.25777867      98.82612575      78.30478618
H      73.89394688      97.01765767      79.43862197
C      70.50755733      96.97986314      81.84991274
O      70.55480048      98.96974495      83.03666087
N      69.38317017      94.87281831      82.57745737
H      69.33025783      93.53489207      81.21874415
C      68.04902339      94.29267233      84.95473307
H      67.30069177      96.13515548      85.49141535
C      65.67741687      92.76955291      84.50686794
H      64.63239822      92.53522685      86.26998259
H      66.17441489      90.86092934      83.91727333
C      63.68186588      93.79567431      82.69273068
C      62.90518837      92.60892617      80.34569060
H      63.79147001      90.88738550      79.69184529
C      60.98522644      93.81646130      78.80178420
H      60.57326610      93.09458585      76.93851405
C      59.94776669      96.19751644      79.39893771
O      58.14874724      97.08190837      77.86070049
H      57.10372859      98.43684212      78.46541291
C      60.76412846      97.43150772      81.59668942
H      60.01768656      99.24186553      82.17494567
C      62.49889721      96.10680959      83.30689173
H      62.99022605      97.14426933      84.99441733
C      69.74221817      93.14182899      87.00886558
O      71.53556844      91.82280004      86.45517577
N      69.22632289      93.80512293      89.34834675
H      67.74666718      94.93328955      89.77353517
C      70.71731695      92.91506184      91.50641420
H      72.70908848      93.30812492      91.17004292
C      70.31291552      94.41550453      93.90447689
H      71.29179375      93.46497220      95.44460384
H      68.29846727      94.09803052      94.19360502
C      71.13305674      97.17450496      93.99329403
C      69.13561602      98.88092782      93.92904333
H      67.20431573      98.21763387      93.95738923
C      69.55324554     101.51142684      93.77975496
H      68.01500832     102.84179417      93.60401041
C      72.04201509     102.35802423      93.46795011
O      72.57869737     104.74474857      93.30732338
H      71.05179850     105.72173706      93.19960898
C      74.01866882     100.61758629      93.86290291
H      75.90461568     101.39237409      93.91581525
C      73.54434751      98.03999960      94.20494338
H      75.11471008      96.75498570      94.39202628
C      70.53590322      90.12771553      91.96750742
O      68.42318920      89.09592496      92.44560818
N      72.66184532      88.91451123      92.40592393
H      74.27189214      89.91795590      92.61379382
C      73.04734949      86.11204711      92.39458557
H      71.14061564      85.40717921      92.73473630
C      73.86371126      85.27300863      89.73385092
H      75.78178347      85.96653818      89.41826662
C      73.66151054      82.45920616      89.04410081
H      74.76889016      81.30836282      90.34423252
H      74.47598258      82.19842392      87.16949231
H      71.76611505      81.70142591      88.76820077
O      72.03256646      86.18385671      87.90837530
H      72.23287745      87.96964808      87.65515197
C      74.98620869      85.13316889      94.37312902
O      76.52822536      86.68274446      95.31799217
N      75.10715117      82.73321646      95.06665857
H      73.94307976      81.56158615      94.10478788
C      77.03278229      81.69008755      96.75418417
H      78.74865378      82.65195823      96.14569230
C      76.54712262      82.53857465      99.38090375
H      76.20508216      84.56058182      99.56609693
C      74.16795719      81.40662860     100.52985735
H      74.61393260      80.83971070     102.45737818
H      73.42907421      79.80792013      99.46216198
H      72.67129395      82.81069525     100.70938134
C      78.79400721      82.07937116     101.11378278
H      80.35870060      82.88439457     100.04230796
H      79.13982712      80.08193045     101.47283078
C      78.60314485      83.46832001     103.63278795
H      77.19718847      82.65762742     104.90079431
H      78.26488384      85.49599634     103.50995574
H      80.37948759      83.41351793     104.67591688
C      77.34080767      78.84415971      96.34222384
O      76.27311231      77.75756709      94.63769070
N      78.94140586      77.44954169      97.71605487
H      80.03177794      78.28102128      99.04264274
C      79.19273946      74.72266662      97.32677124
H      77.31246178      73.89118705      97.44960345
H      80.50987870      73.91764321      98.69115364
C      80.24342729      74.09716721      94.81532497
O      81.94418097      75.37462221      94.01597074
N      79.28533605      72.04870389      93.75140906
H      77.82457761      71.25501884      94.69249276
C      79.30990249      71.74445796      90.94516549
H      80.64026982      73.06159719      90.08722974
C      80.09413891      69.01569316      90.14770098
H      78.52188662      67.75524572      90.57477913
C      80.62893146      68.99112672      87.35090604
H      82.13882278      70.29125842      86.82745185
H      79.01888464      69.82260629      86.36824836
H      80.84436026      67.06360588      86.66493539
C      82.19551457      68.03114576      91.89002864
H      81.36970417      67.50202239      93.70227618
H      83.77154632      69.34450553      92.06766292
C      83.85469428      65.85418103      90.96028330
H      82.70763040      64.38019451      90.09289892
H      84.95451499      65.35151384      92.62513218
H      85.21907667      66.49101880      89.55432692
C      76.79089732      72.58916561      89.80566052
O      74.97298060      71.12462773      89.88691875
N      76.70774936      74.86250638      88.59623568
H      78.28567083      75.93398120      88.50930827
C      74.56479972      75.64107362      86.90871008
H      73.81079892      74.18409463      85.66527017
H      75.40005875      77.09616288      85.70873387
C      72.13650141      76.56514978      88.17293698
O      70.14095042      76.80136558      86.86335665
N      72.07791989      76.89774162      90.65792709
H      73.72765096      76.60861349      91.57066490
C      69.80268941      77.10183205      91.96939715
H      68.32303371      75.98311408      91.07177715
C      69.95197779      75.66375034      94.47706396
H      71.34281636      76.38940523      95.81121074
H      70.59637446      73.73433976      94.15014131
C      67.40840617      75.57115375      95.84900527
N      65.87394841      73.40552738      96.15892038
H      66.34260053      71.73878877      95.35200725
C      63.64974054      74.10283639      97.30031508
H      62.31937321      72.79892524      98.13368438
N      63.90485359      76.61806211      98.02785971
H      62.69542875      77.68764721      99.05020164
C      66.20654024      77.58182253      97.02630476
H      66.91707733      79.46587967      97.36645550
C      68.75011186      79.78524341      92.23584856
O      69.92552162      81.32348064      93.50196519
N      66.59771358      80.50144969      91.15114565
H      65.56592302      79.12950839      90.31588662
C      65.34671477      83.02801378      91.24374224
H      66.63172866      84.51900783      90.63714010
C      63.16597060      83.14328707      89.39747964
H      61.96977384      81.48221764      89.62046734
H      63.89351523      82.89573294      87.48696633
C      61.46332719      85.55457785      89.53731938
H      60.73578256      85.80591146      91.44972241
C      62.82959932      87.88272068      88.53198498
H      63.63462273      87.39139182      86.70272991
H      64.17319473      88.53656598      89.94927972
H      61.48411418      89.41528872      88.23340823
C      59.03502888      85.26356000      87.90837530
H      57.98434105      83.54390906      88.33356372
H      59.66241802      85.27867782      85.94494966
H      57.58560880      86.71298008      88.08600957
C      64.13351047      83.51934261      93.86479264
O      62.54991982      82.18141639      94.87579622
N      65.03679965      85.38639222      95.00807706
H      66.34637999      86.45975676      94.12179542
C      63.99933990      86.69975199      97.20204931
H      63.14140416      85.25789083      98.39635634
C      66.08181830      88.31168855      98.51162964
H      65.22010310      89.64205587      99.82687916
H      66.87550335      89.49654695      97.02630476
C      68.02634668      86.77345132      99.92892438
H      68.70853788      85.31836207      98.64013103
C      70.26189291      88.45719747     100.51473953
H      69.84048394      89.68174013     102.11911717
H      70.87605396      89.55323874      98.88201600
H      71.80579930      87.18352193     100.99473002
C      67.03801982      85.38828194     102.26651583
H      68.58003649      84.68908321     103.44381532
H      65.72843948      83.85949335     101.83565823
H      65.94575801      86.76211297     103.34177010
C      61.68442517      88.29846045      96.52930674
O      59.62084404      87.56524665      97.20015958
N      61.87339780      90.54156560      95.43893466
H      63.66674807      91.14816773      95.18949078
C      59.88729545      92.27633435      94.66981605
H      58.21677739      91.15005747      94.24651735
C      59.29392139      93.87882226      96.99417941