 %block lattice_cart
   139.252   0.000   0.000
   0.000 142.425   0.000
   0.000   0.000   162.84
 %endblock lattice_cart

 %block positions_abs
N      92.57483635      43.56958350      80.79544546
H      92.39531235      43.05368821      82.62470053
H      94.45511403      43.38816977      80.51198651
H      91.57895058      42.28834906      79.78822133
C      91.52603824      46.17173663      80.45151527
H      92.56538772      47.44730189      81.69117573
C      92.14964793      47.01077511      77.76432445
H      90.91376692      46.06969141      76.40939068
H      94.04504342      46.50999764      77.12937641
C      91.60918620      49.86237212      77.45251961
H      89.62308385      50.41417220      77.39771755
H      92.50491647      50.58991675      75.74798647
S      92.90742818      51.82390803      79.84113367
C      93.03403984      54.77943999      78.08179847
H      91.21801285      54.85124959      77.11614833
H      94.56093870      54.83046260      76.70040854
H      93.10584944      56.24586760      79.52743910
C      88.59885218      46.06780168      80.73119476
O      87.44611913      44.21586990      79.93939944
N      87.67288629      48.04067595      82.08990798
H      88.71979467      49.42584534      82.87981358
C      85.01026192      48.22208968      82.80611425
H      84.01815560      46.94841414      81.52676954
C      84.69089817      47.16195322      85.43850301
H      85.33529484      45.20419676      85.45551054
H      82.68589855      47.20352720      85.90904486
C      85.90221274      48.83814046      87.50964305
O      85.52426747      51.14360656      87.56066566
N      86.83006836      47.72320193      89.52787075
H      86.85463480      48.71719797      91.15681483
H      86.62408819      45.82591671      89.53542965
C      83.90099257      50.88471405      82.45840461
O      85.28049278      52.62704172      81.89715590
N      81.38387712      51.16439355      82.75320192
H      80.31429203      49.59025153      82.88548276
C      79.85319881      53.46796992      82.52643476
H      80.26704887      54.32401594      80.69906942
C      77.17545662      52.63649035      82.80800398
H      76.93357165      50.97920037      81.60991750
C      76.85420315      51.79934159      85.53109960
H      75.03817616      50.83369144      85.65771126
H      76.84286479      53.47741856      86.72540663
H      78.21669582      50.39905439      86.18305518
C      75.19502345      54.60369544      81.90471480
H      75.08730905      56.01532099      83.40326777
H      73.42057044      53.56245624      81.98030386
C      75.74493380      55.60902984      79.20429590
H      77.27561212      56.96585333      79.42350415
H      74.25016029      56.70129165      78.30856563
H      76.11532016      54.20874264      77.73975801
C      80.58452289      55.64871409      84.26309324
O      80.39932971      57.78032537      83.42783421
N      81.69190251      55.12525990      86.44194768
H      81.88276487      53.24309249      86.68761210
C      82.43645468      57.06600882      88.19372397
H      81.07396201      58.60235632      88.02175888
C      82.38921152      56.02854908      90.79398738
H      82.82762802      57.59702192      92.05632456
H      83.87453640      54.61125434      90.96028329
C      79.84375018      55.12337017      91.71806355
C      77.83875056      56.81278550      92.31899651
H      78.29984378      58.77054196      91.97128687
C      75.42368033      55.93217304      93.10512266
H      74.00449587      57.37214449      93.38858161
C      74.84353435      53.38293224      92.96528291
H      72.98782311      52.60436500      93.31866173
C      76.85231342      51.72564226      92.50229997
H      76.52917022      49.71686319      92.34356296
C      79.35809051      52.56279102      92.04876565
H      80.81695923      51.20029835      91.62357723
C      84.96679821      58.12236583      87.59468073
O      85.21813181      60.36547097      87.31311151
N      86.68833888      56.42161215      86.71595800
H      86.30472444      54.55267283      86.81989294
C      89.21112351      57.11703143      85.68605716
H      90.12764077      58.49842137      86.90871008
C      90.91943610      54.84935986      85.76731539
H      92.61263087      55.61658874      84.88103375
H      90.33740039      53.32057127      84.51253711
C      91.80949719      53.92528369      88.33167399
H      93.40820565      52.66105679      88.04443559
H      90.26748052      52.97853081      89.32000085
C      92.53893155      56.14004293      90.30454826
O      91.28604300      56.35358200      92.33978350
O      94.40976060      57.53844040      89.86613176
C      89.19789543      58.35291244      83.00075606
O      90.77959635      59.99886406      82.40738200
N      87.34029446      57.58568356      81.38504007
H      86.24614292      56.08713059      81.83857438
C      86.68077998      58.98786048      79.07768424
H      88.01303703      58.89715362      77.51110112
C      84.22224604      57.62914727      78.21785877
H      82.65944238      57.79166373      79.55200554
H      84.60397076      55.62792710      77.90794365
C      83.20935274      58.59101796      75.67428715
H      84.83829682      58.59857686      74.41194997
H      82.67267047      60.57145114      75.83491389
S      80.32185093      57.20206912      74.59903288
C      80.23681325      58.01087198      71.24287894
H      80.22925434      60.06122503      71.03122960
H      78.46236024      57.35135750      70.43407608
H      81.84497034      57.34568832      70.13927878
C      85.93811754      61.84134722      79.55389527
O      86.75258958      63.55910844      78.20841013
N      84.11075219      62.24952810      81.17905990
H      83.69312268      60.76042377      82.29777788
C      83.09974861      64.69861340      81.82156684
H      82.83518693      65.75119096      80.07357001
C      80.60530988      64.32822705      83.30500200
H      80.13476803      66.04598826      84.34246175
H      81.06073392      62.76164393      84.56544945
C      78.40566845      63.14714810      81.64582230
H      78.99337334      61.39159235      80.74442285
C      76.52728050      62.15882124      83.53365888
H      77.21703060      61.09112587      85.15504406
H      75.40100361      60.71696006      82.58501628
H      75.48037212      63.76130915      84.29710831
C      77.14711073      64.96695454      79.76743434
H      78.51905203      65.42615803      78.29911700
H      76.29295443      66.67148767      80.54789131
H      75.53895364      64.06366536      78.84902735
C      84.83073792      66.54487601      83.21618486
O      84.66822145      68.79931950      82.65871560
N      86.66755189      65.42237858      84.58056726
H      86.76392793      63.54021117      84.87914402
C      89.01270225      66.63747260      85.51976124
H      88.61774945      68.28342422      86.69139155
C      90.66999222      64.79687917      87.19027930
H      91.59973757      63.52887281      85.86180170
H      89.32828654      63.61391050      88.21829041
C      92.44822468      66.03276018      89.03087273
H      91.32572725      67.21383913      90.29132018
H      93.72190022      67.29509736      88.01986915
C      94.03937424      64.13925441      90.45383664
H      95.33005731      64.96695454      91.83333685
H      95.27147580      63.26431113      89.05354944
N      92.67310212      62.21740275      91.82388822
H      92.80727268      60.41838330      91.19838881
C      90.87786212      62.47251581      93.58700287
N      90.03882363      64.67215723      94.55643247
H      88.56672684      64.56255311      95.76774703
H      91.28982245      66.10079033      94.75107428
N      89.74213660      60.49775181      94.45249752
H      88.46468162      60.69050389      95.85467445
H      90.15598667      58.68361455      94.02541937
C      90.34684902      67.92248649      83.42594448
O      91.24824848      70.06921558      83.53365888
N      90.80605252      66.69416439      81.15260373
H      90.15976612      64.93671892      80.78032765
C      92.01736708      67.90736868      78.97563902
H      93.75213584      68.68026674      79.76932407
C      92.47090140      65.92693551      76.89505035
H      90.74747100      64.85924014      76.53222289
C      93.18710767      67.09478637      74.42328833
H      94.83494902      68.22862216      74.91839662
H      91.66020881      68.17382009      73.55779368
H      93.74646666      65.65859437      73.05890593
C      94.50235719      64.14114414      77.82479569
H      93.54237622      63.04888233      79.28555413
H      95.96500535      65.27497993      78.72997460
C      95.57950118      61.98118696      76.13349064
H      96.17098552      62.54621513      74.24187460
H      94.19433180      60.49019290      75.81979607
H      97.33694666      61.21773753      76.88749144
C      90.25425243      69.90858885      77.75676555
O      91.23313066      72.00051588      77.27299561
N      87.75792397      69.44371617      77.50543195
H      87.20423417      67.69382961      78.02510668
C      86.04772166      71.27297125      76.24498450
H      87.10596840      72.06476657      74.66517330
C      83.60997472      69.96150118      75.30579052
H      82.05850941      71.31643495      75.32090833
H      83.17911712      68.36846190      76.53600235
C      84.00303779      68.98073323      72.50332640
O      83.63076171      66.69416439      71.96475440
O      84.62853720      70.47550674      70.74777065
C      85.33907429      73.81654286      77.80967788
O      85.30316949      75.98972812      76.78922567
N      84.94412149      73.61245242      80.31545497
H      84.94412149      71.87201449      81.09969139
C      84.49247691      75.66847465      82.13148196
H      84.08996520      77.43725848      81.14882428
C      81.97347173      75.08454922      83.59035067
H      81.63899017      76.11445006      85.34212697
H      82.12087038      73.14002084      84.24986516
C      79.82485291      75.35100063      81.70629354
H      78.29795405      74.35322514      82.66627451
H      80.11587077      74.66125052      79.79011106
C      78.91778428      78.08354488      81.43984213
O      76.66900997      78.50873330      80.79733518
O      80.35019683      79.95248420      81.82156684
C      86.57495530      76.22783364      84.16293775
O      87.12297593      78.40857780      84.96040225
N      87.64831985      74.20393676      85.26842764
H      87.00203345      72.59011049      84.47474259
C      89.58717905      74.29275389      87.22051492
H      91.00447378      75.74973288      86.89170254
H      90.46968123      72.43137348      87.21484574
C      88.36452612      74.81998754      89.69983584
O      86.16299497      74.19826758      90.10990645
N      89.94433732      75.60611368      91.51397310
H      91.80004856      75.66469520      91.07555660
C      89.23568995      76.08043499      94.14636186
H      87.17777800      76.10878088      94.19171529
C      90.40920999      73.96772097      95.72239360
H      92.30838494      74.61589709      96.18915600
H      90.33173121      72.31987962      94.48840232
C      88.79160427      73.27419141      98.09022067
H      86.80172246      73.08710851      97.58755347
C      89.74402633      70.74951706      99.18437221
H      88.70656658      70.29598274     100.90591288
H      91.76981294      70.78731158      99.54530993
H      89.59284822      69.23395655      97.79731310
C      89.00892279      75.15446909     100.22750113
H      90.89297993      75.10344648     101.06087044
H      87.62753286      74.74628821     101.69959793
H      88.79160427      77.08387966      99.54153048
C      90.36385656      78.63156551      95.18760106
O      92.72979390      78.99250323      95.36901478
N      88.78593509      80.41924660      95.91136623
H      86.90754713      80.17736163      95.68459908
C      89.57584069      82.71148462      97.51385415
H      91.58650949      82.60943940      97.94282202
C      89.18088789      85.17568773      95.97372720
H      89.29616119      86.82730853      97.20015958
H      87.31572802      85.10009868      95.10256337
C      91.01392241      85.45914668      93.85345428
H      90.59251344      83.95492453      92.51552805
H      92.84506721      85.08309114      94.71705920
C      90.80794224      87.93657787      92.62702190
H      91.37486014      89.36332124      93.99707348
H      88.84829606      88.29562587      92.09600881
N      92.09673559      88.30885396      90.15903934
H      93.81071736      87.48682301      90.00219205
C      91.31816835      89.86787817      88.40348359
N      90.07850789      92.05240178      88.84945900
H      89.87630717      93.32229787      87.44161290
H      89.68355509      92.57207652      90.64280927
N      91.74902595      89.41434385      86.08100995
H      91.04982721      90.70124747      84.85646730
H      92.89986927      87.90823198      85.85424280
C      88.10563362      82.84376546      99.87223259
O      85.79827779      82.61132912      99.64924488
N      89.29427147      83.36344020     102.07187402
H      91.09140119      83.99649851     101.97171852
C      88.14531787      83.33131485     104.55875384
H      86.47668953      82.12755919     104.64190180
C      90.02370582      82.45070239     106.65823978
H      89.38119888      83.09509906     108.50828184
H      91.59973757      83.70359093     106.22360272
C      90.85896485      79.65957662     106.77351308
H      91.60351702      79.59343620     108.69158529
C      88.78404536      77.73394551     106.59020963
H      87.28360267      78.21015654     107.92057695
H      89.50403109      75.85744728     107.03807477
H      87.84485139      77.74528387     104.75906483
C      93.03403984      79.04163612     104.93102993
H      94.35684826      80.60632951     105.15212791
H      92.36507673      79.11344572     102.98272210
H      93.65575980      77.12167418     105.34487999
C      87.08707113      85.92212962     105.35054917
O      85.78315998      85.91268099     107.26673165
N      87.76359315      87.93846760     104.02963048
H      89.30372010      87.77028196     102.91280222
C      86.87920124      90.52172347     104.47749561
H      86.16488469      90.44991387     106.41068563
C      89.22435159      92.19980044     104.56820247
H      90.45267370      92.14310865     102.91847140
H      90.49046822      91.53650650     106.05163763
C      88.50814532      94.97391866     104.95370664
H      87.44044995      95.09675087     106.70926239
H      87.40832461      95.87909757     103.46838176
C      90.82683951      96.49892780     105.37511561
H      92.32728220      95.53894683     106.40690618
H      90.21834763      98.29605752     106.17446984
C      92.04571298      97.39087862     102.87878715
H      90.71534565      98.58329592     101.85644522
H      92.38586372      95.65610986     101.82054042
N      94.35306881      98.87242405     103.34365982
H      94.03559479     100.35396948     104.50773123
H      95.24690935      99.35808371     101.73361301
H      95.51902994      97.78016224     104.38678875
C      84.84396600      91.44390991     102.51029052
O      85.44300924      91.09809000     100.32765663
N      82.69534718      92.74026216     103.11311321
H      82.43078550      93.67567669     104.75339565
C      80.88498937      93.37143075     101.28007869
H      80.38799135      91.54028595     100.48261419
C      78.50582395      94.88699125     102.27596446
H      79.18423569      96.73325386     102.88445633
C      76.48003734      95.18178856     100.29931073
H      75.57485844      93.36576157      99.93837301
H      77.34175254      95.85453113      98.55698307
H      75.10998576      96.51404561     101.07409852
C      77.43623885      93.53394721     104.45103944
H      78.95746854      93.06718481     105.75873005
H      76.49704488      91.76138393     103.98238732
C      75.34242210      95.20068582     105.80408348
H      76.06807700      97.06395597     106.29919178
H      75.01171999      94.32763226     107.63900773
H      73.55474101      94.93612414     104.81575662
C      82.16244436      94.83974809      99.10689343
O      83.51926785      96.81262237      99.45271335
N      81.69379224      93.92323083      96.79764788
H      80.58074344      92.37743471      96.91481091
C      82.47235948      94.72447479      94.21061255
H      83.34919249      96.55939904      94.54698384
C      84.58507350      93.02183138      93.41692750
H      85.97402234      92.64388612      94.89091403
H      85.68111476      94.05929113      92.01286085
C      83.82351379      90.44235496      92.41915201
C      83.40966373      90.17401383      89.83967559
H      83.54572402      91.71603050      88.51308772
C      82.62920676      87.87043745      88.80410557
H      82.44212386      87.72114907      86.77642924
C      82.29283548      85.81630495      90.50674898
O      81.72402786      83.44280870      89.61479816
H      81.92433885      83.62233270      87.81955816
C      82.85786365      86.00905703      93.09567403
H      82.90888626      84.42735611      94.38446737
C      83.55895211      88.41278890      94.00841184
H      83.68934322      88.59987181      96.03608817
C      80.22169544      95.14588376      92.40403420
O      78.03150264      94.76226932      93.02197470
N      80.73381127      96.02838595      90.17604687
H      82.50448482      96.40633121      89.57511391
C      78.79495207      96.55939904      88.14081164
H      76.90900521      96.48380999      88.97040149
C      79.15588980      99.44312139      87.47184852
H      78.22425473      99.82673583      85.67660852
H      81.13632297      99.95523722      87.22051492
C      77.79717658     100.97002025      89.55810637
H      78.80818016     100.84340859      91.35145664
H      75.90556054     100.21979891      89.87558039
C      77.68757245     103.76303574      88.52442608
H      76.78995245     103.71390286      86.67060456
H      79.59997548     104.53026463      88.49796991
C      76.09075372     105.46378943      90.34801197
H      76.97514563     107.29871368      90.65603736
H      75.88477355     104.69845027      92.24907664
N      73.54151292     105.72079221      89.28976523
H      72.61932648     104.05216387      89.18016111
H      73.37899646     106.60896357      87.60979854
H      72.47948673     106.68833208      90.55021268
C      78.71369384      94.59408367      85.97518528
O      80.68278866      93.73992738      85.06055775
N      76.48759624      93.84008288      85.00953513
H      75.11187549      94.95880085      85.71629278
C      76.08886399      92.64955530      82.56044983
H      77.21892033      90.93368381      82.72485602
C      73.23537726      91.76516338      82.19762238
H      72.18090998      93.53394721      82.11447442
H      72.44925111      90.75982899      83.81522811
C      72.76294568      89.83386309      79.96018643
O      73.06719162      87.50005110      80.35891868
O      72.37366206      90.66912212      77.71141211
C      77.17356690      94.29550692      80.47419198
O      77.50993818      96.64254700      80.72174613
N      77.69324163      93.11064852      78.26321220
H      77.69891081      91.20391467      78.26699165
C      78.44157325      94.36542679      75.90483376
H      79.92689813      95.70902220      76.37915506
C      79.21447131      92.32641210      73.92629031
H      77.57418887      91.70091269      72.85103604
C      81.26482436      93.32418759      72.11404278
H      82.96935750      93.84197260      73.15150252
H      80.52594138      95.06651525      71.29579128
H      81.51048878      92.20546961      70.40384046
O      80.27271805      90.18157273      75.24531928
H      79.87965498      88.67546086      74.31368420
C      76.37232294      95.96602498      74.82580003
O      76.78617300      97.47213685      73.15906143
N      73.99693696      95.62209479      75.72908921
H      73.58875608      94.19535142      76.92906542
C      71.79351608      97.32473820      75.38704875
H      72.30185246      98.63998771      73.88282660
C      69.45025545      95.77705235      74.72753427
H      67.99516619      97.14332447      74.22675679
H      68.69625466      94.99848511      76.47931056
C      69.95292265      93.94401782      72.62237915
H      70.96770568      92.36042717      73.46141764
H      71.09242762      94.93990359      71.22209196
C      67.44714556      93.15789168      71.55279406
O      66.30197142      94.46936174      69.95219587
O      66.39078855      91.21525303      72.54679010
C      71.29462834      99.05572750      77.73219910
O      69.31041571     100.16877630      77.87959776
N      73.04640463      98.97635899      79.64082268
H      74.45614046      97.69134510      79.73530900
C      73.12010395     100.79427571      81.77432369
H      71.99760652     102.46479377      81.34157636
H      75.04006589     101.51615116      81.95006823
C      72.20736615      99.83429474      84.41994053
O      72.75160732     101.12119836      86.26620313
N      70.67857756      97.81606704      84.71284810
H      70.17591036      96.82018127      83.16894171
C      69.27451091      97.02994089      87.01264503
H      68.00650455      98.50203769      87.69483623
C      67.56052914      94.97202894      86.21140107
H      66.48905432      94.35219871      87.85735269
H      68.56397381      93.31095951      85.51598179
C      65.45915348      95.69201466      84.26876242
C      65.85410628      94.81707138      81.80077986
H      67.54730106      93.77016300      81.34913527
C      64.04941765      95.25737761      79.90349464
H      64.37067113      94.33708090      78.11014437
C      61.95560090      96.77104839      80.45151527
O      60.06776431      96.97513883      78.62037047
H      58.78841960      98.17700476      79.07957396
C      61.69859812      97.82362594      82.81934234
H      60.14713282      99.07273504      83.25964857
C      63.54864018      97.39654780      84.75631181
H      63.47872031      98.34141095      86.56477989
C      71.03006665      96.10775445      89.30299332
O      72.86310118      94.77360767      88.81733366
N      70.37811107      96.65010590      91.77475534
H      68.67546767      97.41355533      92.17348759
C      71.85587705      95.79405988      93.96494813
H      73.86654585      96.23247639      93.90447689
C      70.85810156      97.04505870      96.31765739
H      71.67446333      96.10208527      97.95793983
H      68.87577866      96.56506822      96.62190333
C      71.46470370      99.71335226      96.81465541
C      69.35765887     101.22702303      96.92614926
H      67.45470447     100.50892703      96.76174308
C      69.55230068     103.83106589      97.28519726
H      67.82698055     104.90065099      97.48739798
C      72.00327570     104.93466606      97.29275617
O      72.15445381     107.54626782      97.66692198
H      70.49338438     108.27381245      97.71605486
C      74.07252602     103.50792269      97.23039520
H      75.80540505     104.57939751      97.26441027
C      73.92323764     100.89443120      97.04520202
H      75.57107898      99.70201390      96.87701638
C      71.81997225      92.84041766      94.15770022
O      69.69780960      91.94468738      94.11801596
N      73.97614997      91.68768460      94.38446737
H      75.63532968      92.62876831      94.37879819
C      74.37677195      89.02317050      93.80054194
H      72.74404842      87.80429703      94.12179542
C      75.36887827      88.73971156      91.16059428
H      77.19624361      89.65622882      91.41570734
C      75.72603654      85.91079127      90.40848321
H      76.07374618      85.80874605      88.38080688
H      73.94402463      84.95270003      90.78831820
H      77.23781759      84.99805346      91.47050940
O      73.86843557      89.95858503      89.42582553
H      73.76072117      91.73114831      89.79810161
C      76.22114483      88.03862309      95.79609293
O      77.74048479      89.44646920      96.99039996
N      76.16067359      85.61410423      96.36301082
H      74.70936378      84.67491026      95.56365659
C      77.80095603      84.39145131      98.29809057
H      79.50359944      85.54796381      98.30564947
C      76.70869422      84.57097531     101.11945195
H      75.80540505      86.41912764     101.18937183
C      74.47881717      82.75494832     101.43503625
H      73.30151768      82.89856752      99.75129010
H      73.28073069      83.17257784     103.05831115
H      75.21392071      80.82931721     101.43125679
C      78.62487670      84.39523076     103.30586530
H      80.10075295      82.98549493     103.04319334
H      77.42112104      83.86421767     104.89134567
C      80.06673788      86.69880714     104.01640239
H      78.59464108      88.08775598     104.40757574
H      81.24592710      87.33186545     102.45170900
H      81.29128053      86.26039063     105.61322113
C      78.50582395      81.65323788      97.59322265
O      76.97703536      80.28318631      96.47450468
N      80.78294415      80.89545763      98.50407074
H      82.15866491      82.04630096      99.15980577
C      81.82985253      78.30842231      98.14691246
H      81.01915994      77.04230568      99.55475857
H      83.86886722      78.53707919      98.32643646
C      81.57662921      77.50150917      95.51641344
O      82.73881089      78.63723469      93.78731386
N      80.42011670      75.32832391      95.12901954
H      79.53761451      74.40991693      96.55009373
C      80.40310916      74.30220253      92.49852051
H      81.84497034      75.07132113      91.24563197
C      80.85664348      71.37312674      92.33411432
H      79.13699254      70.45660948      93.00118771
C      81.34419287      70.27141630      89.66582077
H      79.84941936      70.74573760      88.33167399
H      81.22702984      68.21728380      89.56755500
H      83.06384381      71.08777807      88.87969462
C      83.33218495      70.51519099      93.74573988
H      84.59641185      72.13279672      93.87991045
H      84.29405564      69.00718940      92.72528767
C      83.02038011      69.53253331      96.43482042
H      81.47836344      68.17004064      96.49907112
H      82.81439994      71.13502122      97.71416514
H      84.78727421      68.62168523      96.97339242
C      78.08441498      75.23383760      91.06610797
O      76.22114483      73.91858808      90.88280452
N      78.21858555      77.65457700      90.14014207
H      79.90989060      78.52574083      90.26297429
C      76.18146058      78.77518471      88.53387471
H      75.83375094      77.34466189      87.09579298
H      77.00538125      80.52507127      87.82900679
C      73.75694172      79.50650879      89.82266805
O      71.84264897      80.11689039      88.49230073
N      73.48104168      79.49517043      92.27364308
H      74.89833642      78.75817717      93.32055146
C      70.90156526      79.54997250      93.61723849
H      69.46915272      78.49928467      92.57599929
C      71.03762556      78.25173052      96.18159710
H      72.12421819      79.32320534      97.56298703
H      71.91823802      76.40546791      95.92081487
C      68.50728202      77.81709347      97.51007470
N      67.16746607      75.55131162      97.46850072
H      67.68714080      74.04331002      96.41970261
C      64.98294245      75.92358770      98.60044678
H      63.47872031      74.58755120      98.94437697
N      64.87333832      78.34999629      99.52452295
H      63.49194839      79.03785667     100.64324092
C      67.19203251      79.50839852      98.92170025
H      67.61722093      81.50205978      99.01240711
C      69.93024594      82.23149413      93.60778986
O      71.24171600      83.97949097      94.53186603
N      67.69469971      82.69258736      92.63836026
H      66.81219752      81.34521249      91.61223887
C      66.37189129      85.04340689      92.86512742
H      67.70981752      86.49660642      92.27742253
C      64.14768342      84.80530137      91.00563673
H      62.79652911      83.43336007      91.73129163
H      64.92247121      83.91146083      89.31811113
C      62.86644898      87.28273257      90.23462839
H      61.56631728      88.08775598      91.61601833
C      64.86766915      89.25371711      89.37102347
H      65.79741449      88.55640810      87.67026978
H      66.07520426      89.86976789      90.92248877
H      63.63556759      90.79951324      88.78520831
C      61.14301858      86.84620579      87.91593420
H      62.29008245      86.06385910      86.39470452
H      60.16414035      88.52995194      87.24697109
H      59.78997454      85.35521173      88.34868153
C      65.39490279      85.72748781      95.51452371
O      63.97949778      84.33475952      96.57654990
N      66.06953508      87.88744499      96.62190333
H      67.42635857      88.78695471      95.62790729
C      65.11333357      88.67357114      99.01051739
H      64.38200948      87.00683253      99.97427781
C      67.10510510      89.96992339     100.69237381
H      66.11866796      90.71636528     102.34210488
H      68.11421895      91.49871197      99.74562092
C      69.13467116      87.98382103     101.41046981
H      69.84142880      87.05596541      99.71160585
C      71.36832766      89.56174250     102.58965902
H      72.11854901      90.67101185     101.02118619
H      72.83853473      88.24649299     103.18303309
H      70.76172552      90.85809475     104.06931473
C      68.06319634      86.07141800     103.32665229
H      67.43391748      87.22037160     104.91402239
H      69.38600476      84.63711573     103.98805650
H      66.56086392      84.95270003     102.47060627
C      62.81164692      90.32708166      98.87823655
O      61.00128911      90.06629943     100.21049360
N      62.59621812      91.99193054      96.97150270
H      64.10610944      92.63065804      95.99640392
C      60.41547395      93.47347597      96.24206834
H      58.97739223      92.14499837      95.59956139
C      59.58021492      95.31217967      98.39635634