 %block lattice_cart
   139.252   0.000   0.000
   0.000 142.425   0.000
   0.000   0.000   162.84
 %endblock lattice_cart

 %block positions_abs
N      94.31999860      41.12144306      82.44328680
H      94.23685064      39.53029350      81.38881951
H      93.54899026      40.85499165      84.16860692
H      96.15870230      41.31608487      82.91571837
C      93.23151624      43.45336533      81.28299485
H      93.97039923      44.88766760      82.56233955
C      94.30488079      43.99760651      78.66572390
H      93.35623818      42.73715906      77.34102576
H      96.27019615      43.40045299      78.79422530
C      94.24818900      46.82085762      77.91739228
H      92.21106403      47.07975012      78.07990874
H      94.75652538      47.28384056      75.97664335
S      95.75052142      48.94490999      79.92428162
C      94.96817472      51.65099807      78.00431969
H      95.35745834      53.42734081      78.97563901
H      92.91215250      51.72847685      77.98164297
H      95.94327350      51.49037134      76.19585161
C      90.48007473      43.72737564      81.45873939
O      89.24608345      41.81875207      80.87859341
N      89.50119650      45.82686158      82.30911624
H      90.65203983      47.26872275      82.79477590
C      86.81589541      46.26527808      83.01587387
H      85.48552809      45.16545737      81.88959699
C      86.76109335      45.09364777      85.65582154
H      87.35257768      43.12077350      85.68038798
H      84.78443962      45.01238954      86.22462916
C      88.32011756      46.33897741      87.77042527
O      88.24452850      48.57830309      88.21262124
N      90.12102673      45.03506625      88.80032612
H      91.32289267      45.89678145      90.00597150
H      90.29110210      43.15100912      88.54143362
C      85.64804455      48.96947644      82.99130743
O      87.01809613      50.82518767      82.34313130
N      83.21029760      49.29639909      83.74341850
H      82.18417622      47.68824200      83.65460137
C      81.79489260      51.69635151      83.72830070
H      82.04433647      52.50326464      81.85180246
C      78.97164148      51.36186995      84.13837130
H      78.34236262      50.06740742      82.66627451
C      78.30267837      50.19023963      86.79721622
H      78.81668393      51.56785012      88.24096712
H      79.14738603      48.32319004      87.00508612
H      76.26177395      50.08063551      87.04099093
C      77.31057206      53.83741142      83.73208014
H      78.22330986      55.35675137      84.78465771
H      75.40194848      53.71457921      84.50119876
C      76.98931858      54.88809925      81.00331535
H      76.49798974      53.31206750      79.76932406
H      78.78644831      55.52682674      80.23230702
H      75.59092111      56.39988030      81.01087426
C      83.21785651      53.63143125      85.55566604
O      83.32179146      55.92177954      85.16638242
N      84.22508063      52.80751058      87.74963829
H      84.23263954      50.95746852      88.21640068
C      84.98853007      54.61219921      89.79432216
H      83.42761613      55.95579461      89.79432216
C      85.07923693      53.06073390      92.24718692
H      86.09590968      54.19456969      93.63235631
H      86.29055149      51.40344393      92.06010400
C      82.56590093      51.97036182      93.23929322
C      80.70452051      53.63332098      94.31832696
H      80.83302190      55.66855621      94.33722421
C      78.56346060      52.59019205      95.59011277
H      77.31057206      53.74859428      96.71072046
C      78.21386123      49.92567795      95.64491483
H      76.63782949      49.12632372      96.66347731
C      79.91083546      48.41389690      94.18415638
H      79.48186759      46.42401509      94.03297827
C      82.08213100      49.40222376      93.00307743
H      83.40871887      48.11154069      92.14325197
C      87.53966059      55.78382952      88.97607066
O      88.02909970      57.91922025      89.59023172
N      89.10624370      54.32307108      87.67404923
H      88.51097991      52.59019205      87.14114641
C      91.40604062      55.23958834      86.49863946
H      92.52097915      56.35830632      87.82144788
C      93.15025801      52.93034279      85.91849349
H      92.19405650      51.87020633      84.43316860
H      93.25986214      51.72280767      87.58334238
C      95.82611047      53.70702030      85.01898377
H      95.67493237      55.21880135      83.62814520
H      96.75207636      52.07618649      84.17049665
C      97.39458331      54.58385331      87.23563273
O      99.73028503      54.68022935      86.78965732
O      96.41948453      54.90888624      89.40692827
C      90.93360905      56.86097352      84.07223088
O      92.37358050      58.65432379      83.59790958
N      88.98341149      56.31673234      82.67383342
H      87.82122981      54.86731226      83.11413964
C      88.40137579      57.53560581      80.36458785
H      89.99630479      57.51481882      79.06256642
C      85.91260623      56.23736384      79.29689249
H      84.38003819      56.74758994      80.57245776
H      85.89748842      54.18512106      79.47263703
C      85.27576846      56.93089339      76.51521535
H      86.85746939      56.58129402      75.24342954
H      84.92616910      58.92644438      76.15049817
S      82.30700843      55.51926784      75.66861796
C      82.57345984      56.13531861      72.22742635
H      84.35358202      55.39454590      71.50177145
H      82.53944476      58.17244358      71.90617289
H      81.02388426      55.22636026      71.22209195
C      87.75697911      60.28893705      80.84835779
O      88.78876968      62.05583115      79.87136929
N      86.03732817      60.84640631      82.63225943
H      85.30033491      59.31572800      83.50153353
C      85.51198425      63.34651422      83.75286714
H      85.09246501      64.81483157      82.37147720
C      83.01565579      62.96478951      85.43472355
H      82.45818653      64.69766854      86.39848398
H      83.31801200      61.42655229      86.77076005
C      80.52688624      62.49046820      83.77365412
H      81.07301714      61.00514332      82.45462516
C      78.21197151      61.61363520      85.17583106
H      77.65828170      62.99313540      86.60068469
H      78.42173113      59.79004930      86.11124557
H      76.62271168      61.32828652      83.89837606
C      79.73887037      64.94711241      82.40360254
H      79.06612780      66.34173043      83.76420549
H      78.21953041      64.29137738      81.17717018
H      81.17884182      65.73512828      81.16394209
C      87.67383116      64.60885140      85.28165572
O      88.03665861      66.92187641      85.27031736
N      89.40671019      62.98746623      86.30777711
H      89.17805330      61.09207073      86.26431340
C      91.87847220      63.89264513      87.33767796
H      91.25675225      65.34395494      88.66426583
C      93.23907515      61.75725440      88.44505757
H      94.84345279      61.00514332      87.39625946
H      92.05799620      60.12264113      88.86268709
C      94.48440479      63.07439364      90.75808258
H      93.05577170      64.04004378      91.88624918
H      95.92248651      64.43877603      90.19683387
C      95.70705771      60.99191524      92.35301159
H      94.30677051      59.59918695      92.93504730
H      96.40058727      61.81394618      94.10856734
N      97.69316007      59.74280615      90.83745108
H      97.16592643      58.01937575      90.21006194
C      99.72461585      60.77837617      89.81510914
N     100.58822078      62.97801759      90.44816746
H     102.32109981      63.54682521      89.88691875
H      99.79453573      64.11374311      91.76152726
N     101.22883800      59.53304653      88.32978427
H     102.85778208      60.30783431      87.70239514
H     100.67703792      57.82095449      87.69672595
C      93.50363683      65.13797477      85.41204683
O      94.60912672      67.23935043      85.79188183
N      93.77764715      63.98146227      83.25019993
H      93.26742104      62.14842774      83.09335266
C      94.73384866      65.18332820      80.90882903
H      96.56499346      65.97890298      81.40204760
C      95.10423502      63.02337103      78.99831573
H      93.18805254      62.31661338      78.74131295
C      95.67304264      64.12130201      76.35836808
H      97.15080862      65.53670702      76.58513523
H      94.05165746      65.14553367      75.60814672
H      96.24940916      62.63975658      75.04689801
C      96.99207161      60.98624606      80.06601109
H      97.26230247      61.02970976      82.10691551
H      98.93848971      61.44733928      79.57279253
C      96.62168525      58.25181208      79.14760411
H      97.05821203      58.35196758      77.13882505
H      94.64503152      57.67544556      79.20807535
H      97.92370668      56.96868792      80.09624673
C      93.18805254      67.39619771      80.05656246
O      94.25574790      69.47678638      80.01309876
N      90.78810012      67.14108466      79.39137881
H      89.83189861      65.51969948      79.71641173
C      89.57489583      69.22167333      77.96463543
H      90.79376930      69.50135283      76.32813246
C      87.01431667      68.16720605      76.90071952
H      85.85780417      69.73756862      76.24120505
H      85.85213499      67.26958605      78.34636015
C      87.22029684      66.35495851      74.65950412
O      85.29655545      65.11718778      74.23431569
O      89.26309099      66.23401603      73.31968817
C      89.04199301      71.50446272      79.54822608
O      89.30277524      73.62662537      78.66572390
N      88.50342101      71.24179076      82.01809839
H      88.51853882      69.48245556      82.75698137
C      87.47352017      73.20332667      83.68672671
H      87.30911398      75.00423585      82.70406904
C      84.82601360      72.42097998      84.66938439
H      85.00931705      70.77691809      85.89581678
H      83.66950110      71.86540044      83.05933758
C      83.26509967      74.63007004      85.99408254
H      84.57468000      75.51446195      87.31500123
H      81.51521310      73.94787884      86.83879020
C      82.52621668      76.52735526      84.08545897
O      80.66483626      76.10027711      82.59068545
O      83.82067920      78.43597883      83.76420549
C      89.25364235      73.77213429      85.86558116
O      89.78843490      75.96043736      86.53454426
N      90.51786926      71.88429771      86.78776759
H      90.05677604      70.12685224      86.19817298
C      92.36791132      72.13752103      88.87969462
H      93.79465468      73.45277055      88.18049588
H      93.07655868      70.25913308      89.33889811
C      91.27564951      73.15419379      91.42704570
O      88.95317587      73.43198356      91.66326148
N      92.93293949      73.49245480      93.29220557
H      94.80754799      73.25812874      93.02386442
C      91.93516399      74.45621522      95.74129086
H      89.88481094      74.26913231      95.65625318
C      92.86301961      72.60617316      97.71794458
H      94.91904184      72.70821838      97.67448088
H      92.33011679      70.66920369      97.26818972
C      92.33011679      73.39985821     100.52040872
H      93.07655868      75.29147425     100.85489026
C      89.44450471      73.46032945     100.83410328
H      88.75664433      74.97777968      99.62467843
H      88.93049915      73.80048019     102.79941865
H      88.86057928      71.57060314     100.26151620
C      93.70394782      71.70666343     102.48383435
H      95.75619060      71.87295935     102.48761380
H      93.26931077      69.74323779     102.03030003
H      93.19750117      71.99201211     104.46048808
C      92.51908942      77.28513551      96.23261971
O      94.59967809      78.12228427      95.96238884
N      90.61235557      78.68164325      97.05276093
H      88.83979229      78.00512123      96.83922185
C      90.77865149      81.33481900      97.86345352
H      92.73073877      81.87339100      98.24706795
C      89.83000888      83.03935213      95.75262922
H      89.04766219      84.66451676      96.75040472
H      88.32200728      82.10960679      94.70194139
C      91.94083317      83.76122758      93.91014606
H      92.91215250      82.06614308      93.25630076
H      93.25608268      85.09537436      94.76808182
C      90.75219532      84.81758459      91.52342173
H      92.45294900      85.49788607      90.58233803
H      89.32923141      86.29157112      91.75207862
N      89.67316160      82.80124662      89.96061807
H      89.29710606      81.12505938      90.79209765
C      88.88892518      82.90518156      87.62113689
N      88.78310050      84.93096817      86.18494490
H      87.99886408      84.66451676      84.46340423
H      89.83000888      86.45786703      86.64225866
N      87.87792160      80.97199155      86.64414840
H      87.07856737      81.06269841      84.91126936
H      87.73430240      79.30903239      87.57011429
C      89.42938690      81.74488961     100.32387717
O      87.14092834      82.31747668     100.42025322
N      90.82589465      81.97354649     102.36100215
H      92.72129014      81.99811293     102.14368362
C      89.98874589      82.27590270     104.95937582
H      88.52231827      80.91529976     105.45070467
C      92.35090378      81.40851832     106.50139250
H      92.00319414      81.83370674     108.48560512
H      94.05732664      82.46109588     106.03463009
C      92.79121001      78.54747269     106.29730206
H      93.00852854      78.28102128     104.26584626
C      95.11557338      77.80292052     107.80152419
H      94.73951784      77.59694035     109.81786218
H      96.54609620      79.27123786     107.62200019
H      96.01886255      76.27980111     106.74894663
C      90.81644601      76.69365117     107.31019536
H      90.75408505      77.15285467     109.31708469
H      91.42682761      74.78880705     106.80941789
H      89.01364711      77.02057383     106.36911165
C      89.07978753      84.87427638     105.77195813
O      88.43350113      85.40717920     107.87900297
N      88.91916080      86.63928076     103.91624690
H      89.09868480      85.99110463     102.13045553
C      88.19539562      89.29812568     104.26206681
H      87.12392080      89.39639145     106.02140200
C      90.50464117      91.02155608     104.77607237
H      90.08701166      93.03222488     104.61544564
H      91.95973043      90.30723953     103.50617628
C      91.46084269      90.72486905     107.43113784
H      91.85768521      88.72364888     107.71270705
H      90.07189385      91.26533077     108.85410176
C      93.93260470      92.14783296     107.87711325
H      93.46584231      94.15283258     107.80530364
H      95.15525763      91.48831848     106.35588356
C      95.22895696      92.03255966     110.39044924
H      95.35934807      90.08236210     111.04051510
H      94.00630403      93.09269612     111.66601450
N      97.74040323      93.25332285     110.35643418
H      98.95549724      92.14216378     109.39078403
H      98.74384790      93.22119751     111.97970908
H      97.91614777      94.99942997     109.60621283
C      86.46251659      90.26566555     102.14557335
O      86.76676253      89.54756955      99.94215245
N      84.65593823      91.82846921     102.75595493
H      84.68995331      92.43885081     104.56442302
C      82.51298860      92.46719671     101.06842934
H      81.58702270      90.73809713     100.43726075
C      80.50043007      94.12826614     102.44981927
H      81.12781921      96.08224314     102.66902753
C      78.14583109      94.55912374     100.95693549
H      77.22553437      92.72797894     101.17614375
H      78.45574620      95.14871835      99.00862766
H      77.15939395      96.13704521     101.84321714
C      79.64627378      92.99632008     104.98961144
H      81.39427062      92.88104677     106.07620407
H      79.01510519      91.06879924     104.64190181
C      77.87371050      94.59691826     106.71871101
H      77.97008654      94.02811064     108.69725447
H      75.92729239      94.12259696     106.24438971
H      77.89638721      96.63215350     106.41446509
C      83.59202232      93.70496744      98.57965979
O      85.00931705      95.53422251      98.59288788
N      82.90227222      92.64294126      96.28553204
H      81.70607546      91.17273418      96.51796839
C      83.30667365      93.78433595      93.84778510
H      83.92839360      95.73075405      94.10667761
C      85.29655545      92.12326652      92.51741777
H      86.96329406      92.21586311      93.72495290
H      85.89370897      93.03600433      90.77131067
C      84.40271491      89.42851680      91.85979301
C      83.60147095      88.71986943      89.34645702
H      83.55422779      89.96708880      87.72885129
C      83.02321470      86.16873891      88.79843639
H      82.72652767      85.56591621      86.87091555
C      83.13281883      84.29979958      90.79209765
O      82.41661255      81.75811769      90.37446814
H      82.10102826      81.70520536      88.59056650
C      83.79422304      85.14639697      93.34133844
H      83.64871411      83.77067622      94.83989141
C      84.43484026      87.62382817      93.88368990
H      84.95829444      88.22665086      95.76207786
C      80.88026506      94.02055174      92.27742253
O      79.14927576      92.71475086      92.84056098
N      80.84058081      95.69106980      90.32911470
H      82.28244199      96.88915628      89.97006670
C      78.68629281      95.60981157      88.48285209
H      77.52222140      94.03566955      89.12724877
C      77.00443639      97.98708727      88.78331859
H      76.54712263      98.30078184      90.76753121
H      75.23943202      97.64315708      87.77420473
C      78.03244751     100.48530545      87.82522735
H      78.62771130     100.35680406      85.85802225
H      79.85036422     100.93128086      88.68127336
C      76.34303218     102.81533800      88.04443559
H      75.57202385     102.94761884      89.94927972
H      74.76511071     102.40337766      86.78587787
C      77.68095841     105.36835825      87.32067041
H      78.59936540     105.18316507      85.48574616
H      79.07557643     105.85779736      88.75308297
N      76.10492667     107.60579420      86.96540187
H      74.76700044     107.27509210      85.64448318
H      77.10270216     109.09300881      86.29832848
H      74.95408334     107.96673193      88.44505757
C      79.64060460      94.87848748      85.82778663
O      81.63048641      95.72130542      84.98685842
N      78.02677833      93.27033039      84.63158988
H      76.33169383      92.79600909      85.36858313
C      78.39338523      92.25743709      82.07856963
H      80.32657525      92.49554260      81.40393733
C      77.81323925      89.47387023      82.39793337
H      75.85548279      88.89372425      82.68328204
H      78.64849829      88.91073179      84.19695282
C      79.07557643      87.71264530      80.31923443
O      81.25632060      86.79234859      80.67261324
O      77.86426187      87.29123634      78.31801427
C      76.93262679      93.57268660      79.93750972
O      76.35814999      95.84413763      79.94506861
N      76.42995959      92.14972269      77.81345733
H      76.63593976      90.25243747      77.73408883
C      75.65517181      93.02844542      75.29445216
H      76.89294254      94.50810113      74.57824589
C      76.00477117      90.95541566      73.32157788
H      74.86904566      91.50343629      71.69263380
C      78.72975652      90.65494917      72.41639899
H      79.08880452      92.18751721      71.08981112
H      78.99620793      88.80112766      71.56035296
H      80.10925673      91.04234307      73.89983414
O      75.13549707      88.48554337      74.03211498
H      76.18618490      87.88461040      75.38326929
C      73.00577551      94.09047161      75.13571514
O      72.31224596      95.33958070      73.28000391
N      71.32958827      93.39883178      76.84591746
H      71.96831577      92.19318639      78.17817451
C      68.83137009      94.57613127      77.09725106
H      68.28523918      95.23942521      75.22453228
C      66.80747321      92.45963780      77.73975800
H      64.88940100      93.20418997      77.84558268
H      67.10982942      91.64516576      79.60302816
C      66.72621498      90.47353545      75.71208167
H      65.71332167      88.81624547      76.40561123
H      68.61405156      89.73276273      75.35681313
C      65.47332643      91.25399242      73.21008403
O      64.67775165      89.52111339      71.81546601
O      65.01979212      93.45930302      72.62615861
C      68.57436731      96.68695556      78.91705751
O      66.62605948      98.00220508      78.93217531
N      70.66251489      97.32568306      80.23797620
H      72.25933362      96.29011304      80.08490837
C      70.70408887      99.44595598      81.88014836
H      69.33025784     100.88970689      81.36047362
H      72.60137408     100.22263350      81.67794765
C      70.38094567      98.62014558      84.60513371
O      69.99166205     100.26231775      86.20762161
N      69.92174217      96.27688496      85.18150022
H      70.37338676      95.00509915      83.83034591
C      69.15262356      95.43973620      87.68538759
H      68.14917889      96.93073026      88.69261171
C      66.96998967      93.59536332      87.52665058
H      65.96654500      93.70118799      89.32189058
H      67.75422609      91.74154180      87.09957243
C      65.00656403      94.32857713      85.51031260
C      63.93886866      92.59191864      83.90026579
H      64.73066399      90.70975124      83.86058153
C      62.04347317      93.17584408      82.17494566
H      61.40852513      91.73965208      80.86914479
C      60.68287023      95.54934032      82.36013884
O      58.80070282      95.98775683      80.69340023
H      58.44165482      97.76787902      80.69340023
C      61.71088134      97.38993375      84.12325350
H      60.84538669      99.23808609      84.20451173
C      63.76501384      96.76821380      85.71440304
H      64.47744066      98.14960373      87.03721146
C      71.14439510      94.07157435      89.45039198
O      72.60326381      92.46152753      88.67560418
N      71.06124714      94.72352993      91.86546219
H      69.91040381      96.18050891      92.31332733
C      72.74310356      94.01677228      93.92715361
H      74.69519084      94.32101822      93.34322817
C      72.43507817      95.73453350      96.39702589
H      73.16073307      94.92006146      98.14502273
H      70.39984293      95.79311502      96.71261019
C      73.70497425      98.37259144      96.34978273
C      72.31035623     100.66482945      96.69182320
H      70.32425388     100.58735067      97.15480614
C      73.68418726     102.93628048      96.21372245
H      72.68641177     104.70884376      96.38190808
C      76.19185408     103.14981956      95.55609768
O      77.26710835     105.41560140      94.81721470
H      76.00666090     106.70250502      94.61123453
C      77.62993580     100.88214798      95.54286960
H      79.63871487     100.81789729      95.19893941
C      76.32413492      98.50487228      95.78097512
H      77.66962006      96.97230424      95.76585730
C      72.89806111      91.31446366      94.68682358
O      70.97243000      90.19763541      95.42570657
N      75.05990802      90.10314909      94.61123453
H      76.65672675      91.09336568      94.27297352
C      75.56068549      87.51611377      94.68871330
H      73.96764621      86.36527044      95.31043327
C      75.97264583      86.52211773      91.90703618
H      77.62426662      87.66540215      91.44405323
C      76.63971921      83.71209470      91.63491559
H      78.14583109      83.25100148      92.96150345
H      77.20852683      83.41162822      89.67904886
H      74.82369223      82.78045963      91.92026427
O      73.96764621      87.16462467      90.18549550
H      73.96008730      88.96931330      89.99841260
C      77.84536460      86.86982737      96.43293069
O      79.41761689      88.51955844      97.14913696
N      77.89638721      84.58136880      97.58377402
H      76.39216507      83.44942274      97.26063082
C      79.86359230      83.76122758      99.13334959
H      81.63993504      84.65317840      98.59666732
C      79.41761689      84.65128868     101.89990892
H      78.34047290      86.40684442     101.89235001
C      77.79812144      82.78423908     103.59688314
H      77.57324401      83.45320220     105.53385262
H      78.50487909      80.85293879     103.68003110
H      75.86682115      82.59337672     102.91091249
C      81.95551933      85.08781546     103.31153448
H      83.19706952      86.40306497     102.32698706
H      82.82290371      83.21887613     103.34554954
C      81.79867205      86.04590670     106.03274036
H      80.17728687      87.29690552     106.25005889
H      83.53910998      87.00777739     106.56564318
H      81.61914805      84.55302291     107.44247619
C      80.24342729      80.90963058      99.17114412
O      78.99998738      79.41485706      97.76896720
N      82.10858716      79.78713315     100.53552652
H      83.55422779      80.94364565     101.00417864
C      82.63960026      76.99222793     100.52040872
H      81.03144317      75.85839214     101.12701085
H      84.00776211      76.47255319     101.97171852
C      83.47296956      76.08326957      97.95982955
O      85.01876569      77.31915058      96.75985334
N      82.23141937      74.14441038      96.96583351
H      81.05223016      73.10317118      98.04486724
C      82.60369546      73.44521164      94.27297352
H      84.15327103      74.44298713      93.35456654
C      83.04400169      70.56148929      94.08022143
H      81.46230077      69.48434529      94.84178114
C      83.25376131      69.64119257      91.22106553
H      81.48686721      70.08716798      90.25919484
H      83.46163120      67.59272925      91.17949155
H      84.81089579      70.55582011      90.23084893
C      85.31545272      69.93410015      95.81499019
H      84.59168754      69.69599464      97.72928294
H      86.45495768      71.62351548      96.13813339
C      87.30911398      67.89886491      95.11390173
H      86.44739878      66.03559477      95.28208738
H      88.70184227      68.07649919      96.62001360
H      88.20295452      68.18610331      93.28086720
C      80.23964784      74.22755833      92.64024998
O      78.32157563      72.81593278      92.69694177
N      80.21886085      76.54814225      91.60090051
H      81.70607546      77.73489037      91.73507109
C      78.06646258      77.42875471      90.08722973
H      77.67906869      75.98689353      88.66615556
H      78.66739555      79.26178923      89.36913373
C      75.39816903      77.88984793      91.34011829
O      73.51789135      78.35850006      89.97951534
N      75.15817379      77.74622873      93.92148443
H      76.66428566      77.38151155      95.03642295
C      72.68830149      77.93142191      95.15925517
H      71.33336773      76.83916010      94.05754472
C      72.92451728      76.58404705      97.71038568
H      74.29078941      77.42308553      99.00484821
H      73.62560575      74.72455636      97.16992396
C      70.60960255      76.23255795      99.27507907
N      69.33970647      73.99890145      99.82309971
H      69.61749624      72.28491969      99.02752492
C      67.22510272      74.62062141     100.89835397
H      65.89284567      73.09183282     101.09677523
N      67.18919792      77.07348616     101.45204379
H      65.76434428      78.11472536     102.17391923
C      69.32836811      78.10905618     100.39568678
H      69.72521064      80.10838662     100.31820799
C      71.71698217      80.69231205      95.48995727
O      72.74310356      82.01512047      96.97717187
N      69.56269417      81.28568611      94.30131941
H      68.81625228      79.86461193      93.26763913
C      68.32303371      83.87272144      94.24273790
H      69.64206268      85.28623672      93.53598025
C      66.28212929      83.53257070      92.12435471
H      65.43175245      81.67874919      92.42104174
H      67.37061165      83.37194396      90.38391676
C      64.24311460      85.73410185      92.17537731
H      63.12439662      85.49599634      93.88935908
C      65.05002774      88.45908720      91.90325672
H      66.38039506      89.07324825      93.35078708
H      63.48344462      89.78189562      91.71806354
H      66.14795872      88.45341802      90.16092907
C      62.33638075      85.26167028      90.04376604
H      63.39840694      85.42229701      88.28443083
H      60.92097574      86.72431844      89.72062284
H      61.27624429      83.52123234      90.33289415
C      67.24777944      84.41696261      96.86567802
O      65.92497102      82.87116649      97.94093229
N      67.42541371      86.79801777      97.73684185
H      68.67263308      87.95075082      96.86756775
C      66.25000395      87.43863499     100.18592716
H      65.94197856      85.73977103     101.30653485
C      68.25311384      88.92207014     101.76951780
H      67.39517809      89.83669768     103.40413107
H      68.86727489      90.44141010     100.52418816
C      70.57747720      87.35359731     102.35911241
H      71.12927729      86.26133550     100.69993272
C      72.82625151      89.02222564     103.21326871
H      74.30401749      87.74855010     103.88034210
H      72.12327333      90.07669292     104.83654361
H      73.45742010      90.26566555     101.69959793
C      70.06914082      85.34103878     104.29041270
H      69.65907021      86.20086425     106.11399859
H      71.66218011      84.03901735     104.17702913
H      68.58948512      84.16751874     103.46649204
C      63.83682344      88.92018042      99.93648328
O      61.85261082      88.41751322     101.18559237
N      63.80091864      90.67951562      98.12045629
H      65.33915586      90.81746564      96.99984860
C      61.67497654      92.39727683      97.39858084
H      60.08193726      91.11793212      97.13590888
C      61.00223397      94.30967986      99.53019212