 %block lattice_cart
   139.252   0.000   0.000
   0.000 142.425   0.000
   0.000   0.000   162.84
 %endblock lattice_cart

 %block positions_abs
N      94.09512117      43.90406505      78.48053072
H      93.74930125      42.78345735      79.98475287
H      95.91870706      44.45586513      78.38793413
H      93.73607317      42.69086076      77.05189763
C      92.49830243      46.20764143      78.60336293
H      93.20506007      47.45675052      80.07923918
C      92.65892917      47.90272593      76.19963106
H      91.78965506      46.81235385      74.68785001
H      94.64881097      48.30901709      75.84625224
C      91.45328378      50.51621742      76.18073380
H      89.41615881      50.53700441      76.49064892
H      91.53265228      51.17006272      74.23242597
S      92.84223262      52.96908217      78.16494643
C      96.26641670      52.54767321      78.05912175
H      97.33033261      54.12937413      78.83390954
H      97.01096887      52.31523687      76.15049818
H      96.92782091      51.21163670      79.47830622
C      89.79599380      45.43663309      79.44051169
O      88.90782244      43.24644029      79.17028083
N      88.52042854      47.13171759      80.60080365
H      89.45584307      48.76444113      80.91449821
C      85.91071650      46.91628879      81.51921063
H      84.62948206      45.96764619      80.21718920
C      85.87859116      45.55757558      84.24419598
H      86.45684741      43.58659103      84.11758431
H      83.94918059      45.70119477      84.94906389
C      87.67194143      46.49676955      86.24919560
O      88.03287915      48.73987469      86.38336616
N      88.87002791      44.91884808      87.64759307
H      90.14748290      45.78434273      88.77009050
H      88.71696008      43.02534232      87.46617934
C      84.65782796      49.47497822      81.59290996
O      85.86347335      51.28722576      81.39070924
N      82.17094813      49.70930428      81.97463468
H      81.33757883      48.09358829      82.55478065
C      80.67806434      51.99776285      82.34880049
H      81.13726784      53.08624521      80.66127489
C      77.76977555      51.21163670      82.44517653
H      77.51088304      49.68473784      81.08835303
C      77.10648161      49.77355498      84.93016663
H      75.17518132      49.06868706      84.81300360
H      77.28411588      50.98864900      86.58367715
H      78.26488384      48.08413966      85.14181598
C      75.92162321      53.48308773      81.97463468
H      75.95941774      54.86069821      83.50531299
H      74.11882431      52.48342251      81.94628878
C      76.49421029      54.84935986      79.42350415
H      75.15250460      56.38381762      79.13248630
H      76.34303218      53.61158912      77.78511144
H      78.39716468      55.62792710      79.57090281
C      81.55300763      53.78733367      84.49930903
O      80.78388902      55.95673948      84.58434671
N      83.24620240      52.93128765      86.34746136
H      84.14571213      51.30990247      85.90526541
C      84.13815322      54.63960024      88.27687193
H      82.66416670      55.96618811      88.83245147
C      84.54444438      53.14104727      90.58800721
H      85.04900130      54.42795089      92.11490607
H      86.12803503      51.84091557      90.37446814
C      82.16905840      51.63304567      91.17760182
C      80.27555264      52.84624996      92.67804451
H      80.55145268      54.59613653      93.69282754
C      78.31590645      51.28533603      93.48684737
H      76.86081719      51.82768748      94.80965579
C      77.92095365      48.75688222      92.74040548
H      76.19185408      47.84981359      93.33944872
C      79.60281007      47.66839987      90.94894494
H      79.29667441      45.81646808      90.14959071
C      81.77977478      49.13104803      90.29887908
H      83.20840788      48.26555338      89.12724877
C      86.44361932      56.02099017      87.16571286
O      86.19039600      58.24519804      86.41927096
N      88.38625797      54.62826188      86.44572713
H      88.47507511      52.75176365      86.78965732
C      90.66148845      55.40493939      85.20984612
H      91.59879271      56.80711632      86.39092507
C      92.49641270      53.23553358      84.65426659
H      94.08189308      53.95173986      83.55444587
H      91.57044681      51.74642925      83.57712259
C      93.31655392      51.88059982      86.97107105
H      94.90203430      50.72030786      86.34935109
H      91.88792083      50.68062361      87.84223488
C      94.41259519      53.52844116      89.00630629
O      93.18049363      53.84780491      91.00185727
O      96.62924415      54.30511868      88.89670216
C      90.14181372      56.87136701      82.76831973
O      91.40226117      58.77054196      82.22029910
N      88.27287439      56.11925594      81.30189211
H      87.62658800      54.32779539      81.44362158
C      87.57178593      57.44962326      79.02099245
H      89.24041427      57.93339320      77.91739228
C      85.62536783      55.87737097      77.59424908
H      84.04177718      55.84713535      78.90949860
H      86.40582480      53.98386520      77.38259973
C      84.74286564      56.72963754      74.95052197
H      86.29433095      56.49720120      73.61637519
H      84.58979781      58.77243168      75.15461241
S      81.92150426      55.29344554      73.72597932
C      82.48275297      55.66761135      70.37738429
H      84.40271491      55.25565101      69.75566434
H      82.01599057      57.45151299      69.45897730
H      81.47552885      54.24464744      69.27945330
C      86.54944400      60.04421749      79.68428638
O      87.32234206      61.99819450      78.62037047
N      84.83168278      60.39003741      81.54377708
H      84.52176766      59.04266254      82.86091632
C      83.88870935      62.90904258      82.35069021
H      83.49564628      63.87280300      80.57434748
C      81.31112266      62.70684187      83.55822533
H      80.63271091      64.42271336      84.46907341
H      81.59647133      61.35379783      85.08512419
C      79.07746616      61.89992873      81.64393257
H      79.85792312      60.54688469      80.30222689
C      76.80412540      61.03443408      83.15193417
H      76.13516229      62.56700212      84.35568983
H      77.21608574      59.36013657      84.28010078
H      75.13738679      60.51853880      82.05400318
C      78.24409685      64.25830717      80.18884331
H      76.49798974      63.75563997      79.21752398
H      79.63304569      64.61357572      78.71296706
H      78.01732969      65.78709576      81.55133598
C      85.94662130      64.44727980      83.88703770
O      85.87481170      66.78109180      83.82845619
N      87.99886408      63.25675222      85.03599130
H      87.97996682      61.35001837      85.12480844
C      90.18527742      64.74396683      86.31155656
H      89.45395334      66.20661500      87.56066566
C      91.90492837      63.01108780      87.90837530
H      93.38080462      64.22429209      88.67749391
H      92.76097439      61.59190334      86.68383265
C      90.68416517      61.70717665      90.16470852
H      89.00419848      60.63381210      89.64692351
H      89.98496643      63.11691248      91.49507584
C      92.49074353      59.97429762      91.41192788
H      94.05165746      61.05333134      92.21128211
H      93.23151624      58.82345429      89.87369066
N      91.16793511      58.12236583      92.99740826
H      91.45139405      56.26476486      92.65347807
C      89.93394382      58.42094259      95.30287436
N      89.24230399      60.66593745      96.16458956
H      88.68483473      60.74908541      97.98817545
H      89.83378833      62.32511715      95.43137575
N      89.32734168      56.58601834      96.80520678
H      88.16704972      56.92427935      98.28108303
H      89.70150749      54.80400642      96.23639916
C      91.85390576      66.16126157      84.34246175
O      92.62113464      68.34389546      84.83568031
N      91.96917906      65.08600729      82.02943674
H      91.13014058      63.39848170      81.73085998
C      93.42615805      66.03276018      79.73152954
H      95.18927270      66.96061580      80.24742483
C      94.03842938      63.70083791      77.94951763
H      92.37358049      62.51975896      77.66794841
C      95.25163367      64.76097437      75.53822685
H      97.10734491      65.58678477      75.87270841
H      94.03276020      66.18204856      74.67651165
H      95.17982407      63.35123854      74.03967389
C      95.89414062      61.92071572      79.26476714
H      95.02864596      61.24419370      81.00709480
H      97.67048335      62.92227067      79.54633636
C      96.92971063      59.56233728      77.76810390
H      98.05598752      58.42094259      79.06067670
H      97.99173682      59.72296402      76.01254816
H      95.31399464      58.34913299      77.36748192
C      91.87091329      68.12657693      78.47864100
O      92.92727030      69.92370665      77.45818879
N      89.36702593      67.84689744      78.32746289
H      88.63570185      66.12535677      78.69218007
C      87.72863322      69.64969634      76.97252912
H      88.71318063      70.36968206      75.31145970
C      85.29655545      68.28531394      76.41694959
H      84.01154156      69.67426278      75.60247755
H      84.65593823      67.47462135      78.20085123
C      85.41371848      66.27086569      74.49320820
O      87.00297831      66.19905609      72.72442437
O      83.96429840      64.37924965      74.75021098
C      87.21084821      72.20649604      78.63548828
O      87.17872286      74.31921006      77.55834428
N      86.99541941      71.79264598      81.12992701
H      86.81589541      69.99362653      81.74408807
C      86.09968913      73.74095381      82.96485126
H      85.50442535      75.37178762      81.85558192
C      83.96618813      72.67136871      84.51442684
H      83.37470379      74.18126004      85.78432292
H      84.72963756      71.21816918      85.75786675
C      81.55111790      71.86067613      83.09902183
H      80.12626426      71.41281099      84.51820629
H      81.72497272      70.06165668      82.11258470
C      80.42862047      73.77307915      81.11291948
O      80.95963356      76.05019936      81.18094962
O      78.68062363      73.08710850      79.71830146
C      88.22563124      74.73117040      84.79977551
O      87.97240791      76.76073646      85.84101471
N      90.07567330      73.13435166      85.44795164
H      90.12858563      71.34667057      84.78654743
C      91.97673797      73.65969558      87.43972317
H      92.50019216      75.63823903      87.22618410
H      93.59245397      72.39168922      87.28665534
C      90.96762412      73.61245242      90.19872359
O      89.00608820      72.47672690      90.71083942
N      92.26586609      74.79164164      91.92026426
H      93.85701565      75.69493081      91.37980254
C      91.64414614      75.13368210      94.48651259
H      89.59757254      74.91258412      94.58477836
C      92.62113464      72.79231120      95.96805802
H      94.56755274      72.27830564      95.52775179
H      91.46840159      71.17281575      95.41814767
C      92.50775106      73.09655713      98.81020640
H      93.74552180      74.57999229      99.52074349
C      89.76764791      73.20805099     100.00073398
H      89.00419848      75.05053414      99.48672842
H      89.82811915      72.99829137     102.04730757
H      88.54121553      71.71705693      99.28641743
C      93.60568205      70.64558211     100.00073398
H      95.22328777      70.07488476      98.85744956
H      92.41704420      68.99207158      99.68892913
H      94.10079034      70.93282051     101.97927742
C      92.34334487      77.60922357      95.61467920
O      94.66014933      78.17803119      95.58633331
N      90.49897199      79.06809228      96.45749714
H      88.74341625      78.50495384      95.96427857
C      90.51408980      81.74394474      97.33433015
H      92.52853805      82.10677219      97.54597949
C      89.51820404      83.48627240      95.19893941
H      88.98152176      85.22860006      96.15703065
H      87.97240791      82.39590032      94.38068792
C      91.46084268      83.90579164      92.97662127
H      91.82178041      81.99338862      92.30198898
H      93.08411759      84.99238427      93.63235630
C      90.07000412      85.25883568      90.74296477
H      89.10057452      86.93691265      91.43838405
H      88.76042378      83.87555602      89.95305917
N      91.71217628      85.86921728      88.61513294
H      91.98996605      87.74949497      88.44127812
C      92.79498946      84.22704512      86.95784296
N      92.45105927      81.78551872      87.24508136
H      93.22584706      80.65924184      85.91660376
H      91.31533376      81.05419464      88.59434595
N      94.25763763      85.05663497      85.12669817
H      95.04376377      83.90957110      83.82089728
H      94.77731236      86.88022086      85.32889888
C      89.00041903      81.87622558      99.68325995
O      86.71573991      81.90079203      99.71349558
N      90.40826513      81.81764407     101.78841507
H      92.30555035      81.86866668     101.58432463
C      89.50308622      81.89134340     104.32820723
H      87.97429764      80.52507127     104.53985658
C      91.82367014      81.06931245     106.02707119
H      91.08856660      81.40568373     107.92057695
H      93.37135599      82.40912840     105.81164239
C      92.76286411      78.35188601     105.88345199
H      93.91559717      77.98905856     104.21482365
C      94.59022946      77.92480786     108.10388041
H      95.18549325      75.95382332     108.09065232
H      93.73040399      78.08921405     109.96715055
H      96.33822630      78.93203199     107.68058171
C      90.57645077      76.36011448     105.83242938
H      91.10368441      74.39479911     106.14990340
H      89.61080062      76.68703713     104.04285856
H      89.35001839      76.87223031     107.40846112
C      88.31066892      84.36688487     105.29196765
O      87.01242694      84.40089994     107.19114260
N      88.43917031      86.37188448     103.67625165
H      89.42182799      86.14889678     102.05864593
C      87.26754000      88.78506499     103.91813662
H      86.27732341      89.05529585     105.70581771
C      89.43694580      90.81463105     104.05986610
H      90.87880698      90.47637004     102.62556382
H      90.57834050      90.71636528     105.77195813
C      88.38814770      93.60953626     104.14490378
H      86.95762488      93.77394245     105.61700058
H      87.55666812      94.07818839     102.31942816
C      90.60101721      95.48981394     104.65890934
H      92.09012155      94.94179331     103.34554955
H      91.50052694      95.17989883     106.48627468
C      90.23818976      98.32629314     104.43592163
H      88.55822307      98.89888021     105.48094028
H      89.78654517      98.67778223     102.45737818
N      92.55499422      99.43556249     105.43558685
H      92.51530997      99.24281040     107.33476180
H      92.56822230     101.30639153     105.06709022
H      94.15370268      98.43211781     105.14267927
C      85.47041027      89.24804793     101.77329726
O      85.97496720      88.50538549      99.62089899
N      83.42005722      90.62754814     102.19281650
H      83.25187158      91.27572427     103.98238732
C      81.62670695      91.34375441     100.24450867
H      80.60436502      89.72614869      99.47727979
C      79.72753201      93.23159100     101.21393827
H      80.46263554      95.15344266     101.33488075
C      77.52222140      93.52827803      99.21838728
H      76.74554389      91.67067706      98.78563996
H      78.25921466      94.18212333      97.40802947
H      76.05201433      94.79439466      99.91002711
C      78.27811193      92.29806620     103.65735439
H      79.69540666      92.28483812     105.15023818
H      77.46175016      90.44424469     103.28129885
C      76.54145344      94.18023361     104.92725047
H      77.57135428      95.93200990     105.26740121
H      75.91217458      93.42434308     106.73760828
H      74.78967715      94.38054460     103.86522429
C      82.98542017      92.60420186      97.99573436
O      84.40271491      94.46747201      98.19793507
N      82.59235710      91.68390515      95.63735592
H      81.55867680      90.07763778      95.58444358
C      83.54855861      92.38310388      93.12401992
H      84.71263002      94.07251921      92.94638565
C      85.39482122      90.26472069      92.37568830
H      86.66849676      90.06063025      93.98195567
H      86.51920838      91.16612014      90.90359150
C      84.31767722      87.69847236      91.57066489
C      84.61436425      86.87266196      89.04221109
H      85.25120202      88.15767585      87.59090128
C      84.07201280      84.31397253      88.44694730
H      83.88115044      83.77540053      86.48730111
C      83.48619764      82.43369485      90.35557087
O      82.84558042      79.98838900      89.86424203
H      82.59613655      79.78807801      88.08034039
C      83.48997710      83.31430731      92.87835550
H      82.92305920      81.94992491      94.28809133
C      83.83201756      85.86543783      93.46983984
H      83.63548602      86.26605981      95.46161137
C      81.33946855      92.81207176      91.19649908
O      79.39871963      91.56296267      91.38736144
N      81.74953916      94.35975761      89.31055222
H      83.51454354      95.06462552      89.14992549
C      79.83335668      94.59975285      87.24697109
H      78.16283862      93.59819790      87.91215475
C      78.82046338      97.32095874      86.94461488
H      77.31057205      97.75937525      88.27687193
H      77.98142489      97.47591630      85.06811665
C      80.94829521      99.40343714      87.12224915
H      82.21819129      98.95557200      85.56511467
H      82.09157963      99.45634947      88.83623092
C      79.98831424     102.09251768      86.72540663
H      78.74487432     102.34574101      85.10780090
H      81.68717819     103.19989730      86.37013808
C      78.64849828     103.13375688      89.17638165
H      79.86170258     102.55928008      90.73540586
H      76.81357403     102.26637250      89.50708376
N      78.56535032     105.91921346      89.14425631
H      77.06301791     106.83195127      88.39970414
H      80.01288068     106.72801633      88.19750342
H      78.72030788     106.56361014      90.93382713
C      80.44373828      93.18623757      84.76387071
O      82.58857765      92.71569572      83.97396511
N      78.46519483      91.95035656      83.90593497
H      76.98742885      92.32452237      85.05488857
C      78.23464822      90.34597892      81.74219834
H      79.52533129      88.75482936      81.95762714
C      75.25266010      89.45591783      81.64582230
H      73.97331538      90.95258107      81.04110988
H      74.52322574      88.98159652      83.51098217
C      74.96353197      87.13533391      80.04711384
O      74.41173189      87.47548465      77.77566281
O      75.12982789      84.97159729      81.01465371
C      78.87715517      91.52327841      79.13815548
O      78.85636818      93.84386232      78.99831573
N      79.21163672      90.16078574      77.09914079
H      78.97164148      88.26727998      77.13126614
C      79.55367719      91.42879210      74.58769452
H      80.99742809      92.85931492      74.91839662
C      80.54389377      89.45969728      72.62804833
H      80.57601912      90.49904675      70.85170560
C      83.09691402      88.37688410      73.23842993
H      83.12525992      87.58886823      75.14138433
H      84.48964232      89.89622406      73.31212926
H      83.59391204      86.91045648      71.87971671
O      78.96786203      87.42635177      72.34080993
H      79.49698540      86.15267623      73.51810942
C      77.13671723      92.81774094      73.83180399
O      77.26521862      94.53361243      72.33136130
N      74.98998814      91.98815109      74.95052197
H      75.21108612      90.53873100      76.17128517
C      72.53334393      93.22592182      74.57257671
H      72.47098297      94.14810826      72.73198328
C      70.30535661      91.31918797      75.04122883
H      69.99544150      90.77305707      77.00276475
H      70.92140739      89.75638431      73.85070126
C      67.76367472      92.40389087      74.11526294
H      67.36683219      94.36920624      74.59525342
H      66.23488613      91.20202494      74.79178496
C      67.54635619      92.31696346      71.30901936
O      68.79735501      93.89110548      69.98621095
O      66.22921695      90.59731252      70.45486307
C      72.15728840      95.39154818      76.74198251
O      70.34315114      96.90332923      76.55112016
N      73.91284414      95.79972906      78.53344306
H      75.57580330      94.86620426      78.46352319
C      74.06024279      97.86708965      80.36836731
H      73.16262280      99.51115154      79.51043156
H      76.01044035      98.04472392      81.01087426
C      72.47287269      97.34552518      82.75509164
O      72.00044111      98.98958708      84.31222612
N      71.61871640      95.00415428      83.08012457
H      72.00233084      93.63410270      81.80644903
C      70.15228878      94.10086510      85.17583105
H      69.25466878      95.78839070      85.94494966
C      68.20587068      92.14877782      84.20262200
H      66.97754857      91.55540376      85.74463867
H      69.14695438      90.37810427      83.72263151
C      66.32370327      93.14655332      82.01620865
C      65.18986748      91.49871197      80.23608647
H      65.37884011      89.48237399      80.48553034
C      63.27557473      92.41522923      78.53911224
H      62.11528277      91.14155370      77.44874016
C      62.80881233      95.02305154      78.62226020
O      60.96443945      96.04350375      77.25031889
H      60.93420382      97.81795676      77.63582306
C      64.20154062      96.74648194      80.18317413
H      63.57226176      98.67967196      80.34002141
C      65.86827923      95.77516262      82.01620865
H      66.65629510      96.92789567      83.50720272
C      71.92485206      93.10686906      87.37547248
O      74.02433799      92.32263264      86.85957719
N      71.18596907      93.44701980      89.66582077
H      69.32458865      93.81929588      89.86424203
C      72.68830149      92.64388612      91.91459508
H      74.53456410      93.38654856      91.38736144
C      71.80013012      94.40889049      94.17470775
H      72.90562002      93.74181710      95.78097512
H      69.85560175      93.97803289      94.70383112
C      72.16673703      97.23781078      93.75518851
C      70.73432448      98.73825348      92.11868552
H      69.09215232      97.82551567      91.32311075
C      71.45808966     101.30639153      91.75585807
H      70.27323126     102.36463827      90.47462363
C      73.43852284     102.34952046      93.08244594
O      73.99788183     104.80427494      92.80087672
H      72.73932410     105.72457165      91.87491083
C      74.96731143     100.83395996      94.46761533
H      76.65105757     101.66732926      95.26696956
C      74.26055378      98.34141095      95.01374624
H      75.35848477      97.30773066      96.38757726
C      72.73365492      89.80362747      92.48718215
O      70.85148752      88.62254852      93.18071171
N      75.03723130      88.78695471      92.12813416
H      76.53767399      89.88488570      91.69727656
C      75.77233483      86.21314747      92.95772401
H      74.01866882      85.26261514      93.46983984
C      76.81924321      84.62388764      90.82989218
H      77.83780569      83.08942988      91.75207862
C      74.94841416      83.31997649      89.08378506
H      73.93552086      84.79585274      88.06333286
H      73.70119480      82.16913316      90.25541538
H      75.75343757      82.02173451      87.70428486
O      78.53133525      85.85409947      89.27842688
H      79.27777714      87.11832638      90.34423252
C      77.43718372      86.19236048      95.28964628
O      79.00565656      87.80051758      95.76396758
N      77.35970494      83.94358617      96.59166771
H      76.08980885      82.60943939      96.09466969
C      79.31557167      83.06297371      98.29053166
H      80.92372876      84.18925059      97.66125280
C      78.66928527      83.74327518     101.14590812
H      78.29511946      85.76150288     101.30275540
C      76.29011984      82.21448659     101.86778357
H      75.38116149      82.85510381     103.60066260
H      76.97798022      80.29074521     102.14179389
H      74.88227374      82.30330373     100.36545115
C      80.94451575      83.49383131     102.93547894
H      82.68117423      84.30074444     102.17769869
H      81.27332813      81.54930293     103.52696328
C      80.41917184      84.65979244     105.46960192
H      80.09980809      86.68368932     105.27118066
H      82.16338922      84.40845884     106.53540757
H      78.82991201      83.70737038     106.36533220
C      80.08846973      80.33609864      97.98061655
O      78.70707980      78.99439296      96.76174307
N      82.25220636      79.55942112      98.99917903
H      83.46352093      80.82553775      99.75884901
C      83.24998185      76.98750361      98.83477284
H      82.25220636      75.58721642      99.97238808
H      85.16616434      77.18214542      99.57176610
C      83.60902985      76.24295145      96.08900051
O      85.14726707      77.35600024      94.90036266
N      82.28433171      74.31543061      95.24618257
H      81.23742333      73.52363528      96.63135196
C      82.34669268      72.92459204      92.80087672
H      83.95862922      73.68993120      91.77286561
C      83.04589141      70.07299503      93.32811036
H      81.36214527      69.24529491      94.17848720
C      83.90382716      68.70294346      91.01319563
H      83.69595726      66.67904658      91.34578746
H      85.71796442      69.32088396      90.25541538
H      82.63015162      69.13191133      89.45417142
C      85.24175339      69.83866897      95.24996202
H      84.65971768      70.62668484      97.06031983
H      86.94817625      70.73817870      94.52808657
C      85.89748842      67.21005967      96.05498543
H      86.67227621      66.08378279      94.51296876
H      84.15894021      66.23307117      96.56899099
H      87.05778038      67.03998430      97.74818021
C      79.90327655      73.47450240      91.39303062
O      77.95118927      72.24240084      91.64436422
N      79.69729639      75.70059999      90.19494414
H      80.98608973      77.03285704      90.65414763
C      77.48442687      76.52074121      88.88347408
H      77.32380014      75.22627869      87.29043479
H      77.86048241      78.31787094      87.94805955
C      75.05423884      76.67758850      90.38958595
O      73.04923922      76.75317755      89.22362481
N      75.04667993      76.88356867      92.96717264
H      76.64727812      77.00073170      93.99896321
C      72.64483779      76.96671662      94.39958518
H      71.55257598      75.30942665      93.84778510
C      73.02656250      76.22594391      97.27007945
H      74.16606747      77.67158454      98.19037617
H      74.06213252      74.45149090      97.38535276
C      70.50944705      76.14090622      98.69304337
N      68.79735501      74.13401688      99.09555507
H      69.04301943      72.41436594      98.30187002
C      66.80180403      74.91825330     100.42970185
H      65.16719077      73.75040244     100.79252930
N      66.98888693      77.37489751     100.77552176
H      65.62639426      78.41991616     101.60889107
C      69.33592701      78.16480311      99.83254833
H      69.86316065      80.12255957      99.62089899
C      71.31258074      79.47816289      94.04053718
O      72.07036099      81.31686660      95.18193188
N      69.33970646      79.66335607      92.45694653
H      68.91829750      77.87378525      91.94294098
C      67.61438634      81.88378449      92.23962801
H      68.87483379      83.43147034      91.73507108
C      65.47521615      81.50772895      90.15148043
H      64.71932563      79.62178209      90.48029281
H      66.49188891      81.46615497      88.35813016
C      63.46454736      83.66201695      90.19116468
H      62.78235616      83.85287931      92.12435470
C      64.61728041      86.41534819      89.67526940
H      65.23711064      86.86510305      87.76286637
H      66.27457039      86.66857151      90.87524561
H      63.23778020      87.83642238      90.24218729
C      61.32915662      83.20092373      88.39214523
H      60.34271949      81.51906731      89.05732890
H      62.14740812      83.22549017      86.50052920
H      60.06492972      84.82608836      88.40537332
C      66.55047043      82.56219624      94.87390649
O      65.38261957      80.99372340      96.15892038
N      67.06636571      84.97348701      95.53909015
H      68.14161998      86.11677143      94.45438725
C      65.83804361      86.20180912      97.87290215
H      65.02168184      84.87711097      99.22405646
C      67.88839666      87.78539977      99.27885852
H      67.11171914      89.22159176     100.53363680
H      68.82192146      88.93435336      97.84833570
C      69.73654899      86.07519745     100.66402791
H      70.11827371      84.41979720      99.49617705
C      72.06469181      87.61343467     101.11945195
H      71.63005476      89.38410823     102.07565347
H      73.00199606      87.88744499      99.30531469
H      73.21553513      86.53062149     102.44226037
C      68.56113922      85.09065004     103.12067212
H      68.09248710      86.66668179     104.36411203
H      69.94063943      84.00216769     104.19781612
H      67.09849106      83.71114983     102.68036589
C      63.69698369      87.97437240      97.10756299
O      61.50490117      87.75894360      97.84833570
N      64.33571119      89.81874528      95.50318535
H      66.07614912      89.89433433      94.72650784
C      62.62361915      91.69335378      94.21061255
H      60.96065999      90.75415980      93.44338367
C      61.64663064      93.83063424      96.04742653