 %block lattice_cart
   139.252   0.000   0.000
   0.000 142.425   0.000
   0.000   0.000   162.84
 %endblock lattice_cart

 %block positions_abs
N      90.88636589      42.50094326      78.13187622
H      89.91882601      41.97370962      79.69090042
H      92.77420247      42.23449185      78.11297895
H      90.24385894      41.31608487      76.77505272
C      90.27409456      45.05963269      77.45346448
H      91.33045157      46.16134313      78.83485440
C      91.25297279      45.98559859      74.96469491
H      90.11724728      44.97270528      73.57574608
H      93.26742104      45.56041017      74.86642915
C      90.99030083      48.86176203      74.53383731
H      88.99474985      49.36820869      74.43368183
H      91.99941468      49.28128128      72.78773021
S      92.34901405      50.79306233      77.01504797
C      90.86746862      53.55962165      76.07963344
H      91.95028180      54.18323133      74.44124073
H      91.15848647      55.13754312      77.37220625
H      88.89837380      53.15144076      75.64310667
C      87.32990096      45.39789370      77.64621655
O      85.87103225      43.91634827      76.56340338
N      86.61747414      47.24037686      79.25626338
H      87.92138530      48.42523526      79.99136691
C      83.90571689      47.26116385      80.07451486
H      82.89093386      46.22370410      78.61186671
C      83.68650863      45.75127252      82.64265292
H      84.79388825      44.05618802      82.26281793
H      81.88182000      44.82908608      83.00170092
C      84.67861495      47.21581042      84.81583818
O      83.90571689      49.26994292      85.46023486
N      86.39259671      46.26716781      86.41076720
H      87.03888311      47.31785564      87.86585645
H      87.14659751      44.53239905      86.15943359
C      82.81156535      49.95591357      80.00648473
O      84.23641899      51.79650700      79.90254978
N      80.35303142      50.17512182      80.37687107
H      79.22297508      48.68979694      80.77560332
C      78.96597230      52.53350026      80.22380324
H      79.27966687      53.30072914      78.33974611
C      76.13327256      52.00437689      80.54694645
H      75.59470056      50.55117736      79.19201268
C      75.45864027      51.01038085      83.20201191
H      73.43474338      50.78928287      83.51759621
H      76.08413968      52.32185091      84.66088063
H      76.45641576      49.24537648      83.55728046
C      74.57235863      54.34763752      80.24836969
H      75.02400321      55.67233567      81.76015073
H      72.55224120      53.95079500      80.30128203
C      75.13171761      55.64021032      77.59897340
H      75.51344233      54.30039436      76.08341290
H      76.82680212      56.76270775      77.93534468
H      73.62749547      56.89498859      76.96213564
C      79.92028409      54.51393344      82.13053709
O      79.89193820      56.77404611      81.59952401
N      80.77066093      53.72969702      84.31695045
H      81.22986443      51.91555976      84.69111625
C      81.62859668      55.46635550      86.26525826
H      80.33035470      57.06317423      86.35785485
C      81.67772956      54.16055462      88.85607304
H      82.39582556      55.59296716      90.15053556
H      83.04967087      52.62231740      88.80882988
C      79.05100999      53.29505996      89.62708137
C      77.37482275      54.92211432      91.04626584
H      77.86426186      56.87420160      91.38830630
C      75.25832928      53.79205799      92.29159548
H      73.94685922      55.04494653      93.22512027
C      74.58558671      51.25226582      91.94955501
H      72.78089808      50.77605479      92.77536542
C      76.02744789      49.77638957      90.25069107
H      75.27911627      47.92634751      89.82361292
C      78.31968590      50.71936300      89.26236421
H      79.38738127      49.31151690      88.24191200
C      84.21374227      56.68900842      85.42810951
O      84.61814371      59.00392316      85.35063074
N      86.06000488      55.09218969      84.69867515
H      85.44206438      53.30072914      84.49269498
C      88.53932580      55.72524800      83.66310513
H      89.45395334      56.96112901      85.03315671
C      89.83567806      53.21191201      83.31728523
H      91.46084268      53.72780729      82.16266244
H      88.71507035      51.79083782      82.33084808
C      90.94305767      52.03461251      85.79471642
H      92.27909418      50.53794927      85.32228484
H      89.34056976      51.30895761      86.86619124
C      92.21673321      53.94323609      87.66743519
O      91.63658723      53.48970177      89.88975333
O      93.67938138      55.64210005      86.82650699
C      88.45239839      57.10096876      81.12520269
O      90.16071098      58.49747650      80.53560809
N      86.52298783      56.72869268      79.62476000
H      85.34568834      55.41722261      80.35797382
C      85.88615006      58.49369705      77.52527407
H      87.31100370      58.52393267      76.03805947
C      83.39927023      57.42222223      76.11742796
H      81.71741381      57.86630792      77.22102814
H      83.48997710      55.37375891      75.93223478
C      82.84180097      58.60330118      73.50960566
H      84.43106080      58.00047848      72.34742397
H      82.77566055      60.64987477      73.28850768
S      80.13760262      57.16332973      71.97514789
C      81.00309727      57.58473870      68.72103917
H      82.95329482      57.09907903      68.26183568
H      80.44373828      59.43667048      68.01239182
H      79.73887037      56.43956455      67.56452667
C      85.20206914      61.09207073      78.37943036
O      86.24708779      62.85707511      77.38543433
N      83.57879423      61.42466256      80.34474574
H      82.50353996      60.03571372      81.09118763
C      82.63015162      63.97390336      81.20079176
H      82.36558994      65.24379944      79.60208328
C      80.01477041      63.50336151      82.51415153
H      79.53855938      65.11718778      83.70278938
H      80.18106632      61.88197633      83.77459899
C      78.08158039      62.95345115      80.45812930
H      78.61637294      61.41899338      79.19390240
C      75.44163273      62.58117507      81.69023086
H      75.15817378      64.35373835      82.70123445
H      75.46808890      61.15254197      83.17555574
H      73.98276402      62.31283393      80.26159777
C      77.59403100      65.27214534      78.84241331
H      79.09069424      65.62174470      77.47236173
H      77.14805559      66.99557573      79.87798334
H      75.97453555      64.80727266      77.65566519
C      84.56712109      65.35529329      83.01870847
O      84.86758758      67.69099502      83.16421739
N      86.30944876      63.96823418      84.08451411
H      86.00898227      62.09173595      83.90876955
C      88.60168677      65.06049599      85.21457043
H      87.90437776      66.50991607      86.50147405
C      89.88670067      62.97423814      86.58840147
H      91.69516875      63.72823894      87.23468787
H      90.06244521      61.24891802      85.48102184
C      88.59790732      62.08417705      88.98457443
H      86.70062210      61.32072762      88.73324084
H      88.41649359      63.77548210      90.14486639
C      90.34023498      60.18311238      90.35651573
H      91.81989068      61.22057212      91.34484259
H      91.19628100      58.92644438      88.96567717
N      88.83601284      58.47291006      91.97601119
H      88.82845393      56.60775019      91.56594057
C      87.62658800      59.08707111      94.13596836
N      87.50375579      61.40765503      95.06949317
H      86.35669191      61.83473317      96.53592079
H      88.76798269      62.65865385      94.37596361
N      86.32834602      57.47324484      95.28681169
H      85.06222939      57.90221272      96.64930435
H      86.50975974      55.68556375      94.64052528
C      90.19472605      66.55715923      83.26815233
O      91.82367014      68.15019851      83.97490998
N      89.87914176      65.90520365      80.92678144
H      88.64704020      64.49924727      80.54316700
C      91.40793035      67.02203190      78.76682425
H      93.13702992      67.94421834      79.40177231
C      92.07689346      65.06994462      76.73536848
H      90.58967885      63.80760744      76.07207453
C      93.28631830      66.23212630      74.30895989
H      94.95116718      67.32627784      74.82674489
H      92.14114416      67.74201763      73.50393647
H      93.65103548      64.86585418      72.81040692
C      94.13480542      63.26525599      77.96935975
H      93.49418820      62.83628812      79.87987305
H      95.90925843      64.29515683      78.14510430
C      94.56377329      60.64609532      76.60686709
H      92.88380660      59.47446501      76.40088692
H      96.10767969      59.56139242      77.43456721
H      95.24218504      61.01837141      74.69635378
C      89.82433970      69.20088634      77.72936451
O      90.78810012      71.34194625      77.71046725
N      87.49997633      68.80026436      76.98859179
H      86.87447692      67.02203190      77.29472746
C      85.78977402      70.67298314      75.67145256
H      86.98597078      71.51013190      74.21825302
C      83.62036821      69.10262057      74.43935100
H      82.21063238      70.43109817      73.73637282
H      82.67739478      68.14452933      76.00026493
C      84.69184303      67.47178676      72.26238628
O      86.70440155      68.12752180      71.01516692
O      83.38604215      65.75024609      71.37988411
C      85.00931705      72.88585265      77.40811104
O      84.82034442      75.05336873      76.48781432
N      84.87136703      72.52491493      79.94790320
H      84.91105128      70.77880781      80.71135263
C      84.22130118      74.60172414      81.80172472
H      83.28021748      76.21555042      80.94000951
C      82.15394059      73.66064044      83.49869895
H      81.67206038      75.17809067      84.80261010
H      82.91361057      72.03547581      84.50970252
C      79.69729639      72.47578204      82.42344467
H      78.66739555      71.67264836      84.01837369
H      80.03744712      70.92431674      81.11008488
C      77.95496873      74.49778920      81.01181912
O      78.60503458      76.75412241      80.85119238
O      75.85737252      73.94598911      80.03483062
C      86.61558442      75.33304823      83.38153592
O      86.77432143      77.39284991      84.35285525
N      88.42405250      73.51135206      83.78782707
H      87.91571612      71.77847303      83.16988656
C      90.55377405      74.11228503      85.46779377
H      91.34178993      75.98500380      85.13331221
H      91.98240715      72.66475467      85.13709166
C      89.90370820      74.32960355      88.36285448
O      88.63003267      72.61751152      89.25291556
N      91.02242618      76.03224696      89.81227455
H      92.53042778      76.92041833      89.04315594
C      90.08701165      76.94498477      92.26324959
H      88.03854833      76.75601214      92.26702904
C      91.27564951      75.16108313      94.27202865
H      93.30899502      75.47855715      94.18888069
H      90.81455629      73.21466503      93.78258955
C      90.52353843      75.75823665      96.94599139
H      90.64070146      77.80669997      97.09905922
C      87.78154555      74.73778444      97.24078869
H      86.60991524      75.81114898      95.92931863
H      87.09935435      75.07037627      99.15508145
H      87.82500926      72.71388756      96.86284344
C      92.01831195      74.53180427      98.89618895
H      93.89481018      75.37651193      98.84138688
H      92.47751544      72.63640878      98.22344638
H      91.08667687      74.65274675     100.72733375
C      90.79565902      79.73611054      92.67520992
O      92.87057851      80.58081820      92.18577081
N      89.13458959      80.96254291      93.99423888
H      87.76453802      79.93642153      94.83705682
C      89.33490058      83.64784400      94.87674108
H      91.32478239      84.06547352      95.21122263
C      88.07445313      85.51111415      93.12685451
H      87.88548050      87.36682539      93.99990806
H      86.26031587      84.95364489      92.32561055
C      89.74497119      85.98921491      90.79493225
H      90.48196445      84.30357903      89.86707663
H      91.40604062      87.10793288      91.27492273
C      88.06689423      87.37249457      88.94677990
H      87.43761536      89.18663183      89.69322181
H      86.31511793      86.36716017      88.54804766
N      89.15726631      87.85626450      86.50525351
H      89.96795890      89.56268736      86.22368429
C      89.37647456      86.18007726      84.74402858
N      88.52798745      83.87650089      84.70623406
H      88.73585734      83.02234459      83.01492902
H      87.80611200      83.15840489      86.32195006
N      90.44794938      86.79234859      82.65210156
H      90.57645077      85.57536484      81.18567394
H      91.29265704      88.47609473      82.33651726
C      88.00642298      83.67430017      97.40519488
O      85.71229524      83.09415419      97.49023256
N      89.22718618      84.53412564      99.38940751
H      91.03754399      85.11616135      99.22689105
C      88.28799221      84.37538863     102.00667845
H      86.74408581      83.01856514     102.16541546
C      90.41015485      83.35493643     103.70176295
H      90.07000412      83.85760362     105.67085778
H      92.20728458      84.25633588     103.25200810
C      90.92982959      80.51278805     103.63373282
H      91.72351464      80.22554965     101.75534486
C      93.02742580      79.94209070     105.60093790
H      94.77542264      80.76790110     104.89795971
H      93.40537106      77.91819382     105.53857694
H      92.72317986      80.54302367     107.54735601
C      88.73018816      78.78557820     104.02301643
H      89.36135675      76.82782174     104.11750274
H      87.18817149      78.81959327     102.65863404
H      87.97807709      79.20320772     105.89384548
C      87.02187558      86.72431844     103.02524093
O      86.25653642      86.91518080     105.27401525
N      86.43983987      88.41373377     101.21488314
H      86.71573991      88.05090631      99.36106162
C      84.57090055      90.48487380     101.59471812
H      83.04967087      89.99354496     102.89107037
C      85.83890690      92.47664534     103.30114098
H      86.37558918      91.67162193     105.12094742
H      84.43295053      93.96008049     103.53924649
C      88.16515999      93.65016538     102.03124489
H      88.49586210      95.32635262     103.18586767
H      87.68327978      94.26621616     100.12451104
C      90.58023022      92.12326652     102.12195177
H      90.47062610      90.86092934     100.49867685
H      90.68794462      90.83447317     103.72632941
C      93.05766142      93.42150849     101.71755033
H      93.43938613      94.98053270     103.00823340
H      92.87057851      94.43062235      99.93175897
N      95.11368365      91.52611300     101.65140991
H      95.24407476      90.69463343     103.36350194
H      96.69727430      92.56168302     101.40007630
H      94.79431990      90.12771553     100.39474191
C      83.44651339      91.49209793      99.09272049
O      84.09091006      90.52644778      97.10283867
N      81.58702270      93.11915228      99.42153286
H      81.25065142      93.89771953     101.13362489
C      79.57824363      93.38182424      97.36929008
H      78.74865378      91.57335616      96.84394617
C      77.38049193      94.99376079      98.25746145
H      78.30834755      96.64916104      99.05492595
C      75.36226422      95.38304441      96.17687279
H      74.66495521      93.65394483      95.29815004
H      75.95752801      96.42050415      94.50257526
H      73.62938520      96.29578222      96.82126945
C      75.94807938      93.64449620     100.56481727
H      77.40316864      92.96986391     101.85739008
H      75.00510595      91.95319115      99.86939799
C      73.88638797      95.45863346     101.74967567
H      75.12037926      96.73608845     102.79280460
H      72.85648713      94.51188058     103.26145672
H      72.46909324      96.35247401     100.54780974
C      80.44562801      94.66683814      94.84083627
O      81.92528371      96.49609321      94.96177876
N      79.80690051      93.65583456      92.57883388
H      78.57479896      92.20641448      92.40497906
C      80.41161293      94.90305392      90.08439515
H      80.85380889      96.90805354      90.25447052
C      82.34102350      93.28544820      88.72757165
H      84.02665937      93.16072626      89.90298143
H      82.82479343      94.33613603      87.02492825
C      81.71552409      90.55101423      88.13608731
C      81.21285689      89.76110863      85.68889175
H      81.21096716      91.21619789      84.25647919
C      80.48342253      87.22509591      85.20701153
H      79.96563752      86.52211773      83.36452837
C      80.68751297      85.36938468      87.07973032
O      80.22264030      82.92407883      86.52037132
H      79.73320119      82.79179798      84.77804366
C      81.13915756      86.18763617      89.53637452
H      81.25632059      84.88561474      91.10295763
C      81.70229600      88.70853107      90.06927734
H      82.37503857      89.23576471      91.92120912
C      78.12504409      95.24887384      88.41387708
O      76.06713214      94.38904837      89.06772240
N      78.38393660      96.55467472      86.30683225
H      80.00532178      97.38993375      85.74747325
C      76.17484654      96.86836929      84.56828404
H      74.45141614      96.18239864      85.46401431
C      75.92729239      99.67839232      83.90687984
H      74.94652444      99.82579097      82.10030148
H      77.75276801     100.57223286      83.57428799
C      74.41362161     100.91049387      86.05738837
H      75.47564780     100.77821303      87.81861330
H      72.48232132     100.24153076      86.29738362
C      73.75410713     103.71484772      85.73991435
H      75.59092111     104.46506907      85.18244509
H      73.24388103     104.53498894      87.55783106
C      71.71509244     104.33467795      83.75381200
H      70.67574297     102.57156330      83.51192703
H      72.54657202     104.36113412      81.86786513
N      70.12583261     106.66282077      84.31128126
H      70.94786356     108.36357445      84.03349149
H      69.31514002     106.91982355      86.01959385
H      68.60838238     106.63447488      83.15476875
C      76.60381441      95.19218205      82.13431654
O      78.60314485      95.16761561      80.98158349
N      74.78211825      93.72386471      81.43511782
H      73.24766048      93.86370445      82.56139469
C      74.71786755      91.90027881      79.33185242
H      76.37515753      90.70786151      79.60586274
C      72.50310831      90.02944976      79.72302577
H      70.71542722      90.97998210      80.09908130
H      72.91884810      88.91829069      81.40866164
C      71.84170410      88.02822960      77.74259259
O      70.04457438      88.34003444      76.31962868
O      73.29868309      86.17251836      77.69534943
C      74.63094014      93.05301186      76.65599997
O      74.16606747      95.37170605      76.44435062
N      75.24699092      91.47509039      74.76816339
H      75.72887113      89.66095313      75.11209357
C      75.09770254      92.52388850      72.06207531
H      76.32980410      94.17172984      72.00727323
C      76.14272119      90.52644778      70.17234898
H      76.09358831      91.30312530      68.26372542
C      78.97920039      89.79890315      70.71847990
H      80.18673550      91.43162669      71.06052035
H      79.84280531      88.73498724      69.17835295
H      79.22675453      88.61215503      72.38143905
O      74.60070452      88.29279128      70.26116612
H      75.66651016      87.01722602      70.98493131
C      72.50499804      93.58591468      71.24760326
O      72.53145421      95.11848272      69.50716532
N      70.39795320      92.89427485      72.49293289
H      70.33937168      91.28044858      73.51716457
C      67.92052200      94.07157435      72.28128355
H      67.59548908      94.93706900      70.44257985
C      65.74922647      91.98531650      72.69513362
H      64.88562154      92.07035418      74.56029348
H      66.51267590      90.07480319      72.57608085
C      63.47210626      92.47853506      70.72603879
H      62.66141367      94.36448193      70.88477581
H      62.17764374      90.87604715      70.71281071
C      64.45476395      92.64672071      67.95758975
O      63.98611182      94.64038197      66.68580395
O      65.82103607      90.98187182      66.86343822
C      67.50856167      96.18428836      74.16723042
O      65.59993809      97.41450019      73.94802216
N      69.17719000      96.60380761      75.93412452
H      70.80802381      95.62303965      75.78672586
C      69.17341055      98.75053670      77.70668779
H      68.08114874     100.25475884      76.81851643
H      71.16707181      99.22674773      77.89188097
C      68.04713367      98.23464141      80.45812930
O      67.97532407     100.00720470      82.01148434
N      67.23077190      95.87437325      81.14032051
H      66.80936293      94.64794087      79.74003332
C      66.16307653      95.14304917      83.54783184
H      65.30514079      96.92695081      84.11474972
C      64.04847279      93.27410984      83.20201191
H      62.93164454      92.93017965      84.89709641
H      64.70987700      91.34469928      82.91666324
C      62.29480677      94.00732365      81.15543831
C      61.93197932      92.25554736      79.26760173
H      63.15274252      90.63416218      79.04650376
C      60.14429823      92.79978854      77.23614595
H      59.84761119      91.45997258      75.72625462
C      58.56070758      94.86147995      77.45913365
O      56.77491621      95.34713961      75.66578337
H      56.15508598      97.02899603      75.95302177
C      58.96699873      96.61892542      79.44901545
H      57.82938349      98.29700238      79.68901070
C      60.88318121      96.17295001      81.28582944
H      61.18175797      97.49008925      82.81650774
C      68.28334946      94.51188058      85.59440542
O      70.41496074      93.58213523      85.02181835
N      67.57470209      94.88604639      87.98112976
H      65.72277030      95.08257792      88.39686955
C      69.43986196      94.56479291      90.04471090
H      71.20297661      95.38304441      89.36062996
C      68.55358032      96.20318563      92.34450781
H      69.68363665      95.51532525      93.92053956
H      66.56180878      95.72886432      92.57127497
C      69.03546053      98.96029632      91.78325910
C      67.00967392     100.51365135      91.41476248
H      65.08404281      99.84657796      91.32972478
C      67.34226575     103.17816545      91.19177476
H      65.73221893     104.38948002      90.86485211
C      69.78190242     104.31767042      91.67176525
O      70.13339152     106.79510161      91.98357010
H      68.71987623     107.91381959      91.80971528
C      71.81335821     102.62447564      91.94010639
H      73.72009206     103.33879219      92.06482833
C      71.46564857      99.97696907      91.84373035
H      73.05112894      98.75431615      92.24435232
C      69.89528600      91.82468976      90.82327814
O      68.10571518      90.35259296      91.51113851
N      72.37082747      91.08958622      90.75902744
H      73.68040781      92.33302614      90.14486639
C      72.92262755      88.36838033      90.95366925
H      71.15195400      87.51422404      91.56216112
C      73.63883383      87.57280556      88.26647844
H      75.52478069      88.20775360      87.73168588
C      73.82024755      84.51522838      87.94711469
H      72.03823564      83.57225495      88.37041339
H      75.18462995      83.54390906      89.14520118
H      74.51944629      84.08248106      86.05549865
O      71.93052124      88.48554337      86.44856172
H      72.37460692      90.19763540      86.04793975
C      75.03534157      87.88461040      92.88119009
O      76.50743837      89.53056202      93.52936622
N      75.31124161      85.59993129      93.90542175
H      74.17362637      84.18641600      93.31960660
C      77.42962481      84.71175992      95.69688229
H      79.07368670      85.92874366      95.45310760
C      76.56224043      85.18986068      98.49556696
H      75.38116149      86.87738627      98.47666971
C      75.00888540      83.00911651      99.35350271
H      73.38938995      82.56881028      98.15541623
H      74.26811269      83.22454531     101.26212628
H      75.93485130      81.17797171      99.20610407
C      78.71841816      85.75299912     100.27379942
H      79.59525117      87.51989322      99.67475619
H      80.35492114      84.50577975     100.16041584
C      78.05134477      86.06291423     103.03468957
H      79.63115597      86.81502530     104.12128220
H      77.70741458      84.15240093     103.72632941
H      76.64160894      87.55579802     103.19531631
C      78.47653319      82.08693007      95.08839043
O      77.29734397      80.65829698      93.62574226
N      80.62704173      81.35371626      96.25246183
H      81.51899255      82.44219862      97.53747573
C      81.49253638      78.78368847      96.47733927
H      80.03744712      77.72733147      97.48078394
H      83.32179145      78.75534258      97.42409215
C      82.12937415      77.40985744      93.92053956
O      83.31234282      78.49267062      92.27269821
N      81.10514249      75.16675231      93.70511077
H      80.27933209      74.40330288      95.24523770
C      80.68940270      73.70599387      91.29948917
H      82.10291798      74.35417000      89.94833485
C      81.12026030      70.87329413      91.63775018
H      79.36470456      69.92654125      92.14986601
C      81.84402548      69.91709261      88.94111072
H      81.84591520      67.85729093      89.06394294
H      83.54288943      70.87140440      88.27970651
H      80.50987870      70.44243653      87.46145502
C      83.38793188      70.40275228      93.32716551
H      82.73597630      71.01880305      95.18098701
H      84.82223415      71.63296411      92.50891401
C      84.49909095      67.65320049      93.72778747
H      85.22285613      66.78581611      92.00624680
H      83.14982636      66.36629687      94.60651021
H      86.07701242      67.67776693      95.05059589
C      78.19685369      74.44676659      89.97668075
O      76.33547328      73.19954722      90.00502664
N      78.33291399      76.72955597      88.96945662
H      79.87682039      77.85394313      89.00914087
C      76.25043559      77.59505062      87.33484337
H      76.18051572      76.47444292      85.60763352
H      76.73042607      79.52446119      86.79249191
C      73.68040781      77.70087530      88.50458395
O      71.70564381      77.06970671      87.34618173
N      73.50277353      78.32259525      90.96689733
H      75.13171761      78.80258574      91.83995089
C      71.01022453      78.24889593      92.31238247
H      69.79702023      76.69554090      91.71522895
C      71.28612457      77.96921643      95.09972878
H      72.56546928      79.47343858      95.67798504
H      72.17996511      76.16830726      95.54948365
C      68.88995160      77.93331163      96.68520915
N      67.24588971      75.93965037      97.11228730
H      67.52556920      74.09716722      96.70410642
C      64.99711540      76.73900460      98.19887994
H      63.51179052      75.50312360      98.85272524
N      65.20498529      79.15029538      98.60139165
H      63.73288849      80.19531403      99.22311160
C      67.64084251      79.97232633      97.62818258
H      68.14161998      81.93386224      97.36740036
C      69.64017295      80.78112919      92.06104888
O      70.38472512      82.68975276      93.23645863
N      67.48588495      80.85293879      90.77036580
H      66.76589923      79.21832553      90.09951295
C      66.01945733      83.26611929      90.59651098
H      67.40651645      84.76845171      90.35084656
C      64.27335022      83.19997887      88.30427296
H      63.12061717      81.49355601      88.28726542
H      65.50923123      82.96754253      86.67343916
C      62.56881709      85.59993129      87.80160577
H      60.91341683      85.14828670      88.93922101
C      63.96154538      88.13027482      88.30994214
H      64.33004201      88.16995907      90.33572875
H      62.87117330      89.65528395      87.46334476
H      65.72277030      88.12460564      87.24224678
C      61.80536765      85.57914430      84.97646492
H      60.40885991      87.04935137      84.60229911
H      60.86239422      83.82358855      84.45867992
H      63.40596584      85.96275874      83.73680447
C      64.70609755      83.73477141      93.02858875
O      63.23400075      82.17007803      93.98667998
N      65.43931135      85.84181625      94.37785333
H      66.70920744      86.99454930      93.54259430
C      64.19398171      86.80368695      96.64741463
H      63.65918917      85.29568535      97.94376689
C      65.74733674      88.64805983      98.15352651
H      64.65507493      89.22631608      99.79947813
H      66.25189367      90.28078336      97.00268317
C      68.12461245      87.40461991      99.33460544
H      69.08648314      86.24810741      97.92675934
C      70.14284015      89.37749419     100.19443093
H      72.01744865      88.63861120     100.62717825
H      69.33403729      90.54912450     101.68164554
H      70.38850457      90.68896425      98.62406835
C      67.38761918      85.75110939     101.70810170
H      67.14573422      87.01722602     103.31436906
H      69.12427766      84.75144417     102.18809218
H      65.87205868      84.39239617     101.39440713
C      61.72599915      88.08114193      95.89341383
O      59.76446324      87.61437954      96.94788112
N      61.87150808      89.90094837      94.12840945
H      63.50045216      90.04456757      93.14197233
C      59.70021254      91.53745136      93.47834360
H      57.99189996      90.42818202      93.17787713
C      59.43187141      93.44985439      95.68932340