 %block lattice_cart
   139.252   0.000   0.000
   0.000 142.425   0.000
   0.000   0.000   162.84
 %endblock lattice_cart

 %block positions_abs
N      91.56383277      42.11354938      83.01398415
H      93.35907277      42.69747480      82.73808411
H      91.14242380      40.46948747      82.13904086
H      91.01581214      42.29496309      84.83190086
C      89.91221197      43.96359143      81.74597779
H      90.38653328      45.62655059      82.86847522
C      90.53582166      44.03918049      78.95674175
H      89.41899341      42.54440698      78.08557792
H      92.45389387      43.46659342      78.46352319
C      89.64954002      46.56763430      77.70763266
H      87.71068082      47.01360970      78.24242521
H      89.74969551      46.23126301      75.67806660
S      91.54115606      49.20758195      78.81123283
C      89.98213185      51.89288305      77.10669969
H      91.08573201      53.63143125      77.17661957
H      88.06594937      52.00815635      77.86447994
H      89.83851265      51.34864187      75.12626652
C      87.12297594      43.54407219      82.36580802
O      86.21590731      41.45214517      82.21651964
N      85.85119013      45.63410950      82.81367316
H      86.81684027      47.27439193      82.94973345
C      83.11486643      45.90056091      83.35602461
H      82.19079026      44.43224355      82.24297581
C      82.58952251      45.07286077      86.14904010
H      83.30383906      43.16612693      86.45895522
H      80.60530988      45.16167791      86.70272991
C      83.83674188      46.86054187      88.02931778
O      84.84396600      48.75215791      87.49074578
N      83.69501240      46.27283698      90.46517500
H      84.06161931      47.63155020      91.75207862
H      82.94857051      44.66279017      91.17004291
C      82.00937653      48.60664899      82.71351766
O      83.24336782      50.27149787      81.56645379
N      79.63777001      48.84475450      83.45618011
H      78.58141300      47.36509879      84.04577471
C      78.16189376      51.07085210      82.90626975
H      78.38677119      51.44690764      80.89371122
C      75.31974539      50.65889175      83.36169379
H      74.81140901      48.87121067      82.46974297
C      74.49582471      50.50015475      86.13203256
H      72.53806825      49.98048001      86.50241892
H      74.83975490      52.25382077      87.16004368
H      75.66934475      49.23592785      87.26019917
C      73.87032530      53.02860856      82.08990798
H      74.04606985      54.59708140      83.41271640
H      71.85020787      52.64121467      81.99353194
C      74.65456172      54.03961213      79.44996032
H      73.74749309      55.86130830      79.13815548
H      74.03095204      52.60719959      78.11014437
H      76.68790724      54.33629916      79.31390003
C      79.25982475      53.36875930      84.31600558
O      79.38643641      55.54761373      83.44862120
N      80.13098858      52.97380650      86.54021345
H      80.70168592      51.17289732      86.81233404
C      81.20057367      54.73125196      88.40915277
H      80.13287830      56.49625633      88.42616031
C      81.08152091      53.50481958      91.02075454
H      81.91866967      54.85597390      92.33222460
H      82.27204849      51.82485290      91.03587235
C      78.43968353      53.10986678      92.11679580
C      77.13010319      55.04116708      93.44716312
H      78.23181363      56.70412624      93.88180017
C      74.75282749      54.47802864      94.63958043
H      73.97803970      55.73469664      96.04742653
C      73.50938758      52.21791597      93.93093306
H      71.51572632      51.97603100      94.29187078
C      74.69046652      50.28094649      92.50041024
H      73.70780884      48.57074418      91.97506632
C      77.24159705      50.63999449      91.75585807
H      78.15622458      49.20380250      90.63147092
C      83.82918297      55.71768909      87.74018966
O      84.30539400      57.99102985      87.75908692
N      85.47513459      54.07362720      86.72162717
H      85.06884343      52.21035706      86.78209842
C      87.91477126      54.84085608      85.53865850
H      88.96167964      56.08807545      86.80288541
C      89.58150987      52.68089892      84.89993101
H      88.79916318      51.83052208      83.19728760
H      89.32072764      51.12943361      86.22840861
C      92.45767332      53.48592233      84.72796591
H      92.77325761      54.87865061      83.24264103
H      93.58017075      51.79083782      84.40482271
C      93.34584468      54.49692590      87.31500124
O      94.45889348      56.51137415      87.34523686
O      93.20222549      53.06262363      89.25763989
C      87.53115682      56.26570972      83.07634512
O      88.87664195      58.14220796      82.74186356
N      85.84741067      55.21124244      81.47007775
H      85.01782082      53.62009289      82.12770251
C      85.15199139      56.55483786      79.10980959
H      86.63731627      56.24492274      77.71708129
C      82.80873076      55.23013970      78.12337245
H      81.20624285      55.80650624      79.28366441
H      83.25848563      53.22514010      77.96085599
C      82.19834916      56.22980492      75.37948984
H      83.86130832      55.91044118      74.20785953
H      81.58607784      58.19512029      75.45507890
S      79.36564942      54.54605878      74.08691705
C      80.06862761      54.70101634      70.80635217
H      78.52661094      53.81095525      69.76700269
H      81.93000803      53.82796278      70.69296859
H      80.38988108      56.66066253      70.25833154
C      84.54538925      59.26659512      79.57468226
O      85.55828255      60.98057689      78.26888138
N      82.89376845      59.75792395      81.35858390
H      81.88465460      58.20834837      81.83101548
C      81.96402310      62.30905447      81.61180722
H      81.51993742      63.25013818      79.83546449
C      79.47525355      62.32039283      83.10847046
H      79.35242134      63.93988828      84.38025627
H      79.73981523      60.55160901      84.13081240
C      77.01860934      62.25803187      81.76487505
H      77.19057444      60.94278236      80.18884331
C      74.68668707      61.59284820      83.31067118
H      74.20480686      63.04793747      84.68450221
H      74.91534395      59.85241027      84.38592545
H      73.06152244      61.43978037      82.05211345
C      76.44413254      64.72412470      80.43828718
H      76.96191755      66.42109894      81.48708529
H      74.51661170      64.89797952      79.73152954
H      77.45513612      64.66365346      78.64493691
C      83.83674188      64.12697119      82.99508688
O      83.61564390      66.46456265      82.77587863
N      85.79071889      63.08762171      84.24230625
H      85.76048326      61.18466733      84.37836655
C      87.84863084      64.27625957      85.66149071
H      87.18911636      66.14519889      86.21895997
C      88.75003029      62.49424765      87.77420473
H      88.61585972      60.55538845      87.09201353
H      87.47635476      62.69266891      89.38236182
C      91.46556700      63.06494500      88.90237134
H      91.75469513      65.07939325      89.22173509
H      93.04159875      62.33173120      87.79688145
C      91.62808347      61.84040235      91.57633407
H      90.15976612      62.62085932      92.79142809
H      93.32127824      62.64164630      92.43426982
N      91.41454439      59.03415877      91.60279024
H      92.47468085      58.06094973      90.34801197
C      89.68166536      57.55639281      92.75741302
N      88.08106718      58.47479979      94.39769546
H      86.78282520      57.46568593      95.36712506
H      88.03760347      60.33995966      94.80020716
N      89.55505370      55.21124244      92.18104649
H      87.95634524      54.28527655      92.66859588
H      90.82494978      54.37976287      91.02642371
C      90.06527981      64.92632543      83.83412537
O      91.43344166      66.68188116      84.36702819
N      90.35440793      63.71690059      81.71385244
H      89.20923379      62.21078872      81.48708529
C      91.78304102      64.47846028      79.49153430
H      93.54993513      65.30805014      80.14726933
C      92.64097677      62.15787638      77.98164298
H      90.82683951      61.29049199      77.54322647
C      93.86173997      62.86652374      75.45318917
H      92.86396448      64.08539722      74.12660130
H      94.43432704      61.13175499      74.50076711
H      95.73445874      63.62430400      75.86137005
C      94.42298868      60.45334324      79.42350415
H      93.77103311      60.12453086      81.35102499
H      96.29759719      61.25269746      79.70885283
C      94.43432704      57.78127023      78.13660053
H      92.47090140      57.37308934      77.66794841
H      95.17321003      56.51326387      79.58224116
H      95.51147104      57.84930037      76.38482424
C      90.36763602      66.41920921      77.98920188
O      91.39753686      68.43743691      77.66416896
N      87.95445551      66.00535914      77.43929152
H      87.25336705      64.25169313      77.71141211
C      86.38409295      67.89886491      76.03711460
H      87.39698625      68.37318621      74.30612530
C      83.84052133      66.75558050      75.21886311
H      82.35708617      68.01791766      75.89160567
H      83.54950348      64.99624529      76.24876395
C      83.54383430      66.57794621      72.36348665
O      82.30228411      64.69199935      71.61704475
O      84.40365977      68.13886016      70.86871313
C      85.94378672      70.43109818      77.36559220
O      86.57873476      72.25279433      76.15616736
N      85.17277838      70.76935918      79.82223641
H      84.72302352      69.14230482      80.71607695
C      84.40554950      73.11261980      81.17717017
H      84.20145906      74.71510772      79.89782546
C      81.91489022      72.63262932      82.53021421
H      82.11520121      71.50068326      84.23852680
H      80.56751536      71.52335998      81.43984213
C      80.31996121      74.93620570      83.21807459
H      81.68812306      76.18909424      84.11569459
H      78.74392946      74.42408987      84.43883779
C      79.19935351      76.24200658      80.90315986
O      80.33885847      77.95220889      79.67483775
O      77.17545662      75.41241673      79.98097342
C      86.44456419      73.96677610      83.18216979
O      86.70723615      76.20988123      83.68861644
N      88.12453088      72.19232309      83.86625072
H      87.81272604      70.53125366      82.97429990
C      89.88197635      72.34350120      85.89203732
H      91.20289505      73.90819458      85.66149071
H      91.02148132      70.64841669      86.15281955
C      88.30972406      72.85183757      88.33923290
O      86.01559632      72.87829374      88.30710755
N      89.74591606      73.33560751      90.34045306
H      91.64887046      73.22600338      90.20628250
C      88.73680221      74.07826995      92.79898700
H      86.71668478      74.30314739      92.45127735
C      89.14498309      72.00146073      94.67548523
H      91.10462928      71.39674831      94.48462287
H      88.02248566      70.48590024      93.84967483
C      88.61208027      72.50223821      97.52141305
H      89.74591606      74.08393913      98.19415562
C      85.86819766      73.01813350      98.02408025
H      85.55828255      73.74378839      99.92703465
H      84.87420162      71.24557022      97.68392952
H      85.31450785      74.45621522      96.65780813
C      89.39064751      70.15141868      98.94437697
H      91.38241905      69.71867135      98.65713857
H      88.42499737      68.50735678      98.15825082
H      89.09962966      70.39708309     100.96827385
C      89.79504894      76.60672376      93.74951933
O      92.06838970      77.11883959      93.99518375
N      88.05083156      78.14307125      94.76052291
H      86.26881964      77.57048418      94.40147491
C      88.50625560      80.60538465      95.90758678
H      90.46779151      80.87372577      96.48206358
C      87.69934246      82.68975276      94.03675773
H      87.60296642      84.46609549      95.07988666
H      85.84741067      82.25511572      93.25063159
C      89.74969551      83.12061036      92.03364784
H      90.24480381      81.28001693      91.24752169
H      91.33517589      83.93130295      93.06354868
C      88.54405012      84.66451677      89.90392629
H      90.01047774      85.66796143      88.86268709
H      87.51792874      86.23676905      90.74863395
N      87.31194857      82.90896102      88.18049589
H      86.94345194      81.18175116      88.90615079
C      86.28582718      83.31903162      85.93928048
N      86.44456419      85.55835731      85.06055774
H      85.38064828      86.18763617      83.60546848
H      87.74469589      86.78101023      85.73330031
N      85.21624209      81.49922519      84.70339947
H      84.20145906      81.76000741      83.11413964
H      85.28049278      79.73988998      85.43850301
C      87.01904099      80.80002645      98.40769469
O      84.82506874      80.07248182      98.42848168
N      88.33051105      81.43686421     100.34466416
H      90.14653804      81.96220813     100.08199221
C      87.55572326      81.65040329     103.06964951
H      85.96646343      80.34271268     103.19248172
C      89.75536469      80.67341478     104.91969157
H      89.10907829      80.57892847     106.87177885
H      91.39564713      81.90551634     104.73638812
C      90.39598191      77.77457462     104.63434289
H      91.26147656      77.45710060     102.79185974
C      92.43499660      77.08104506     106.65257060
H      92.71278637      75.04580982     106.81130761
H      91.66020881      77.57048418     108.49694348
H      94.15842700      78.15818907     106.31241986
C      88.23035556      76.09271820     105.22204778
H      87.17399855      76.67286418     106.89256584
H      88.96734882      74.19354327     105.51495536
H      87.00203345      76.31003673     103.57987561
C      86.54094023      84.33192493     103.79341469
O      85.51103939      84.62105305     105.78140677
N      86.72424368      86.06102450     102.01518223
H      87.55194381      85.64150526     100.34844362
C      85.67544558      88.65183928     102.38178913
H      84.49814609      88.89939342     104.05419692
C      87.89587400      90.55290395     102.48383435
H      87.28927185      92.51066041     102.26273637
H      89.28671256      90.00299359     101.06653962
C      88.97679745      90.67762588     105.08976694
H      90.02937501      88.91640096     105.26551148
H      87.55005408      90.57936012     106.57320209
C      90.62274907      92.84703169     105.81731157
H      89.36608107      94.31723876     106.52973839
H      91.64509100      93.59536332     104.19592639
C      92.52570347      92.19507611     107.92435641
H      91.58273003      91.18218281     109.45125527
H      93.24379946      93.95630104     108.71615173
N      94.62896885      90.90250332     106.57131237
H      94.94833260      92.03066992     105.06709022
H      94.36818662      89.08458660     106.05541708
H      96.25035403      91.01399718     107.57475704
C      83.86130832      89.33780993     100.28230320
O      83.88209531      88.01878096      98.36612071
N      82.30984302      91.20108007     100.87756698
H      82.95046024      92.52199878     102.09833018
C      80.26326942      91.99098567      99.10689343
H      79.30706791      90.19007650      98.81398585
C      78.19212938      93.85992500      99.99695452
H      78.99337334      95.70618760     100.44104021
C      76.01516467      94.30023123      98.07888232
H      76.76349629      95.19596150      96.38190809
H      74.77928366      95.56256840      99.13523932
H      74.90400560      92.62782344      97.61400964
C      77.09230867      92.84325225     102.57076176
H      78.54172875      92.97553308     104.03152020
H      76.58586201      90.86848824     102.28541309
C      74.93991040      94.42873262     103.64601603
H      75.66178585      96.34302537     103.88223182
H      74.25582947      93.74843114     105.46393275
H      73.27128206      94.54967510     102.44603982
C      81.58607784      92.90939266      96.67670539
O      83.12431506      94.55534428      96.73906636
N      80.66200167      92.11192816      94.46950506
H      79.29006037      90.78534028      94.44115916
C      81.57096003      92.68829469      91.82388822
H      82.85597392      94.29456206      91.95805879
C      83.48903224      90.84203207      90.70894969
H      85.06884343      90.62093409      92.01097112
H      84.39232141      91.51855409      88.98740902
C      82.38732180      88.31357827      89.94738999
C      81.36686959      88.01311178      87.58334237
H      81.83930117      89.20930854      85.99975172
C      80.25760024      85.63016690      86.94461488
H      79.72091797      85.27111890      85.00953513
C      80.30862285      83.69130770      88.75875214
O      79.72280769      81.22143542      88.04254587
H      79.12565418      81.38773133      86.33612301
C      81.22136066      84.15051121      91.25697033
H      80.88498938      82.70109112      92.65536780
C      82.27015876      86.44463894      91.82010877
H      83.14321232      86.70920064      93.64747411
C      79.42801039      93.49142836      90.11179618
O      77.18112580      92.89805431      90.65981681
N      80.06484816      94.76510390      88.04254587
H      81.90544159      95.22619712      87.84223488
C      78.52283149      95.67217254      86.00731063
H      76.54239831      95.83279927      86.55344153
C      79.14644117      98.33857636      85.23441257
H      78.37354311      98.67494765      83.35602461
H      81.16844832      98.67305792      85.02087349
C      78.28283624     100.42105476      87.08067517
H      79.41667203     100.18672869      88.78520831
H      76.24571128     100.36814243      87.38492111
C      78.80062125     102.98541336      85.97329555
H      77.58741696     103.18761408      84.32356448
H      80.81884896     103.12336338      85.58590166
C      77.67812382     104.96017736      87.86869105
H      78.59653081     104.87136022      89.70928447
H      75.68257284     104.49530468      88.09545820
N      78.13354787     107.62658119      87.11280052
H      76.57830311     108.63569504      87.57389374
H      78.31118214     107.72862641      85.21551530
H      79.68501317     108.45050186      87.85168351
C      78.67589932      93.61237085      83.79444112
O      80.66956058      92.42562272      83.26153829
N      76.56696475      93.03033514      82.60013409
H      75.01360972      93.85803527      83.33901707
C      76.29862362      90.80234782      80.87103451
H      78.05228963      90.43952038      79.85247203
C      75.84508930      88.38538787      82.50753750
H      74.04418012      88.29846046      83.49775408
H      77.18679498      88.00744260      84.02498773
C      76.05673865      86.02134025      80.90127013
O      77.90678071      85.90039776      79.46129868
O      74.59598021      84.25255642      81.18094962
C      74.01583423      91.02911498      78.94540340
O      71.92957638      91.91539662      79.58602062
N      74.39377949      90.04267785      76.57190715
H      76.04162084      89.13371949      76.26199203
C      72.56452442      89.84992576      74.53478218
H      73.63977869      89.01844619      72.98709633
C      70.38378026      87.99421452      75.00910349
H      69.04207457      88.82191464      76.33569136
C      69.34254106      87.10415344      72.40128117
H      70.85054265      86.06669368      71.45452829
H      68.92491154      88.81057629      71.32224745
H      67.65690519      85.92307449      72.50143667
O      71.19825230      85.82480872      76.29978656
H      71.53273385      86.51266909      77.94573818
C      71.52328522      92.36515148      73.53511696
O      72.45869975      93.51599481      71.73420779
N      69.36899723      93.32324273      74.69162947
H      68.82286632      92.24798845      76.17128517
C      68.22949226      95.86492461      74.39683216
H      68.17469020      96.30145140      72.38238391
C      65.45348431      95.74020268      75.12059734
H      64.60121774      97.54300158      74.60848151
H      65.51017609      95.41328002      77.15205312
C      63.92469572      93.66528318      73.73542795
H      61.91213719      93.61237085      74.17195473
H      64.81097736      91.92295552      74.38927326
C      64.30831016      93.61804003      70.81391107
O      63.93225462      95.58335539      69.54023554
O      64.54263622      91.50532601      69.73109789
C      69.42190956      97.88882150      76.11459338
O      68.70192384     100.09980128      76.15238791
N      71.08108927      97.03466520      77.81156761
H      71.85398733      95.34524989      77.38071001
C      72.29618328      98.59746886      79.72586036
H      72.11854901     100.62892465      79.44429114
H      74.30685208      98.15149345      79.68617611
C      71.23226737      98.22519278      82.32423404
O      72.02028324      99.65760532      84.04388499
N      69.26128283      96.68506584      82.55856011
H      68.81908687      95.41139030      81.20929552
C      68.09343196      96.13704520      85.03221185
H      67.50761681      97.89827013      85.92416267
C      65.76150969      94.38337918      84.58245699
H      64.80530818      94.33991548      86.40793261
H      66.22449264      92.42184328      84.17616583
C      63.90201900      95.17517451      82.56233956
C      62.51118044      93.37804479      81.37370171
H      62.91747159      91.39950134      81.67605792
C      60.73861715      94.04322845      79.55389527
H      59.63690671      92.70719194      78.47108209
C      60.34366435      96.64727131      78.92650613
O      58.66936684      97.35213923      77.06323599
H      58.66936684      99.13037169      76.70796744
C      61.84977623      98.40471678      80.16049742
H      61.77418717     100.39270887      79.70318365
C      63.54486073      97.76220983      82.04266482
H      64.53507732      99.16627648      83.14437526
C      69.88489251      94.88793612      86.85957719
O      71.73682430      93.58591468      86.23218806
N      69.34632051      95.42839783      89.28220633
H      67.78540658      96.47908567      89.61479816
C      70.97526459      94.80667788      91.48562721
H      72.99538202      94.94273818      91.10201277
C      70.44992068      96.55278499      93.83644674
H      71.80863390      95.93295476      95.25752093
H      68.51862038      96.47152676      94.54320438
C      71.30785642      99.27399088      93.56243643
C      69.45781436     101.29410832      93.75707824
H      67.47738119     100.91427332      94.07455226
C      70.35165491     103.84712856      93.33377954
H      68.96837525     105.34190207      93.46795011
C      73.01616901     104.42160536      92.99740826
O      73.76639036     106.77809407      92.77631028
H      72.52861962     108.06499770      93.09945348
C      74.64133364     102.37314204      92.70261095
H      76.65578189     102.67738798      92.59867601
C      73.86087667      99.87492385      93.13724801
H      75.36131936      98.55022571      92.72717740
C      70.55952480      91.96830896      92.32466569
O      68.40712653      90.85337044      92.49474106
N      72.67412855      90.79856838      92.49474106
H      74.31441099      91.77366715      92.43426982
C      73.05585326      88.09814947      92.52308695
H      71.33998177      87.08336644      93.05032060
C      73.80229516      87.18919111      89.95116944
H      75.74304408      87.69185831      89.48629677
C      73.67190404      84.36405027      89.72251256
H      74.95691793      83.34926724      90.96973193
H      73.99315751      83.79524265      87.76853555
H      71.87855377      83.47398918      90.21195167
O      72.32452918      88.40428513      88.15026027
H      72.91790324      90.12015662      88.16537808
C      75.02305835      87.17218357      94.50918931
O      76.87310041      88.47231528      95.11768118
N      74.67912817      84.93663736      95.54286960
H      73.18435465      83.83114745      95.11012228
C      76.53672913      83.57792413      97.07354792
H      78.43590408      84.33759410      96.81654514
C      76.11909962      84.01634063     100.04986686
H      75.41045225      85.94764093     100.12545591
C      73.89111229      82.30991778     100.96260467
H      72.12610792      82.89762265     100.07254358
H      73.63221979      82.68597331     102.96949401
H      74.18213014      80.29735925     100.62812311
C      78.59086163      83.85949335     101.70148766
H      79.97414129      85.11805107     100.83410328
H      79.23147885      81.90173689     101.70337738
C      78.09575334      84.79490787     104.32442778
H      79.84752963      85.28623672     105.28818820
H      77.05451414      83.28501655     105.26173203
H      77.08663949      86.59014787     104.28852298
C      77.06018332      80.86616687      96.43859988
O      75.56918926      79.58871188      95.20838805
N      79.21447132      79.82303794      97.36267604
H      80.61853797      80.91718948      98.05242615
C      79.94201595      77.22466427      97.36267604
H      78.40944791      76.28169083      98.36234126
H      81.64276963      77.17742110      98.52107827
C      80.39366054      76.11350520      94.66225714
O      82.09819367      76.94498477      93.22606514
N      78.81573906      74.17086654      94.01219129
H      77.63466012      73.73245004      95.44460383
C      78.68345822      73.16364242      91.42704569
H      80.16500365      74.05937269      90.31210717
C      79.31462681      70.21944883      91.36846418
H      77.71213890      69.26135758      92.23584856
C      79.23336858      69.42765350      88.48474182
H      80.38988108      70.65030642      87.29610397
H      77.33230391      69.44277130      87.69105677
H      79.78327894      67.45666895      88.24663631
C      81.81284500      69.58828023      92.72906712
H      81.84497034      70.14385977      94.71327975
H      83.31328769      70.61818107      91.76341698
C      82.72369308      66.88219215      92.59300683
H      84.66633173      66.74235241      93.25819049
H      83.07896163      66.34173044      90.63714009
H      81.39899493      65.58017073      93.48495765
C      76.17012223      73.79103155      90.20439277
O      74.30874181      72.29058886      90.48974144
N      76.07752564      75.98500380      88.91370970
H      77.78394850      76.67097445      88.40537332
C      73.88355339      76.84671900      87.46428961
H      73.48104168      75.42942426      86.02431816
H      74.48637608      78.53613432      86.45139631
C      71.50627769      77.60449925      88.97040149
O      69.74505276      78.28858019      87.77042528
N      71.57430783      77.76890545      91.49507584
H      73.25994370      77.49489512      92.34545268
C      69.24994447      78.42275075      92.86890687
H      67.85154700      77.32481977      91.82955740
C      69.31608489      77.25678962      95.47861891
H      70.62377550      78.32448498      96.65969785
H      70.07008569      75.35194549      95.26885929
C      66.73849820      76.98277930      96.77497116
N      65.04908287      75.04580982      96.53875537
H      65.47427129      73.36584313      95.73562169
C      63.03463462      75.56359483      98.01463162
H      61.29797614      74.49400974      98.03541861
N      63.38801344      77.79536161      99.12768042
H      61.93103446      78.66274599     100.00640315
C      65.66513365      78.79691655      98.31698783
H      66.33220704      80.67341478      98.76296324
C      68.52428956      81.20631760      92.94827538
O      69.62977946      82.64439934      94.38068792
N      66.72715984      82.05102528      91.31177239
H      65.85410628      80.72254768      90.25730511
C      65.46860212      84.41885234      91.27775731
H      66.70448312      85.98165600      90.75997230
C      63.07809833      84.28468177      89.45795088
H      61.85355568      82.70109112      89.93983109
H      63.85477584      83.81602965      87.60979854
C      61.46994124      86.69597254      89.18583029
H      60.84255210      87.28745688      91.05854906
C      62.83243391      88.92773932      88.06711231
H      61.91969610      90.75888412      88.30710755
H      63.28785795      88.76144340      86.06589214
H      64.73349858      88.95041603      88.86457681
C      58.93203880      86.50322046      87.77231500
H      58.04197771      84.78734898      88.48474182
H      59.45738271      86.26133549      85.79566128
H      57.75284958      88.14917208      88.15592945
C      64.60877664      85.24277301      93.98384539
O      63.62233951      83.73288168      95.38602232
N      64.87711778      87.65028433      94.71705920
H      65.80308367      88.86537835      93.57188506
C      64.02485121      88.40239540      97.22850547
H      63.63556759      86.86226846      98.53808581
C      66.24338990      89.69685793      98.81776530
H      65.51584527      90.88927523     100.33332581
H      67.29974691      90.93840812      97.56109731
C      68.30697104      87.89594875      99.83443806
H      68.81908687      86.65250884      98.27541385
C      70.43480287      89.52678256     100.85300054
H      69.62600000      90.70975123     102.33076652
H      71.10376598      90.65872862      99.26563044
H      72.06752640      88.32491663     101.23472526
C      67.17313525      86.03834779     101.85644521
H      66.79518999      87.09848426     103.58365506
H      68.42791352      84.46609549     102.30053090
H      65.32498292      85.26167028     101.39346227
C      61.50773576      90.01244223      96.99606914
O      59.67092179      89.59292299      98.37745907
N      61.46238233      91.86815346      95.25185175
H      63.13290039      92.42751245      94.51485849
C      59.25140255      93.47253111      94.56588110
H      57.51663379      92.36326176      94.50352013
C      58.99251004      95.61359101      96.61245470