 %block lattice_cart
   139.252   0.000   0.000
   0.000 142.425   0.000
   0.000   0.000   162.84
 %endblock lattice_cart

 %block positions_abs
N      93.05388197      41.19230780      79.46885758
H      92.87624768      40.00178022      77.98731215
H      92.23374074      40.53468304      81.06378659
H      94.90770347      41.57025306      79.72019119
C      91.81422150      43.53367870      78.70162871
H      92.40192638      44.94152480      80.08679808
C      92.79121000      44.25744388      76.10514475
H      92.36602158      42.94975327      74.57446644
H      94.84912196      44.20264181      76.17317490
C      92.16382086      46.92384770      75.10358980
H      90.18338769      46.92384770      74.53667191
H      93.32222309      47.27533680      73.43496147
S      92.58145038      49.20663709      77.62070526
C      91.54399064      51.87871010      75.85948033
H      92.33578596      51.70863473      73.96408484
H      92.19027703      53.52277199      76.92339625
H      89.48607868      51.82579776      75.82546525
C      88.92482997      43.46942800      78.79233557
O      87.73241266      41.75922569      77.50921140
N      87.92516475      45.13994606      80.41561047
H      88.84546146      46.41551133      81.49842365
C      85.21529721      45.26466800      80.74442285
H      84.20618337      44.24043634      79.26665687
C      84.65404850      43.71698215      83.26720748
H      85.41560820      41.80646885      83.28232528
H      82.61125435      43.49588417      83.14059581
C      85.17561296      45.07191592      85.75975648
O      86.16016038      47.12982787      85.80322019
N      84.10980732      44.07414042      87.74585884
H      84.64271014      44.70152956      89.46739951
H      83.36525515      42.32236413      87.60412937
C      83.94162169      47.89894648      80.94851329
O      85.31923217      49.86804130      80.70284887
N      81.45663158      48.07280130      81.20929552
H      80.63649037      46.35315036      81.27921540
C      79.97886560      50.44062837      81.09213249
H      80.71963831      51.27588740      79.36114319
C      77.22364463      49.73009128      80.82946053
H      76.95908295      48.60192467      79.12681713
C      76.49987946      48.03878623      83.13492663
H      77.52411113      46.25299486      83.23319240
H      74.45708532      47.78178345      83.06878622
H      76.85892746      48.85514800      84.99441733
C      75.39061012      52.04122656      80.41372075
H      75.37360257      52.99553835      82.23730663
H      73.48198654      51.32502029      80.11514399
C      76.30712737      53.66450146      78.20463068
H      78.17417697      54.46007624      78.57312732
H      74.89361209      55.16305443      78.19707177
H      76.41295205      52.59113692      76.45096467
C      80.54956295      52.47775334      83.11036019
O      80.22264029      54.79077834      82.71540739
N      81.72497271      51.58769224      85.24008174
H      81.76843643      49.69040703      85.43661329
C      82.83991124      53.16561372      87.16571285
H      81.53411035      54.64526942      87.75341775
C      83.30856336      51.53666963      89.58078309
H      84.00587237      52.52310677      91.24941143
H      84.65782796      50.10236736      88.97985012
C      80.96719246      50.31968589      90.65981681
C      79.56879499      51.50265456      92.62702191
H      80.07146219      53.43962403      93.03709251
C      77.43718372      50.20252286      93.72306316
H      76.26744312      50.84125035      95.26507983
C      76.73420552      47.86493141      92.70072122
H      75.27722653      46.76511069      93.61534877
C      77.80757008      46.80479495      90.55966131
H      77.10459188      45.03601112      89.82455778
C      79.88437928      48.19185406      89.43905362
H      80.92750822      47.40383819      87.87058078
C      85.28332736      54.43739952      86.30966684
O      85.68394935      56.70696083      86.83123131
N      87.04266257      53.08435548      84.99252759
H      86.75731389      51.20407780      84.82434196
C      89.45962251      54.05756454      83.96829594
H      90.39314731      55.14415717      85.44606192
C      91.16604537      51.66328130      83.42027531
H      90.37991924      50.57101949      81.86125110
H      91.07155907      50.53700441      85.14370571
C      93.98173758      52.37948757      82.76643001
H      93.72473480      53.37348361      80.98252837
H      95.12502200      50.69196197      82.48108133
C      95.48029055      54.16527893      84.53332411
O      97.20939012      55.43328529      83.72641096
O      94.86423978      54.29000087      86.70084019
C      88.98152176      55.77721548      81.72708053
O      90.38180895      57.71229522      81.54755653
N      87.05400092      55.20651813      80.21907893
H      85.99953363      53.61914803      80.36080841
C      86.29055148      56.79199851      78.11203409
H      87.91571611      56.77688070      76.84969691
C      84.02854910      55.50320516      76.75332088
H      82.22008101      55.82067919      77.68873539
H      84.39704572      53.47552883      76.79678458
C      83.43139557      55.99075455      73.91684168
H      84.91105128      55.46163119      72.58269490
H      83.08935512      58.02032061      73.86581906
S      80.30200880      54.90983110      72.89827920
C      80.96152328      54.49220159      69.59314787
H      82.46196597      53.11270138      69.28701222
H      81.63237612      56.25909569      68.77867584
H      79.20218809      53.87615081      68.71631487
C      85.53277123      59.44895371      78.82824036
O      86.46629603      61.28765741      77.60936690
N      84.31389776      59.79666335      80.93717494
H      84.08335116      58.31700764      82.11825388
C      83.41627777      62.30055071      81.69117573
H      82.98730989      63.28509812      79.93561999
C      80.90294178      62.10779863      83.20862596
H      80.31145743      63.77453724      84.26498297
H      81.37159390      60.74152650      84.67883303
C      78.57101950      61.28765741      81.63259421
H      79.05856888      59.67572086      80.44773582
C      76.36570889      60.58467922      83.48452601
H      75.54934712      62.31944798      84.24041653
H      77.21041655      59.53210166      85.04355021
H      74.80101550      59.53588112      82.64737725
C      77.65450223      63.46840157      79.90916381
H      77.77733444      65.23907513      80.95607220
H      75.83280607      62.86179943      79.16650137
H      78.92061886      63.57989543      78.28777863
C      85.41182876      63.85768519      83.20862596
O      85.30600408      66.21228418      83.14626499
N      87.32045232      62.67282680      84.31789531
H      87.16927422      60.81144638      84.70717893
C      89.52954238      63.85768519      85.42527492
H      88.76987241      65.40915050      86.54588263
C      90.99974946      61.72040473      86.84256966
H      92.99907991      62.21173358      86.89359226
H      90.97329329      59.97429762      85.75219757
C      90.29299183      61.11947177      89.57889336
H      88.37680934      60.36169152      89.53353992
H      90.11913699      62.88825560      90.62202228
C      91.96162015      59.42438726      91.17760182
H      91.25297278      59.65304415      93.09945348
H      93.81166221      60.32578672      91.24374225
N      91.96539961      56.77121152      90.39714486
H      93.36001762      56.37058954      89.15559466
C      90.37802951      54.96652289      91.08311550
N      88.79632858      55.23864348      92.93693701
H      87.52643249      53.90071725      93.43204531
H      88.82089502      56.91861017      93.84400564
N      90.57645077      52.68373351      90.13258316
H      89.43694580      51.29478467      90.77509011
H      92.05988593      52.16783822      89.04599054
C      91.09612551      65.11435319      83.33334790
O      92.16382086      67.07966856      83.84546373
N      91.17549401      64.06555509      81.04488934
H      90.25141784      62.41771374      80.77843793
C      92.13358524      65.32222309      78.74509241
H      93.88914099      66.17448965      79.40082743
C      92.75530520      63.27753922      76.59269414
H      90.97329329      62.31188907      76.22986669
C      93.67749165      64.60034764      74.23242597
H      94.51841985      63.32856183      72.84914631
H      95.03431513      66.09134170      74.66328358
H      92.06177564      65.49418818      73.31968817
C      94.93982882      61.58623417      77.63204361
H      94.84534250      61.62780814      79.68995557
H      96.74262772      62.47818499      77.18795793
C      95.01541787      58.78943922      76.52088454
H      94.95494663      59.02565501      74.47431094
H      93.26553132      57.81623017      77.00654420
H      96.51586056      57.56867602      77.22764217
C      90.43472130      67.41226039      77.60558744
O      91.42493788      69.42292919      76.85914555
N      88.03098943      66.81888633      77.41850453
H      87.53588113      64.99530043      77.68117650
C      86.42850151      68.36090300      75.81601663
H      87.40360028      69.06199146      74.14360883
C      84.13248404      66.81132742      75.10358980
H      82.42039200      67.95650157      75.09792063
H      83.59391204      65.28820801      76.38104479
C      84.39515599      65.84000810      72.36348664
O      83.12903936      63.92382562      71.69641325
O      85.98819527      66.73762810      70.81391108
C      85.64993426      70.86101091      77.10480997
O      85.31734244      72.75640640      75.90483375
N      85.58190412      70.82321638      79.64082267
H      85.97307747      69.19427230      80.56111940
C      84.61625397      73.00962973      81.12992702
H      84.31011831      74.62534573      79.89404601
C      82.06890291      72.15547343      82.05589291
H      82.43550982      70.63802321      83.40326776
H      81.25065141      71.08966779      80.49686870
C      80.18295604      74.19448813      83.01398414
H      81.12026029      75.34722118      84.43883779
H      78.55212223      73.21749962      83.80388975
C      79.34202783      76.06153772      81.11858865
O      80.75932257      77.84165991      80.57245776
O      77.11781996      75.97838977      80.30411661
C      86.36803027      73.69560038      83.19161843
O      86.70251183      75.89146236      83.94750894
N      87.84201679      71.90791929      84.26687270
H      87.50753523      70.07866422      83.85491235
C      89.45962251      72.30287209      86.48352166
H      90.39125758      74.12456825      86.25297504
H      90.53487678      70.56243415      86.72729636
C      87.72863322      72.37468169      88.83056174
O      85.45907191      72.21594468      88.74174461
N      88.94372723      73.21183044      90.95083467
H      90.81077682      73.50473802      90.68816270
C      87.82122981      73.46127432      93.55865698
H      85.77465620      73.44804623      93.32811037
C      88.66404773      71.08966779      94.79264826
H      90.69739325      71.09722670      95.12146064
H      87.77209691      69.54198194      93.77219605
C      87.67005169      71.05376299      97.66692198
H      88.88325599      72.46727828      98.54564471
C      84.91861018      72.02886177      98.14313302
H      84.78254990      73.86567575      97.21527740
H      84.55956219      72.43515293     100.12923536
H      83.53344080      70.68148691      97.43448564
C      88.14059355      68.64247222      99.04264274
H      86.47007548      67.44816519      98.86689818
H      88.49019291      69.13569079     101.01173755
H      89.86780339      67.77319811      98.33588509
C      88.68483473      76.07476581      94.63958043
O      90.58400968      76.29019461      95.91514568
N      87.19762011      77.92102842      93.98951458
H      85.63292673      77.55253178      92.95961374
C      87.56800648      80.48349730      95.08744556
H      89.58056500      80.92380353      95.16681406
C      86.21874189      82.43180512      93.33755899
H      86.04110762      84.21570676      94.35045231
H      84.48964231      81.77229064      92.42671092
C      88.08957093      83.00817165      91.19838882
H      89.16860467      81.34143304      90.65414764
H      89.58434445      84.20247868      91.96183824
C      86.75731389      84.08531565      88.75875213
H      88.32389700      84.46515064      87.47562797
H      85.63481645      85.79362824      88.99874739
N      85.32112190      82.06141877      87.57200402
H      85.35513696      80.36822399      88.44883703
C      84.08902034      82.09921329      85.46684891
N      83.76776686      84.10421291      84.09301788
H      82.49220160      83.94547590      82.68328204
H      84.67672521      85.71614946      84.56167000
N      83.14415718      79.99594791      84.52765493
H      82.39582556      79.84476980      82.77965809
H      83.67139081      78.40857780      85.44984136
C      86.30944875      80.53451991      97.78030555
O      84.10224841      81.19592412      98.09966931
N      87.91571611      80.12822875      99.73428257
H      89.72418419      79.94303557      99.15224686
C      87.29021670      80.31909111     102.34777406
H      85.62914727      79.14746079     102.68792480
C      89.66560268      79.17391696     103.79908387
H      89.54843965      79.30430808     105.85132665
H      91.18305291      80.45704113     103.24539406
C      89.94339245      76.35822475     103.11311321
H      89.84323695      76.08421444     101.07598825
C      92.41326474      75.06754168     104.12222707
H      92.36413185      75.19037389     106.17635956
H      94.05543690      76.12767814     103.46460230
H      92.31877842      73.08710851     103.56664753
C      87.95162091      74.74439848     104.45859834
H      88.01398188      72.75262695     103.92947498
H      86.07701241      75.57587806     104.26584627
H      88.21807232      74.83321562     106.49950277
C      86.81400568      82.98549493     103.29074748
O      85.84268635      83.14234222     105.43747658
N      87.19762011      85.04718634     101.86589385
H      87.81367090      84.97915619     100.06120522
C      86.28677203      87.73059771     102.44415009
H      85.35891641      87.67579564     104.28285381
C      88.70940117      89.35387261     102.50273162
H      89.69583830      89.10820819     100.71316080
H      89.79599380      88.59987181     104.08443254
C      88.05366614      92.04673261     102.84288236
H      86.56834125      92.18279290     104.26395654
H      87.44328454      92.61554023     100.95882522
C      90.43661101      93.55284448     103.54964000
H      91.84823658      93.09175126     102.12289662
H      91.12825086      93.08419235     105.43180740
C      89.76008900      96.30806544     103.48916875
H      88.51475935      96.53105315     105.11433338
H      88.68105527      96.42522847     101.73739246
N      91.95028179      97.93323007     103.42869751
H      91.60635161      99.80972830     103.52318383
H      92.98018263      97.68945538     101.83943767
H      92.94805729      97.55906426     105.01228816
C      84.34791284      88.61876907     100.39379704
O      84.84680058      88.08208680      98.18848644
N      82.35992076      90.05118162     101.19504101
H      82.29378033      90.68423993     102.99595018
C      80.31712661      90.82030023      99.49239759
H      79.19840863      89.14222326      99.07098862
C      78.51054826      92.66278338     100.72827860
H      79.51588265      94.38999323     101.22527663
C      76.41484177      93.34875403      98.99539958
H      75.08447445      94.52227408     100.04608741
H      75.22620392      91.97681273      98.02596997
H      77.08569461      94.41078022      97.36456576
C      77.21608573      91.48926334     103.14334883
H      78.49920991      90.15322684     104.03907910
H      75.78367318      90.07952751     102.68414535
C      75.96319718      93.53583694     104.86866896
H      74.29645858      94.24259458     103.88790101
H      77.39372000      94.95880085     105.28062929
H      75.43407382      92.65522448     106.65446033
C      81.43206514      91.87098806      96.86378830
O      83.09124484      93.48859378      96.70883074
N      80.02043958      91.24170920      94.84745032
H      78.68629280      89.91134187      95.13468873
C      80.57223966      91.94090793      92.28498144
H      81.80623094      93.58874928      92.25852527
C      82.10291797      89.83575282      90.94516549
H      83.62981684      89.21025341      92.17915677
H      82.87959550      90.80140297      89.30110360
C      80.81979381      87.26950449      90.17793660
C      79.66517104      86.90856676      87.86869105
H      79.79178269      88.50160604      86.60068469
C      78.65227773      84.54073969      87.15248478
H      77.71119402      84.27050883      85.36291395
C      78.58613732      82.53007089      88.85701791
O      77.27844670      80.34176782      88.30332809
H      76.51877672      80.30775275      86.65359702
C      79.48942648      82.97604630      91.27019841
H      79.45352168      81.40757346      92.57410957
C      80.67806434      85.32686584      91.96372797
H      81.55300762      85.50072066      93.79865222
C      78.33858317      92.68734983      90.78453875
O      76.14083146      92.30373538      91.58767244
N      78.65416745      94.02527605      88.58489732
H      80.37381840      94.02149660      87.75908693
C      76.66239592      95.08919197      87.08823408
H      74.83503057      94.86809399      88.01419997
C      76.90806034      97.84441293      86.65548675
H      78.53511470      98.26393218      85.46495918
H      77.23498299      98.77226855      88.46395483
C      74.32480447      98.73447403      85.75597703
H      72.77522889      97.93700952      86.85390802
H      73.85426263      98.04283420      83.87569935
C      73.95252840     101.61630665      85.89581678
H      74.17173664     102.34385128      87.81010953
H      71.97398494     101.82039710      85.36102423
C      75.63627453     103.08462400      84.13459185
H      75.13927651     102.42133006      82.25053472
H      77.56568511     102.93533562      84.84323921
N      74.71975727     105.85685250      83.87569935
H      74.99376759     106.86029717      85.47440780
H      72.89806110     106.20834159      83.43161367
H      75.89894650     106.53526425      82.53588339
C      76.53200480      93.53016776      84.68639194
O      78.13449273      93.74559656      83.11413964
N      74.69708055      91.80862709      84.52954465
H      73.21364540      92.04484288      85.70684415
C      74.35315036      89.81874528      82.74564301
H      76.16539790      88.89466912      82.42249981
C      72.59570489      87.72303880      83.80766920
H      70.71542721      88.53373139      83.59601986
H      72.91884810      87.54729425      85.83534554
C      72.66184531      85.18135691      82.40549228
O      70.79290599      83.75083409      82.40360254
O      74.67629356      84.61254929      81.31512020
C      73.66717972      90.83730776      80.06979055
O      73.06246729      93.11442797      79.73152955
N      74.12449349      89.11198764      78.29344782
H      74.65928603      87.43391068      79.03044109
C      74.12449349      89.63355210      75.50232206
H      75.79501154      90.47448031      74.64249659
C      73.82591672      86.93502293      74.07557868
H      72.01366919      86.02984402      74.45163423
C      74.49865929      87.21659215      71.25799676
H      73.48576599      88.73215265      70.30179525
H      73.94119003      85.49883093      70.26400071
H      76.55468152      87.27328394      71.12949536
O      75.67973824      85.45914668      75.10736925
H      74.91817853      84.33664925      76.31112492
C      71.80957876      91.05651602      74.74643153
O      72.04012536      92.75726970      73.36504160
N      69.62694486      90.64455568      75.91995157
H      69.40017771      88.98915543      76.84024829
C      67.32147876      91.81996545      74.95808088
H      67.55958427      92.16956482      72.94174290
C      65.16152159      90.01149737      75.14894324
H      63.36061240      90.93746326      74.76343907
H      64.94420306      89.23293013      77.04244900
C      65.61694562      87.91390116      73.17795869
H      64.26012214      86.43046600      73.62960328
H      67.45564932      87.04084760      73.48409435
C      65.20687501      88.54506975      70.58336447
O      66.24244504      87.13533392      68.99410463
O      63.97477346      90.47448031      69.93140888
C      66.64306701      94.28794801      76.21474887
O      64.90073935      95.65233041      75.60436728
N      68.34948988      94.99848511      77.94006900
H      70.02756684      94.09141648      77.87392858
C      68.46854263      97.31717929      79.25342878
H      67.16085202      98.59463428      78.30289645
H      70.23543673      98.33007260      78.95107257
C      67.86760967      97.07340460      82.05589291
O      66.55802933      98.71746649      82.99130743
N      68.49310907      94.93990359      83.28043555
H      69.42663387      93.59630818      82.30155733
C      67.00778419      93.95724591      85.45740027
H      65.83615388      95.46902696      86.21707025
C      65.18230858      91.91256204      84.65615632
H      64.31681393      91.37021059      86.44761686
H      66.37283616      90.38566318      83.95506785
C      63.01290277      92.14121892      82.74186355
C      62.16630538      90.05307135      81.42283459
H      62.80503287      88.23137518      82.08423880
C      60.23311535      90.39322208      79.53121855
H      59.48289401      88.78695472      78.51832524
C      59.24478849      92.88010191      79.18728837
O      57.09050050      93.12009715      77.74353747
H      56.31004354      94.75660014      77.80778815
C      60.27468934      94.91722687      80.26254264
H      59.46966593      96.77860729      80.03766520
C      62.07559851      94.58274532      82.10124633
H      62.90896781      96.17578460      83.06689649
C      68.58759539      92.91411698      87.71373349
O      70.33370250      91.47792499      87.34334714
N      68.13028162      93.97992262      89.96439752
H      66.75834031      95.30462077      90.01542013
C      69.78379214      93.70780203      92.07900127
H      71.72076162      93.84575206      91.39492035
C      69.22632289      95.64855096      94.12557487
H      69.73843872      94.97013921      96.00396283
H      67.19297737      95.86397976      94.37123929
C      70.29590797      98.26582190      93.82321866
C      68.90128995     100.18200438      92.72528768
H      67.02479173      99.67933718      92.09789853
C      69.98788258     102.57061844      92.47206435
H      69.03357080     104.21468033      91.73129164
C      72.48799049     103.03171166      93.24307269
O      73.57080367     105.36174421      93.00685689
H      72.39539390     106.55416151      92.31143760
C      73.77489411     101.18166960      94.61879344
H      75.71375331     101.61630665      95.07988665
C      72.69586039      98.80628363      94.81721470
H      73.86560099      97.29072312      95.52208262
C      69.59481951      90.92990435      93.19205007
O      67.47265686      90.09842478      93.60401040
N      71.72454106      89.75449459      93.69849672
H      73.22687348      90.79195433      93.15614528
C      71.95886713      86.99927362      93.85156455
H      70.22787782      86.38700230      94.78319962
C      72.11004524      86.13377897      91.02453399
H      73.70875369      86.99360444      90.04943522
C      72.16862675      83.28596142      90.51808734
H      72.36515828      82.96470794      88.49041100
H      70.39984293      82.33920854      90.98296002
H      73.62749546      82.45448184      91.71239437
O      69.98410313      86.83108798      89.76597627
H      70.20520111      88.58664373      89.36913374
C      74.32102502      86.05252074      95.32555108
O      76.08980886      87.49060246      95.54853879
N      74.32102502      83.84343068      96.56143209
H      72.71853710      82.83998601      96.29876013
C      76.08602939      82.80219148      98.30942893
H      77.89638720      83.74705464      98.04675697
C      74.85392785      83.09887851     101.02496564
H      74.47976203      85.06608361     101.51629447
C      72.51633639      81.49828033     101.57487599
H      70.99321699      81.79307763     100.22183195
H      71.82658628      81.94047628     103.46460230
H      72.88672275      79.50839852     101.95471099
C      76.90806034      82.56408597     103.13578992
H      77.55623647      80.61766786     102.96004539
H      76.03122733      83.20848264     104.88378676
C      79.47241895      83.86799712     102.83721318
H      80.52121705      83.96437316     104.60788673
H      78.91305997      85.74260563     102.19281650
H      80.70829996      83.04029700     101.40858008
C      76.51688699      80.00350681      97.57432540
O      74.87471483      78.60699907      96.70316156
N      78.78455857      79.00006214      98.04864670
H      80.08091083      80.34743700      98.43226114
C      79.34769701      76.25995899      97.91636585
H      77.81701870      75.35100063      98.95193588
H      81.02577399      75.71949726      98.98217150
C      79.75020871      75.46816366      95.16303462
O      81.25065141      76.71538303      93.74762961
N      78.78077912      73.33655238      94.22384064
H      78.25732493      72.10634055      95.58444359
C      78.59369621      72.56176459      91.44972241
H      79.98831424      73.83732985      90.63147092
C      79.38738127      69.83488952      90.99618810
H      77.82835705      68.63869277      91.61034915
C      79.75020871      69.44371618      88.27309247
H      81.39616033      70.50763209      87.63436499
H      78.06835230      69.88213268      87.17138204
H      80.15838960      67.44438574      88.00475135
C      81.75142888      68.88246746      92.61190409
H      80.93884657      68.52719891      94.47139479
H      83.21218733      70.30543137      92.90292195
C      83.07612703      66.44661024      91.70672518
H      84.58601835      66.65448014      90.32155581
H      81.63804530      65.14836827      91.00185728
H      83.82634837      65.49796763      93.37346380
C      75.86871087      73.12679276      90.69761134
O      74.15283938      71.58477609      91.07744632
N      75.32824915      75.35289036      89.58267281
H      76.76444114      76.53774875      89.17260221
C      72.93207618      75.85933701      88.41860141
H      72.28390006      74.17559086      87.42649508
H      73.20797622      77.39568450      87.07311626
C      70.75511147      76.50940286      90.17226743
O      68.78601665      76.90435566      89.07622617
N      70.89873067      77.03852623      92.57221983
H      72.63160969      76.86467141      93.35267681
C      68.68586115      77.47883246      94.22573037
H      66.96621022      76.56798438      93.55865698
C      69.09404204      76.18625966      96.80898624
H      69.98788258      77.36922833      98.23950905
H      70.39984293      74.61967655      96.54253483
C      66.67519237      75.50595819      98.16958917
N      65.94008883      73.01151945      98.29431111
H      66.55047043      71.68493158      97.06031984
C      63.78202137      72.97561465      99.63790653
H      62.70676710      71.28808906     100.04041822
N      63.29825143      75.27352185     100.51096009
H      61.56159295      75.60044450     101.22716636
C      65.14451404      76.95348854      99.67003188
H      65.27112571      78.97360597      99.92325519
C      67.84115350      80.20003835      94.41659273
O      69.12427766      81.78173927      95.54664906
N      65.59237918      80.72160281      93.46228093
H      64.53035300      79.33265397      92.69505204
C      64.70042837      83.27651279      93.07488704
H      66.10071557      84.41979721      92.08656018
C      62.32315266      83.18391620      91.28153676
H      60.90207847      81.91968929      92.07144236
H      62.93920343      82.47715856      89.44472280
C      60.64696543      85.45725695      90.97540111
H      60.10272425      86.22448583      92.80843563
C      62.24945333      87.63422166      89.64881324
H      60.91908602      88.86254377      88.66804527
H      63.55714395      86.74038112      88.33356371
H      63.27557472      88.63766634      91.12657922
C      58.32638151      84.91679523      89.35779539
H      57.07349296      83.57319982      90.29320990
H      58.86684324      84.30074445      87.46617935
H      57.23222997      86.62699754      89.02142410
C      64.01067826      84.33098007      95.67704018
O      62.86739384      82.88911889      97.14157807
N      64.52090437      86.64589480      96.21561218
H      65.48277506      87.66445729      94.91925993
C      63.75556520      87.96681350      98.44548923
H      63.07715346      86.69691741      99.91947574
C      66.04780322      89.22726095      99.65680379
H      65.41474491      90.56896663     101.08543687
H      67.12872667      90.08330697      98.12990493
C      67.74288773      87.38288806     101.06464990
H      68.02067750      85.70103165      99.90813739
C      70.22220864      88.82663897     101.47849996
H      71.38061088      87.33753463     102.30431035
H      70.15039905      90.52361320     102.64635082
H      71.08392385      89.21025341      99.64735515
C      66.62416975      86.69691741     103.64223659
H      68.05091312      85.44402887     104.43781136
H      64.86105509      85.64433986     103.48727903
H      66.25756284      88.31263341     104.86677923
C      61.76190395      89.82819391      97.81621035
O      59.66430773      89.71670006      98.81776530
N      62.16819510      91.42312292      95.89435870
H      63.89918440      91.38532840      95.09500447
C      60.37862429      93.21269374      94.88524485
H      58.51535415      92.34152991      94.94571609
C      60.09516534      95.47091668      96.72583828