 %block lattice_cart
   139.252   0.000   0.000
   0.000 142.425   0.000
   0.000   0.000   162.84
 %endblock lattice_cart

 %block positions_abs
N      90.66054360      42.67668781      80.73686395
H      92.55782881      42.82786592      80.61592146
H      90.31850313      41.02884647      79.83735422
H      90.23157571      42.34031653      82.56611901
C      89.31883791      44.84798335      79.75042680
H      89.59662768      46.38811028      81.08835304
C      90.29771615      45.69647045      77.10858942
H      89.63064275      44.28862435      75.75932484
H      92.33295137      45.37332726      77.11236887
C      89.67977563      48.53861884      76.39616259
H      87.65587876      48.82207777      76.13915983
H      90.51503467      48.83719559      74.53667190
S      91.03659913      51.03683702      78.38037522
C      91.29549163      53.31962641      75.76310428
H      89.57962015      53.19301474      74.62926849
H      92.81294186      52.55239753      74.60092260
H      91.96445475      55.14888147      76.43206739
C      86.40676966      44.59098056      79.73152955
O      85.25403661      43.86343593      77.77566280
N      85.10852769      45.42057042      81.72708052
H      85.87008739      46.23504245      83.27854583
C      82.24937177      45.76828006      81.98786276
H      81.26293463      44.60798811      80.60269338
C      81.59363674      44.87821897      84.66182549
H      82.30039439      42.94502895      84.76765016
H      79.59430631      44.60987782      85.07567556
C      82.88431981      46.06685681      86.79343678
O      83.81595488      48.20413728      86.69139155
N      83.30005961      44.89333677      89.05165971
H      84.30350427      45.95536297      90.27998182
H      82.59897115      43.13589131      89.31244194
C      81.76749157      48.68223803      81.57023324
O      83.48903223      50.22425471      81.28677429
N      79.30895763      49.21325112      81.23008250
H      78.02016428      47.80918447      81.33212772
C      78.43212463      51.79083782      80.90693931
H      78.91778429      52.54861806      79.05500753
C      75.43879814      51.81351453      81.08646330
H      74.62621583      50.62298696      79.61625624
C      74.58275212      50.53228010      83.59979931
H      75.14400083      51.74548438      85.16638241
H      75.25171524      48.60286953      83.84735345
H      72.52861961      50.59086161      83.45995956
C      74.01583422      54.31929163      80.83135025
H      74.47881717      55.62131306      82.35824912
H      72.05807777      53.82796278      81.24142087
C      74.59409048      55.66288703      78.33124234
H      76.42523528      56.60019129      78.31801426
H      73.20514163      57.07073313      77.74353747
H      74.70369461      54.23614367      76.85158664
C      79.39777477      53.51804766      82.92327729
O      79.44879737      55.80083706      82.44706626
N      80.28783587      52.82262839      85.20795639
H      80.42389615      50.94613016      85.52165096
C      81.11931544      54.60653002      87.14114642
H      79.83619128      56.21279739      87.24886082
C      81.31017779      53.25726544      89.73952009
H      82.35141699      54.21724640      91.23429361
H      82.27771767      51.46013572      89.44661251
C      78.59842054      52.43523450      90.69194215
C      77.02994770      54.21724640      91.70294573
H      77.73103615      56.08618573      92.12246497
C      74.66023090      53.57662919      92.37757802
H      73.30529713      54.84274582      93.22606515
C      73.75127255      51.12376443      91.81632931
H      71.88800240      50.53039037      92.40025475
C      75.29706867      49.26616347      90.74674422
H      74.38244113      47.55974061      90.10234754
C      77.80851494      49.96158275      90.19116468
H      78.95746854      48.69735585      89.07622616
C      83.80650625      55.47391441      86.32478464
O      84.16555425      57.81150586      86.26053395
N      85.72646818      53.79583743      85.96951610
H      85.43922979      52.03839197      86.65548675
C      88.29082679      54.60464029      85.18905914
H      88.87475223      56.06161929      86.52320592
C      90.10496406      52.37476324      85.46306945
H      92.03437462      53.08719007      85.36480368
H      89.81772566      51.13132334      83.84357399
C      90.07094899      50.87810001      87.99719243
H      91.47501564      49.37387786      88.08789929
H      88.33240077      49.80284574      88.24285685
C      90.46779151      52.62231739      90.30832771
O      92.31027467      54.05661966      90.27998182
O      89.02404061      52.40688859      92.26419444
C      88.34373913      55.84996994      82.56611901
O      90.14275858      57.31450784      82.15982786
N      86.42377719      55.61942332      80.92016739
H      85.23324962      54.20023887      81.38315034
C      85.92866890      57.26159549      78.73942322
H      87.67477601      57.15388110      77.64716141
C      83.61942336      56.07673709      77.11425859
H      82.04528133      55.95201515      78.43517729
H      84.07862685      54.16055461      76.51899481
C      82.95423969      57.72646816      74.75210071
H      84.30350427      57.45434757      73.21953267
H      82.86920201      59.72768833      75.23398091
S      79.86264744      56.59074265      73.62015464
C      80.42956534      57.43922977      70.39439182
H      82.04528133      56.53216113      69.49488210
H      80.83018731      59.45934720      70.33014113
H      78.69668630      56.88176051      69.42874169
C      85.25592633      59.93555823      79.24398016
O      86.19323059      61.68166534      77.97030462
N      83.46446579      60.43255625      81.04110987
H      82.82006913      58.94912109      82.05400318
C      82.59519169      62.95912033      81.67416819
H      82.49125674      63.99280063      79.89782546
C      79.84752962      62.62085932      82.73997384
H      79.40533368      64.25925204      83.90782469
H      79.77949949      60.89742892      83.86814044
C      77.78016905      62.25047296      80.70851805
H      78.27905680      60.80294260      79.33279728
C      75.40856253      61.44167010      82.00864974
H      74.92101314      63.03092992      83.22374376
H      75.83375094      59.82406438      83.21429513
H      73.87977394      61.09773990      80.67450297
C      77.40600323      64.89042061      79.44807059
H      79.03683704      65.41765426      78.30667590
H      76.99215317      66.52692361      80.62725982
H      75.85264821      64.86207472      78.09313682
C      84.35074743      64.31783354      83.42405475
O      84.57373513      66.62140993      83.23697186
N      85.63009214      62.98746623      85.08701391
H      85.11230714      61.20356458      85.52165096
C      87.79382878      63.95878554      86.57422852
H      87.06628414      65.23813026      88.01797942
C      88.91443648      61.70056261      87.76286637
H      89.91599142      60.86908302      86.16604763
H      87.55383353      60.33806994      88.49608019
C      90.86463403      62.50936547      89.93983109
H      89.73079824      63.57139165      91.29287512
H      92.23846506      63.71879030      88.99874739
C      92.09484586      60.23602471      91.37413335
H      92.90364873      61.13931389      93.03709252
H      93.42521318      59.23069032      90.16470852
N      90.15220722      58.36330593      92.23395883
H      90.59818262      56.66633171      91.47995803
C      88.51381450      58.59007310      94.03297828
N      87.92988908      60.69900766      95.08177639
H      86.70723614      60.66499259      96.54631427
H      88.96734882      62.26559078      94.74162564
N      87.18911636      56.59830156      94.50540986
H      85.86441822      56.64176527      95.87735116
H      87.73524726      54.88809925      93.85534401
C      89.82906402      65.40631590      85.02465294
O      90.68322030      67.46233814      85.73330032
N      90.31094422      64.62018975      82.63036970
H      89.82717429      62.80038332      82.31667513
C      91.53359714      65.93921873      80.56867830
H      93.28726316      66.82927982      81.16772153
C      92.53326236      63.84729169      78.60525265
H      90.92132582      62.74936071      77.94006899
C      93.66142898      65.19844601      76.37537561
H      94.76880859      66.71400652      77.21819354
H      92.28948768      65.89764475      75.00910348
H      94.96722987      64.00413898      75.31712888
C      94.41542978      62.14842773      79.88270765
H      95.35273402      61.06183511      78.40683140
H      93.43088237      60.98624605      81.26976676
C      96.47901092      63.25202791      81.43039350
H      97.67142821      61.75725440      82.19573266
H      95.75335601      64.52192399      82.88170331
H      97.57883162      64.46901166      80.18506386
C      89.87063800      68.05193275      79.41972470
O      90.65298469      70.18921321      79.71641174
N      87.65398902      67.55871418      78.22163821
H      87.19667527      65.73890773      77.87959775
C      86.30472445      69.45221994      76.85158664
H      87.62375341      70.56715847      75.72908921
C      84.25626112      68.35617868      75.13949461
H      83.31328769      69.99835085      74.31557392
H      82.92967325      67.31304976      76.31868382
C      85.07451262      66.68944006      72.96819906
O      87.24958760      67.13163603      72.09514551
O      83.68745349      64.95467131      72.35403801
C      85.25781606      71.59139013      78.53155334
O      84.69467762      73.58127194      77.48842440
N      85.01782083      71.33249763      81.01654343
H      85.07262288      69.56560352      81.73085998
C      84.04083231      73.40741712      82.70595876
H      83.11297669      74.87195501      81.58724079
C      81.95079502      72.38129573      84.47852205
H      81.63710044      73.89118705      85.84668389
H      82.71235473      70.65030643      85.29110435
C      79.62832137      71.65564081      82.91193892
H      78.42078627      70.74668247      84.31033640
H      79.94201595      70.18732347      81.50598254
C      78.32063077      73.78158293      81.68361683
O      77.23025868      73.26001846      79.62570486
O      78.31496159      75.98878326      82.48864023
C      86.08740592      74.60361386      84.19128364
O      86.11953127      76.89963134      84.38592546
N      87.95067606      73.16553215      84.95851253
H      88.05272128      71.32304898      84.46907340
C      89.89331470      73.99323227      86.82934158
H      90.85896486      75.76390583      86.41927097
H      91.44666974      72.64396769      86.70084019
C      88.78215564      74.12173365      89.51464266
O      86.49558680      74.19921244      89.88880847
N      90.34684903      74.01212953      91.38358199
H      92.21956780      74.17653573      91.05665934
C      89.50403109      74.49589947      93.92526387
H      87.46690613      74.33905218      94.18226666
C      90.59629290      72.46444369      95.62412783
H      92.61263088      72.33783202      95.22728531
H      89.62308384      70.74479274      95.04020241
C      90.08984624      72.85750676      98.46438649
H      90.85140595      74.72833581      98.87067763
C      87.42533214      72.50223821      99.30153523
H      87.23258007      73.17876023     101.23661498
H      87.04549715      70.48023106      99.18059275
H      86.18000251      73.59072056      98.07699258
C      91.56572249      70.92809619     100.17458880
H      90.86085458      68.99679590     100.01774152
H      91.10084983      71.54225725     102.08510209
H      93.54615567      70.96967017      99.61145035
C      90.34873875      77.23978208      94.55076328
O      92.41420962      78.08448974      94.15581048
N      88.61774944      78.69109189      95.77908540
H      86.87353207      77.93898082      95.98506556
C      89.06183513      81.25545049      96.84111157
H      91.05171694      81.49544574      97.32488151
C      88.53082203      83.21131723      94.76430236
H      87.84107194      84.99143942      95.52964152
H      86.91510604      82.47999315      93.71739399
C      90.75502990      83.82736801      92.97095210
H      91.32383752      82.02645883      92.15081087
H      92.39720207      84.58892771      93.95172005
C      89.64954001      85.63205663      90.98862919
H      89.06561458      87.49910623      91.63491558
H      88.01492676      84.53790509      90.37446814
N      91.22935122      85.68874842      88.70395007
H      92.24413424      87.22131646      88.19183424
C      91.12163681      83.83870635      87.03343201
N      89.86685854      81.66930056      87.16382314
H      90.02559555      80.26712363      85.87502979
H      88.61019054      81.40851833      88.57922813
N      92.18933219      84.27712287      84.84890839
H      91.76036430      83.04502131      83.45429037
H      93.16254123      85.91362586      84.70717892
C      87.51981846      81.76945604      99.25429209
O      85.30694894      81.18364089      99.48105924
N      88.88420085      82.60093563     101.17047457
H      90.68699976      83.13383845     100.84355192
C      88.06594936      82.19464447     103.74050235
H      86.68266970      80.67152506     103.85010647
C      90.26370106      81.28379639     105.56597797
H      89.60418659      81.39151079     107.51428580
H      91.80193829      82.65195824     105.46960193
C      91.13486489      78.46999391     105.21448888
H      92.38397399      78.00323151     106.78674116
C      88.90876730      76.53491416     105.08220804
H      87.88264592      76.38751551     106.86233021
H      89.65898864      74.63007004     104.87433813
H      87.50092119      76.79191694     103.60066260
C      92.55026990      78.07315138     102.81831590
H      93.32316797      76.16641752     102.89390496
H      94.12441193      79.39973926     102.89768441
H      91.37863960      78.36983841     101.14779784
C      86.73936149      84.54546400     104.89701486
O      85.28049277      84.17696737     106.59776854
N      87.23258007      86.78101023     103.88979073
H      88.57239602      86.68274446     102.53674668
C      85.79827779      89.21119827     104.06364554
H      84.64743447      88.93340850     105.74928141
C      87.56706162      91.44674450     104.67780659
H      89.21679269      91.41083970     103.44192559
H      88.14531787      91.18029309     106.63745278
C      86.41054912      94.14716340     104.48505452
H      85.25781606      94.26621616     106.18958765
H      85.38442772      94.62526416     102.76351385
C      88.52515285      96.13704521     104.90835322
H      89.83851265      96.07468424     103.32098311
H      89.54560506      95.74776159     106.65257059
C      87.58028971      98.85258192     104.79874908
H      86.20456895      99.04911346     106.31997877
H      86.61652928      99.19273266     103.01106799
N      89.73268798     100.65349110     105.04819295
H      90.45645315     100.41160613     106.79807952
H      89.12986527     102.43739274     105.34299026
H      91.00258405     100.66482946     103.62333932
C      84.02382478      89.34536884     101.75628972
O      84.69467762      88.81435575      99.68137022
N      82.00559707      90.70030261     102.23628020
H      81.68245387      91.34658900     104.00317430
C      80.07240706      91.38627326     100.32576690
H      79.37698778      89.59481271      99.58499418
C      78.05606908      92.95096665     101.57109654
H      78.95746854      94.39093810     102.73705767
C      76.28161607      94.10369970      99.53775103
H      75.78461806      92.89805431      97.94471175
H      77.19435388      95.77043830      98.73839679
H      74.66023090      95.04667312     100.39190733
C      76.25893937      91.19352117     103.06020087
H      77.40600323      89.95575043     104.23939010
H      75.25927415      89.94441208     101.76006917
C      74.22748358      92.63727207     104.74961619
H      73.66056568      91.63004795     106.45414934
H      72.50027372      92.89427486     103.65546467
H      75.04006588      94.40038673     105.43747658
C      81.41411275      92.70908168      98.03541860
O      82.57251497      94.73864774      98.48517348
N      81.04183665      91.83602812      95.70727579
H      79.83997073      90.36960050      95.48050864
C      82.20590806      92.79411936      93.33188982
H      83.20557328      94.55345456      93.72117343
C      84.20901796      90.83825263      92.44371845
H      85.52804693      90.45274846      93.97817621
H      85.16332974      91.62059932      90.79587710
C      83.22258082      88.21153305      91.73507108
C      83.32840549      87.52934185      89.16882274
H      84.05217067      88.86159890      87.80255063
C      82.28716629      85.13505862      88.55844114
H      82.12087038      84.79490788      86.55344153
C      81.66544634      83.30958299      90.34045306
O      80.90010718      80.98710936      89.69605639
H      80.94357089      80.73388603      87.90270612
C      82.19267999      83.88405979      92.86890686
H      81.89032377      82.31558696      94.13502349
C      82.78227459      86.40117524      93.59078232
H      82.88243009      86.77345133      95.59578193
C      80.21791598      93.33458109      91.30232376
O      77.97292112      93.61992976      92.02041976
N      80.90199692      93.44796467      88.83812065
H      82.68589855      92.93206938      88.39592469
C      79.00093225      94.10369970      86.82367239
H      77.13955183      93.86937363      87.67404923
C      79.33730353      96.89104601      86.05455378
H      78.06740744      97.23875564      84.46718369
H      81.29128053      97.33702142      85.58212220
C      78.82140824      98.73163944      88.15403972
H      80.32752011      98.60313805      89.55243720
H      77.11876484      98.21385443      89.19338920
C      78.23370335     101.42071998      87.05988819
H      77.20758198     102.47140780      88.50363909
H      76.88632849     101.32434394      85.50653315
C      80.72625236     102.93817021      86.37580726
H      81.86575734     101.91771800      85.00197622
H      81.86764705     103.00620036      88.09167876
N      79.97792075     105.52709526      85.55566604
H      81.30828806     106.75730709      84.95851253
H      78.76282672     106.29621386      86.81044432
H      78.77794453     105.21340069      84.10435624
C      79.05006513      92.33113642      84.48608094
O      81.06262365      91.56579726      83.69617535
N      76.87310042      91.83602812      83.50342327
H      75.35376045      92.62026454      84.35191037
C      76.48192707      90.18251760      81.41527569
H      77.78961767      88.62160366      81.71574218
C      73.63788897      89.53245175      81.58724079
H      72.44925112      91.21619788      81.63448393
H      73.15978821      88.46286665      83.28043555
C      72.91790324      87.89972821      79.31012057
O      71.51761605      88.86726807      77.69251485
O      73.60954308      85.66418198      79.16083220
C      77.33986282      91.53367191      78.86036572
O      77.54017380      93.86370445      78.93784450
N      77.40789295      90.14283334      76.79300513
H      77.20947169      88.25499676      76.98575720
C      77.40600323      91.34847873      74.28722803
H      79.17667679      92.39349738      74.13038076
C      77.61954231      89.20363937      72.32947157
H      79.14266172      88.00933234      73.04000866
C      75.25360496      87.66729187      71.89861397
H      74.73204050      86.56369171      73.55590395
H      75.41423170      86.09881903      70.57580555
H      73.65489651      88.73498724      71.15973099
O      78.57763354      90.36771078      70.15817605
H      80.34074820      90.66250808      70.46242198
C      75.43501868      93.41961877      73.72597931
O      75.93768589      95.23375603      72.38238391
N      73.24104643      93.10592420      74.85603565
H      72.90089571      91.46186231      75.76310428
C      71.09053790      94.86714913      74.63493768
H      71.03951528      95.91972668      72.86615384
C      68.55074573      93.46686193      74.38171435
H      66.91991193      94.71786075      74.37982462
H      68.13311622      92.34247477      76.05790158
C      68.73593890      91.76988770      72.02333591
H      70.11354940      90.30157035      72.45041406
H      69.43891709      92.89238513      70.44730416
C      66.18858783      90.65683890      71.32791663
O      65.92402616      88.28145293      71.50177145
O      64.63334309      92.28011380      70.57580555
C      71.14345023      97.04033439      76.57190715
O      69.52395479      98.66360929      76.30734546
N      72.96514640      96.98742205      78.25565330
H      74.29740344      95.61926020      78.17817451
C      73.41868071      98.60502777      80.43072828
H      73.15411902     100.57223287      79.88270765
H      75.35187074      98.17417017      81.00331536
C      71.66123525      98.18550853      82.64926697
O      71.52328522      99.76909918      84.31978502
N      70.19480762      96.12570685      82.67572313
H      70.28551448      94.65361005      81.46251885
C      68.65846013      95.54934033      84.93394609
H      67.69658943      97.13482070      85.82967636
C      66.54385638      93.62748867      84.66938440
H      65.34954935      93.64827566      86.34557163
H      67.24305512      91.69807809      84.48986039
C      64.71838077      94.09047161      82.35446967
C      64.38956838      92.25365764      80.42505909
H      65.68403091      90.67384644      80.42505909
C      62.59054894      92.42373300      78.43139783
H      62.18614751      90.76833275      77.30512096
C      61.19215147      94.65927923      78.27455055
O      59.35155803      94.62526416      76.52277427
H      58.64857986      96.25609797      76.16372627
C      61.61167071      96.63593296      79.96207616
H      60.50807054      98.34613527      79.84113367
C      63.29352712      96.33924592      82.02565728
H      63.65824430      97.96819001      83.19728760
C      70.55385563      94.62148471      87.01453475
O      72.54184771      93.46308248      86.45706548
N      69.83386989      94.83502378      89.35401592
H      68.09532169      95.53800197      89.71117420
C      71.60832290      93.87882227      91.32311075
H      73.55852046      94.46841688      91.03020316
C      71.09998652      95.31123480      93.84589537
H      72.22437368      94.45140934      95.34255862
H      69.09498690      95.00887859      94.21439201
C      71.69525032      98.10614003      93.85912346
C      69.76017057      99.91460810      93.54542889
H      67.81942165      99.28721897      93.57377479
C      70.41401587     102.49219480      93.22417541
H      69.01939785     103.79421622      92.49474105
C      72.90467516     103.37091754      93.36590489
O      73.67001432     105.77653912      92.99362880
H      72.38122097     106.81210915      92.24529718
C      74.80762956     101.57378781      93.84211593
H      76.73704011     102.17850023      94.10478787
C      74.19724795      98.93195043      93.99896320
H      75.75249271      97.68095161      94.42793108
C      71.61777154      91.05368143      91.75963752
O      69.68269179      89.74599081      91.59334161
N      73.76261091      90.03133949      92.35868077
H      75.24604605      91.22942597      92.43615955
C      74.30118290      87.30257470      92.44371845
H      72.60987786      86.14228274      92.62135273
C      75.79595642      86.46164649      90.08156056
H      76.77294492      84.70420102      90.52753596
C      74.27850618      85.87016215      87.77231500
H      75.64855776      85.77378610      86.23974696
H      72.96892586      87.40650964      87.37736220
H      73.19191355      84.12594476      87.90459584
O      77.74426425      88.24365840      89.39747963
H      79.38454669      87.51611377      89.66771049
C      75.88288382      86.55046361      94.81721469
O      77.17734634      88.15106180      95.80554156
N      76.01138521      84.20909272      95.63357647
H      74.89455696      82.89951239      94.81154552
C      77.46269502      83.19619942      97.84455625
H      79.28817065      84.14484203      97.96171928
C      75.92823725      83.43241520     100.25017784
H      75.16478782      85.34103878     100.35789224
C      73.61332253      81.73166153     100.19159633
H      72.31319081      82.23810818      98.67414611
H      72.73459979      81.82236839     102.05297676
H      74.12732808      79.73800027     100.21805251
C      77.58363750      83.05258022     102.72949877
H      78.35086638      81.14017718     102.72382960
H      76.37799212      83.42485629     104.35655313
C      79.80406593      84.80624624     103.04697279
H      79.18990487      86.77156160     103.09232622
H      81.31584697      84.30357903     101.74117190
H      80.79617224      84.39995508     104.80630798
C      78.12598895      80.45609626      97.18315204
O      76.94868947      79.36383446      95.57121549
N      80.04406116      79.33359883      98.35667208
H      81.11931544      80.49011134      99.42814691
C      80.55806673      76.68987172      98.56076253
H      78.74392947      75.86217160      99.08043727
H      81.96024364      76.14940999      99.97238809
C      81.66544634      75.54847703      96.07199298
O      83.32273631      76.64262856      94.92492910
N      80.93034281      73.26568764      95.31988190
H      79.47525354      72.49089985      96.27986286
C      81.06451337      72.16397720      92.77631028
H      82.67456019      72.99167732      91.79176287
C      81.70513059      69.32560828      92.96528291
H      80.01949472      68.40153211      93.70983508
C      81.97347174      68.18043413      90.29698935
H      83.77438090      68.84750752      89.55243720
H      80.49003658      68.87774314      89.04976999
H      81.88087515      66.12441191      90.27242291
C      84.15232617      68.68688078      94.68493385
H      84.06917821      69.76402479      96.43671015
H      85.97213261      69.20088634      93.86857209
C      84.06539876      65.92410092      95.45405246
H      84.05028094      64.63530757      93.84967482
H      82.24748204      65.96378517      96.41970262
H      85.48269350      65.45166934      96.87512666
C      78.69479657      73.03136158      91.28153676
O      76.95435864      71.60839766      90.81666409
N      78.77983427      75.35761466      90.30076881
H      80.08563514      76.59160594      90.94705520
C      77.07152167      76.30058810      88.31277672
H      76.96002782      74.71132827      87.00697584
H      77.71780807      78.01645959      87.37358276
C      74.31441098      76.73522515      89.22362481
O      72.59476004      76.68231282      87.64948280
N      74.00827532      77.37773209      91.67459984
H      75.47848239      77.55536637      92.88024523
C      71.43068863      77.71032393      92.55899175
H      70.30252203      76.37428743      91.47050939
C      71.09620707      76.92419779      95.33310998
H      72.27917575      78.14118153      96.50096085
H      71.88611267      75.02691257      95.47483945
C      68.39767790      77.01868410      96.04364707
N      66.85944068      74.95888242      96.24584780
H      67.08620783      73.28458491      95.35578670
C      64.51240060      75.85272296      96.85811911
H      62.94014831      74.67731320      97.42125756
N      64.64468145      78.29424936      97.50818496
H      63.14423874      79.35627555      98.02408026
C      67.12022291      79.11250086      96.85811911
H      68.06130662      80.91341003      97.06031984
C      70.53873781      80.40507365      92.22073074
O      71.29084889      82.06047390      93.66259192
N      68.94947799      80.76979083      90.31210716
H      68.37878063      79.34493719      89.17638166
C      67.71737642      83.20375832      89.88880847
H      69.11955335      84.70042156      90.06455303
C      66.53251803      83.09415420      87.28287589
H      64.78641092      82.02834856      87.53043003
H      68.06319634      82.19464447      86.23785724
C      65.77473778      85.56591621      85.73896949
H      67.58320585      86.40306496      85.21929475
C      64.22138274      84.81758459      83.48452599
H      63.44470524      86.51644855      82.61714162
H      62.69826334      83.48343782      83.86247127
H      65.67080282      84.19964409      82.15793812
C      64.24594919      87.33281032      87.44161289
H      63.11589285      88.76900232      86.49108057
H      65.49505828      88.48743309      88.60190485
H      62.88912569      86.24243823      88.54710280
C      65.78607614      83.58548304      92.14892115
O      63.89068064      82.28724106      92.54009450
N      66.24527962      85.63394636      93.53409053
H      67.72871478      86.71864927      93.00874662
C      64.71460131      86.11960602      95.84144636
H      64.16847042      84.29224068      96.62001360
C      66.21693373      87.83925697      97.60834046
H      64.83176434      88.62349339      98.91792079
H      67.18447360      89.28678731      96.50851975
C      68.15201347      86.61093487      99.30153523
H      69.02695676      85.09537436      98.21116316
C      70.38566998      88.37215979      99.95727027
H      71.50060851      88.95986466      98.33021591
H      71.78406745      87.39895073     101.11567249
H      69.72804522      89.99543469     101.04197318
C      67.03896468      85.46198127     101.64668560
H      66.65346052      86.97565204     102.99028100
H      68.54318682      84.35649137     102.51973915
H      65.46104320      84.19019546     101.28385815
C      62.22583176      87.38005348      95.03075377
O      60.22461159      86.71486981      96.00207309
N      62.32976670      89.31513322      93.48495765
H      63.95871080      89.82157987      92.62324244
C      60.15091226      91.00265882      93.02953361
H      58.53519627      89.72520383      93.04087197
C      59.78052591      92.93395910      95.22161612