 %block lattice_cart
   139.252   0.000   0.000
   0.000 142.425   0.000
   0.000   0.000   162.84
 %endblock lattice_cart

 %block positions_abs
N      92.04571298      41.92174216      80.87575883
H      93.91276258      42.07669970      80.52049028
H      91.37108069      40.50822686      79.78349702
H      91.61485538      41.32836808      82.63698375
C      91.00258405      44.36137883      80.25970805
H      91.68288553      45.57269338      81.78282746
C      92.08917668      45.38561049      77.73125424
H      91.73957732      44.00988972      76.23648073
H      94.13197083      45.56513449      77.90699879
C      91.13675462      47.91595401      76.98103289
H      89.07695294      47.93863074      76.93756919
H      91.77359239      48.56979933      75.13288056
S      92.28381849      50.31212698      79.15232843
C      91.84351226      53.22419523      77.50637681
H      92.79215487      54.87581602      78.29061323
H      89.86685854      53.75898777      77.71046725
H      92.26114178      53.00876643      75.50137719
C      88.05839046      44.34437128      80.36175327
O      87.07762250      42.42818881      79.65121617
N      86.75447930      46.28512020      81.52015550
H      87.87508701      47.43974298      82.54816661
C      84.04083232      46.21142088      81.95290282
H      83.13187396      45.43852281      80.27482586
C      83.61186444      44.41807062      84.22813330
H      84.21279741      42.49243949      83.80861406
H      81.60875455      44.26311306      84.68922652
C      84.95923931      45.47820708      86.53548913
O      84.27137893      47.47564778      87.62019204
N      86.88298069      44.11382468      87.41799132
H      87.86185892      44.80168505      88.90709566
H      87.56895134      42.74377309      86.28037608
C      82.95801914      48.87404525      82.37998097
O      84.32996044      50.62771127      82.40454741
N      80.48247767      49.19718846      82.77493377
H      79.41478230      47.61926698      82.86375091
C      79.37887750      51.76532651      82.50848236
H      79.92122895      52.57412937      80.69434510
C      76.50271405      51.65194293      82.56328442
H      76.16634277      50.28945026      81.05717255
C      75.39344471      50.52566606      84.93300122
H      73.34687111      50.34236261      84.77804366
H      75.74682353      51.90516627      86.42210555
H      76.17768113      48.66617537      85.34685128
C      75.32541456      54.23330909      81.90943912
H      75.91122972      55.52777160      83.40043318
H      73.29017932      53.94229123      81.81495280
C      76.38177157      55.48241817      79.48114081
H      75.14022138      57.07923691      79.08996746
H      76.21925511      54.01221110      78.05061799
H      78.26771843      56.29500049      79.63798809
C      80.46547013      53.44529320      84.59662994
O      81.31395725      55.60714010      84.17900042
N      80.96813733      52.35303140      86.83028644
H      80.87554074      50.45007700      86.94744947
C      81.86386760      53.60969939      89.07339157
H      80.80562087      55.31990172      89.51747725
C      81.56529085      51.86170255      91.35429123
H      82.54227935      52.64782870      92.99079422
H      82.67078074      50.15338997      91.04626584
C      78.84786441      51.38360180      91.99490845
C      77.74426424      53.16183426      93.53125594
H      78.80062125      54.66227695      94.42698622
C      75.14967001      52.74042529      94.21344714
H      74.29173427      53.95362959      95.61184461
C      73.86654585      50.53889413      93.37629839
H      71.89556130      50.25921465      93.82416352
C      75.14967001      48.76822058      91.85884816
H      74.21047604      47.08258471      91.18799532
C      77.67434437      49.27844668      91.07272201
H      78.60031026      48.16161843      89.63653001
C      84.58129404      54.46763515      88.82394770
O      85.34852293      56.18350664      90.19210955
N      86.10630318      53.41883703      87.09862757
H      85.45623733      51.85225392      86.22368429
C      88.45901244      54.46763515      86.30116307
H      89.10151938      55.56178667      87.92632770
C      90.35251820      52.31901632      85.80983423
H      92.08161778      53.16750344      85.08417932
H      89.48891328      51.21919562      84.29616345
C      90.97990734      50.44062838      87.90743044
H      92.24224452      48.97231102      87.20634197
H      89.17899816      49.66773030      88.54237848
C      92.15720683      52.05445464      90.01258555
O      94.43810649      52.60625472      89.99368829
O      90.96478953      52.48153278      91.99868790
C      88.48546861      56.20807308      84.02215314
O      90.16732502      57.85591442      83.82940105
N      86.60519092      56.00020319      82.35163508
H      85.37875855      54.58857762      82.73713924
C      86.20456895      57.59891165      80.12931693
H      87.82028494      57.58001438      78.85375167
C      84.10130356      56.15516075      78.49848312
H      82.28905603      56.09091005      79.47736135
H      84.51515362      54.22197073      77.92211660
C      83.61375417      57.31923215      76.02861083
H      85.22002154      57.05467047      74.77005311
H      83.41344318      59.36391602      76.18167866
S      80.73570100      56.21563199      74.69824351
C      80.75459826      57.38348285      71.50271631
H      79.05762403      56.65404849      70.59186823
H      82.35519645      56.43861968      70.61454495
H      80.76593662      59.44139479      71.61421017
C      85.82095450      60.48074427      80.84174375
O      87.05872524      62.11535754      79.71924632
N      83.93689737      60.91916077      82.48769537
H      83.03171847      59.45651261      83.31161604
C      83.39643564      63.44383512      83.21901945
H      83.22069110      64.61357571      81.53527331
C      80.90766609      63.53832144      84.61174775
H      80.52783110      65.50363682      85.08984850
H      81.21947093      62.62936308      86.43344391
C      78.77983426      62.44228019      83.16799684
H      79.26738365      60.82845391      81.98313844
C      76.66334079      61.51442456      84.91788341
H      76.29106471      63.08856658      86.19155894
H      77.10931620      59.68327976      85.74747326
H      74.92101313      61.40671016      83.82184215
C      77.60442450      64.36602158      81.25181436
H      79.01605005      64.83467369      79.82696072
H      76.98837372      66.13102595      82.11163983
H      76.08886399      63.36635635      80.27482586
C      85.61119488      64.70428259      84.64954227
O      85.76615244      67.04187402      84.52482034
N      87.35919172      63.31344402      85.88542328
H      87.00770263      61.46718141      86.21612539
C      89.88008662      64.42082364      86.86997069
H      89.32261736      66.03087045      88.02837292
C      91.22746149      62.52731787      88.63686479
H      92.98679668      63.17927344      89.48724163
H      91.82461500      60.95317585      87.45011667
C      89.88953526      61.38025400      90.82138841
H      88.35318776      60.12547573      90.26580887
H      88.96734882      62.79754873      91.99301872
C      91.69422388      59.78532499      92.29348521
H      92.82428022      61.11947177      93.38574702
H      93.06049601      58.65715837      91.24279738
N      90.30338532      57.88615004      93.90542175
H      90.11819214      56.23641897      92.96055860
C      89.36230161      58.28110284      96.08994537
N      89.88386608      60.33145590      97.37117981
H      89.45489820      60.49775180      99.22311160
H      91.33517589      61.40671016      96.74757013
N      87.86563837      56.72585808      97.21433253
H      86.96045947      57.18317185      98.83004852
H      87.58784861      55.07612701      96.29781527
C      91.69422388      65.29198747      84.96512657
O      93.52347896      66.67715686      85.55850063
N      91.37486014      64.61735518      82.48580564
H      89.72323934      63.75186052      82.07762476
C      92.55971854      65.59812313      80.28994367
H      94.38330443      66.28598351      80.95512733
C      93.06238574      63.65170502      78.23392144
H      91.22746149      63.00352890      77.55928915
C      94.44566540      64.90837303      75.95869096
H      95.90264438      66.19716637      76.63710271
H      93.10962889      65.76441904      74.64722090
H      95.32249841      63.47785020      74.76816338
C      94.94644287      61.56733691      79.23169693
H      95.12029769      60.24452849      77.66133437
H      94.04504342      60.50909017      80.75103689
C      97.60150834      62.27976372      80.19167790
H      98.46889272      63.65548447      78.92367154
H      98.55770985      60.46940591      80.40332725
H      97.74323781      63.34745908      81.94534392
C      91.09140119      67.98295773      79.37153668
O      92.14019929      70.03897996      79.08807773
N      88.57050629      67.88280223      79.09563664
H      87.70501164      66.28598351      79.68145180
C      87.05683551      69.88780186      77.94101386
H      87.93933770      70.73817870      76.28561361
C      84.43389539      68.89569554      76.90166439
H      83.34730276      70.57755196      76.41222527
H      83.67989459      67.62957891      78.33785639
C      84.79672284      67.37635558      74.42612292
O      85.99102987      68.34200574      72.61009593
O      84.09185493      65.02364633      74.41478456
C      86.73747177      72.15358371      79.70034906
O      86.98124646      74.33810732      78.92178182
N      85.97591206      71.72650556      82.06250695
H      86.04961139      69.89536077      82.59729950
C      85.26915442      73.63890858      83.86719558
H      84.82884819      75.39068488      82.87697899
C      82.89187872      72.76585504      85.27315196
H      82.34385809      74.27763608      86.56005557
H      83.61186444      71.11423423      86.27092745
C      80.65066331      71.68304185      83.85207777
H      79.48470218      70.94982805      85.38275608
H      81.24025792      70.05409778      82.73713924
C      78.99337334      73.56331954      82.58029196
O      76.79940109      72.96238657      82.07006585
O      79.99492828      75.59099586      81.78093773
C      87.20234444      74.32487925      85.75692189
O      87.16077046      76.41491654      86.80760972
N      89.25836667      72.81687765      85.89109246
H      89.26403585      71.16147740      84.94433958
C      91.22746149      73.24017634      87.81294412
H      91.88886570      75.17714581      87.57861806
H      92.71656582      71.87390421      87.41799132
C      90.30338532      72.95293794      90.55493700
O      87.97902195      72.63924336      90.96878706
N      91.98524174      73.35355992      92.39742016
H      93.81449681      73.41025171      91.85317898
C      91.28604300      73.71449765      95.06193426
H      89.29049201      73.29686813      95.36240074
C      92.77703706      71.76430009      96.66820162
H      94.69321954      72.50885226      96.52836188
H      92.65798430      69.86701487      95.87451657
C      92.05516161      71.78697681      99.48767328
H      92.37830481      73.69749010     100.18498229
C      89.33206599      71.34100140      99.94498705
H      88.27381926      72.96049685      99.23633968
H      89.00325362      71.21250000     101.97455311
H      88.70467686      69.79142581      98.74123139
C      93.65198035      69.97661899     101.03346941
H      95.61918544      70.49440401     100.72166456
H      93.46300771      68.09823103     100.20198983
H      92.95467134      69.95394228     102.97043888
C      91.95311639      76.34121722      96.08994537
O      94.02992561      77.32009545      95.74979463
N      90.04827227      77.50339890      97.24267842
H      88.34562886      76.67380904      97.01402154
C      90.04827227      80.09610340      98.41619846
H      92.01925681      80.42680551      98.91130676
C      89.05994540      82.21637632      96.60962011
H      88.38342338      83.91713001      97.55448326
H      87.39509652      81.43402963      95.68176449
C      91.08573201      82.88911889      94.64430474
H      91.59406839      81.09198917      93.77692036
H      92.73168363      83.67524504      95.59861653
C      90.29960587      84.55963696      92.41442769
H      89.88386608      86.31519270      93.41031346
H      88.68955905      83.78673889      91.38830630
N      92.42554797      84.87333152      90.61540824
H      93.69544405      86.26417009      90.93288226
C      92.95656106      83.50705939      88.67843877
N      91.89831433      81.38489675      88.21356610
H      92.55593908      80.31720137      86.77359465
H      90.41487917      80.79341240      89.25480530
N      94.90864834      84.09287456      87.27626185
H      95.13163605      83.24816689      85.57739789
H      95.82138615      85.68780356      87.79404686
C      88.33995968      80.15468492     100.83504814
O      86.03449358      79.89957186     100.63662688
N      89.33395572      80.63278568     103.15752178
H      91.20667450      80.98049531     103.27846427
C      88.01870621      80.56853498     105.59526873
H      86.23480457      79.54052386     105.49889268
C      89.64765029      79.27407245     107.58704026
H      88.57050629      79.31942589     109.34448573
H      91.43911083      80.22460478     107.94986771
C      90.40920999      76.45838025     107.01256346
H      90.97234843      75.55509106     108.77945756
C      88.26248090      75.00896017     105.94486809
H      88.06028019      75.60989314     103.98522191
H      86.49369707      75.47194312     106.89162098
H      88.50058642      72.96994548     106.11305374
C      92.88286174      76.34499666     105.37983993
H      92.64664595      77.21616049     103.52790814
H      93.49891251      74.38535049     105.27590498
H      94.36818662      77.46371464     106.26612157
C      87.03982798      83.29541004     106.25478321
O      85.47135514      83.31241759     107.95175744
N      87.84485139      85.34954255     105.01323302
H      89.23946940      84.93191304     103.78113146
C      86.84329644      87.93279842     105.19653647
H      85.64520996      88.07263817     106.86516481
C      88.91443648      89.80362747     105.68030641
H      90.08417707      89.90567270     103.98711163
H      90.10685378      88.94002255     107.11838813
C      88.03004456      92.36987581     106.54769079
H      86.44267446      92.22814632     107.85160194
H      87.52359791      93.51882941     104.91685698
C      90.13519968      93.94968701     107.91396291
H      91.83973281      94.45802337     106.87839289
H      90.73046347      92.98025741     109.63172413
C      89.17710844      96.64821618     108.49410889
H      87.45367804      96.59152438     109.62416522
H      88.51003505      97.76126498     106.89540043
N      91.03092995      98.00503966     110.08714817
H      90.83817787      97.44379095     111.89939571
H      90.56605728      99.84563309     110.26667217
H      92.72412473      97.83685403     109.21787407
C      85.04805644      88.39578137     102.96476970
O      85.34663320      87.28651203     100.87095294
N      83.07329245      89.96236449     103.27657454
H      82.61597868      90.48203922     105.05480700
C      81.18545586      90.42345771     101.11283791
H      80.49381603      88.61498961     100.40985972
C      78.96313771      92.18846208     102.02557572
H      79.81162483      93.83252397     102.93642380
C      77.37198816      93.18056840      99.88829526
H      76.77294492      91.67445652      98.61650945
H      78.33574858      94.50904599      98.64674507
H      75.97170096      94.49392818     100.63851661
C      77.48537174      90.84486666     104.17608426
H      78.84975414      90.49337757     105.67652696
H      77.01105043      88.91923556     103.61861500
C      75.31407620      92.34152991     105.36850157
H      73.91756846      92.70435737     103.90018422
H      75.95469342      94.14810827     106.12439209
H      74.30685208      91.23037084     106.78201685
C      82.47424920      91.78406064      98.90752730
O      84.22035632      93.43190200      99.22878078
N      81.72402786      91.25871674      96.51135434
H      80.38610163      89.91134186      96.32616116
C      82.86731228      92.37743470      94.26446975
H      83.85374941      94.13865963      94.67643009
C      85.00648246      90.52550292      93.49724087
H      86.57873476      90.23448507      94.79359312
H      86.09118537      91.24926810      91.90042214
C      83.97280217      88.01972584      92.66387157
C      83.63454116      87.57752987      90.07305679
H      84.02004533      89.14033353      88.81827852
C      82.95234996      85.16056991      89.23590803
H      82.83140748      84.64467464      87.26492349
C      82.55172798      83.28218197      91.01036104
O      81.71457923      80.92191380      90.29604450
H      81.64843881      80.66113157      88.49891477
C      83.08085135      83.62611216      93.52936622
H      82.98069586      81.96126328      94.70288626
C      83.72524802      85.93535771      94.43265539
H      84.27326865      86.12244062      96.39041185
C      80.54861809      92.78561559      92.40686879
O      78.36787393      92.71947517      93.22701001
N      80.89254828      93.19757592      89.92943759
H      82.71046499      93.22781155      89.34551216
C      78.87432058      93.34497459      87.99246812
H      77.14900045      92.40767032      88.61418808
C      78.37165338      96.07751882      87.33295364
H      77.38899570      95.79594961      85.54716227
H      80.24248243      96.78994565      86.85485288
C      76.99404290      97.51560056      89.45133683
H      77.56096079      96.89199086      91.33161451
H      74.97581519      97.26048751      89.13008336
C      77.41734159     100.38609483      89.19433405
H      76.10587153     101.35552442      90.45667123
H      77.22647923     100.99080724      87.23657759
C      79.90611114     101.19678742      90.25824997
H      81.40844356     100.31806468      89.15464980
H      79.79272757     100.34641058      92.12907902
N      80.03272281     103.96712618      90.45100205
H      79.72847687     104.70789891      88.71812302
H      81.70513059     104.63230985      91.09161927
H      78.70991439     104.57939751      91.68121388
C      79.73036660      91.90689285      85.63597941
O      81.93945666      92.16200591      84.83473545
N      78.04851018      90.43668579      84.71001351
H      76.40633801      90.45558304      85.68133284
C      78.13165814      89.38788768      82.07195558
H      79.62265220      87.96870322      82.13431655
C      75.53706391      88.05563063      81.54850139
H      74.21614522      89.62221374      81.34252122
H      74.97392547      86.75549892      83.04327491
C      75.42368033      86.70069686      78.92367154
O      73.49238004      86.93502292      77.55739942
O      77.41545186      85.55930217      78.28872350
C      78.57007464      91.40611539      80.04049979
O      78.14677595      93.63410271      80.32017929
N      79.28061173      90.52550292      77.79361521
H      79.67178508      88.66223278      77.67456245
C      79.24659666      91.97492301      75.51082582
H      80.34830710      93.62465407      76.05695673
C      80.92278390      90.78250569      73.39811180
H      82.44968276      89.77528158      74.34486469
C      79.47903300      88.87766158      71.75593964
H      78.21858555      89.97370283      70.55029425
H      78.45102188      87.55674289      72.95780557
H      80.80373114      87.63611139      70.78839977
O      82.10197312      92.55317926      71.78050608
H      83.23391918      93.62843353      72.70269252
C      76.67089970      93.08041290      74.58863938
O      76.55373667      94.67723163      72.85009117
N      74.52795006      92.42278814      75.76971833
H      74.79818092      91.29840099      77.28716856
C      72.12610791      93.88165686      75.36342717
H      72.13555655      94.58463504      73.42645770
C      69.93969457      91.99193055      75.43901622
H      69.45970409      91.75949420      77.43078776
H      70.74093853      90.42723716      74.36565168
C      67.42635857      92.67412173      74.11809753
H      67.84398809      93.21458347      72.17167943
H      66.43614199      94.22558704      75.04217370
C      65.61411104      90.57274607      73.76471871
O      65.68403091      88.76994717      75.28783812
O      64.40846565      90.37432482      71.70491703
C      71.79729554      96.19657159      77.16433635
O      70.23071242      97.95968624      76.74292738
N      73.51505675      96.35341888      79.06729074
H      75.16289810      95.40099681      78.91611264
C      73.81174379      98.33574178      80.97213487
H      73.15978821     100.18011465      80.33340737
H      75.79973587      98.21668902      81.50125823
C      72.36610316      97.74803689      83.49491949
O      72.92735187      98.98580763      85.40732252
N      70.79007141      95.81106741      83.43444825
H      70.88455773      94.74904124      81.85085760
C      69.44269655      94.88132207      85.66243558
H      68.60176834      96.55750932      86.51470214
C      67.13345099      93.35253348      84.75158749
H      65.99583575      93.05206700      86.44289254
H      67.88178261      91.56485240      84.05427848
C      65.41191032      94.81329193      82.92800160
C      64.57098211      93.78150136      80.60363824
H      65.04152397      91.88610587      80.01026417
C      62.84377226      95.17233993      79.13343116
H      61.94615227      94.31818363      77.51015626
C      62.24283930      97.68000675      79.80239428
O      60.76885277      99.03305079      78.30951049
H      60.05831568     100.50136812      79.10508527
C      63.25195315      98.73636375      81.95857200
H      62.92125104     100.73191474      82.24581040
C      64.79208009      97.34552518      83.55917019
H      65.78229668      98.26960136      85.08606905
C      70.95447760      93.56985201      87.68633246
O      72.82341692      92.41900869      87.12319402
N      70.17968981      93.81929589      89.99179856
H      68.46003887      94.55250969      90.37352327
C      71.97115036      93.12576633      91.98923927
H      73.93268627      93.60386709      91.57349948
C      71.23793655      94.48258983      94.50824445
H      72.21681478      93.64355133      96.11451181
H      69.30663625      93.96291509      94.99768356
C      71.68391196      97.31151012      94.44588348
C      69.77717811      98.99525626      93.53881485
H      68.09343196      98.41322055      92.54292908
C      70.31763983     101.65221145      93.40464428
H      68.87577866     102.89565137      92.66954074
C      72.65712101     102.67077393      94.40053005
O      73.01616901     105.23702227      94.51391363
H      71.75572156     106.34251217      93.82605325
C      74.25960892     100.94356409      95.43987952
H      76.03028248     101.52182034      96.27135910
C      73.78906707      98.33385205      95.58349872
H      75.20447208      97.07151486      96.33560979
C      71.95225309      90.37054536      92.69032773
O      70.11165966      89.07041367      92.60151060
N      74.31252126      89.52772743      93.14953123
H      75.79595641      90.69368857      93.44243881
C      74.59598020      86.69880713      93.47456415
H      72.93491078      85.61410423      94.02825396
C      75.64477831      85.58764806      91.00658159
H      76.24004210      83.62044298      91.15209052
C      73.52639511      85.58197888      88.97512580
H      72.88010871      87.46603603      88.45167161
H      71.94469419      84.40278967      89.56661014
H      74.48448635      84.60499039      87.43688858
O      77.52505599      87.29407092      89.92943759
H      79.09919801      86.85754415      90.71745346
C      76.33263869      86.06007965      95.75735354
O      77.98048003      87.55863260      96.48678790
N      76.25704963      83.77729025      96.83827699
H      75.09864740      82.43558458      96.12773990
C      77.92378824      82.69258736      98.76390810
H      79.68123371      83.76406218      98.70532659
C      76.82207780      82.82297847     101.41330439
H      76.44035309      84.81475001     101.76857294
C      74.43724319      81.06931246     101.64763046
H      75.16856728      79.14935052     101.49456263
H      73.14467040      81.54363376     100.11695214
H      73.67379376      81.24316728     103.55436431
C      78.46802942      82.05197014     103.72066022
H      79.28439119      80.17547191     103.48822389
H      77.50804845      82.21070715     105.53479748
C      80.63743523      83.81508478     104.13640001
H      80.09319405      85.54040491     105.12094742
H      81.57284975      84.34042869     102.37706481
H      81.90355186      82.70392571     105.32125841
C      78.94990963      80.05641915      98.19132103
O      77.72347725      78.56353537      96.85150508
N      81.09474900      79.17391695      99.40830478
H      82.24937177      80.35499590     100.36639602
C      81.72591758      76.52263095      99.56704179
H      79.97414129      75.58721642     100.11506242
H      83.18856575      76.10500142     100.95410090
C      82.57251497      75.37178762      97.03669825
O      84.30350427      76.28074598      95.78947889
N      81.51615796      73.22127907      96.38285295
H      80.28027695      72.52774951      97.66030794
C      81.62765182      72.10634055      93.92620874
H      83.27927261      72.83199545      92.93410243
C      82.13031901      69.28686889      94.02258478
H      80.48814685      68.41381533      94.90697670
C      82.45724167      68.31932902      91.35429123
H      84.10508301      69.19616203      90.47745822
H      80.89443801      68.71050236      90.07116706
H      82.62731704      66.26708625      91.43743919
C      84.66066255      68.74829689      95.36240074
H      84.67389063      69.63457854      97.22000171
H      86.17055387      69.65158607      94.29470537
C      85.34285375      65.93449442      95.84806040
H      85.79260861      64.96128536      94.08494575
H      83.79894735      64.82522506      96.64174545
H      86.91510604      65.84000810      97.17464827
C      79.21258159      72.71294269      92.38608180
O      77.30017856      71.45627470      92.52970100
N      79.26360420      75.02785743      91.23901793
H      80.72436264      76.22216445      91.53570496
C      77.37765734      75.78185823      89.27748201
H      77.58174778      74.51574160      87.66554547
H      77.76127178      77.66969481      88.54804766
C      74.62054665      75.92547742      90.12218967
O      72.99727174      75.19604308      88.67465932
N      74.19913768      76.80420016      92.44655304
H      75.52383582      77.09143857      93.79203817
C      71.57430783      77.00829060      93.34228331
H      70.36866244      75.81209385      92.17821190
C      71.54218248      75.61367259      95.95766453
H      73.03506627      76.49995422      97.06504415
H      71.65934551      73.55765036      95.87451657
C      69.13656089      75.91413907      97.44109968
N      67.71737643      73.95449289      98.27446899
H      67.92146687      72.13468644      97.74534562
C      65.98071794      74.96549647      99.85805964
H      64.55208485      73.82788122     100.76323854
N      66.27551525      77.41836122     100.01301720
H      64.94703765      78.52763056     100.81993033
C      68.37500118      78.09488323      98.69776768
H      69.07797937      79.96382256      98.26879981
C      70.60298851      79.74650404      93.25724563
O      71.82375170      81.47560361      94.05659986
N      68.41090598      80.19814863      92.12718929
H      67.43391748      78.68636758      91.49224125
C      67.35832843      82.78707367      91.82294336
H      68.86821975      84.11555127      91.37885767
C      65.63867748      82.91368533      89.56094096
H      64.02674094      81.80819544      90.21478626
H      66.38322965      81.58709746      88.17388185
C      64.87711778      85.31552747      88.30238324
H      64.34043550      86.63266671      89.79337730
C      67.06164140      86.57786465      86.98713372
H      68.40712653      87.21470242      88.40820791
H      66.33598649      88.21436764      85.97046096
H      68.08209360      85.36466037      85.66999448
C      62.60377702      85.06230416      86.57139393
H      60.88412608      84.59932120      87.60318450
H      63.03841407      83.58453818      85.20512181
H      62.15213243      86.89722841      85.75125271
C      66.13567550      83.80752587      94.34194853
O      65.23427605      82.26550921      95.78947889
N      66.09032207      86.29818515      94.72556297
H      66.90101466      87.40934424      93.40086483
C      65.03018561      87.39611615      97.01591126
H      64.24216974      86.05252074      98.36328613
C      66.96337563      89.08553147      98.43698545
H      65.95615150      90.24393371      99.81081648
H      67.74383259      90.40078098      97.05559552
C      69.02695676      87.42635177      99.84672128
H      69.61466164      85.80685632      98.71477522
C      71.29462834      89.06852394     100.43442616
H      71.89178185      89.93968777      98.66564234
H      72.69491553      87.94791624     101.44542974
H      70.84487347      90.58219471     101.75534486
C      67.71548670      86.30763380     102.13706957
H      69.14411979      85.37788844     103.29169235
H      66.10355015      85.12277540     101.65707909
H      67.15234826      87.88177581     103.34460469
C      62.82109555      89.25371712      96.26568992
O      60.67625618      88.68301976      96.84583590
N      63.28029904      91.21147357      94.80304175
H      65.11900275      91.59886746      94.47611910
C      61.37356519      93.01616221      94.08305603
H      59.69359850      91.98626137      93.48779224
C      60.88034663      94.66400354      96.39419131