 %block lattice_cart
   139.252   0.000   0.000
   0.000 142.425   0.000
   0.000   0.000   162.84
 %endblock lattice_cart

 %block positions_abs
N      92.55026990      40.92018720      83.10658073
H      94.39464278      40.60271318      82.74564301
H      91.61296565      39.44431095      82.33935185
H      92.43121714      40.97498926      85.00953513
C      91.67910607      43.28612454      81.87069973
H      91.97768283      44.85459738      83.17083143
C      92.91120762      43.75477668      79.31956920
H      92.88286173      42.28079015      77.88337721
H      94.84439765      43.92107259      80.01309876
C      91.97579310      46.21709007      78.11014436
H      89.95189622      45.99977154      77.79078062
H      93.01703231      46.40795242      76.34513999
S      92.76191925      48.86270690      80.10947480
C      91.10273954      51.23431343      78.30289645
H      89.15632144      50.69385169      77.89660529
H      91.66776771      51.36848398      76.32624272
H      91.35029369      53.06545821      79.21563426
C      88.82939879      43.14061563      81.75542642
O      87.85807946      41.12238792      81.09969139
N      87.43289104      45.16451250      82.38470528
H      88.30972405      46.81991275      82.75509164
C      84.66633172      45.11160016      82.50942722
H      83.83107269      44.04201508      80.95796192
C      83.77060145      43.97587465      85.05677829
H      84.50003580      42.04835381      85.07189610
H      81.72780730      43.74154859      84.90560018
C      84.46791046      45.20419675      87.55310675
O      85.19167564      47.42462518      87.56255538
N      84.28838646      43.89272670      89.74329955
H      85.25214688      44.67129394      91.19271963
H      83.58540827      42.12772231      89.55243719
C      83.53438566      47.87815948      82.20707101
O      84.98758519      49.83591595      82.04644427
N      81.05317501      48.09736774      82.13148196
H      80.11587076      46.58180723      81.45118048
C      79.79272756      50.53133524      81.96329632
H      80.14043720      51.39116070      80.12459261
C      76.88065931      50.24031738      82.27321143
H      76.23059346      48.98175965      80.77843792
C      76.19657839      48.87971444      84.76198098
H      77.49293064      47.34714640      85.22307420
H      74.35220551      48.05768348      84.36135901
H      76.41578664      50.04000639      86.45139631
C      75.43690841      52.80845544      82.20707101
H      75.73359544      54.06701316      83.80955892
H      73.43946769      52.37381838      82.45840461
C      75.71847763      54.29000087      79.81467750
H      74.49771443      55.92839359      80.06979055
H      75.14589056      53.27143839      78.11770327
H      77.62899093      54.88715439      79.32145893
C      80.69034756      52.42106155      83.96640621
O      80.99081404      54.59613653      83.19728760
N      81.15333050      51.50643402      86.36068945
H      81.31962642      49.61103851      86.51753673
C      81.80717581      53.39427060      88.38836578
H      80.50893383      54.99108933      88.44316784
C      81.84119088      52.14516150      91.01130590
H      82.50070537      53.34324798      92.55143285
H      83.24147808      50.64471881      91.16815319
C      79.34297270      50.97920036      91.66893066
C      77.29072992      52.33413413      92.60245546
H      77.42679022      54.29189059      93.16370417
C      75.03439670      51.02644352      93.08433567
H      73.53395401      52.14894096      93.89691798
C      74.66212063      48.45830547      92.61568354
H      72.95569776      47.49265533      93.18071171
C      76.68790723      47.15817377      91.67082038
H      76.52728049      45.23821184      90.99051891
C      79.07841102      48.30334792      91.33444910
H      80.66011194      47.09770253      90.86957643
C      84.54349951      54.61125434      88.02742805
O      85.05561534      56.80900605      88.67371445
N      86.41621829      53.03900205      87.09768271
H      86.19134087      51.21163671      86.59879496
C      88.78971454      54.15583031      86.50430865
H      89.43978039      55.31990172      88.07467121
C      90.77392716      52.04122656      86.11124557
H      90.34495929      51.10014286      84.32734393
H      90.38275382      50.55968112      87.49074578
C      93.58017074      52.62137253      86.22273942
H      94.08850712      54.09157960      84.87158511
H      94.41731950      50.86581680      85.54621740
C      94.78770585      52.94640546      88.85134873
O      93.29482207      53.51143363      90.67682434
O      97.05726715      52.98231027      89.04410081
C      88.64042616      55.72619287      84.04955416
O      90.06150034      57.54221985      83.83034591
N      86.89620877      55.15360579      82.37336692
H      85.70379147      53.67583982      82.57178819
C      86.21401757      57.04900129      80.33624196
H      87.90910207      57.61969863      79.31390002
C      84.42444675      55.75642849      78.39738276
H      83.61186444      53.98764466      79.07768424
H      85.56962090      55.07045783      76.82890992
C      82.32307109      57.39104175      77.20307573
H      83.03549791      59.25809135      76.70229826
H      81.10986680      57.72363359      78.83390954
S      80.53161056      56.11925594      74.72942399
C      82.63676566      57.35513694      72.29923595
H      82.16244436      59.34690849      72.06490989
H      82.13787791      56.31011830      70.59281309
H      84.59263239      57.01309648      72.85103603
C      85.24269825      59.57367565      81.08268385
O      85.85685931      61.55599855      80.09813644
N      83.63076170      59.56233728      83.09524238
H      82.89187871      57.88048087      83.60546848
C      82.80873075      61.98496642      84.27632132
H      82.30417384      63.29454675      82.76831972
C      80.51649274      61.33112112      85.97896473
H      79.95146457      63.12825084      86.81611349
H      81.18356613      59.95351062      87.35846494
C      78.22236499      60.12925517      84.69017138
H      78.75337809      58.29055148      83.92861168
C      75.97170095      59.44328453      86.54210317
H      76.64822297      58.30377955      88.12191437
H      74.63755418      58.17905762      85.61424755
H      74.90022613      61.01742654      87.32822932
C      76.96569699      61.59190334      82.51509640
H      75.20069262      60.64892992      82.02376756
H      78.11087114      61.75630953      80.81056326
H      76.70491476      63.42493787      83.41838558
C      84.94412149      63.32856183      85.67093934
O      85.18411673      65.61324093      85.29488380
N      86.57495530      61.83000886      87.05988818
H      86.41432856      59.92705446      87.10146216
C      88.73491247      63.05833097      88.21640068
H      87.99602948      64.61735518      89.34267757
C      89.97646266      61.07978751      89.86046258
H      91.97579310      61.48418894      90.15525988
H      89.93866814      59.21651737      88.98551929
C      88.58373437      60.88136625      92.29820952
H      86.65054435      60.26153601      91.95427933
H      88.38909256      62.73707749      93.17126308
C      89.62686329      58.87447691      94.12935432
H      88.86908304      58.88014608      96.04553680
H      91.61674510      59.27887834      94.46761533
N      89.51725917      56.22886006      93.19960897
H      90.96289980      55.88304016      91.99963276
C      88.22846583      54.27488306      94.13880295
N      86.68266970      54.56590092      96.08711078
H      86.16110523      52.95585409      96.97150269
H      86.41432856      56.28933130      96.86189857
N      88.83695769      52.11870534      93.12213019
H      87.90721235      50.51810715      93.57755423
H      90.43566615      51.93162244      92.09789853
C      90.70400729      64.08445235      86.47974220
O      92.19122190      65.76630876      87.23185328
N      90.62085933      63.48162965      83.99853155
H      89.47379546      62.01142258      83.58468149
C      92.40854042      64.40003665      82.03888537
H      93.99024135      65.47340119      82.80422452
C      93.72378994      62.13425480      80.72741531
H      92.29137739      60.70184225      80.35891868
C      95.12596686      63.02809534      78.31990398
H      93.84473242      63.26809059      76.72497498
H      96.56404859      61.64292596      77.81156761
H      96.14074989      64.77987164      78.69784925
C      95.70422311      61.04955190      82.67761286
H      94.79715448      60.76231350      84.50686793
H      97.21978362      62.42716238      82.88359303
C      96.47523145      58.53432617      81.76676478
H      94.69321954      57.58379384      81.36047362
H      97.55993435      57.46852053      83.15571362
H      97.45033023      58.34724327      79.96018642
C      91.13108544      66.28787324      80.16049741
O      92.39531234      68.18704818      79.51232129
N      88.80294263      65.72095533      79.29689249
H      87.90721235      64.14114413      79.87703847
C      87.48958283      67.37824532      77.49598331
H      88.57239601      67.98295773      75.84814197
C      85.56773117      65.67371217      76.27710984
H      84.02949395      65.40537105      77.62070525
H      86.26692991      63.82367011      75.70452277
C      84.57751458      66.87935757      73.79023001
O      82.23992313      67.12502199      73.43496146
O      86.07795728      67.21761858      72.09136606
C      86.43322582      69.87835322      78.43706701
O      86.51448405      71.78886653      77.05945653
N      85.42789142      69.81599225      80.79544545
H      85.69434284      68.39302835      82.03699564
C      84.69467762      72.22161386      82.14848949
H      84.50759471      73.76174079      80.79544545
C      82.29850465      71.95516244      83.82656646
H      82.82951774      71.01974791      85.58023248
H      80.82451813      71.00840956      82.74564301
C      81.24781683      74.46282926      84.80166524
H      82.77660541      75.28674994      85.90715513
H      79.80973510      73.90158055      86.16604764
C      80.34641737      76.20137747      82.80422452
O      81.69757168      76.83254605      80.99953590
O      78.07496634      76.79664125      82.84390878
C      86.86219370      73.09466742      83.72830069
O      87.38753761      75.32454445      83.87947880
N      88.22846583      71.28997879      85.05299884
H      87.61052532      69.51741549      85.38370094
C      90.19378119      71.88713230      86.94650460
H      91.04604775      73.66347504      86.34557163
H      91.56383277      70.34700536      86.91248953
C      89.06183512      72.32365907      89.52220157
O      86.72613340      72.34822551      89.52976047
N      90.56416754      73.00585028      91.39869980
H      92.41420960      73.23828662      90.99429836
C      89.59284822      73.84866820      93.89313853
H      87.55761298      74.14913470      93.80810084
C      90.12575104      71.76807953      95.91892514
H      91.89453487      70.73061979      95.72617305
H      88.74625083      70.33188755      95.38980177
C      89.65520919      72.56365431      98.74973515
H      90.73991209      74.30409226      98.97461258
C      86.94723138      73.10411604      99.15602631
H      86.73747176      73.93370590     101.03063481
H      86.19134087      71.24651508      98.68548446
H      86.18000250      74.26062855      97.63479663
C      90.73046346      70.45094029     100.42781212
H      89.63442220      68.71995100     100.20482441
H      90.48668876      70.87612872     102.42714256
H      92.75436034      70.38291016     100.04230795
C      90.85518541      76.40735763      94.66792632
O      93.14175423      76.80608989      95.00996678
N      89.10718856      78.22149490      95.04209213
H      87.34218418      77.67914344      94.55643246
C      89.35096325      80.74805898      96.11167722
H      91.36541150      81.06364328      96.40269507
C      88.46846106      82.60565994      94.09911870
H      88.28137816      84.54640887      94.76430236
H      86.61274982      82.09921329      93.36212544
C      90.30716476      82.64345447      91.88624918
H      91.15754161      80.84443502      91.34956691
H      91.83595336      83.76028272      92.69127259
C      88.98246663      83.81697451      89.48251731
H      90.32228258      84.64467464      88.15592944
H      87.87130755      85.50072065      89.90203656
N      87.34974309      81.83465161      88.36379934
H      87.01337180      80.19247945      89.27464742
C      86.40487993      82.00661670      85.96195719
N      86.65432380      83.91335055      84.51631656
H      85.73969628      83.84343068      82.84201905
H      87.32706637      85.56119190      85.20228722
N      84.86475298      80.23027396      85.09646254
H      84.33373989      80.54585827      83.29177391
H      84.65877282      78.55219700      85.98274418
C      88.03193428      81.13545287      98.75351461
O      85.80583669      80.53451990      98.97650231
N      89.61552493      81.93291738     100.61111557
H      91.39942657      82.39023115     100.11033810
C      89.03726869      82.08787494     103.30397557
H      87.22124170      81.16379876     103.60822150
C      90.93833335      80.68380828     104.98394226
H      90.24480380      80.86711173     106.91524255
H      92.74680143      81.66268652     104.86299978
C      91.29360190      77.83788046     104.41324491
H      91.76603348      77.50717835     102.43470146
C      93.55938375      76.81931798     105.77951704
H      93.82583517      74.86534097     105.18236352
H      93.13797478      76.89868648     107.79396529
H      95.23179154      77.87567499     105.19559161
C      88.84451660      76.57743301     105.12000255
H      89.07695294      74.60644846     104.56820247
H      87.20423416      77.34655161     104.13923460
H      88.58751382      76.58121245     107.16279670
C      88.50814531      84.78451438     104.21293392
O      87.85430001      85.16056991     106.40690617
N      88.66688233      86.53062150     102.47060626
H      89.30749955      85.99771868     100.75284505
C      87.69367327      89.10442873     102.64824054
H      87.08518141      89.47481509     104.58143056
C      89.80827702      90.96202969     102.09077127
H      90.43755588      90.73904199     100.14057372
H      91.30871971      90.39889125     103.38334407
C      89.21868241      93.80228834     102.55375422
H      88.49680696      93.99693016     104.47371616
H      87.78249041      94.29928637     101.16291566
C      91.60540674      95.36698173     101.99817469
H      91.16510051      97.35686354     102.29486172
H      91.99846981      95.08541252      99.99695452
C      93.98457217      94.97013920     103.57987561
H      94.16598590      92.98970603     104.11466816
H      93.72945912      95.95846608     105.36944643
N      96.38074513      96.00192977     102.33643570
H      96.69066025      94.96258031     100.76418340
H      97.89819536      95.69579411     103.45137422
H      96.39019378      97.85953075     101.89990892
C      85.57529008      89.47103564     100.71316079
O      85.79638806      88.65278414      98.63824130
N      83.59863635      90.84297695     101.37078555
H      83.69690212      91.78595037     103.02618580
C      81.42734082      91.50627087      99.58688391
H      80.10642213      89.99637956      99.12579069
C      79.78516865      93.73992737     100.91347178
H      81.07396200      95.19501664     101.59188353
C      77.85386836      94.67156246      98.72516871
H      78.79306234      95.81862632      97.29464589
H      76.45736062      95.94334826      99.54719966
H      76.88632850      93.14844305      97.73495212
C      78.33574857      92.56262788     103.10744403
H      79.83430154      91.88988532     104.34899422
H      77.26049430      90.91289681     102.50084188
C      76.69168668      94.20291033     104.87244841
H      75.97170095      93.08230262     106.44659043
H      75.16667755      95.16667075     103.88034209
H      78.01449510      95.56162355     105.67558209
C      82.68967800      92.55695870      97.14724724
O      84.17878233      94.26149184      97.09622463
N      81.46324562      91.89366478      95.15547571
H      80.16500364      90.49904675      95.22539558
C      82.04717105      92.63254776      92.54198422
H      83.13754313      94.37487542      92.68938287
C      84.04083231      90.75038036      91.25319087
H      85.61686406      90.68612966      92.57599929
H      84.84585572      91.57052158      89.54487828
C      82.95046023      88.24271354      90.48596199
C      82.17378271      87.56997096      88.04254586
H      82.20212861      88.98159653      86.56855934
C      81.34797231      85.06041443      87.66082115
H      80.67522975      84.48593763      85.82211745
C      81.23458874      83.42391143      89.58834199
O      80.44468314      81.00317204      89.07055698
H      79.54706314      80.95403914      87.49641496
C      81.96024364      84.20058896      92.10167798
H      81.88843404      82.74172024      93.53031108
C      82.94290132      86.47015026      92.51930750
H      83.63454115      86.87644142      94.39580573
C      79.70768988      93.21269374      90.94894493
O      77.62899093      92.21680797      91.57066489
N      79.85319880      94.61298093      88.76064186
H      81.62198263      94.80762275      88.06711231
C      77.70835944      95.38020982      87.21673547
H      76.10965098      95.07218443      88.48096237
C      77.88977316      98.19968148      86.60446414
H      78.43779379      98.51904522      84.64481795
H      79.25793502      99.23714123      87.74018965
C      75.34998100      99.49981318      87.16571285
H      74.62054664      98.78549664      88.95528367
H      74.10087190      98.94234391      85.62558591
C      75.32163510     102.44400678      87.16949231
H      76.85420314     103.20556649      88.31655618
H      73.66812459     102.98446850      88.27120275
C      75.60320432     103.37375212      84.60324397
H      74.45047127     102.28526976      83.28988419
H      77.54395325     103.11485962      83.96073703
N      74.78495283     106.04960458      84.45773505
H      75.90178108     107.24958079      85.43472355
H      72.98404365     106.61841220      84.73741454
H      74.95502820     106.55038206      82.62281080
C      77.46647447      93.84575206      84.80544469
O      79.22014049      92.59853268      83.94561922
N      75.23281797      94.21802813      83.57712259
H      74.02339313      95.47469614      84.34813092
C      74.25393974      92.35853744      81.62314558
H      75.69391119      90.98848587      81.06945577
C      72.06185721      90.81463104      82.85713686
H      70.44803094      92.06751960      83.11791909
H      72.84420391      89.97748230      84.56922890
C      71.26250298      88.57530537      81.16583181
O      69.24805473      87.43957986      81.40393733
O      72.65901073      87.82130457      79.47263703
C      73.24293616      93.83441369      79.21563426
O      72.59853949      96.08696747      79.29500276
N      73.21270054      92.48892856      76.99709556
H      73.38466563      90.58786389      76.99331611
C      72.86877035      93.63977189      74.48564929
H      74.38433085      94.99470566      74.14360883
C      73.03884572      91.55729349      72.41261953
H      72.94246967      92.51349500      70.59092336
C      75.45580567      90.11921177      72.47309077
H      75.35376045      88.35609711      71.41295431
H      76.00193658      89.47103564      74.35147873
H      76.97136617      91.41367428      71.94963658
O      71.07164063      89.81496583      72.63749696
H      69.65812534      90.55195909      71.76444340
C      70.42157477      95.16289129      74.40061161
O      70.27606585      97.16789092      73.11748744
N      68.38822926      94.25204322      75.57602138
H      68.66979848      92.50026691      76.27899957
C      65.84087820      95.62209479      75.82924470
H      65.70103844      96.84852717      74.18329308
C      63.77540733      93.66055888      75.68562550
H      62.03874885      94.65644464      75.20374529
H      63.62044977      92.75349024      77.52810866
C      64.07776354      91.43824073      73.75999439
H      62.36567150      90.35542756      73.37260050
H      65.51206581      90.06629942      74.30801502
C      64.98105272      92.40200115      71.22587140
O      63.70359774      93.87976713      69.83503284
O      67.03707495      91.70280241      70.39061237
C      65.57631652      97.42300397      78.09502655
O      63.48816894      98.40755137      78.80556365
N      67.72115587      97.77260333      79.45751922
H      69.31041570      96.83151962      78.96996984
C      67.80619357      99.75681597      81.44929076
H      66.59487900     101.40087786      81.16394208
H      69.68647124     100.59585445      81.45684966
C      67.46604282      98.62109045      84.07034115
O      67.58131613     100.08940779      85.97329555
N      66.94258863      96.15499761      84.39537408
H      67.13723045      94.99092620      82.89493139
C      66.52873857      94.76037958      86.82178267
H      65.16813562      95.76382426      88.00097189
C      65.25695276      92.20169017      86.21518052
H      64.02485121      91.56485240      87.73829993
H      66.72904956      90.77494680      86.01297980
C      63.38045453      92.12988056      83.88892743
C      63.22360726      89.92456995      82.41683063
H      64.61633554      88.48270878      82.80233480
C      61.45671314      89.34064453      80.50820705
H      61.19971037      87.49438192      79.67672748
C      59.72761357      91.27572426      79.82790558
O      57.97394755      90.67857075      78.04400394
H      56.70783092      91.97492300      77.92306146
C      60.13957390      93.60953627      80.91260848
H      58.87345727      95.13076595      80.41938992
C      61.68725975      94.10842401      83.03477113
H      61.84032759      95.91311264      83.97207539
C      69.00994922      94.42589804      88.39025551
O      71.11699407      94.78305631      87.43027454
N      68.85121221      93.80417807      90.88280451
H      67.15990716      93.15978141      91.48940666
C      70.85432210      93.75126574      92.75741301
H      72.55507578      94.35219871      91.75585807
C      70.41401587      95.70902220      94.84934004
H      71.73682429      95.26304679      96.36301082
H      68.54885600      95.32918720      95.63735592
C      70.88644745      98.41511028      94.24273790
C      68.86633002      99.82295638      93.30165419
H      66.97471398      99.10863984      93.02764388
C      69.27073145     102.28904922      92.64213971
H      67.85532644     103.26414800      91.53664982
C      71.53840302     103.58729120      93.00118771
O      71.74627292     106.07417102      92.32844514
H      70.31952955     106.66376564      91.37224363
C      73.46025468     102.17755537      94.15958994
H      75.35753990     102.93344590      94.13691322
C      73.20325191      99.55461524      94.57344000
H      74.87376997      98.55683975      95.19327023
C      71.09053789      91.04517766      93.64558438
O      69.20270130      89.83386309      94.29376051
N      73.37332727      90.02094600      93.53409053
H      74.85298298      91.06029546      92.92559866
C      73.89678146      87.31107846      93.56999533
H      72.17713052      86.37566394      94.20305364
C      74.57141376      86.40023039      90.86390725
H      76.58397228      86.66668180      90.51808733
C      74.02906230      83.56753063      90.53509487
H      74.73015077      82.99116412      88.68694254
H      72.01650378      83.15179084      90.39714485
H      74.85676243      82.39023115      92.01097112
O      72.99160256      87.61910386      88.93071723
H      72.98404365      89.38788768      89.33511866
C      76.05295919      86.71014550      95.28019764
O      77.61387312      88.29562587      95.92459432
N      76.13988661      84.39901022      96.40836425
H      74.93235148      82.97604630      96.01152173
C      78.22236499      83.55241283      98.12045629
H      80.11209132      84.07397728      97.48928770
C      77.71969779      84.41979720     100.81898547
H      76.80695998      86.26039064     100.75662450
C      75.82430230      82.45070238     101.91313700
H      74.26338837      82.00661670     100.64702037
H      74.91723367      83.42391143     103.48538929
H      76.81829834      80.76506652     102.55753367
C      80.06673787      84.76750684     102.33643570
H      81.25348600      86.13944815     101.35944719
H      81.17411749      83.03651754     102.18525759
C      79.70391042      85.57441999     105.13701009
H      78.55873628      84.21003758     106.17258011
H      79.05573430      87.53028672     105.17669434
H      81.45379699      85.81063577     106.19525683
C      78.37543282      80.62711649      97.88235078
O      76.91278466      79.29863889      96.65402867
N      80.32374065      79.41202248      98.90469271
H      81.53883467      80.67058019      99.66436269
C      80.81317977      76.66436042      98.89902353
H      79.39777476      75.53619380      99.87979149
H      82.47613893      76.20704665     100.02530041
C      81.27427299      75.47383283      96.14758202
O      82.22858478      76.75506728      94.46383588
N      80.76971606      73.08710851      95.76585731
H      79.97036183      71.96839053      97.08866572
C      80.60153042      72.07232547      93.28653638
H      82.18512107      72.65058172      92.10356771
C      80.85286402      69.11679353      93.59834122
H      79.16911788      68.30232149      94.45816670
C      80.96813733      68.05476733      90.93193740
H      79.92500840      66.28220405      91.06232851
H      82.92967324      67.79587482      90.36124005
H      79.89288305      69.24151545      89.63369542
C      83.00526229      68.31932901      95.32177162
H      83.06573353      69.23206683      97.16614450
H      84.71735433      68.93160035      94.35612148
C      83.05061573      65.54332107      95.85089499
H      84.56806595      65.18994224      97.19638012
H      83.26604452      64.35846266      94.17848720
H      81.34230314      64.89703467      96.80709650
C      78.08819442      73.06065234      92.11301634
O      76.20602702      71.82666106      92.10356771
N      77.98992866      75.50784791      90.99996754
H      79.47525355      76.67380904      91.26074977
C      75.74493380      76.55664601      89.74518927
H      75.54651253      75.53808353      87.96506709
H      76.17012223      78.47849767      89.13858713
C      73.32608412      76.88545840      91.16626346
O      71.32675368      76.94403990      89.88313929
N      73.31474576      76.97049607      93.61534876
H      74.89833641      77.29741873      94.63202152
C      70.93369060      77.28419064      94.98917979
H      69.45781435      76.16547266      94.08589061
C      71.18313448      76.27129734      97.68015006
H      71.94469418      77.68859208      98.97083313
H      72.51539153      74.70282450      97.71227541
C      68.62444505      75.55509106      98.73083789
N      67.59076476      73.16269755      98.39257688
H      68.51484092      71.73595420      97.52897196
C      65.44970484      73.18915372      99.74940037
H      64.40279648      71.53942265     100.33710526
N      65.21726852      75.51162736     100.85677999
H      63.86611419      76.05397881     102.09077127
C      67.14667907      77.00451116     100.09522029
H      67.54163187      78.89234774     100.76229368
C      70.12677747      80.02429380      94.87768594
O      71.45147561      81.67213514      95.85656417
N      67.79674492      80.56286580      93.93660223
H      66.76117490      79.15312997      93.17504253
C      66.63456324      82.93447233      93.86290291
H      67.92146686      84.30830336      93.02764388
C      64.31775878      82.83620656      92.10356771
H      62.87400788      81.53040567      92.78008973
H      65.02262670      82.14834618      90.29509963
C      62.76062430      85.28340212      91.42137651
H      64.06264574      86.67424069      90.64469900
C      61.16569529      84.64089519      89.11591041
H      60.08666157      86.33597968      88.67560418
H      60.02052115      82.97793603      89.52598102
H      62.37889958      84.07964646      87.54932730
C      60.82932401      86.18102212      93.43960421
H      61.66647276      86.45692216      95.30287436
H      59.47439024      84.65223355      93.71550426
H      60.00918280      87.99893884      92.92937811
C      65.94292341      83.80941560      96.59166770
O      65.14734864      82.16913317      98.02030080
N      66.25472826      86.24527283      97.31165343
H      66.55708447      87.23926886      95.71105524
C      65.41002059      87.57186069      99.63412707
H      64.76562392      86.13188924     100.95504576
C      67.62100038      89.11198764     100.62812311
H      67.08053865      90.34408919     102.18525759
H      68.09154223      90.24015424      98.97083313
C      69.91890757      87.50572028     101.42369789
H      70.58976042      86.29062626      99.90246820
C      72.11665928      89.04206776     102.39123776
H      71.81052361      89.97559256     104.20159557
H      72.60420866      90.37054536     100.89646424
H      73.82308215      87.91768061     102.63690218
C      69.27262117      85.59520697     103.62333931
H      69.14789924      86.52873177     105.45448411
H      70.72771044      84.19114033     104.02018184
H      67.52084488      84.60876984     103.16413582
C      63.11778257      89.52016853      99.18437221
O      61.43970561      89.47481509     100.72260942
N      63.25195315      91.11320781      97.22850547
H      64.76184448      90.89022010      96.08522105
C      61.20915901      92.77805668      96.63324168
H      59.37045529      91.89555449      96.92236981
C      61.03908363      94.98147757      98.50785019