 %block lattice_cart
   139.252   0.000   0.000
   0.000 142.425   0.000
   0.000   0.000   162.84
 %endblock lattice_cart

 %block positions_abs
N      93.23435084      40.45153508      80.21718920
H      95.05604700      40.55169058      80.77276874
H      92.91498708      39.33659655      78.70162870
H      92.37074590      39.78446169      81.78377232
C      92.22712670      42.93841491      79.59546925
H      93.11340834      44.19886235      80.95985164
C      93.01514257      43.73965887      77.02544146
H      92.01169790      42.69841966      75.55901384
H      94.95778122      43.12171836      76.72119552
C      92.54649045      46.55157162      76.62859893
H      90.54904973      47.05234909      76.68529072
H      93.19655631      46.95975250      74.71808563
S      94.48723938      48.49798972      78.73753350
C      94.09984549      51.51777236      77.10669969
H      94.93321478      51.59525114      75.22453228
H      94.96911959      52.90294176      78.35580879
H      92.11185340      52.03366766      76.96119077
C      89.42466258      43.05935739      80.00365013
O      87.90910209      41.33970644      79.36303291
N      88.68766933      45.11726934      81.16394209
H      90.07283870      46.34370173      81.62314558
C      86.12331072      45.81646808      82.03321619
H      84.86286327      44.72420628      80.82568108
C      85.50159075      44.89806110      84.69395084
H      85.77560107      42.85904641      84.56733918
H      83.59107745      45.44608172      85.22874339
C      87.16454991      45.94119001      86.92382789
O      87.94500688      48.07469102      86.91815871
N      87.92421989      44.38027608      88.66048637
H      89.23568995      44.89617137      89.94927972
H      87.32895611      42.56613882      88.71339871
C      85.47891404      48.56979932      81.60235859
O      87.14565264      50.04567557      81.01276398
N      82.98258558      49.04978980      81.87636891
H      81.86953678      47.54556765      82.24297581
C      81.76371211      51.51021346      81.53243872
H      82.31929164      52.26421426      79.69751447
C      78.94801990      50.99242846      81.85180246
H      78.38677119      49.58080289      80.45907417
C      78.33385886      49.91906391      84.59757480
H      76.36287430      49.32380011      84.68261248
H      78.87621031      51.34769701      85.97896473
H      79.44501793      48.20697186      84.88292347
C      77.05829359      53.17884179      81.62881476
H      77.37765733      54.52999611      83.15004444
H      75.09675767      52.56657047      81.74786752
C      77.69702109      54.45440705      79.11736849
H      76.19468867      55.63926546      78.35580879
H      78.23937254      53.12215001      77.64149224
H      79.32029599      55.54666887      79.75798571
C      82.84841502      53.45096238      83.43728284
O      82.85786364      55.68083943      82.77209918
N      83.49092196      52.53633485      85.78054347
H      83.02793902      50.69952087      86.03754625
C      84.34696798      54.06323372      87.91971366
H      83.02793902      55.63737573      88.08600957
C      84.26193029      52.54578349      90.39714485
H      85.39387635      53.50387472      91.82955740
H      85.35041265      50.81101472      90.17604687
C      81.67111552      51.40816824      91.06043879
C      79.62643165      53.05978905      91.65570258
H      79.82296318      55.07045783      91.36657445
C      77.27561212      52.03177793      92.51741777
H      75.80729478      53.25065139      93.23740350
C      76.91845385      49.44096315      92.88969386
H      75.18746454      48.64727809      93.61912822
C      78.94990963      47.83280605      92.16025950
H      78.75904728      45.81268864      92.38135748
C      81.27994218      48.74365415      91.29287512
H      82.88054037      47.61170808      90.72595723
C      87.08518141      55.27454828      87.60979854
O      87.45745749      57.55355822      87.82522734
N      88.87286249      53.89693779      86.49108056
H      88.72357412      51.99398341      86.47974220
C      91.21612312      54.83235233      85.36291395
H      92.24035478      56.16271965      86.56100044
C      92.91120763      52.48531224      85.07567555
H      92.37263563      51.61414842      83.28988419
H      92.65798430      51.24754151      86.70272991
C      95.86673958      53.15049590      84.75442208
H      96.25224375      54.78888861      83.56767396
H      96.95711166      51.48375729      84.23474734
C      96.96656029      54.04811590      87.26019917
O      97.13852540      56.31011830      87.98207462
O      97.76402480      52.37570812      88.80221584
C      90.76069908      56.36869981      82.97807935
O      91.50336153      58.58534877      82.91193893
N      89.20545433      55.55422778      81.17905990
H      88.56672683      53.78355422      81.50031337
C      88.51570422      57.02821429      78.91894723
H      90.08606679      57.23419447      77.60180799
C      86.58629366      55.52777160      77.41283535
H      84.80617147      55.79989219      78.41061085
H      87.08518141      53.53222061      77.49409359
C      85.94000726      56.08524086      74.72564454
H      87.55950271      55.49375653      73.59558820
H      85.67355585      58.09401993      74.36092736
S      83.08085135      54.48464268      73.58802930
C      83.00526229      55.68461888      70.46431170
H      84.43389539      54.73975574      69.32102728
H      83.35297193      57.71418494      70.45675280
H      81.10041818      55.45407228      69.71409036
C      87.50659038      59.70973593      79.21185480
O      88.38342339      61.44450469      77.85881076
N      85.70190175      60.03476886      80.89938040
H      85.15577084      58.58912823      82.02187783
C      84.66633172      62.60857610      81.39448870
H      84.17122344      63.70083791      79.72019118
C      82.30795328      62.25519728      82.97052044
H      81.81473472      63.90114889      84.10813568
H      82.48558757      60.54499497      84.10246650
C      80.02705362      61.89425955      81.16205236
H      80.58074344      60.55066414      79.70318365
C      77.65733683      61.13836902      82.71162794
H      76.09075371      60.84357172      81.40771678
H      77.44190803      62.49708225      84.24419598
H      77.86709645      59.37903384      83.76231577
C      79.21636104      64.42271336      79.99042205
H      80.80940032      65.30899500      79.03233081
H      78.58330272      65.94772249      81.22063388
H      77.69513136      63.87469273      78.70918761
C      86.72613340      64.09579070      82.83634987
O      87.14187320      66.31810885      82.30911623
N      88.17933294      62.91282203      84.43694806
H      87.75036506      61.06655943      84.66560494
C      90.40165108      64.06177564      85.82400717
H      89.78937976      65.74552178      86.83879020
C      91.33706562      62.15126233      88.01986915
H      91.85485062      60.36169151      87.13925669
H      89.72512906      61.59001361      89.17071247
C      93.36096249      62.98085218      89.86991121
H      92.96978914      64.84223260      90.65981681
H      95.31304977      62.98463163      89.21228645
C      93.39686729      61.43127661      92.22073074
H      91.46934645      61.06844915      92.85756851
H      94.28125920      62.36102195      93.83077756
N      94.60062295      58.95195569      91.79743205
H      95.19399701      58.61180494      90.01542014
C      95.31871895      57.48741779      93.62479739
N      94.70644762      57.87670141      95.97183747
H      95.52658884      56.76554235      97.28897672
H      94.63463803      59.64737496      96.68048484
N      96.48090063      55.45029282      93.15614527
H      96.73034450      54.29755977      94.65658796
H      96.75680067      54.90416192      91.34767719
C      92.59751307      64.95561618      83.94750895
O      94.02614615      66.83211440      84.30655694
N      92.85640557      63.68572010      81.77243396
H      91.81138691      62.10590890      81.54566680
C      94.46456267      64.26775581      79.72586036
H      96.27681019      64.83656343      80.52143514
C      94.91053806      61.70339720      78.32935262
H      93.14553369      60.70373197      77.97597380
C      95.95366699      61.93583354      75.72530976
H      94.42109895      62.65392953      74.54801026
H      96.63396846      60.13303464      74.99776513
H      97.39741789      63.40793033      75.69885359
C      96.77191849      60.01776133      79.82979531
H      96.76624931      58.17527817      78.90382942
H      96.21822867      59.79477362      81.80077985
C      99.49690383      61.09301559      79.83735421
H     100.16964640      61.24986288      77.89660529
H     100.72522593      59.76075855      80.81434272
H      99.52713945      62.91282203      80.79922491
C      93.28726316      66.23874034      77.92117173
O      94.57038733      68.00374472      77.04622845
N      90.79471417      66.01008347      77.51299085
H      89.98591129      64.39247773      78.12715190
C      89.37175025      67.91870704      76.13915982
H      90.38653327      68.07555433      74.35336845
C      86.67322108      66.93038017      75.60247755
H      85.32962566      68.49129411      75.72530976
H      86.15543606      65.59623340      77.08213325
C      86.25937100      65.75686013      73.07024429
O      84.19578988      64.51719968      72.90961755
O      87.59162806      66.12724650      71.27122484
C      89.17521871      70.66447938      77.22764218
O      89.02026116      72.49373445      75.82924470
N      89.14876254      70.98951229      79.73908845
H      89.20356460      69.38513466      80.77276874
C      88.64231589      73.37056745      81.21874415
H      88.71601521      75.04864442      80.02821657
C      85.82662369      73.08521877      82.05400318
H      85.70757092      71.97972888      83.78877193
H      84.75892831      72.01752341      80.65182626
C      84.36208579      75.43225886      82.89871084
H      84.72491324      75.98972812      84.84701867
H      82.38732179      74.87101014      82.75509164
C      84.57184541      77.54875233      81.09969139
O      84.99892355      79.73327595      81.75542642
O      84.64932419      77.10466665      78.81312255
C      90.41676889      74.16236277      83.37114242
O      90.44511479      76.43759325      83.92861168
N      91.47501563      72.52774952      84.65615631
H      91.49580262      70.75896568      83.93995004
C      93.02459120      73.27986058      86.95406351
H      93.86929887      75.12990265      86.63092031
H      94.67999145      72.09689191      87.26586835
C      91.36163206      73.54631199      89.36724401
O      89.10151939      73.13246194      89.22551454
N      92.44066577      74.12267852      91.66515121
H      94.34928935      74.11511963      91.70861491
C      91.19911559      74.40235802      94.18415638
H      89.15065226      74.25495936      94.02730910
C      92.07972805      72.32743852      96.02097036
H      94.13575029      72.24807003      95.90191760
H      91.04037858      70.63424375      95.47294973
C      91.23879985      72.61278720      98.82343448
H      92.10051504      74.29842307      99.63979625
C      88.34184940      72.78286256      98.93492833
H      87.68800410      72.67703790     100.88512589
H      87.66910683      71.09155752      97.96927819
H      87.86374865      74.44771145      97.82376926
C      91.97768283      70.17692998     100.21427305
H      91.76225403      68.38168999      99.23161536
H      91.11974709      70.12968682     102.08699182
H      94.00724889      70.19015806     100.56954159
C      91.67532662      77.01773923      95.26319011
O      93.88819614      77.73772497      95.19138051
N      89.71001125      78.24039217      96.41403343
H      88.04327265      77.36166943      96.09466969
C      89.87630717      80.69514664      97.55353840
H      91.70745196      81.34521249      98.23950905
C      88.93144401      82.71526407      95.69593743
H      88.44011518      84.36310542      96.82977322
H      87.20801361      82.01606534      94.80965579
C      90.84006759      83.60343543      93.63235630
H      91.84351227      81.98771944      92.84245070
H      92.27625958      84.79774246      94.49974068
C      89.78560031      84.99049455      91.35334637
H      91.17454915      86.05063101      90.26486401
H      88.55727821      86.42857628      92.17348759
N      88.10752334      83.40312445      89.72251256
H      87.41966297      81.80630572      90.50863870
C      88.01114730      83.39178609      87.30177315
N      88.64420561      85.31741720      85.85046334
H      88.25303227      85.05096579      84.00231101
H      89.32450708      86.90289759      86.66493538
N      87.01526153      81.39056593      86.22651888
H      86.56172721      81.45103717      84.37458709
H      86.76014849      79.74839375      87.16949231
C      88.14720759      80.54396854      99.86278395
O      85.96079425      79.89201296      99.71349557
N      89.28860228      81.16568850     101.95093153
H      90.96667926      82.03307287     101.68259039
C      88.06783909      81.28096179     104.53229767
H      86.67133134      79.77107047     104.40001683
C      90.02748527      80.59310142     106.52217948
H      89.07317348      80.09610341     108.27962495
H      91.08573201      82.28629620     107.02862613
C      91.81138691      78.30842230     105.91746706
H      93.09451108      78.79219224     104.37922984
C      93.44411046      78.18747982     108.33820647
H      92.20822945      78.11567023     109.98604781
H      94.57227706      79.89768213     108.53662773
H      94.40787088      76.37523229     108.15868247
C      90.52637302      75.77618904     105.31653409
H      90.10118461      74.49306488     106.87177885
H      91.96256502      74.75006766     104.25639763
H      88.89175976      76.02374320     104.08821199
C      86.73558203      83.75839300     105.04063405
O      84.96301875      83.83965123     106.56753291
N      87.50281092      85.79173851     103.73294344
H      88.98246663      85.50261038     102.56131313
C      86.38787240      88.41845808     104.07120445
H      85.32206675      88.50916495     105.83242938
C      88.31350351      90.53873100     103.85577565
H      87.41966297      92.39444224     103.88034209
H      89.03915842      90.41400906     101.93392399
C      90.43944561      90.55762827     105.91179788
H      91.33706562      88.70758621     105.79274512
H      89.51725917      90.61620978     107.75428104
C      92.41987878      92.68357037     105.39968205
H      93.68032624      92.53428199     107.01917750
H      91.43722110      94.49392818     105.35999780
C      93.77670228      92.55884843     102.74461658
H      94.82361065      94.28416856     102.34210488
H      92.47279113      92.23192578     101.18370265
N      95.57761145      90.50282620     102.75595494
H      96.37696569      90.26661042     101.03819372
H      94.81605175      88.83419788     103.29641666
H      96.80404384      90.79195433     104.19025721
C      84.29216591      88.59042318     101.95282126
O      84.58318377      87.40556477      99.84388669
N      82.38543206      90.31007412     102.37234050
H      82.04906078      90.85431531     104.16947022
C      80.49381603      91.20580440     100.46938610
H      79.40722340      89.56930141      99.84577642
C      78.46613969      93.11442798     101.38968281
H      79.20880213      94.67534191     102.50840079
C      77.03183742      94.01393770      99.09744480
H      76.48570651      92.30562510      98.08833095
H      78.17323211      95.25548789      97.91447612
H      75.38588581      95.10619951      99.68514968
C      76.60286954      91.73303803     103.21515843
H      77.59686559      90.89022010     104.81008744
H      75.65989611      90.20235973     102.20793431
C      74.50716307      93.54906503     104.31497915
H      75.34053237      95.19690636     105.22582723
H      73.43379853      92.41144979     105.64912592
H      73.14089094      94.28416856     102.95626593
C      82.03394298      92.30184565      98.18470699
O      83.49470141      94.17267470      98.39257688
N      81.63143126      91.22092220      95.97939638
H      80.49948520      89.69213361      96.12679503
C      82.27015876      92.44735458      93.47172956
H      83.10730752      94.28605828      93.87613099
C      84.11642138      90.57652554      92.01475058
H      85.64143051      89.90567269      93.22417542
H      84.78727421      91.68012569      90.41037294
C      82.99392394      88.07452789      91.08122578
C      82.48369784      87.86854773      88.54710279
H      82.76904650      89.51071989      87.36980330
C      81.54072440      85.65000904      87.70617458
H      80.73003181      85.53851518      85.83723526
C      81.48970180      83.47304432      89.11968986
O      80.58074344      81.25639535      88.11624519
H      80.15177556      81.46048580      86.36824835
C      82.03016352      83.59587654      91.85034439
H      81.88276486      81.95748381      93.06165895
C      82.93912187      85.91646045      92.75741302
H      83.49470141      86.20180912      94.70005167
C      80.02516390      93.03316974      91.83333685
O      77.80662521      92.48892857      92.36246022
N      80.69034756      94.09141647      89.62424679
H      82.55361770      94.25771239      89.24630153
C      79.06518293      94.91911659      87.59846018
H      77.20191279      94.21613841      88.12569382
C      79.01605005      97.74614716      87.48129715
H      80.76593662      98.34330067      86.57044907
H      78.81195960      98.48125069      89.39370018
C      76.66900997      98.63998771      85.97707501
H      74.91912340      98.21668901      86.97862995
H      76.44602226      97.64599166      84.18561446
C      76.56507502     101.65410117      85.29866326
H      74.69046652     101.85441216      84.47096313
H      77.96158277     102.12086357      83.85869181
C      76.71436341     103.20934593      87.71373349
H      78.19968828     102.39298417      88.88347407
H      74.86432134     103.15265414      88.61891239
N      77.37954706     105.85118332      87.17516149
H      76.00760576     106.61085329      86.08667913
H      78.86109249     105.98724362      85.97896473
H      77.65544710     106.81305402      88.80032612
C      79.68123371      93.49993213      85.06811665
O      81.83174225      92.95002178      84.49175012
N      77.71402862      92.95002178      83.69617535
H      76.01894411      93.56229311      84.31789530
C      77.86142727      91.05084683      81.71385244
H      79.83052209      90.51605430      81.43417295
C      76.54050858      88.79451361      82.84390878
H      74.58464184      89.34820343      83.17839034
H      77.62332175      88.43924508      84.55978027
C      76.67467914      86.40400984      81.23386196
O      78.76849590      85.83898167      80.32679333
O      74.76605557      85.24938705      80.64615708
C      76.98081482      92.02972507      79.05689725
O      76.22114483      94.28038911      78.85847598
N      77.17356689      90.43668579      77.11803805
H      77.91244989      88.70191704      77.41283535
C      76.90522575      91.21714275      74.44596504
H      78.64755342      92.05429151      73.73920740
C      76.29484417      88.80585197      72.77355726
H      74.68479734      87.77784087      73.54834504
C      76.01894411      89.30662946      70.01266711
H      75.29517894      87.54918398      69.22087179
H      77.80662521      89.78473020      69.10937794
H      74.55818567      90.71636527      69.65928829
O      78.30173351      87.11643666      72.99087578
H      77.79528686      85.77473098      74.10014513
C      74.81896792      93.17300948      74.02077662
O      75.17612619      95.01549264      72.64694559
N      72.47759700      92.82341012      75.08280281
H      72.31508055      91.27950373      76.19585161
C      70.23449187      94.41266995      74.37982462
H      70.37433162      95.14966322      72.46364214
C      67.79863466      92.77238751      74.08313759
H      66.12811659      93.92323083      73.72786904
H      67.47360174      91.95224629      75.94829746
C      68.13311622      90.51605430      72.11026332
H      67.16935580      88.88711020      72.92095591
H      70.10788021      90.04173299      71.77200231
C      67.05597221      91.07541327      69.64606021
O      68.14445457      92.44168540      68.11916135
O      65.13223082      89.91134188      69.04134779
C      69.69780960      96.53861205      76.11270365
O      68.02729154      98.09952598      75.78578100
N      71.32108451      96.74648194      78.00809914
H      72.82719637      95.58241054      77.86636967
C      71.65934551      98.93856447      79.75609598
H      70.81274812     100.68278186      79.05878697
H      73.68891157      99.25414876      79.91294327
C      70.46881793      98.35841848      82.49430941
O      69.91323841     100.17822492      83.81900756
N      69.79607538      95.99437087      83.15760335
H      70.25149941      94.52794325      82.02376756
C      68.58476081      95.38965845      85.37614204
H      67.62100039      97.05261760      86.11502503
C      66.34732485      93.50749104      84.79410633
H      65.16246646      93.27505471      86.46084494
H      66.86699959      91.61398528      84.17427610
C      64.65790952      94.45991310      82.73619438
C      64.35177386      93.17867867      80.34380087
H      65.16813563      91.32485715      80.08868781
C      62.91369214      94.22558704      78.39927249
H      62.70582224      93.19757592      76.64749620
C      61.77040772      96.55750932      78.66383417
O      60.30398010      97.71969100      76.81379211
H      59.67848070      99.29194329      77.46385797
C      62.00662350      97.77638279      81.04866878
H      61.28096860      99.67744745      81.20173661
C      63.37289564      96.72191550      83.07445539
H      63.43336688      97.68567592      84.87158511
C      70.48582547      94.48258982      87.34145740
O      72.45681002      93.46591706      86.57044907
N      69.72615550      94.76415904      89.77542489
H      68.22571281      95.92067155      90.00408178
C      71.17746530      93.70780203      91.94672043
H      73.14656012      94.22369732      91.63680531
C      70.44425150      95.35375365      94.45438725
H      71.20392148      94.32007336      96.06632379
H      68.40523681      95.55406465      94.66225714
C      71.50816740      98.03905474      94.54320438
C      70.05118842     100.20279138      94.79642771
H      68.03674017      99.88909681      94.88713457
C      71.17368586     102.58762598      94.33911394
H      70.25527886     104.39798379      94.55265301
C      73.74371363     102.59329515      93.60778986
O      74.90211586     104.89309207      93.16370417
H      73.90811982     106.35196079      93.57377478
C      75.24982550     100.52026539      93.42259668
H      77.19813333     100.63553870      92.82544316
C      74.13677671      98.25826299      93.96872758
H      75.40289334      96.66144427      93.91014607
C      71.06597145      90.79384405      92.64591916
O      69.13089170      89.55607332      92.57221984
N      73.26372315      89.70158224      93.22795487
H      74.74904804      90.87132284      93.50196518
C      73.78150816      86.93313320      93.01063634
H      72.00138597      86.00527758      93.47739874
C      74.78684257      86.20180912      90.33478388
H      76.67278942      87.01439143      90.17037769
C      75.18179536      83.36910937      89.55054746
H      73.43568824      82.29763456      89.33511866
H      76.28161608      82.57542433      91.10012304
H      76.30429279      83.00250248      87.86113214
O      73.07475052      86.98415582      88.54143361
H      73.11065532      88.79829308      88.44505757
C      75.67690365      86.07519745      95.18949078
O      77.25482512      87.70603127      95.87735116
N      75.71658790      83.71870874      96.16458956
H      74.24827056      82.50928390      96.00585255
C      77.74615396      82.66802091      97.75951857
H      79.33919325      83.74327518      97.01685613
C      77.06585250      83.22926963     100.53741625
H      76.16256331      85.07364251     100.66969709
C      74.82652681      81.35466113     101.16480538
H      74.70747405      81.45859608     103.21893789
H      75.34620155      79.42147110     100.68103545
H      73.03884573      81.84410024     100.27096484
C      79.30517817      83.09131960     102.46115763
H      80.73381126      84.37444378     101.71849519
H      80.03461253      81.21293166     102.88823578
C      78.43023489      84.35554651     105.00661898
H      77.06963194      85.78228988     104.40757574
H      80.06295842      85.33253501     105.79652458
H      77.53072516      83.02139973     106.28974314
C      78.43779379      79.87689514      96.99606914
O      77.13577236      78.68825729      95.51830316
N      80.32940983      78.85644293      98.33210564
H      81.56529084      80.06964723      99.13334960
C      80.96624760      76.13712678      98.44170977
H      79.42801038      74.89935604      99.02752492
H      82.59141223      75.89902126      99.68514968
C      82.04717105      75.26029377      95.91514569
O      83.87264667      76.26373843      94.95894417
N      80.86231265      73.27986058      94.73406674
H      79.30139872      72.70727351      95.67704017
C      81.16655859      72.81687765      91.96561769
H      82.58952250      73.98661824      91.04532098
C      82.01504571      70.14102518      91.37413336
H      80.64310441      68.84089349      92.19427458
C      82.43645467      69.45694425      88.49985963
H      80.72625236      69.85756624      87.42649509
H      83.11486643      67.52942341      88.22773904
H      83.74792473      70.93471024      87.91593420
C      84.60397075      69.96906008      92.68182396
H      84.21090768      70.13724573      94.69816194
H      85.93055863      71.47328223      92.21695129
C      85.97024288      67.38202476      92.40970337
H      86.88109096      67.12691172      90.58044830
H      84.67011118      65.79654439      92.61190409
H      87.25714650      67.10990417      93.99518375
C      78.72314248      73.56898871      90.51619761
O      76.93735110      72.08366384      90.48029281
N      78.53039038      75.77051987      89.27842687
H      80.03839198      76.94026045      89.24441180
C      76.31374142      76.28074598      87.58145265
H      76.18146058      75.08076976      85.91093458
H      76.62932571      78.11189078      86.68761210
C      73.76072118      76.70026522      88.87780490
O      71.81808252      76.40168845      87.56066566
N      73.83064104      77.22749885      91.29098540
H      75.45958513      77.61867220      92.20750266
C      71.53462357      77.51095781      92.87835550
H      70.07575486      76.35255557      91.99774304
C      71.87477431      75.92358770      95.42192712
H      72.83286555      77.06876185      96.83733213
H      72.84609364      74.13779633      95.08177638
C      69.29907735      75.50595818      96.39324644
N      67.94036413      73.26096333      96.14947175
H      68.40523681      71.49973840      95.57877440
C      65.71048708      73.59922434      97.17748286
H      64.24216974      72.19704741      97.40425002
N      65.34010072      75.89335209      98.01085217
H      63.73194363      76.63790424      98.71572008
C      67.55297023      77.25206529      97.37779385
H      67.75139149      79.24383683      97.77274665
C      70.39700833      80.22649452      93.08055622
O      70.91101389      81.53229540      94.93248800
N      68.90034509      80.90868571      91.23240388
H      68.64523205      79.70870951      89.77164544
C      67.39612295      83.34454293      91.15303538
H      68.83231496      84.81475001      91.05665933
C      65.79363503      83.26706415      88.62269184
H      64.82420545      81.44914744      88.62080212
H      67.20526059      83.27651278      87.12413888
C      63.99839504      85.30418911      88.05955340
H      63.17825382      86.11677144      89.76786599
C      65.07742876      87.63044221      86.82934157
H      65.55175008      87.28273257      84.85646730
H      66.73660847      88.26539025      87.87247050
H      63.72438472      89.17812807      86.72351690
C      61.71371593      84.56530613      86.47407303
H      62.39212767      84.03996222      84.60324398
H      60.32665681      86.07141800      86.24919559
H      60.70460207      82.89289834      87.13169778
C      65.74261243      83.53351556      93.52275217
O      64.51618006      81.75528310      94.34478312
N      65.70292817      85.84654058      94.73406674
H      66.72904956      87.18257708      93.83644674
C      64.16091151      86.28306735      96.93370817
H      63.44281550      84.59932120      97.88046105
C      65.82198093      87.83642238      98.87634682
H      64.75995475      88.28050806     100.58465940
H      66.31897896      89.55796305      97.85589461
C      68.21248472      86.51172424     100.07443330
H      69.46726299      85.90512208      98.55887280
C      69.71103768      88.46192178     101.59944243
H      68.40145735      89.26127601     102.97327346
H      70.37811107      90.03795353     100.45615802
H      71.32108451      87.51516890     102.47249599
C      67.57942640      84.09098482     101.57109654
H      66.54574612      82.87400109     100.26907511
H      66.21126455      84.24972184     103.10366458
H      69.20081158      83.06864290     102.32509734
C      61.86111458      87.95358541      96.53308619
O      59.88068141      87.58886824      97.59700210
N      62.08221257      89.71292060      94.74729482
H      63.81320186      90.00204873      93.99896320
C      60.14146363      91.49493252      94.21250228
H      58.44259969      90.33086112      94.11612624
C      59.69170877      93.46024789      96.37812863