 %block lattice_cart
   139.252   0.000   0.000
   0.000 142.425   0.000
   0.000   0.000   162.84
 %endblock lattice_cart

 %block positions_abs
N      91.62241429      38.56747794      83.64987706
H      93.41387483      39.04368897      84.09963192
H      91.65453964      37.51112093      82.06061723
H      90.88164156      37.71521139      85.18811426
C      90.07850789      40.82003171      83.04516464
H      90.78337581      42.43574772      84.11097027
C      89.83662292      41.55324552      80.28994366
H      88.47790969      40.29090835      79.39043394
H      91.62052456      41.23766122      79.31484488
C      89.09207075      44.22531852      79.94790321
H      87.20801361      44.35004046      80.76615469
H      88.84451660      44.51066721      77.92211660
S      90.90431829      46.84636892      81.25181435
C      93.65009061      46.80479494      79.07295992
H      94.80660312      48.43373902      79.57562712
H      93.04537819      47.19218885      77.14165963
H      94.66487365      45.01522413      79.13154144
C      87.27982322      40.45342480      83.88042366
O      86.47102036      38.23866557      83.78593734
N      85.93433809      42.32803331      84.73080051
H      86.83006835      44.00044109      84.93300122
C      83.15833013      42.42818881      85.06717178
H      82.17756218      41.19986671      83.73869418
C      82.34952727      41.38505989      87.55405162
H      82.81062049      39.37628080      87.59562560
H      80.30484340      41.28679411      87.77137013
C      83.56840073      42.62472035      89.89164306
O      83.86697750      44.96042207      90.04093144
N      84.58696323      41.05246804      91.61696319
H      85.16521948      41.83670446      93.25724562
H      84.43011594      39.15140338      91.58294811
C      82.04717106      45.07191592      84.75725667
O      83.57595964      46.71786753      84.16199289
N      79.59052684      45.49899407      85.03882590
H      78.42645543      44.00044109      85.22968825
C      78.64188424      48.16161843      84.70245460
H      79.13888225      48.94585485      82.86186118
C      75.70902901      48.05390404      84.91410396
H      74.96825628      46.88983264      83.38531536
C      74.89077751      46.85203811      87.48224201
H      74.98337410      48.23153831      89.00914087
H      75.99248795      45.25899882      88.18899966
H      72.92357241      46.24732568      87.48035228
C      74.31252126      50.67306471      84.46245937
H      74.99282272      52.04878546      85.83440067
H      72.29807301      50.50487906      84.84418408
C      74.86999051      51.67084021      81.74503293
H      74.49015553      50.04945503      80.53560808
H      76.82585726      52.32279578      81.73180484
H      73.70969856      53.30356373      81.26126299
C      79.81918373      50.12315435      86.53737886
O      79.99114882      52.36814922      85.89676164
N      80.42200643      49.30679258      88.84284496
H      80.91144555      47.54178821      89.37763750
C      81.39710521      51.15494492      90.64186440
H      80.17067282      52.80845544      90.65698221
C      81.31962642      49.94174062      93.38574701
H      82.17567245      51.24754151      94.72934242
H      82.47991839      48.27122257      93.05315518
C      78.78928289      49.35403575      94.40997868
C      77.10364703      51.15872438      95.29059113
H      77.34175253      53.12592946      94.79548284
C      74.80196038      50.49354071      96.31860226
H      73.31663549      51.79556213      96.83449753
C      74.22937330      48.07280130      96.54347968
H      72.50027372      47.29801351      97.29937021
C      75.90745026      46.25110514      95.76302272
H      75.44068787      44.30468704      96.16364470
C      78.14299650      46.82180248      94.48556772
H      79.49604054      45.35726460      94.04337177
C      84.00114806      52.03933684      90.05038007
O      84.42066730      54.38637691      89.81605402
N      85.69812230      50.36881877      89.41732176
H      85.24647771      48.51688698      89.52692588
C      88.32295215      50.89416268      88.84473469
H      88.87475222      52.40783346      90.12596912
C      89.95945513      48.60570413      89.22645940
H      91.96256501      48.94963431      88.90331620
H      89.46245710      47.09203335      87.91876880
C      89.49080301      47.69107659      91.99490844
H      90.85707512      46.15850855      92.15742491
H      87.59162806      46.91817853      92.18766054
C      90.23157572      49.67339949      94.04715122
O      88.52893230      50.43117974      95.53436584
O      92.39153289      50.71463868      93.89408339
C      88.47601997      51.92406352      86.29171444
O      90.38842301      53.23364387      85.87219520
N      86.82250944      51.36848400      84.50025390
H      85.34852292      50.22519958      84.89709641
C      86.43322582      53.05789932      82.26848711
H      88.09996444      52.68184378      81.11953352
C      84.38098306      51.69918610      80.61686631
H      82.78794378      51.37415318      81.87731376
H      85.08585097      49.83213650      80.10664021
C      83.55895211      53.19395961      78.24148034
H      84.92522424      52.70452049      76.77883218
H      83.73280693      55.19329004      78.70824274
S      80.32940984      52.35303140      77.22480758
C      80.15555502      53.26576921      73.93290434
H      78.41322736      52.60247528      73.05607134
H      81.78827856      52.50798896      72.93512886
H      80.49759547      55.29344554      73.80440296
C      85.64520995      55.91705522      82.77682350
O      86.98502591      57.59891165      81.86030623
N      83.64210006      56.41405325      84.17900042
H      82.89187872      54.91172083      85.08417932
C      82.80306158      58.98219131      84.64954228
H      82.75959787      59.88737022      82.79950021
C      80.09886323      59.06722899      85.78148834
H      79.93445703      60.84546145      86.80383027
H      79.70202070      57.51198423      87.07028168
C      77.94835468      58.96329404      83.75192227
H      78.21480610      57.11703144      82.87886871
C      75.17990563      59.10124407      84.71757241
H      75.01172000      57.67450069      86.19344867
H      73.76639035      58.52865699      83.32862357
H      74.83975489      60.90026351      85.65676640
C      78.41700680      60.86624844      81.68078223
H      79.84375017      60.19917505      80.35419436
H      79.08974937      62.71629051      82.28360493
H      76.73892985      61.09112588      80.50915192
C      84.80995092      60.52420797      86.27659662
O      85.04238727      62.76164393      85.57172872
N      86.25559155      59.26187081      87.94333523
H      85.83229286      57.40049038      87.95278387
C      88.55349876      60.16515997      89.15087035
H      88.08295689      61.75819927      90.37163354
C      89.59851740      57.95606992      90.75146854
H      90.55093946      56.72963755      89.39842450
H      87.91099180      57.23419447      91.68499334
C      91.32383753      59.01242692      92.73757090
H      90.48101960      60.70184226      93.56338129
H      93.15120287      59.59446263      91.99112899
C      92.11941230      57.09624444      94.62351775
H      93.25891728      58.23952886      95.90286246
H      93.31938851      55.76209766      93.61062444
N      90.12764076      55.56178669      95.74979464
H      90.18811202      53.71930353      95.25657607
C      88.54027066      56.05878470      97.45054832
N      88.68200015      58.12425556      98.69965740
H      87.83540276      58.24519804     100.40419055
H      90.29960587      59.12014132      98.49934642
N      86.76581766      54.47519406      98.15919569
H      85.68678393      55.00053796      99.64074111
H      86.76770738      52.69129241      97.48078394
C      90.63030797      61.03065464      87.39153515
O      92.22334726      62.53865622      88.10396198
N      90.66999223      60.22374149      85.01803890
H      89.10529883      59.24297354      84.53237923
C      92.28759795      61.23474507      82.99603174
H      93.44033099      62.72951858      83.81806269
C      94.28881811      59.31100369      82.04927887
H      95.83083479      60.29177164      81.09307734
C      95.47178679      58.01087198      84.41521620
H      96.10106565      59.45462288      85.73991435
H      97.19521719      57.02632458      83.85774695
H      94.33984073      56.58412861      85.37519717
C      93.04159875      57.45151300      80.26726695
H      91.89453488      58.54188507      78.94823799
H      91.79626911      56.32145665      81.45401508
C      94.76124968      55.71296478      78.53438793
H      95.80059916      56.72963755      77.07551921
H      93.87685778      54.18039674      77.48181037
H      96.01602797      54.62259271      79.75326139
C      91.00825323      62.63125281      80.89276636
O      92.35184865      63.38336390      79.13910035
N      88.54405012      62.96762410      81.03260610
H      87.67855547      62.06244519      82.47068783
C      86.87542179      64.29610170      79.15232842
H      87.75036506      64.33389623      77.28716855
C      84.44523374      62.81833572      78.91044345
H      83.21502191      63.30588511      80.49214439
H      84.71357488      60.78310049      78.75737562
C      83.15644040      63.52887281      76.50860131
O      84.21846659      63.30966457      74.42612291
O      80.88687909      64.26775580      76.85442122
C      86.24236348      67.02675622      79.73625386
O      86.22535593      68.80687841      78.18478855
N      85.76237298      67.38391449      82.17211108
H      85.54316474      65.83622865      83.27193178
C      85.30127977      69.96717037      83.21524000
H      86.01748604      71.27486097      81.79227608
C      82.44401359      70.37157180      83.07540026
H      81.38009766      68.89380582      84.04105039
H      81.82040389      70.22795260      81.11764379
C      81.83552171      73.07388042      83.90121065
H      82.40243960      73.49339966      85.83629040
H      79.78138920      73.21749963      83.84073940
C      82.93345269      75.05998278      82.18155970
O      84.85152491      76.26184871      82.77304405
O      81.59741619      75.40580270      80.28427448
C      86.71857451      70.31676974      85.77770888
O      87.89776373      72.31043100      86.10652126
N      86.93022385      68.23618106      87.37452762
H      85.97402234      66.66014931      86.88130904
C      88.75003028      68.19649680      89.59495603
H      90.68322031      68.81632705      89.23212858
H      89.26781530      66.23874034      89.97290129
C      87.75036506      69.91047857      91.83050226
O      87.02848961      72.10823027      91.57727893
N      87.80138768      68.93726953      94.10573274
H      88.75380974      67.29320764      94.31171290
C      86.71101560      70.21094505      96.31860226
H      84.73625159      70.70983281      96.00868714
C      86.81872999      68.31177012      98.59572246
H      86.04961139      69.32088397     100.21899736
H      88.70845630      67.93760431      99.31948764
C      85.32962566      65.84756701      98.38218339
H      83.78760899      65.95150195      97.01780098
C      86.74503067      63.58367487      97.25968595
H      85.70001201      61.82056022      97.47700448
H      88.53271177      63.28698784      98.23667446
H      86.99825399      63.63280776      95.21500208
C      84.35074744      64.80632780     100.90496801
H      83.55328293      62.90715285     100.96543925
H      82.75203898      66.02709101     101.34149480
H      85.86063875      64.87435795     102.30525522
C      87.97902196      72.76396530      97.05937497
O      90.28070861      73.17025647      97.16708936
N      86.38220322      74.62156628      97.20866335
H      84.73625159      74.49117516      96.25246184
C      86.89809851      77.15568925      98.49934642
H      88.90876730      77.45426602      98.83004852
C      85.94945589      79.27596218      96.76646738
H      85.82851340      81.02773848      97.84172166
H      84.04272205      78.64857305      96.30159471
C      87.72012944      79.43091974      94.58383349
H      88.63475698      77.69804072      93.94888545
H      89.21868242      80.65735212      95.29059113
C      86.63353681      80.84254530      92.38797152
H      86.38220322      82.83809629      92.84339556
H      84.89120915      79.94870475      91.75680293
N      88.33429050      80.50050484      90.29037532
H      90.05016199      81.25639535      90.65320277
C      88.03382402      79.39690467      88.16254349
N      86.12142099      77.96260240      87.56727969
H      86.28393745      76.96104745      85.95156370
H      84.86475298      77.70559961      88.98079499
N      89.67599619      79.62556156      86.33139868
H      89.21679269      78.78841279      84.67977790
H      91.28793273      80.64979322      86.27659662
C      85.60552571      77.45615575     101.10716874
O      83.61753363      76.41491654     101.67597636
N      87.04927661      78.70337511     102.74745117
H      88.71979466      79.20226286     101.96321475
C      86.71668478      78.76195662     105.56881255
H      85.15010166      77.52607561     106.07903866
C      89.00514333      77.63756946     106.96909976
H      88.49869668      77.43914820     108.95520210
H      90.47535041      79.07565120     107.08059361
C      90.38464355      75.18848417     105.92030164
H      90.93644364      75.69493082     104.00222944
C      92.76569871      74.30409226     107.32058885
H      93.30049125      72.58822077     106.31525444
H      92.27625959      73.87323466     109.27456586
H      94.30204620      75.67603356     107.28657377
C      88.45712271      73.02474754     106.02423660
H      87.80894659      72.65625091     107.94419853
H      89.42844204      71.43548770     105.14929331
H      86.88487041      73.56898872     104.81103230
C      86.07606755      81.52473649     106.57225723
O      85.50348048      81.92535847     108.76811921
N      85.99858878      83.41824227     104.82048094
H      86.29338608      82.83242711     103.02902040
C      85.02349000      85.99015977     105.15685222
H      83.89154394      85.88622482     106.87461344
C      87.20990335      87.90256281     105.33259677
H      88.55916792      87.23170997     106.73855314
H      86.44078473      89.61654456     106.17919416
C      88.88987004      88.26539025     103.03091011
H      87.77682123      89.12710546     101.53046742
H      89.38686806      86.36621530     102.40352099
C      91.26336629      89.71292061     103.63373282
H      92.30649521      88.78317526     105.14740358
H      90.87975185      91.68012571     104.10616438
C      92.96223024      89.56741168     101.29992081
H      92.43121715      91.08675163     100.01112747
H      92.68255075      87.78162031     100.30970423
N      95.68910530      89.67323636     102.02935518
H      96.03870468      91.43824074     102.66997240
H      96.77380822      89.44646920     100.47411041
H      96.11429372      88.50727523     103.47877526
C      83.32462605      86.47770917     102.87595255
O      83.64021034      85.46670558     100.84827622
N      81.48214289      88.00082857     103.45987799
H      81.62765182      88.99482461     105.08126316
C      79.69257207      88.83608759     101.49456263
H      78.68534795      87.13155447     100.92575500
C      77.89922180      90.96391943     102.36383672
H      78.81762878      92.73648271     102.86461420
C      75.93012699      91.54973458     100.43064671
H      76.80129082      91.80484764      98.58060466
H      74.90022613      93.26749580     100.90496801
H      74.59031103      90.02472545     100.08482679
C      76.61420791      90.02094600     104.82803984
H      77.83308138      88.91356638     106.06581058
H      75.24604606      88.56963619     104.31781374
C      75.23092825      91.92579013     106.48155037
H      73.70591911      91.10186945     107.59648888
H      74.22370412      93.23348074     105.25133854
H      76.71625312      93.01616221     107.40373680
C      81.09852844      89.76961239      99.10216911
O      82.73125199      91.37210031      99.40830478
N      80.12720913      88.79262390      96.95544003
H      78.57952327      87.67579565      96.93276330
C      81.22325039      89.15356163      94.44021430
H      82.48936701      90.78061598      94.38730197
C      82.99014449      86.94636129      93.50479977
H      84.13909809      86.32086188      95.09594932
H      84.23358439      87.74004634      92.06860778
C      81.77882992      84.65223355      92.39742016
C      81.56151139      84.38011296      89.68377317
H      82.20401834      85.89567346      88.47434832
C      80.32185094      82.32031128      88.56505519
H      80.09508378      82.34109826      86.53548914
C      79.33730352      80.44570278      90.17510200
O      77.97859030      78.51818194      89.17543679
H      78.21102665      78.51251276      87.37452762
C      79.70957961      80.56475552      92.87930037
H      79.21825077      78.82431759      93.82983269
C      80.98892432      82.67746955      93.92431901
H      81.33663397      82.76061750      95.93498781
C      79.17856651      89.82819391      92.40308934
O      76.91656411      89.93023914      93.05126545
N      79.67556454      90.03984327      89.87274580
H      81.47080453      89.87165762      89.24913611
C      77.90489098      90.68612966      87.82239275
H      76.13421743      90.26850015      88.78993263
C      77.78394850      93.45079926      86.99847207
H      75.95469343      93.83252398      86.12730824
H      79.30328845      93.80039862      85.65298694
C      77.81418412      95.38587901      89.19055461
H      79.53194534      95.18745773      90.31116230
H      76.04162084      95.38020983      90.23935271
C      77.70835944      98.05228283      88.10774143
H      75.84508929      98.48314043      87.34051254
H      78.97069661      98.42077946      86.52037132
C      78.40755818     100.05539273      90.01636500
H      79.69446179      99.31273028      91.44499810
H      76.62365653     100.36530783      91.00280213
N      79.32785490     102.49880884      88.98835388
H      78.92723292     103.91988303      90.19966845
H      78.33574857     102.92777672      87.41610160
H      81.13254351     102.64809723      88.38742091
C      77.61954230      88.89655885      85.61519241
O      79.43367957      87.90634225      84.69300598
N      75.27817140      88.53751084      84.67977790
H      73.80040542      89.41056440      85.50558829
C      74.91723368      87.30729901      82.25336930
H      76.02839275      85.57441999      82.23069258
C      71.95981199      86.72904277      81.80361444
H      71.21903928      88.64711497      81.72046649
H      71.47415233      85.85032003      83.60074416
C      71.57619756      85.03017881      79.51515588
O      72.92735187      83.10832715      79.26382227
O      69.92268703      85.72748782      77.93156522
C      75.76950025      89.01372188      80.05939706
O      75.98870849      91.35131333      80.30884092
N      75.91122972      87.98193131      77.69723916
H      75.66367557      86.11677144      77.38921378
C      76.38366129      89.64489047      75.49003883
H      77.81229439      91.05462630      75.93979370
C      77.20380252      87.98760049      73.19402136
H      77.36820871      89.17056915      71.51594440
C      79.60942411      86.61943864      73.79306460
H      79.35620078      85.30040967      75.35208882
H      80.96057842      88.08964570      74.29573181
H      80.47302903      85.65378849      72.19057668
O      75.39533443      86.19047077      72.85387062
H      75.58619680      85.70292138      71.11721214
C      74.06685683      91.27572428      74.81351681
O      74.41645621      93.29017252      73.56818718
N      71.81808252      90.70313719      75.82452038
H      71.84831815      89.05907531      76.78828080
C      69.56174931      92.42278814      75.89632998
H      69.07608964      93.04639782      73.99526531
C      67.36966678      90.70691665      76.72403012
H      67.52651407      90.26283097      78.73091946
H      67.42446885      88.97970679      75.59964295
C      64.73538831      91.96736411      76.29128278
H      64.76562392      93.84575206      77.13599045
H      63.31620385      90.85053584      77.27960964
C      64.03996901      91.86153943      73.52472346
O      63.01951681      89.88110626      72.58741921
O      64.45003963      93.69079450      72.06963420
C      69.98315827      94.82463028      77.68968025
O      68.78885125      96.79939429      77.27771992
N      71.53084413      94.47314119      79.61531138
H      72.75349705      93.00860330      79.52460450
C      71.99004761      96.27027091      81.72235622
H      71.09620707      98.07684928      81.29149861
H      73.97426024      96.80128400      81.87542405
C      71.08864816      95.60697698      84.46245937
O      71.82942089      96.92789568      86.23124320
N      69.27262117      93.98748153      84.66654981
H      68.73782863      92.80262314      83.26815233
C      67.98382783      93.35253348      86.96256727
H      67.15045853      95.09297143      87.67877355
C      65.70481790      91.55351404      86.64509326
H      64.88467669      91.37776949      88.52537093
H      66.57976118      89.80740692      85.99502741
C      63.57131690      92.29428676      84.82528681
C      62.19748586      90.27983851      83.54027292
H      62.56031332      88.46003207      84.38876004
C      60.48350410      90.86187421      81.56361920
H      59.58966356      89.45591784      80.38254025
C      60.00918280      93.42434309      80.82473622
O      58.17047909      94.04606304      79.07107020
H      58.03630853      95.84886194      78.91989209
C      61.29797613      95.25737761      82.16455217
H      60.92570006      97.20757517      81.68456169
C      63.01762709      94.68857000      84.10908054
H      64.11933752      96.26460173      84.79694093
C      69.84331853      92.17523399      88.90520593
O      71.51572631      90.62376869      88.29104487
N      69.27262117      92.66467311      91.33917342
H      67.77406821      93.76449383      91.76814129
C      70.76172551      91.61398528      93.34417303
H      72.76294567      91.65744899      92.85284420
C      70.39700833      92.99159576      95.85750903
H      71.77461881      92.09586549      97.10283868
H      68.47137722      92.65900394      96.50568515
C      70.90345498      95.75626535      95.86506793
C      68.99483142      97.51938001      95.86128849
H      67.01439824      97.01860253      95.91420082
C      69.66757397     100.09129753      96.00868714
H      68.09721142     101.39520868      96.03892276
C      72.22248396     100.92844627      96.00868714
O      72.81774775     103.51359188      95.92742890
H      71.27195162     104.40554270      95.60239599
C      74.08008492      99.06517614      95.80270696
H      76.04162084      99.60941732      95.62507270
C      73.45836497      96.33452161      95.89719329
H      74.88699806      94.88888099      95.72711791
C      70.12299803      88.76994717      93.63519089
O      67.94414359      88.10854296      94.24557248
N      72.07130584      87.26383531      93.10795724
H      73.72292665      88.11610187      92.67143047
C      72.02595242      84.51239380      93.58983745
H      70.17213091      84.08909510      94.38541224
C      72.17524080      83.10454770      91.01036104
H      72.44925111      81.08443027      91.29193027
C      69.93024594      83.26139498      89.12630391
H      70.44425150      82.02173452      87.56350025
H      69.47671163      85.17757746      88.52726067
H      68.24272034      82.44503321      89.97857047
O      74.23882194      83.79807725      89.50046971
H      75.65989611      82.94770041      90.24124244
C      73.89300202      83.61288407      95.54759391
O      75.74871325      84.89222879      96.16553443
N      73.54529238      81.33765358      96.50190570
H      72.37744152      80.03752189      95.73467682
C      75.24604606      80.18681027      98.37462448
H      77.03183743      81.21482137      98.39352175
C      74.20669659      80.60443978     101.17141942
H      73.67757321      82.59432159     101.21299341
C      71.92012775      78.96037788     101.72321951
H      70.59542959      79.48572180     100.23789462
H      71.08675844      79.46682455     103.53924650
H      72.34720590      76.94970910     101.84038254
C      76.18901949      80.15279519     103.37484030
H      76.86365177      78.22905381     103.10082999
H      75.06463233      79.98649927     105.09449125
C      78.41889654      81.97071191     103.50901088
H      79.45635628      81.68158378     105.26456661
H      77.66300600      83.84909986     103.89262532
H      79.77572002      81.94614547     101.95754557
C      75.77516943      77.31820572      97.77180178
O      74.68668707      76.37901174      95.89908302
N      77.34742171      75.91980826      99.20610405
H      78.16000403      76.59822000     100.79536389
C      77.98048003      73.19104345      98.72800331
H      76.16634276      72.21405496      98.66186289
H      79.32785490      72.30098236     100.00734802
C      78.81951851      72.81876738      96.09561455
O      80.93601199      73.59355516      95.54570419
N      77.33986280      71.46761306      94.55926705
H      75.72414681      70.96116641      95.44176925
C      77.52883544      71.39580346      91.84562007
H      78.76849590      72.87356944      91.12374461
C      78.40377872      68.78420170      90.71367401
H      77.53072517      67.13069117      91.58105839
C      77.86709645      68.57633180      87.96790167
H      75.87721464      68.54420646      87.44066804
H      78.54550819      66.83778360      87.09484812
H      78.77416509      70.08811284      86.89831659
C      81.25537574      68.64058250      91.13130352
H      81.76182239      69.27742027      93.02291956
H      82.40999851      69.91425802      89.99368829
C      82.10386284      65.83811837      90.97256651
H      80.83018730      64.63814217      92.05915914
H      84.06917821      65.56410806      91.51680769
H      82.10953203      65.12569156      89.04126623
C      74.85676244      72.23106248      91.13319325
O      72.89711625      71.11423423      91.73979540
N      74.57897266      74.14346552      89.53448479
H      76.13421743      75.21116088      89.25102585
C      72.32263945      75.19604308      88.29671405
H      71.48927015      73.89591137      86.93422139
H      72.74026896      76.89490703      87.21012142
C      70.09843158      75.92169798      89.97290129
O      68.12555731      76.57743301      88.85607305
N      70.23449188      76.05019936      92.55237772
H      71.92579693      75.76863015      93.39519565
C      67.88934151      76.15224459      93.96211354
H      66.42291389      75.12990265      92.93977161
C      68.56208409      74.93904029      96.49812626
H      69.91134867      75.90846989      97.71322027
H      69.67324315      73.22694825      96.22411594
C      66.26039744      74.55731558      98.22533610
N      65.11711302      72.28586456      98.52958204
H      65.66135420      70.74573761      97.54125518
C      63.07053942      72.67325845     100.01112747
H      61.83087896      71.22194864     100.73678238
N      62.91369213      75.19037390     100.48733850
H      61.78552553      75.93492606     101.83471336
C      64.75995475      76.48483642      99.28736229
H      65.25317331      78.45960041      99.40641505
C      66.96148590      78.92636282      94.24179304
O      68.25027925      80.11878012      95.82538369
N      64.79585954      79.71626842      93.17031821
H      63.58454498      78.44637234      92.41631741
C      63.84910667      82.28818593      92.95488941
H      65.43269731      83.53540530      92.53537017
C      61.70804675      82.35621608      90.91020554
H      60.26240611      81.09765834      91.66609607
H      62.19181668      81.50394951      89.09795802
C      60.51373971      84.98104593      90.44344315
H      59.57832519      85.54229464      92.18955026
C      62.40913521      87.05974486      89.86329717
H      63.54297099      87.41879287      91.54137413
H      61.44348506      88.79451363      89.31527653
H      63.63178814      86.82919826      88.21923528
C      58.49551202      84.89411852      88.40442846
H      57.01018714      83.49194159      88.66710041
H      59.58021492      84.58987258      86.68099806
H      57.41647829      86.63644618      88.18899966
C      63.08187778      83.09320933      95.63452132
O      61.61545015      81.64378926      96.84772562
N      64.15524233      85.14734184      96.74757012
H      65.47994046      86.13944815      95.79325834
C      63.34832919      86.34731805      99.12295611
H      62.90424351      84.88089043     100.50056659
C      65.65001584      87.78162031     100.32293232
H      64.90735340      88.82285952     101.93864831
H      66.27551525      89.09498011      98.86595332
C      67.65879491      85.93535771     101.13362489
H      68.12933677      84.45570201      99.77680141
C      69.91890758      87.59075796     101.78369075
H      71.41179136      86.25850091     102.28068878
H      69.34065132      88.67735058     103.43342182
H      70.46125903      88.81719034     100.21899736
C      66.75361600      84.42168693     103.49389306
H      66.43614199      85.76150288     105.02646110
H      68.36744228      83.22549018     103.95120683
H      65.21537878      83.13478332     103.02902040
C      61.05420145      88.10098407      98.91697593
O      59.21360801      87.69658263     100.29269668
N      61.15435694      89.89244461      97.21055307
H      62.66424826      90.05874053      96.05215084
C      59.25707173      91.55540377      96.31671252
H      57.57143585      90.37432482      96.25435155
C      58.74873535      93.71914039      98.38785257