 %block lattice_cart
   139.252   0.000   0.000
   0.000 142.425   0.000
   0.000   0.000   162.84
 %endblock lattice_cart

 %block positions_abs
N      92.51625483      42.13717094      80.73402935
H      93.34773440      42.19008329      82.45179057
H      93.57261184      41.64584210      79.22035858
H      91.20478476      40.75578101      80.80961841
C      91.33895533      44.53712336      80.20868544
H      92.34428974      45.83725508      81.45023563
C      91.93043968      45.35348513      77.50826653
H      91.12541626      43.94563903      76.23837045
H      93.96378519      45.68796670      77.50637681
C      90.86841349      47.88760812      76.88654658
H      88.84073715      47.55123683      76.77505272
H      91.71312115      48.66050619      75.17256481
S      91.17076970      50.27811191      79.11264418
C      90.87030322      52.74798420      76.74103765
H      92.58239525      52.60436499      75.60531213
H      91.10273955      54.47519404      77.83896863
H      89.07128377      52.76310200      75.73948271
C      88.58940356      44.32736374      80.93811980
O      87.65020958      42.33181276      80.63576359
N      87.27793349      46.44007776      81.62220071
H      88.20389938      48.09169857      81.88109323
C      84.48680773      46.65739629      82.13053709
H      83.32840549      45.53489887      80.84741292
C      84.11453164      45.46119954      84.83473545
H      84.80239203      43.52234033      84.74213886
H      82.10764230      45.34025705      85.27882113
C      85.42222225      46.96920113      86.89642685
O      85.59418734      49.30868231      87.11185565
N      86.51826352      45.71631258      88.75780728
H      87.46879585      46.75944151      90.04471090
H      86.51637378      43.81335818      88.61229834
C      83.41911235      49.36726382      81.96235146
O      84.83073792      51.18518054      82.03983024
N      80.89632773      49.57702344      81.83007062
H      79.73225632      48.06713213      81.92266720
C      79.53194534      51.98453476      81.60708290
H      79.99492829      52.64404925      79.71168742
C      76.55373667      51.20407780      81.59763427
H      76.08697426      49.87937965      80.09152241
C      75.59375569      50.36692904      84.21679495
H      75.36131936      51.92784298      85.53960337
H      77.01671961      49.01766446      84.84796353
H      73.83064104      49.32568984      84.00136614
C      74.83597545      53.48686718      80.90221500
H      75.12321384      54.95518454      82.31762000
H      72.84420391      52.95396437      80.94756843
C      75.18746454      54.69629203      78.24525980
H      77.17356689      55.09880374      77.88999125
H      73.76261091      56.15894019      77.97502894
H      74.39377948      53.25065140      77.01126852
C      80.15177556      53.87804053      83.66688458
O      80.10075296      56.13815320      83.18311465
N      80.93034280      53.09758356      85.90809999
H      81.09663873      51.22297506      86.22935347
C      81.71268950      54.97408180      87.76381123
H      80.21602626      56.38759708      87.74302424
C      82.10953203      53.77032614      90.40753835
H      83.27171370      55.09880374      91.46767481
H      83.13943287      51.99776286      90.21289653
C      79.68690290      53.08246576      91.73223649
C      78.87810002      54.50165021      93.83361215
H      79.91178032      56.18917581      94.33627935
C      76.58964146      53.89693779      95.04114727
H      76.04351057      55.15927498      96.54914887
C      75.24415633      51.77855460      94.36840470
H      73.59253553      51.35336618      95.48901241
C      76.11532016      50.19118450      92.43521467
H      75.02872752      48.57924795      91.81916391
C      78.24315198      50.97542092      91.02169940
H      78.61353834      50.22519956      89.16031897
C      84.15232617      56.24397787      87.06839195
O      84.58885294      58.59857686      86.79816109
N      86.02504495      54.76054272      86.33706786
H      85.93433808      52.85380887      86.37864185
C      88.42310763      55.64115519      85.32417456
H      88.70656659      57.20395885      86.63375490
C      90.50936549      53.63048638      85.53771363
H      92.23279589      54.44495842      84.75347722
H      89.99158048      51.93729160      84.48513608
C      90.96289981      52.75554311      88.30994214
H      92.75436034      51.73887034      88.27781680
H      89.55694343      51.34580727      88.82772715
C      90.99313543      54.71896874      90.39431027
O      89.51158999      54.60747489      92.25002151
O      92.55404936      56.49720120      90.16565338
C      88.50058642      57.02254511      82.78060294
O      90.08039761      58.62314330      82.44423166
N      86.80928137      56.21941143      81.05339309
H      85.75292436      54.71329956      81.56172947
C      86.16110523      57.52521232      78.77438316
H      87.67288629      57.60836027      77.37598569
C      84.14098782      55.85847370      77.52716380
H      82.58952251      55.57879422      78.85186194
H      84.83829683      53.92150424      77.46858227
C      83.38887673      56.60491561      74.90233395
H      84.85719409      55.99642372      73.59086389
H      83.12620478      58.63448166      74.66611815
S      80.43712423      55.05722975      73.48881866
C      81.11742571      55.12337018      70.09298048
H      83.08085134      54.52243721      69.93235375
H      81.11931544      56.99797867      69.23693446
H      80.22736461      53.91394533      68.68135492
C      85.04616671      60.18783670      79.22224830
O      86.00236822      62.08890136      78.33218720
N      83.43234044      60.36925041      81.10441571
H      82.52149237      58.75353442      81.55983975
C      82.37976289      62.78621037      81.72991512
H      82.22669505      63.82933929      79.96113128
C      79.80973511      62.39881648      82.90910433
H      79.50737890      63.98996603      84.18277987
H      79.88910361      60.69428335      84.06183738
C      77.45135667      62.46495690      81.09496707
H      77.73103615      61.10624368      79.56806822
C      75.15533919      61.37647454      82.42911385
H      73.73993418      60.88703542      81.01370884
H      74.15567397      62.58211993      83.77081953
H      75.40856251      59.54532975      83.33240302
C      76.98081482      65.07655866      79.99703608
H      76.64822299      66.22929172      81.67133361
H      75.37832690      65.09923537      78.70257356
H      78.65322260      65.92882524      79.14665924
C      84.14665700      64.52853803      83.20768109
O      84.30161455      66.76030481      82.58785087
N      85.85496957      63.53265226      84.94811903
H      85.69434284      61.69394856      85.43188897
C      87.80138768      65.05199222      86.27281718
H      86.84896561      66.48629449      87.40476323
C      88.98624607      63.43438649      88.36852365
H      90.25803188      62.01142259      87.59184613
H      87.45934721      62.36858086      89.24724639
C      90.44700452      64.73640792      90.57761372
H      89.26592557      65.63024848      92.00624680
H      91.67910608      66.18771773      89.78770811
C      92.17043492      62.61802473      91.84184061
H      93.15309260      63.35879744      93.49346142
H      93.48379470      61.83756777      90.46234040
N      90.54527029      60.64892991      92.87741063
H      90.41487917      59.04077281      91.85506871
C      89.10151939      60.65648882      94.91264588
N      88.78215563      62.69172405      96.22411593
H      87.81839521      62.48763361      97.85872919
H      90.16732502      64.00508385      96.15419607
N      87.68611438      58.73463716      95.57027064
H      86.41243884      59.13714887      96.93276331
H      87.86563838      57.13970815      94.53470061
C      89.61930440      66.33700611      84.44167237
O      90.51692440      68.42893315      84.92166285
N      89.99913939      65.32789227      82.10597065
H      89.19789542      63.63091803      81.76015073
C      91.38052932      66.74329728      80.03105117
H      93.19088713      67.59178438      80.53560809
C      92.35562810      64.84790177      78.01282345
H      90.69077922      63.79343449      77.41378022
C      93.11907752      66.12157731      75.53350253
H      94.27747976      67.79587482      75.84152793
H      91.38241905      66.53920682      74.50738115
H      93.97890299      64.69483394      74.32218797
C      94.48912911      63.01675699      78.85186194
H      94.51180582      61.34812865      77.64810628
H      93.98268244      62.45172881      80.76804442
C      97.13285622      64.11279824      78.98036333
H      97.80937823      64.10145988      77.03205550
H      98.31771461      62.83156381      80.07451486
H      97.08750278      65.99496566      79.81940181
C      89.59662767      68.84656265      78.95012770
O      90.38842301      71.00463011      78.64777150
N      87.31950747      68.17382009      78.18667827
H      86.72991287      66.37858010      78.45879887
C      85.58284898      69.71961622      76.70513285
H      86.49936625      70.61912593      75.09697575
C      83.33596440      67.93571458      75.74893134
H      81.67489498      68.96750515      75.10831412
H      82.92022461      66.77164317      77.39677269
C      84.36019606      66.21228417      73.63810704
O      86.34251896      66.78676098      72.52694798
O      83.04305682      64.41893391      72.83686309
C      84.30161455      71.80776379      78.29628240
O      83.26226508      73.61434215      77.26827130
N      84.32429126      71.62823979      80.86064101
H      84.60019130      69.83299980      81.44645617
C      83.34541304      73.62001133      82.54816661
H      82.52716154      75.14124100      81.42755891
C      81.51426824      72.36334333      84.36230387
H      80.82262841      73.74662299      85.72101708
H      82.53094099      70.91203352      85.41110198
C      79.36753914      71.09722670      83.03571600
H      78.00693619      70.33755672      84.38309086
H      80.05539952      69.54387166      81.87164459
C      77.73859506      73.04364480      81.68456169
O      77.97103139      75.43981777      81.75448156
O      75.96981123      72.11389946      80.29561284
C      85.35986128      75.00329099      84.19411823
O      85.08963042      77.05553377      85.42433006
N      87.60863559      73.80709423      84.37175250
H      87.56895135      72.06098712      83.60074417
C      89.65898864      74.46849844      86.12541852
H      90.34117984      76.34499666      85.62275132
H      91.25958683      73.18726400      85.93644589
C      88.91065703      74.49306488      88.92788265
O      87.18155744      73.14946948      89.56661013
N      90.24858325      76.05775827      90.40375890
H      91.84162253      76.90246594      89.77825949
C      89.65142973      76.31287133      93.05882436
H      87.61808423      76.12956786      93.33472441
C      91.13675462      74.21338539      94.51202389
H      93.06805492      74.22661348      93.79959708
H      90.36574629      72.37468168      94.00368751
C      90.95345117      74.49684434      97.43165106
H      91.14053408      76.36011448      98.28958679
C      88.55538848      73.24773525      98.26124090
H      87.00014373      73.90535999      97.08205169
H      88.18311239      73.54631199     100.26435080
H      88.57239601      71.20872055      97.96266414
C      93.25135837      73.22694825      98.81115125
H      94.97856821      74.27196690      98.39919092
H      93.32505769      71.35989866      97.94943606
H      92.92632545      73.21938934     100.84449678
C      90.30905449      78.87534021      93.94888546
O      92.53704181      79.55186223      94.22856494
N      88.44956380      80.38901098      94.69343763
H      86.71290532      79.77296019      94.19832933
C      88.78782481      82.76628668      96.11073236
H      90.74747100      83.00817165      96.69276806
C      88.07728773      84.95647948      94.47233965
H      87.87130756      86.72904276      95.50035075
H      86.22913539      84.75238904      93.58983746
C      89.97079349      85.35521173      92.31805164
H      91.08573202      83.73004710      91.72089813
H      91.27659436      86.80463182      92.97756613
C      88.59318301      86.38511257      89.97290130
H      87.85618974      88.13121969      90.78170415
H      87.03982797      85.10765758      89.52692588
N      90.49802712      86.84620579      87.89609208
H      91.12919571      88.63955607      87.74302424
C      90.86841349      85.37788844      85.99691713
N      89.74780578      83.23115936      85.77770888
H      89.62119411      82.51495308      84.01270450
H      88.56861656      82.63211612      87.15531936
N      92.17232465      86.23582418      84.09774218
H      92.54271099      85.34387338      82.45179057
H      93.26836590      87.71170045      84.60985801
C      87.24391841      82.72660242      98.56359711
O      84.96112903      82.85888327      98.74501083
N      88.66877206      82.17480235     100.65363441
H      90.50558603      81.77984955     100.31726313
C      87.84485138      82.02929341     103.24066974
H      86.33684978      80.63278568     103.36728139
C      89.89898389      81.13545287     104.95843096
H      88.95223101      81.16757822     106.78579630
H      91.43533138      82.50739418     104.99622548
C      90.77392717      78.46715932     104.40474115
H      90.55093946      78.37834219     102.35816754
C      93.58961937      78.17047229     104.92819533
H      94.27559002      76.49806450     103.94175820
H      94.08850713      78.06275788     106.92374632
H      94.59873323      79.86177733     104.32537264
C      89.45489821      76.35444530     105.78235162
H      87.44611914      76.77963372     105.61983517
H      89.93110923      76.36389394     107.78546152
H      89.98024211      74.55731558     104.92252616
C      86.80739164      84.64278490     104.19876097
O      85.80016751      84.85065481     106.39273323
N      86.94534166      86.73849139     102.71154637
H      88.16610486      86.54762903     101.25834683
C      85.77560107      89.20836369     102.90051901
H      84.66255227      89.34064453     104.62961857
C      87.99413976      91.12454616     102.90240872
H      89.53048725      90.27983850     103.98144246
H      87.55194380      92.89144026     103.86616914
C      89.13742419      91.67256680     100.30970422
H      87.60107670      92.33775046      99.10594857
H      89.91221198      89.95102612      99.48389382
C      91.24824847      93.68134586     100.37206520
H      92.66743293      92.94813206     101.67408663
H      90.53960111      95.48603449     101.07315365
C      92.02492598      94.46747201      97.57904970
H      90.43944561      95.17611937      96.47167008
H      93.01892202      92.85364574      96.77213657
N      93.80126872      96.59530383      97.76613260
H      93.24379946      97.75370607      99.17586844
H      93.48379470      97.54583618      96.14096797
H      95.59272927      95.96791470      97.96644359
C      83.92933847      89.64489045     100.92197555
O      84.06728849      88.42790672      99.05303622
N      82.07551695      91.40044621     101.26023657
H      82.13220874      92.21302852     102.98555669
C      80.16311393      92.19035181      99.42153286
H      79.02738840      90.55573854      98.89240950
C      78.21480610      94.31440418     100.40608027
H      79.07463157      96.16822570     100.66308305
C      76.25327019      94.89077071      98.39352174
H      77.10553674      95.80161879      96.75512904
H      74.93046177      96.33074215      99.03980814
H      75.26305360      93.13899441      97.95321552
C      77.04506550      93.52638830     102.85327585
H      78.32063077      92.66278338     104.22143769
H      75.68446257      92.01649699     102.51690455
C      75.42934951      95.44446052     104.24222468
H      73.76261091      95.84508249     103.10082998
H      76.48759625      97.16978064     104.62016994
H      74.87754942      94.60920148     106.04313386
C      81.39143603      93.10308962      96.98378591
O      83.03549791      94.75848987      96.94410167
N      80.59775097      91.89933396      94.86351300
H      79.27116310      90.53873101      95.04681644
C      81.08341064      92.74782106      92.29537494
H      82.17189299      94.49203845      92.38608179
C      82.79172322      90.82218995      91.14264188
H      84.37909332      90.70502692      92.45033248
H      83.33974385      91.71036132      89.36440942
C      81.84874980      88.18413202      90.69288701
C      81.59741619      87.50383054      88.16254348
H      81.95835392      88.83041841      86.65454188
C      81.07585174      85.04340688      87.57672833
H      80.95490924      84.51050407      85.60952324
C      80.80184141      83.14423195      89.47968273
O      80.28594614      80.70081581      88.67276958
H      80.04217144      80.68758774      86.87563987
C      81.19490448      83.78484916      91.95711392
H      80.99459350      82.36944415      93.41409290
C      81.84874980      86.25661118      92.54481881
H      82.48558757      86.56463657      94.45911157
C      78.57007465      93.33930541      90.88941855
O      76.58397229      92.81396149      91.90609131
N      78.74203974      94.30117610      88.55749629
H      80.35019682      95.05706661      87.86207701
C      76.52917023      94.61676039      86.99469262
H      74.79818092      93.99881989      87.92632769
C      76.47625788      97.33418683      86.05927809
H      75.30462757      97.39843753      84.36608333
H      78.37732256      97.80661841      85.41866088
C      75.69958037      99.26170767      88.05671882
H      77.17923608      99.61130703      89.44566765
H      74.03284177      98.50392742      88.99969225
C      75.38966525     101.74480804      86.70178505
H      73.76639035     101.48024636      85.46401432
H      77.08663949     102.29660813      85.67377394
C      74.85676243     103.57406312      88.68977713
H      76.62743599     103.58540147      89.74235469
H      73.39411426     102.92399726      89.98423966
N      74.15378424     106.06661211      87.36885843
H      73.88355338     107.50469385      88.58962163
H      72.57208332     105.94377990      86.30872197
H      75.56918925     106.59195603      86.20100758
C      76.61798735      92.65333475      84.75536694
O      78.47558833      92.49459773      83.37775647
N      74.51472198      91.26060646      84.28482510
H      72.91790323      91.35320305      85.32795401
C      74.02717259      89.86409871      81.93022611
H      75.43879813      88.36743548      81.82818088
C      71.28328998      88.87766158      81.97368982
H      70.06819595      90.53684128      81.89432131
H      70.87888854      87.70792099      83.62342089
C      70.78818168      87.09187021      79.67767234
O      70.92046253      84.71270478      79.85908607
O      70.06252677      88.06507927      77.75582067
C      74.56196513      91.58374966      79.54161204
O      74.50716307      93.98937126      79.78538674
N      75.05518369      90.37810427      77.33063226
H      75.33864264      88.49404714      77.20213086
C      75.41801116      91.80862708      74.93823875
H      76.84286479      93.28450333      75.13477029
C      76.30996197      90.02283573      72.82741445
H      74.72448160      88.70758620      72.74426650
C      77.12065456      91.05273657      70.21203324
H      77.81985330      89.51638906      69.03095429
H      78.55117737      92.51727446      70.43691066
H      75.40667280      91.79350928      69.34464887
O      78.48692669      88.70947594      73.70613719
H      77.87276563      87.28273257      74.64344145
C      73.08608888      93.26560608      74.32596742
O      73.36387864      95.16478102      72.97859257
N      70.81841730      92.49837720      74.93445930
H      70.61999604      90.73526254      75.63743748
C      68.54885601      93.91378219      74.57352156
H      68.89845537      94.92100633      72.81229665
C      66.27173579      92.02216617      74.17100987
H      65.48371993      91.36832086      75.95869096
H      67.04841332      90.38377345      73.19213164
C      64.22705192      93.15411223      72.61765483
H      64.00973339      95.15344267      73.05985079
H      62.42425302      92.27916894      73.09008642
C      64.71649103      93.01238274      69.86621332
O      65.62355967      94.82840974      68.73615699
O      64.28185398      91.02817012      68.69269328
C      68.01028401      95.79028043      76.66733833
O      66.30764060      97.33985601      76.61820543
N      69.76772948      95.93200991      78.61942561
H      71.20014201      94.67534190      78.71958109
C      69.99071718      97.98614240      80.44112177
H      68.96270606      99.70579335      79.96302102
H      71.88800240      98.78738637      80.52238001
C      69.11010472      97.09230186      83.03760572
O      69.67702261      98.30172669      84.92355259
N      67.86666480      94.87187345      83.32862357
H      67.40179213      93.78717054      81.82818088
C      66.41157555      94.21235895      85.73235544
H      65.57820624      95.95468661      86.44856172
C      64.50106224      92.13177029      85.10874577
H      63.18770246      92.09397576      86.69422614
H      65.35521854      90.25716179      85.08417933
C      63.07431888      92.46058267      82.56706388
C      62.87400788      90.48203922      80.88331773
H      63.80942240      88.72837320      81.34252123
C      61.29986587      90.68801939      78.76871399
H      60.95404595      89.16301024      77.45913365
C      60.02430061      92.96891905      78.35486392
O      58.47850449      93.36198212      76.40088692
H      57.81899000      95.02872072      76.12876632
C      60.14146364      94.98525702      80.04994842
H      59.01707648      96.64254700      79.65688536
C      61.45293369      94.68668027      82.33840699
H      61.62678852      96.19279214      83.70845857
C      68.22004363      93.33174650      87.78459822
O      70.15890282      92.33586073      87.29137966
N      67.81942165      93.82118562      90.21478626
H      66.55141528      95.23848034      90.39808971
C      69.65812535      93.30151088      92.28214684
H      71.47793178      93.92512056      91.54137414
C      68.81719714      94.87754261      94.55359788
H      69.97181991      94.22936650      96.13151934
H      66.89534547      94.22747677      94.90508697
C      68.78885125      97.70457319      94.17187316
C      66.41535500      98.86108569      93.66920597
H      64.71838077      97.73291907      93.55582238
C      66.25094881     101.55016624      93.32527577
H      64.48594442     102.38542527      92.73379144
C      68.53184846     102.95045343      93.24779699
O      68.57720190     105.45812025      92.62607704
H      66.98605234     106.20456214      92.17821191
C      70.80329950     101.74480804      93.88841422
H      72.51161208     102.84651849      94.05848958
C      71.08297898      99.12942682      94.27580811
H      72.91790323      98.32251369      94.66320200
C      69.90001032      90.48203922      92.62796676
O      67.98004839      89.19702532      92.74512979
N      72.25082984      89.64489045      92.94355106
H      73.66434514      90.92612490      93.00402229
C      72.97270531      86.95958936      92.76402706
H      71.25305436      85.87488647      93.08150108
C      74.04795957      86.23204474      90.18644037
H      75.75438243      87.32619628      89.81794374
C      74.57141377      83.45225733      89.58739712
H      72.85743199      82.49605582      88.96000799
H      75.56540981      82.55274761      91.15020079
H      75.74304408      83.19336483      87.91498934
O      72.09965175      86.85565442      88.52537094
H      71.83131060      88.61498961      88.87686003
C      74.97959465      86.58353383      94.96177876
O      76.18335031      88.42601699      95.85750903
N      75.28950977      84.26294992      95.93120835
H      74.13488698      82.90045724      95.25468634
C      77.37009844      83.62989160      97.63196203
H      78.93479181      84.84498563      97.06693387
C      76.83152644      84.43302528     100.32860149
H      76.21358593      86.39645092     100.40608027
C      74.85865216      82.51684280     101.43598110
H      75.67312420      80.62522677     101.54180579
H      73.22214917      82.47337911     100.18687202
H      74.40700757      82.97793603     103.39373757
C      79.26738366      84.38767186     101.92164078
H      80.68656812      85.41757270     100.84071732
H      79.87776525      82.43369485     102.15029766
C      78.74581919      85.58008915     104.50300691
H      77.59119641      84.42924584     105.76345437
H      77.85764783      87.38477778     104.05703150
H      80.55050782      85.72937753     105.48944404
C      78.21102665      80.79719187      97.23700924
O      76.83719561      79.30997726      96.11640153
N      80.45602150      80.24917124      98.15163678
H      81.56718057      81.53229540      99.02469034
C      81.50670933      77.64890783      98.00612785
H      80.35019682      76.41491654      99.18720680
H      83.36808975      77.63001057      98.88863004
C      81.84497034      76.54908710      95.34917265
O      83.39076646      77.60733384      93.98479026
N      80.88309965      74.26062855      94.98067603
H      79.75115358      73.50473802      96.31671253
C      80.96435788      72.93593039      92.56560580
H      82.54983825      73.69182093      91.49035152
C      81.55773195      70.18070943      93.01725039
H      79.79839675      69.29442780      93.61818336
C      82.10386284      68.81254759      90.50202466
H      81.96402310      66.78676098      90.84973430
H      83.83674188      69.47395180      89.60440467
H      80.54483864      69.04687365      89.17543678
C      83.68178432      69.70638813      94.91264588
H      83.12620478      70.26952658      96.81560028
H      85.41844280      70.61534649      94.27580811
C      84.37720361      66.83967331      95.43043088
H      86.16110523      66.74140755      96.45466254
H      84.74947968      65.67938136      93.77125119
H      82.86731228      65.92882524      96.49623653
C      78.35275612      73.35355992      91.03492748
O      76.74648874      71.75674118      91.24468710
N      78.15811430      75.68737191      90.05982871
H      79.68312343      76.83254606      90.14297666
C      76.03028248      76.79286181      88.75780728
H      75.91878863      75.77051986      86.97390563
H      76.44980172      78.70904429      88.12474896
C      73.54151293      76.87412004      90.00502664
O      71.64422771      76.97994471      88.69544630
N      73.35820947      76.84955360      92.52403182
H      74.86810080      77.22938858      93.62763198
C      70.98660295      77.03852622      93.69188267
H      69.72615550      75.67981300      92.78859349
C      71.03573583      76.46215969      96.39608104
H      72.04107022      77.93992567      97.42031270
H      71.92201748      74.62345600      96.66253245
C      68.44114160      76.38846038      97.66975657
N      66.81975643      74.35511487      97.39574626
H      67.29785718      72.67703789      96.62473791
C      64.70704241      74.71794232      98.80548208
H      63.30864493      73.27608113      99.17019925
N      64.82987461      77.18214543      99.70121235
H      63.76973815      77.91535923     101.10905845
C      67.19770168      78.13834694      99.08138213
H      67.89312098      80.01295545      99.49145273
C      69.69591988      79.61044374      93.51046895
O      70.96203651      81.44158854      94.10951220
N      67.41124077      79.84854926      92.50135510
H      66.58543037      78.14590585      92.25569068
C      65.96371041      82.25417085      92.13663793
H      67.23738594      83.62800187      91.28059190
C      63.88879092      81.86110778      90.25069107
H      62.85511063      80.32098084      91.14453160
H      64.45570881      81.18269602      88.39120037
C      62.01796186      84.06074921      89.91054032
H      61.27529943      84.64656437      91.74168513
C      63.15935656      86.52117286      88.79938126
H      61.88946047      88.07830734      88.34017776
H      64.22138274      86.13944815      87.07784058
H      64.46704716      87.16556954      90.25824997
C      59.80131290      83.46548542      88.21545582
H      60.63468220      82.66424145      86.51092268
H      58.52007845      85.00183291      87.72034752
H      58.87156755      81.83276188      89.06205321
C      65.10577466      83.11588604      94.76335750
O      63.72438473      81.63623035      95.99923850
N      65.78985558      85.41190352      95.46066651
H      66.71015231      86.36810503      94.08872521
C      64.71082186      86.90100786      97.51479900
H      64.21949301      85.59331725      99.03224923
C      66.58920982      88.89844856      98.72233413
H      65.68025145      90.38755289      99.82026512
H      67.37533597      89.88866515      97.09527976
C      68.63767314      87.58886824     100.34182957
H      69.69780961      86.19236049      99.26279584
C      70.56519397      89.45402811     101.32259752
H      69.73749385      91.01494204     102.38273399
H      71.52139549      90.38755289      99.75601442
H      71.93146610      88.54884920     102.56981690
C      67.49060927      86.48904751     102.66619293
H      66.74794682      84.61065957     102.26935041
H      66.07520426      87.71170045     103.52979787
H      68.77940262      86.27550844     104.25923221
C      62.17669887      87.98382102      96.74379068
O      60.17736843      86.81030098      97.23322978
N      62.09733037      90.26850015      95.44743843
H      63.75839980      91.14533316      95.10161851
C      59.76729782      91.28517290      94.23990331
H      58.58621889      89.63166238      93.91676011
C      58.56732161      92.98970603      96.26191046