 %block lattice_cart
   139.252   0.000   0.000
   0.000 142.425   0.000
   0.000   0.000   162.84
 %endblock lattice_cart

 %block positions_abs
N      92.80349323      41.61749622      83.16516225
H      94.70077846      41.54757634      82.96296154
H      92.15342739      39.87327882      82.73430465
H      92.74869118      42.08425861      85.01520431
C      91.75658485      43.63194447      81.58535106
H      92.26681096      45.47064817      82.35824912
C      92.69577883      43.41651567      78.94918285
H      91.53926632      41.95764696      78.06668066
H      94.74046270      43.17274097      78.90571914
C      92.12697121      45.88071878      77.35236412
H      90.13708941      46.30212775      77.03111064
H      92.95089189      45.86182152      75.46452753
S      93.11151863      48.70396989      79.12303767
C      93.30805015      50.53133524      76.26766121
H      94.13197084      52.35114167      76.77788732
H      91.35218342      50.56535030      75.62137481
H      94.47590103      49.57702344      74.86737401
C      88.84640634      43.62816501      82.01998811
O      87.63131232      41.90473461      81.00709480
N      87.62375341      45.26844746      83.56200478
H      88.60641109      46.68385247      84.38214600
C      84.87231189      45.53489887      83.97207539
H      83.85941859      44.24799524      82.71918684
C      84.00492751      44.65239668      86.60068469
H      85.06884343      42.94786355      87.05043955
H      81.96024364      44.43318842      86.73863471
C      85.08396125      46.15094964      88.77009050
O      85.08774070      48.43751848      88.70772953
N      85.81339561      45.16451251      90.93949631
H      86.43889502      46.33803255      92.30954788
H      85.78127026      43.28045538      91.25130115
C      84.23358440      48.23531777      83.28043556
O      85.79827779      49.91528446      83.16894171
N      81.80528610      48.79845620      83.22563350
H      80.50326466      47.43785327      83.53743834
C      80.81129006      51.47241893      82.82312179
H      81.44623810      52.05445465      80.95418247
C      77.82174302      51.39116071      82.72674575
H      77.28128130      50.10236737      81.21496470
C      76.62554626      50.55968112      85.30244271
H      74.60731857      50.22142012      85.07000638
H      77.17923608      51.66706075      86.95028406
H      77.25482512      48.63782946      85.68605716
C      76.77483464      54.03866727      82.18628402
H      77.47592310      55.37659351      83.58846095
H      74.73581996      54.09535906      82.47730188
C      77.25671486      55.08746537      79.41027607
H      76.06996674      54.11614606      78.03833477
H      79.21447131      54.99675851      78.76965885
H      76.93924083      57.12081088      79.48964458
C      81.74292512      53.45474185      84.61269261
O      82.26259985      55.60902984      83.92861168
N      82.41944714      52.76121228      86.90871008
H      82.14543682      51.00565653      87.60790882
C      83.53816513      54.60369544      88.69261172
H      82.49692592      56.38003817      88.70395008
C      83.27738289      53.61725831      91.44216351
H      83.68745349      55.24242293      92.64024999
H      84.67578037      52.15649987      91.83522658
C      80.69979620      52.72341775      92.30576843
C      78.88943840      54.55078310      92.63647054
H      79.51493780      56.47074503      92.34734241
C      76.39499965      54.00087274      93.39047133
H      74.90589532      55.36714487      93.66070220
C      75.69013175      51.47430866      93.40180969
H      73.80229515      50.77133047      93.73251180
C      77.41356215      49.55623646      92.82355344
H      76.79751136      47.61170809      92.86134797
C      79.93445704      50.25165574      92.24340746
H      81.23647848      48.70396989      91.96750742
C      86.27826827      55.38037295      88.00097189
O      86.99825399      57.56489658      88.06522258
N      87.98658087      53.65694256      87.08256490
H      87.58406916      51.79556213      86.92571762
C      90.51692439      54.48842213      85.98463391
H      91.27848410      55.88492987      87.29232452
C      92.33862057      52.21886084      85.80510991
H      91.64320127      50.68818251      84.61269261
H      92.41798907      51.47052921      87.72318212
C      94.91998671      52.93128766      84.75820154
H      95.51525050      54.74920436      85.52165097
H      94.61763050      53.15238564      82.73241493
C      96.96845003      51.00754627      85.09268309
O      96.88152261      49.34836657      86.78020869
O      98.92242703      51.48186757      83.81522811
C      90.28826752      55.73564151      83.26720748
O      91.70178280      57.38348285      82.46407379
N      88.45523299      54.88904412      81.74408807
H      87.42155270      53.49064664      82.53399367
C      87.79382878      55.99453401      79.15516302
H      89.37363998      55.81123055      77.84558268
C      85.70946066      54.52810639      77.80022925
H      84.05217068      54.65282833      79.01532327
H      86.19889976      52.52688622      77.82857515
C      84.78160504      55.60336066      75.24720900
H      86.25937101      55.47296954      73.82046564
H      84.31862209      57.59135274      75.50988096
S      81.95646419      53.82512820      74.26077187
C      81.23647848      54.99675851      70.99532480
H      80.42767560      53.49064664      69.84448147
H      82.96935751      55.80934083      70.22809592
H      79.88532416      56.54822382      71.03878850
C      87.17966773      58.88959472      79.42539388
O      88.08673635      60.35980179      77.92495119
N      85.36175102      59.42060781      80.99953590
H      84.43200566      58.04677679      81.94061960
C      84.40365977      62.10590891      81.41716541
H      84.18823098      62.98652137      79.56712335
C      81.69001278      62.03409930      82.69084095
H      81.46324563      63.64225640      83.95884731
H      81.52560659      60.47696482      84.02876718
C      79.42423093      62.11535754      80.87859342
H      79.83052209      60.69617308      79.44240142
C      77.13010320      61.48607868      82.54911148
H      77.44001830      59.59635235      83.30878145
H      75.36131937      61.51442456      81.49086474
H      76.84286479      62.60290692      84.25553434
C      78.89321785      64.75719491      79.58602062
H      78.87998975      66.21795336      81.03733043
H      77.09608812      64.97451344      78.60336293
H      80.26515915      65.40348131      78.19329232
C      86.36897513      63.51375500      82.97996908
O      86.44078473      65.80221357      82.70028958
N      87.91477127      62.35535278      84.61269261
H      87.66910684      60.48641346      84.92260773
C      90.02559555      63.61580023      85.87691951
H      89.42088313      65.37324569      86.76698061
C      91.01959160      61.73930200      87.87058077
H      91.65453963      60.01020243      86.94839433
H      89.49269273      61.14970738      89.12157959
C      93.11151863      62.89203505      89.58078309
H      92.56349800      64.84979150      89.91337492
H      95.01636275      62.88258642      88.79654667
C      93.41765428      61.72229447      92.14892115
H      91.89075543      62.39881648      93.35834599
H      95.20533538      62.50842060      92.79898700
N      93.54048650      58.89526389      91.97128687
H      95.00313467      58.14693227      90.99807782
C      91.90587324      57.19828967      92.73662603
N      89.79693866      58.07323295      93.81754948
H      88.68011042      56.84680058      94.75863318
H      89.64576056      59.90248802      94.34289340
N      92.23468561      54.72085847      92.35301159
H      91.09329092      53.54544870      93.32811037
H      93.96189546      54.09724879      91.82955740
C      92.03815407      64.36980103      83.97963430
O      93.47434607      66.07055471      84.44639669
N      92.08917669      62.94683711      81.79322095
H      90.77770663      61.62591842      81.37370171
C      93.71056186      63.72351463      79.56712335
H      95.34895457      64.47940515      80.55922967
C      94.75558051      61.53332183      77.91928201
H      93.24002001      60.34090452      77.19551683
C      96.22956704      62.74274666      75.68184605
H      94.99557576      63.99563522      74.61226096
H      96.85695617      61.26687041      74.38738353
H      97.79048098      63.92760506      76.31301464
C      96.64152738      59.87414213      79.33657674
H      95.63430325      59.25998107      81.02410234
H      98.33661187      60.93616832      79.82790559
C      97.39552818      57.54410959      77.81345734
H      95.83083479      56.80900605      76.69473936
H      98.17220568      56.23641898      79.20240618
H      98.81471264      58.15638091      76.45285439
C      92.35184864      65.98362730      78.39738277
O      93.36663168      68.08689268      78.09124710
N      89.90465306      65.65859438      77.77566281
H      89.06561458      63.94650234      77.86447995
C      88.59318301      67.33667133      75.94829746
H      89.98402158      67.65792480      74.46675204
C      86.38976213      65.98551703      74.54234109
H      84.75703860      66.07433416      75.79711936
H      86.98880536      64.01264276      74.51021574
C      85.66788668      66.74896646      71.88538589
O      84.08240629      65.32600254      70.87060286
O      86.64487518      68.55554480      70.77044737
C      87.92799934      70.02764160      76.98764694
O      88.07161855      71.78886653      75.51177069
N      87.51414929      70.24496013      79.43295279
H      87.36297118      68.68782564      80.52521459
C      86.81306083      72.66947899      80.54222213
H      87.01715126      74.18503949      79.16461165
C      84.07295766      72.28397483      81.33401746
H      84.00681725      70.67959718      82.62470053
H      82.91077599      71.85311722      79.68806584
C      82.76526706      74.58944092      82.43194844
H      83.98980970      75.48517119      83.82656646
H      81.02104968      73.86189629      83.25208966
C      82.04339161      76.39979873      80.29844744
O      83.69123296      77.34844134      78.85469653
O      79.75682277      76.88734813      79.95829670
C      88.39476175      73.51607637      82.77398891
O      88.73491248      75.70815890      83.43161366
N      89.60418659      71.56020965      84.03821581
H      89.23568995      69.75741075      83.53176916
C      91.40131630      71.82288160      86.07534078
H      92.74113227      73.33655237      85.68038798
H      92.41231988      70.04464914      86.31722574
C      90.13897913      72.55420568      88.60568431
O      87.80138769      72.72806051      88.76631105
N      91.63186291      73.35355991      90.55210241
H      93.51403032      73.56142981      90.31210717
C      90.74747100      74.02441276      93.13535828
H      88.70278713      74.21338538      92.96717264
C      91.77548211      71.97783916      94.79642771
H      93.78237147      71.80209462      94.36745984
H      90.94967173      70.17504025      94.24273790
C      91.31816836      72.50885225      97.73117267
H      91.82272528      74.43448336      98.25651659
C      88.54971930      72.04775903      98.24517823
H      88.34184941      72.28397483     100.28230320
H      88.22468638      70.09378202      97.68203979
H      87.35352255      73.40080307      97.25496164
C      92.92254600      70.87612873      99.39602156
H      94.90675862      71.41659044      99.33555031
H      92.73546308      68.93160034      98.74028653
H      92.38397399      71.01029929     101.38212391
C      91.79815884      76.71727275      93.77597550
O      94.02047698      77.31631599      93.29787474
N      90.11252297      78.18747982      94.87579622
H      88.37586448      77.42403040      95.08933529
C      90.60196207      80.70459528      95.96049912
H      92.62585896      80.87845009      96.29687040
C      90.10118461      82.96470795      93.99707348
H      89.94244760      84.86388288      94.78130990
H      88.24925282      82.59054213      93.17504253
C      92.11563286      83.18391619      91.91081563
H      92.66554322      81.33009468      91.20027854
H      93.65953925      84.37633350      92.57033011
C      90.82117034      84.62955682      89.90203656
H      92.12697121      85.51772820      88.58300759
H      89.71190098      86.20747830      90.62202229
N      89.30560983      82.86266272      88.39592469
H      88.70467687      81.32820495      89.36346456
C      88.29082680      83.39745527      86.19628326
N      88.56672683      85.61599397      85.09079337
H      87.56517189      86.01094676      83.51476162
H      89.66465783      86.92746402      85.94117021
N      87.01715126      81.58142829      85.01331459
H      86.11386208      81.78551873      83.34468625
H      87.02848962      79.84665952      85.80888937
C      89.00136389      80.98238505      98.26974467
O      86.67889025      80.69136719      98.28864194
N      90.20322982      81.26017481     100.46371692
H      92.07027942      81.64945843     100.38245869
C      89.01270225      81.16946794     102.99406046
H      87.31950747      79.99972735     102.93736867
C      90.99313542      80.02996298     104.86111005
H      90.22590655      80.11689039     106.76973363
H      92.62207950      81.28852070     104.77985182
C      91.74713622      77.21616050     104.53040795
H      92.50869593      76.85522278     102.65013027
C      93.90142422      76.73050084     106.50328222
H      94.15464754      74.68770670     106.46359797
H      93.42899264      77.28041119     108.43080306
H      95.59461899      77.66024618     105.78518622
C      89.55505371      75.49273010     105.03496487
H      88.95412074      75.44926639     107.00216997
H      90.23157572      73.57276816     104.71182168
H      87.88642537      75.92169798     103.90490854
C      88.27381927      83.93224781     103.80286332
O      87.35730200      84.35743623     105.83053965
N      88.85585496      85.82953303     102.12856581
H      89.60985576      85.29851994     100.45804774
C      88.16610486      88.60554098     102.16069115
H      87.30627939      89.03450886     103.98427704
C      90.39976136      90.45369333     101.87345275
H      89.58717904      92.33586073     102.08888155
H      91.33328617      90.37999399     100.03852850
C      92.46334250      90.28361795     103.82176058
H      93.62930364      88.65467388     103.34177010
H      91.50525125      89.79606856     105.57920605
C      94.07716877      92.78561559     104.27718462
H      92.58239525      94.19724114     104.37167094
H      95.24690936      93.37709992     102.68792479
C      95.60973681      92.43979567     106.76784390
H      94.34550991      91.85398052     108.28340441
H      96.19177251      94.34652952     107.28184946
N      97.93221045      90.90344819     106.54107675
H      98.44432628      90.41967825     108.31552975
H      99.28147503      91.98437164     105.73227388
H      97.79992960      89.26505547     105.57164715
C      85.94189700      89.04017804     100.29364156
O      86.05339084      87.84398128      98.33588510
N      84.24870222      90.81274132     100.76418341
H      84.35452689      91.68201543     102.45926791
C      82.06228888      91.33241605      98.93681806
H      81.07207228      89.55985277      98.58910842
C      79.92311868      93.24103963      99.67192160
H      80.82829759      95.08919196      99.78908463
C      77.48348201      93.31662868      98.02408025
H      77.92567798      93.74937601      96.05876489
H      76.17201195      94.80384329      98.58154952
H      76.65956135      91.43257155      98.10722821
C      79.04817540      92.48514910     102.38745831
H      80.59019208      91.82185517     103.57798589
H      77.73859506      90.89588928     102.30620008
C      77.59686559      94.58841449     103.81231195
H      76.72948121      94.02716578     105.59432386
H      75.93390644      95.21958308     102.77296248
H      78.89510756      96.17956406     103.98427704
C      83.23202946      92.34908882      96.42726152
O      85.22947017      93.53583693      96.53119647
N      82.05284023      91.79161955      94.23895845
H      80.68278867      90.46314195      94.24651735
C      83.01471094      92.61554022      91.73129163
H      84.26193030      94.23503567      91.98451496
C      84.85152490      90.51416457      90.99618810
H      86.18378196      90.49904675      92.56844039
H      85.65843804      90.99793451      89.16504330
C      83.78571927      87.96303405      90.39336540
C      83.08841026      87.41312369      87.94050065
H      83.57784937      88.75104991      86.47974221
C      82.22291560      84.93947194      87.27153753
H      81.69379223      84.56908558      85.33456806
C      82.34007863      83.01573055      89.09890288
O      81.68056416      80.57987334      88.63025075
H      80.82451814      80.39845961      87.04099092
C      83.22636027      83.58075872      91.49318612
H      83.67611515      82.07653657      92.79709727
C      83.99358917      85.99015977      92.21128211
H      84.58885295      86.53818040      94.08400089
C      80.92467362      93.24670881      89.85668313
O      78.85164386      92.23759496      90.13825235
N      81.48214290      94.76415904      87.90081639
H      83.07329244      95.81484688      87.78932254
C      79.66422618      95.12131731      85.85802225
H      77.81040466      94.55061996      86.55533126
C      79.59430631      97.92378143      85.12102899
H      78.39055064      98.19779175      83.46940819
H      81.47458399      98.54361167      84.55978027
C      78.40566846      99.60374814      87.21106629
H      79.22391995      99.05761723      89.01953437
H      76.36287431      99.43745221      87.38870056
C      79.00471169     102.41566088      86.47974221
H      77.61198340     102.95045344      85.06055775
H      80.89254829     102.63108968      85.68605716
C      78.83652606     104.22034951      88.64725829
H      80.44468314     104.06917140      89.92471328
H      77.04884497     104.00492071      89.64503378
N      79.05195485     106.85840744      87.79310199
H      78.68912740     108.21145148      89.08756452
H      77.81418411     107.13808694      86.36257918
H      80.74325991     107.02470336      86.92571762
C      80.11020158      93.48481433      83.56767396
O      82.13976765      92.73837244      82.81367316
N      77.99181839      92.58341488      82.55856011
H      76.39499965      92.83663820      83.57334314
C      77.83875056      90.51227483      80.78221737
H      79.69068234      90.07385833      79.99231177
C      77.14711074      88.09342515      82.14093059
H      75.27061251      88.38255329      82.93839510
H      78.35653558      87.94035732      83.80011030
C      77.45702585      85.72559809      80.67828243
O      79.43934874      84.52184243      81.03544070
O      76.06429755      85.32686583      78.78855611
C      76.00760576      91.13399479      78.44084647
O      74.06685684      92.31696347      78.90193969
N      76.81829835      90.51983374      76.17506462
H      78.34141776      89.36899041      76.21474888
C      75.49171047      90.58597416      73.67684644
H      77.09041895      90.52550292      72.38427364
C      74.06685684      88.19736011      73.29134227
H      72.39444905      88.20491902      74.49131848
C      73.52072594      87.89122444      70.44352472
H      71.83131062      89.01561159      70.08825617
H      73.03317655      85.99582895      69.80290750
H      75.11943440      88.70758620      69.43630059
O      75.16478782      85.98449059      74.00376909
H      75.30840703      86.17535295      75.80278854
C      73.81363351      92.94057315      73.05512648
O      74.52228089      94.46747201      71.55846324
N      71.55163111      93.17678894      74.21919789
H      71.04707419      91.77083256      75.40783574
C      69.96237128      95.38209955      73.97920265
H      70.22126379      96.26460173      72.13671949
C      67.18825306      94.65644464      74.55367945
H      66.02229193      96.30995516      74.16817528
H      67.30541609      94.35219870      76.58702496
C      66.31330977      92.56262788      72.90016892
H      64.31208961      92.17145455      73.19307650
H      67.19770170      90.89399955      73.72408959
C      66.50606186      92.81018203      69.99188013
O      65.94859260      94.77927685      68.94119230
O      67.06731057      90.89210982      68.75221966
C      70.78062278      97.37198136      75.91239266
O      69.58064658      99.36564261      76.31868382
N      72.95947723      97.04505871      77.14449422
H      73.88733285      95.37454064      77.13126614
C      73.83819995      98.81384253      79.00020546
H      73.45269579     100.70545857      78.28021974
H      75.88477356      98.59274455      78.93406504
C      72.95758750      98.61731099      81.68550655
O      73.17112657     100.28027015      83.28988419
N      71.95414282      96.33830106      82.39037447
H      71.92957638      94.82085084      81.23386196
C      70.64834193      96.04917294      84.90182074
H      70.02095281      97.85386157      85.67093935
C      68.27673542      94.51282544      84.51253712
H      67.35076953      94.35786788      86.34368191
H      68.89089646      92.64388612      83.89837606
C      66.26795635      95.17989884      82.48864023
C      65.12656166      93.21458346      81.18472908
H      65.27962949      91.27761399      81.80266958
C      63.19526137      93.63599243      79.41216580
H      62.22205231      92.14688809      78.41250058
C      62.45826810      96.07562910      78.70918761
O      60.62712330      96.42522847      76.86481473
H      60.03374924      98.13165134      76.69284963
C      63.69792856      98.03905475      79.77688298
H      63.04030381      99.85130227      79.10603013
C      65.65757475      97.63654304      81.59102024
H      66.63456326      99.22769259      82.42249981
C      72.23004287      94.53361243      86.84823884
O      73.47348278      92.73459298      86.27754149
N      71.96359145      95.26871596      89.20661728
H      70.57464261      96.55372986      89.45606115
C      73.10498614      94.24070485      91.46672995
H      75.15533920      94.35030898      91.30421348
C      72.33397781      95.80728797      93.90258716
H      72.53050935      94.77738712      95.67515045
H      70.32141928      96.06051129      93.55298780
C      73.60765334      98.45857399      94.15203104
C      72.12988737     100.64309760      94.20494337
H      70.09087268     100.56183937      94.23328927
C      73.29773823     103.09596235      94.35045230
H      72.10721065     104.73246534      94.62068316
C      75.89233246     103.30383226      94.40525436
O      77.08474976     105.58473191      94.60178590
H      75.69958038     106.72234715      94.89847293
C      77.47025393     101.18355932      94.06321390
H      79.48659191     101.49347444      94.14636186
C      76.22114483      98.76281993      93.93660224
H      77.14900045      96.94679293      93.86857209
C      72.67412855      91.49115306      91.86168275
O      70.45370013      90.73337281      92.10167799
N      74.57519322      90.03795353      92.42860064
H      76.34775649      90.67479130      92.74229521
C      74.76794531      87.31863737      92.51363832
H      73.02939710      86.47015025      93.21850624
C      75.44257759      86.47392971      89.76408654
H      77.21892034      87.34320381      89.18016111
C      76.13799687      83.54863337      89.53165020
H      77.08286004      82.71337434      91.16248401
H      77.15089019      83.28029223      87.76097665
H      74.26527810      82.69447709      89.39181046
O      73.58308690      86.86321332      87.90837530
H      73.26939233      88.63955606      87.71940267
C      76.92034358      86.62321808      94.38635710
O      78.46613970      88.20302928      94.95705445
N      76.97892509      84.17224305      95.25563120
H      75.62399132      82.93258259      94.73784620
C      79.03116787      83.32753539      97.04898148
H      80.73381127      84.32342116      96.45560741
C      78.45669107      84.24972184      99.81743052
H      77.78583822      86.17724268      99.55475857
C      76.22492429      82.70959489     101.27440951
H      74.67912817      82.25984003      99.99128535
H      75.52005637      84.02484440     102.69359397
H      76.94679974      80.98427476     102.13990416
C      80.87554074      84.19680950     101.47094105
H      82.34385810      85.27017404     100.50340118
H      81.59174702      82.28818592     101.76573835
C      80.30295367      85.20781307     104.00128458
H      79.11242609      83.84909985     104.98961144
H      79.73792550      87.18635652     103.96726951
H      82.01504572      85.66134739     105.05008269
C      79.26927338      80.44381304      96.91670063
O      77.68379301      79.05297447      95.77341621
N      81.41978192      79.52351633      97.76896720
H      82.85597393      80.65546240      98.31320838
C      82.09252449      76.98372416      97.78597474
H      80.73948046      75.81020412      98.80453722
H      83.79138844      76.77018510      98.93303861
C      82.81439994      76.05208909      95.13468872
O      84.37342416      77.09143856      93.87991045
N      81.63899018      74.14913470      94.25029681
H      80.36342491      73.28552976      95.37846342
C      81.68623333      73.26852223      91.64436422
H      83.07518218      74.27007717      90.49919008
C      82.47046976      70.40747659      91.34200801
H      80.78294415      69.51174632      92.11301635
C      82.66889102      69.61001210      88.51875690
H      84.51704335      69.91614775      87.66271088
H      81.25726546      70.71550199      87.50208414
H      82.23047451      67.59745356      88.56222060
C      84.50003581      69.64024772      92.92559866
H      83.88965422      69.30576616      94.86445786
H      85.72835792      71.26541235      93.23740350
C      86.12709016      67.35367887      91.81632932
H      87.80516714      67.07399937      92.97473155
H      87.03604853      67.58044603      89.97951534
H      84.88553999      65.71717589      91.65948203
C      79.10675692      73.80898396      90.36690923
O      77.23214842      72.48617554      90.80532574
N      78.84408495      75.79130686      88.81544393
H      80.34452766      76.87223031      88.34490208
C      76.75215794      76.42625490      87.19216903
H      76.34775649      74.84266426      85.93361130
H      77.37198817      78.07598597      86.12447366
C      74.20102740      76.97616525      88.43938839
O      72.32074973      77.40891258      87.09201353
N      74.00638560      77.15757899      91.00563673
H      75.57863790      76.99695225      92.08089100
C      71.56107975      77.64512837      92.30387870
H      69.95670211      76.89301731      91.25508060
C      71.77272909      76.20515692      94.90414211
H      73.14656013      77.10844610      96.14380257
H      72.57964223      74.34188677      94.55076329
C      69.37655614      76.08799389      96.38946699
N      67.46226337      74.25306964      96.33466493
H      67.64178738      72.55609542      95.48050864
C      65.51017609      75.09210812      97.65936307
H      63.93981352      73.81465314      97.92770421
N      65.99205631      77.47127355      98.59288787
H      64.73160886      78.33298876      99.73617229
C      68.40334707      78.06086817      97.68959870
H      69.48049108      79.78429855      97.88801996
C      71.07353037      80.44948222      92.79520755
O      72.38689014      81.69481186      94.26919407
N      69.38411504      81.50017005      91.13602784
H      68.36177310      80.35121645      90.00219205
C      68.28429433      84.01728550      91.14925593
H      69.85654662      85.30985829      90.83178191
C      66.30575088      84.32909034      88.92504806
H      64.91491231      82.84565518      89.25008098
H      67.02384688      83.80563616      87.06366764
C      64.93947875      86.93313320      88.58489732
H      64.63145335      87.66256755      90.48596199
C      66.49661323      88.92868418      87.13925669
H      66.90857357      88.13310941      85.28732490
H      68.20303610      89.50694044      88.14081164
H      65.25317331      90.51794401      86.71217854
C      62.46204755      86.73282221      87.22429437
H      61.07120898      85.75394398      88.38647606
H      62.78141129      85.60276588      85.53109960
H      61.80442280      88.62254852      86.72729635
C      67.28462910      84.55018832      93.73440152
O      65.84654738      82.87400109      94.79075853
N      67.53974215      86.75738865      94.87012704
H      68.48271558      88.18035256      94.01597074
C      65.91457752      87.37532916      97.19071095
H      65.21726852      85.67268576      98.11478712
C      67.57753668      88.84742595      98.86689819
H      66.33976595      89.19891506     100.47694501
H      68.28429433      90.52739264      97.91069667
C      69.81119319      87.39422642      99.90813739
H      70.78062278      86.27550844      98.47383512
C      71.78217772      89.09120065     101.17047456
H      70.77684332      90.20802890     102.58021039
H      72.68168746      90.31385357      99.77774627
H      73.33742248      87.92901896     101.85833494
C      68.88900674      85.32875556     101.88101166
H      67.77028877      86.29818516     103.31342420
H      70.43669260      84.20247867     102.64257136
H      67.60210312      84.08531564     100.86244918
C      63.53730183      89.03450886      96.70316156
O      61.52096385      88.71136567      97.77652611
N      63.78674570      90.71636528      94.79831744
H      65.40057197      90.80518241      93.78164468
C      61.81198171      92.52672309      94.12935432
H      59.97138828      91.60642637      94.07266253
C      61.55497893      94.64699601      96.18348682