 %block lattice_cart
   139.252   0.000   0.000
   0.000 142.425   0.000
   0.000   0.000   162.84
 %endblock lattice_cart

 %block positions_abs
N      87.79004932      40.37689089      79.77688297
H      89.54560507      40.49216419      79.03799998
H      86.81117110      38.85188175      79.17783973
H      87.76548288      40.47704638      81.68361682
C      86.55605805      42.68424672      78.81123283
H      87.69934245      44.18090996      79.64649186
C      86.64487517      43.00927964      75.97853308
H      85.31450786      41.64111779      75.20563502
H      88.48924806      42.90345497      75.06579527
C      85.95323534      45.62844031      75.28122407
H      84.17311315      46.04229038      76.23175641
H      85.94756616      45.81741294      73.23087102
S      88.13586924      47.83753037      76.61159140
C      86.34440869      50.69479656      76.31868382
H      87.06061496      51.97414127      77.76432445
H      84.38665223      50.13354784      76.63048866
H      86.47668954      51.68123369      74.51588492
C      83.93689738      42.81652756      79.86947956
O      82.88998899      40.86444028      80.41372074
N      82.73125199      44.98215391      80.41938992
H      83.55139320      46.64511307      79.96585560
C      80.18012146      45.35631972      81.49464419
H      78.94424045      43.99193733      80.57056802
C      79.92878787      44.74215867      84.26876242
H      80.42767561      42.78818166      84.68072275
H      77.95024442      44.71003332      84.84701867
C      81.43867918      46.44669181      85.92605239
O      81.14199215      48.73704010      85.93739075
N      83.33974385      45.55285126      87.33767795
H      84.23358441      46.80196035      88.47340346
H      83.71579940      43.68769139      87.46617934
C      79.20313296      48.01138519      80.95418246
O      80.60153042      49.69135189      80.13026179
N      76.63121544      48.24760098      81.15638318
H      75.38777554      46.86243159      81.57023324
C      75.42745978      50.60408969      80.74820230
H      75.54273308      50.87810001      78.71107733
C      72.48326619      50.34141774      81.25464895
H      71.73682430      48.71814283      80.22663783
C      71.85398733      49.59497584      84.09112814
H      69.86410552      49.07530111      84.20262200
H      72.04673940      51.03305757      85.55188658
H      72.70625390      47.73170570      84.30844667
C      70.93369062      52.77538523      80.52899404
H      71.44391672      54.29094573      81.82912575
H      68.96081634      52.32185091      80.90504958
C      70.59353988      53.61064426      77.71897102
H      69.57119794      55.39643562      77.76243472
H      69.80930346      52.07240704      76.59647359
H      72.51917099      53.96402308      77.07457434
C      76.35909485      52.89821744      82.31289568
O      76.62176682      54.99959310      81.40582705
N      76.65200243      52.62987630      84.82245223
H      76.39688938      50.89699727      85.58212220
C      78.06740745      54.58007386      86.40226342
H      76.93357165      56.29594535      86.50619837
C      78.39810954      53.45001752      89.16882275
H      79.19935351      54.91077596      90.37824759
H      80.07051734      52.24815159      89.07622616
C      76.20224758      52.06673786      90.28754072
C      74.18024042      53.28372161      91.56121626
H      74.08953356      55.26982396      92.02986838
C      71.83320034      51.90233167      91.91837453
H      70.27606585      52.97569622      92.68371369
C      71.57997701      49.33797306      91.19838881
H      69.85276715      48.30051332      91.54609845
C      73.60009444      48.17579138      90.23651811
H      73.50560812      46.19346848      89.76219681
C      75.83564066      49.47970254      89.69794611
H      77.16789771      48.46114006      88.53009525
C      80.62798659      55.45501714      85.46495917
O      81.29694971      57.76993187      85.46306945
N      82.23425396      53.70891003      84.50119875
H      81.78260937      51.85886797      84.63725905
C      84.73814133      54.36275533      83.73396987
H      85.34663319      55.96902270      84.87347484
C      86.77148684      52.21602624      83.89459661
H      88.43066654      52.94357087      82.91382865
H      85.90410246      50.76471643      82.71540739
C      87.57839997      51.09730826      86.47029357
H      88.90876730      49.56474022      86.12825311
H      85.96457371      50.08252523      87.24886081
C      88.62341862      52.95868868      88.40726304
O      88.18500212      52.58074342      90.71083942
O      89.43222148      55.07896160      87.72129239
C      84.70979544      55.50981920      81.07512495
O      86.27448881      57.15766055      80.71796667
N      82.99581367      54.91833487      79.34791510
H      81.67300524      53.71835866      80.01687821
C      82.38543207      56.22413575      76.97063940
H      84.06728849      56.36208577      75.79145018
C      80.10075296      54.98258556      76.00120980
H      78.44157325      55.36808973      77.15961203
H      80.53350029      52.97191676      76.11081392
C      79.50170972      55.46068632      73.21008403
H      81.10041818      54.55550742      72.27844896
H      79.59430631      57.48458320      72.84158740
S      76.55751611      53.92433883      72.32002294
C      77.25104568      53.98103062      68.92796421
H      76.53861885      55.73091718      68.10215381
H      75.98681878      52.58452287      68.09270518
H      79.11620554      53.43112026      68.24388328
C      81.70513059      59.03982796      77.46952714
O      82.68022937      60.79349397      76.25254340
N      80.09130432      59.46690610      79.38004045
H      79.22580967      58.00803739      80.25498373
C      79.32029599      62.00669827      79.93939943
H      78.84975413      63.07061418      78.23864575
C      76.96569700      61.80638728      81.53999762
H      76.61609764      63.56572248      82.55289092
H      77.46458474      60.52326311      83.07256566
C      74.54684733      60.82561932      80.14915905
H      75.09675768      59.16454989      79.06256642
C      72.48137646      60.06028016      82.03321619
H      73.05585326      58.41810800      83.13303690
H      70.93180089      59.34974307      80.87670369
H      72.03540105      61.62686328      83.29366364
C      73.35254029      62.91565662      78.55423005
H      73.72103692      64.71656580      79.47830621
H      71.35698930      62.42810724      78.45029510
H      74.05551847      63.08384227      76.62481948
C      81.41978192      63.57139165      81.23197223
O      81.83741143      65.77481254      80.72174613
N      82.77471569      62.41487915      83.00831497
H      82.25315122      60.68955903      83.63759383
C      85.08585097      63.47123616      84.19695282
H      84.63987556      65.27781452      85.08323446
C      86.02693467      61.64953999      86.21707025
H      87.04549715      60.04327263      85.41960574
H      84.55672761      60.97868715      87.49452523
C      87.74658562      63.09140117      87.94994927
H      86.57684502      64.22523696      89.21039673
H      89.12419610      64.32350273      87.03910119
C      89.39442696      61.34340433      89.64692350
H      90.63597714      62.25992159      91.01130590
H      90.66621278      60.64042614      88.18805479
N      88.03382401      59.18344716      90.73162641
H      87.98469114      57.73780653      89.48629677
C      87.07006359      58.72991284      93.01252607
N      86.75636902      60.61963915      94.63958042
H      86.01937577      60.36452610      96.38190808
H      87.68989382      62.26370105      94.37123929
N      86.48802790      56.49625634      93.72495289
H      85.70946066      56.25815082      95.45216274
H      86.97746700      55.02038009      92.61757327
C      87.04171770      63.99658007      82.11258469
O      88.68388986      65.62363443      82.53399366
N      87.05116634      62.63786686      79.92239190
H      86.10063399      60.98246661      79.84680284
C      88.77648645      63.17454913      77.72652992
H      90.51692440      63.96445473      78.49753826
C      89.34907354      60.76136863      76.12971119
H      87.56706162      59.76926231      75.83869333
C      90.55093946      61.47757490      73.48031490
H      91.91343213      62.94022307      73.97731292
H      89.07884266      62.28448804      72.28411814
H      91.33895533      59.84107191      72.51277502
C      91.27848409      58.99447452      77.48275523
H      90.61707988      58.90376766      79.43295278
H      93.07183437      60.00736783      77.54700592
C      91.56194305      56.23925356      76.27144066
H      89.93110923      54.98636501      76.39994205
H      92.96600969      55.09029996      77.25220862
H      92.11185341      56.56806594      74.31368420
C      87.61808423      65.33450630      76.07490912
O      89.11285774      66.81605173      75.06201582
N      85.12175577      65.68977485      75.67995632
H      84.02193506      64.38208424      76.53033317
C      83.62320281      67.81004777      74.48753902
H      84.56806595      68.14452933      72.68662984
C      80.94168117      67.07305451      73.69007452
H      79.89855223      68.84939725      73.64850054
H      80.22358517      65.63497279      74.98075759
C      80.79428252      66.02614614      70.96319945
O      81.74859430      67.26580660      69.19630534
O      79.77572002      63.82650471      70.65706378
C      83.81217544      70.35361939      75.99365089
O      84.30161454      72.31893476      74.81446167
N      83.34919249      70.37062693      78.42572866
H      83.02604928      68.69066024      79.27232605
C      83.03927737      72.60050398      79.93750971
H      83.58351855      74.23889669      78.81501228
C      80.26326941      72.81593278      80.67450297
H      80.00437691      73.22033421      82.67761286
H      79.40344395      70.95266263      80.47797143
C      78.50960339      74.49967892      79.01721299
H      76.55373667      73.89496650      79.24020070
H      78.89510757      73.99134254      77.05945653
C      78.63054589      77.42119580      79.46507813
O      76.59531064      78.42464047      80.19640221
O      80.70168592      78.60605420      78.96808011
C      84.76081804      72.92553690      82.20896074
O      85.97591207      74.83605021      82.41305118
N      84.84585572      70.88085303      83.71129315
H      83.82162406      69.33316718      83.27098692
C      86.32551143      70.75235164      86.07345105
H      87.94122742      72.02224773      85.93172157
H      86.92266494      68.79837464      86.34557164
C      84.78538448      71.75579632      88.34868153
O      83.10541779      73.42820410      87.94616982
N      85.28616195      70.83172015      90.51619761
H      86.65810326      69.50891173      90.59745584
C      83.81406517      71.19076815      92.84245070
H      81.84874980      71.10573046      92.22639992
C      84.01437614      68.73601367      94.51296876
H      85.87386684      68.47901089      95.36145587
H      83.70635076      66.96911957      93.50007546
C      82.26637931      69.10451030      96.77686088
H      81.91866966      71.10006129      97.16614450
C      79.94012622      67.29226276      96.49529166
H      78.72881166      67.52091965      98.14313301
H      80.64121468      65.36096247      96.36868000
H      78.79495207      67.60406761      94.80965579
C      83.59485691      68.28058963      99.06909890
H      82.32118137      68.27681017     100.68481490
H      85.15955030      69.54481653      99.51318458
H      84.46791047      66.49857771      98.51540909
C      84.56239677      73.71733223      94.21439200
O      86.35196760      73.81370827      95.67892990
N      83.17533767      75.73933938      93.58133369
H      82.00370736      75.64674279      92.07900127
C      83.69501240      78.22055003      94.68493385
H      85.74914490      78.21110140      94.82666333
C      83.05250546      80.29735925      92.86134796
H      83.47013497      82.06992253      93.82510838
H      81.09096954      80.23310856      92.24340746
C      84.71546462      80.43152982      90.49352089
H      84.86475300      78.66085626      89.45606115
H      86.60897037      81.07592649      90.98296001
C      83.58162882      82.28535133      88.70961925
H      83.46068634      84.15807011      89.55999609
H      81.71079977      81.68252864      88.08978902
N      84.97813656      82.58581782      86.24730587
H      86.59007311      83.60438030      86.31344629
C      84.25626112      81.57292451      84.15915829
N      82.22669505      80.30491816      83.76987467
H      81.85252924      79.21265635      82.25053471
H      81.17033804      79.92697289      85.31567079
N      85.73591683      81.90551634      82.28454979
H      85.35608183      81.15907445      80.57056802
H      87.42155270      82.73510619      82.61714162
C      82.61030949      78.81203437      97.40802947
O      80.42011670      78.08071029      97.95416038
N      84.06350903      80.12161470      98.96894341
H      85.63009215      80.85104906      98.15825082
C      83.61186444      80.76979083     101.64668559
H      82.04717105      79.54335845     102.17769869
C      86.03449357      79.79280233     103.24728378
H      85.38631745      80.30491816     105.13512037
H      87.76170342      80.76601138     102.68603506
C      86.59385257      76.96766149     103.27373995
H      86.98502591      76.51223745     101.30275540
C      88.84640633      76.34027235     104.84788197
H      90.43944561      77.55347664     104.36222230
H      89.71190098      74.49778920     104.54174630
H      88.33995968      76.65585665     106.81886651
C      84.28082756      75.40674755     104.17702912
H      84.22413576      73.35072532     104.09010171
H      82.89187872      75.95287846     102.75595494
H      83.45690688      75.87350995     106.00628420
C      82.84085611      83.37194396     102.46115763
O      81.89788268      83.63083647     104.57954083
N      83.49092196      84.99521886     100.66780736
H      84.59074268      84.28090232      99.28263797
C      82.88620954      87.71075558     100.47505528
H      82.36464507      88.47420501     102.31753843
C      85.25025715      89.24899280      99.55286884
H      84.83073792      91.25966159      99.70026749
H      85.80772642      88.51577899      97.70849596
C      87.36864035      88.67829545     101.34054993
H      87.97713223      86.70920063     101.31598349
H      86.77904575      89.29245650     103.21704816
C      89.50403108      90.48487380     100.53741625
H      89.65331946      92.34247477     101.41613898
H      89.58528931      90.80990673      98.50407073
C      92.07594860      89.34725856     101.02874509
H      91.97957256      87.39706101     100.37678951
H      92.51436510      89.12238113     103.02996525
N      94.19244208      90.72297932      99.79286408
H      95.80059916      89.70252711      99.63790652
H      94.42676814      92.28956243     100.85866972
H      93.64442145      91.48264930      98.12990492
C      80.57318453      88.05090631      98.70060227
O      80.27271805      86.47298484      97.06976846
N      78.99715278      89.98976551      99.02752492
H      79.21825076      91.42217806     100.26907511
C      76.59153120      90.14283334      97.59133292
H      75.84886875      88.25688648      97.22850547
C      74.52417060      91.52611300      99.20515920
H      75.31029675      93.38749342      99.59822227
C      72.20169696      92.18751721      97.55542812
H      72.75160732      93.59347359      96.15325120
H      70.63700357      92.93395911      98.66847692
H      71.52328522      90.51132997      96.56899099
C      74.01394450      90.32613679     101.71093629
H      75.89233246      90.05590593     102.51406997
H      73.23159780      88.42507212     101.67881094
C      72.31508055      92.06279528     103.34554955
H      72.42468467      91.48831848     105.32031354
H      70.39511862      92.12137679     102.60477683
H      73.04829435      93.98842639     103.36633654
C      77.17167717      91.29934585      95.02508459
O      78.37921228      93.33836054      94.87201676
N      76.33074896      89.91984564      93.01630552
H      75.45958513      88.26255566      93.39614051
C      77.03750661      90.65494917      90.46895445
H      78.33952804      92.19885557      90.05321466
C      78.83463633      88.50255090      89.45039197
H      79.97036184      87.73910147      90.98673946
H      80.19145982      89.31891267      88.13325273
C      77.67056491      86.12716493      88.29765892
C      77.52883544      85.88527996      85.64259345
H      78.20913692      87.40839937      84.46718368
C      76.67089970      83.69886661      84.48419122
H      76.68601750      83.55335769      82.44895598
C      75.89611190      81.64662384      85.99975172
O      75.15155975      79.39595980      85.01709404
H      75.61076323      79.19942826      83.27476638
C      75.85264820      81.81291975      88.61513294
H      75.50682828      80.09893799      89.66582077
C      76.66712025      84.10326805      89.81132969
H      76.43090446      84.27145369      91.83144712
C      74.78117339      91.20108008      88.96284258
O      72.60609840      91.25210269      89.87747011
N      75.14211110      91.44107532      86.43249905
H      76.87687987      91.27666913      85.65582153
C      72.99349229      91.55634862      84.80922414
H      71.39667356      90.99509991      85.98463391
C      72.77995322      94.16228121      83.67727808
H      71.33053313      94.06023599      82.21840937
H      74.60731856      94.71408129      82.89493139
C      72.04862913      96.27688495      85.41582629
H      73.20325191      96.56034390      87.09768271
H      70.02851170      96.11625822      85.78243319
C      72.35854425      98.79211068      84.00042128
H      71.46470371      98.52376954      82.16360730
H      74.37299250      99.14359977      83.75097741
C      71.07919954     101.05411307      85.39125985
H      71.56485919     102.73785922      84.30655694
H      71.90312020     101.19395282      87.27342725
N      68.25594842     101.05600280      85.80699964
H      67.57753668     102.70006469      86.50241892
H      67.77595795      99.61036217      86.95784296
H      67.21848868     100.87458907      84.21773981
C      73.09553752      89.60048189      82.61714162
O      75.08919877      89.24143389      81.39448870
N      71.01872830      88.39483650      81.99920112
H      69.44647600      88.79734821      83.00453551
C      70.62944468      86.92084998      79.66538912
H      71.69336058      85.16529423      79.82601586
C      67.70981753      86.28590194      79.72397063
H      66.50039269      87.93752273      79.50476238
H      67.49249900      85.21064766      81.46818802
C      66.89156603      84.45853659      77.64149224
O      66.92558110      82.09259925      78.11203409
O      66.13000632      85.21064766      75.53633712
C      71.27951053      88.49688172      77.21252436
O      71.27762080      90.80045810      77.15016340
N      71.43824754      87.14761714      75.15083296
H      71.37399684      85.28434699      75.54956521
C      71.74249348      88.09059057      72.51466475
H      73.66434514      88.82758383      72.45041406
C      71.68013251      85.86449297      70.75155010
H      69.98504800      84.70231129      70.85926450
C      72.18279970      86.59770678      68.11727162
H      72.19791752      84.78167979      67.14595230
H      74.01961368      87.49154732      67.84515103
H      70.94691869      88.00177343      67.25744615
O      73.73048556      84.20720299      71.48098446
H      73.00294093      82.61605344      71.95530576
C      69.73182467      89.97275797      71.82302492
O      70.17402064      91.51855410      70.11849179
N      67.62477983      90.11637717      73.04000867
H      67.15234825      88.76144341      74.30045612
C      65.48183020      91.88516100      72.44663460
H      65.72749461      92.82246525      70.62871789
C      63.08187778      90.34125460      72.17451401
H      62.62267429      89.65150450      74.06046087
H      63.54297100      88.71231052      71.00288370
C      60.77263223      91.65839384      71.01233233
H      60.18492734      93.29111738      72.12349140
H      59.17770322      90.36015187      71.15973098
C      61.30553504      92.12515624      68.24388328
O      61.72694402      94.38526891      67.71664964
O      61.32443231      90.35259296      66.65462345
C      65.22860687      94.05645654      74.47620066
O      63.53541209      95.63626773      74.22486706
N      67.15612771      94.40416618      76.05412213
H      68.54885601      93.12104201      76.28655847
C      67.36021815      96.41483497      77.95140735
H      66.94636809      98.23275169      77.07457434
H      69.28773899      96.37137127      78.67706226
C      65.78796586      96.15405274      80.31167552
O      65.74072270      97.98708727      81.83668465
N      64.70893213      93.89960925      80.92016739
H      64.51429032      92.79789881      79.37437127
C      63.45226414      93.24576395      83.24453076
H      62.34866398      94.83691350      83.94561922
C      61.63056797      91.10659376      82.55100120
H      60.31153901      90.93840812      84.12514322
H      62.60377702      89.31324349      82.27699088
C      59.86745332      91.28044858      80.22474811
C      58.72983808      89.11104277      79.37626099
H      58.94337716      87.42540690      80.51009678
C      57.08010702      89.08080715      77.26732643
H      56.06910344      87.40273019      76.69284963
C      56.50185075      91.24832323      75.93695910
O      54.81621489      91.18407254      74.05101224
H      54.49307168      92.72042003      73.14016416
C      57.50340570      93.58780441      76.86292500
H      56.78341998      95.35847797      76.15238790
C      59.19660048      93.53300235      78.97185956
H      59.93548346      95.29611700      79.68239666
C      65.26451167      92.49176315      85.40070848
O      67.11644345      91.15383692      84.92260772
N      64.77885201      93.18340298      87.71751294
H      63.42013879      94.46085797      88.13514245
C      66.40590636      92.52955767      89.79999134
H      68.30886077      92.73553784      89.03843163
C      66.22071318      94.45140934      91.99018413
H      66.95581673      93.43851603      93.62668712
H      64.25539783      95.00509914      92.27364308
C      67.67013327      97.01954739      92.01664030
C      66.08843235      99.16060731      91.91459508
H      64.09477108      98.92439152      91.55176763
C      67.23738594     101.60780288      91.91459508
H      66.14890358     103.33501273      91.95616906
C      69.95481238     101.71929674      92.00719167
O      70.99983103     104.01909366      92.28498144
H      69.78662673     105.35513016      92.46828489
C      71.51761604      99.53855257      91.82955740
H      73.53017456      99.86925467      91.74074026
C      70.35354464      97.17072550      91.89947727
H      71.55163112      95.52855333      91.71806354
C      66.21126455      89.62693806      90.48785171
O      64.10421971      88.57813995      90.58044830
N      68.25783816      88.30223991      91.04721070
H      69.89623086      89.27733869      91.12091003
C      68.68869575      85.55457785      91.40814843
H      66.90668383      84.58514826      91.76152725
C      69.58631574      84.23176943      88.86457681
H      70.09087267      82.31747668      89.42960498
C      67.46793256      84.26011533      86.98240940
H      65.57064733      83.91051596      87.70428485
H      67.84020863      82.78234935      85.59724002
H      67.56052915      86.10259848      86.06589214
O      71.72170648      85.56213676      87.93294174
H      72.85365255      84.26011533      87.36980330
C      70.50850220      84.93663735      93.62290767
O      71.95225310      86.49188210      94.39769545
N      70.30252203      82.60471508      94.59989617
H      68.94002935      81.34426763      94.15958994
C      72.35287508      81.38395188      96.12679503
H      74.14433562      82.37983765      95.91514568
C      71.48549069      81.21009706      98.88390572
H      70.74093853      83.08281584      99.30720442
C      69.25561364      79.46398995      99.29208661
H      69.58253629      77.45710060      98.96705368
H      67.72871478      80.18397567      98.11289739
H      68.73026972      79.32415020     101.27629923
C      73.63221979      80.81136481     100.78119094
H      74.43535347      78.92352822     100.58843886
H      72.91601352      81.02679361     102.69926315
C      75.62021187      82.84282059     100.72638888
H      76.92790247      82.49889041      99.17114412
H      76.81640862      82.90707129     102.39879666
H      74.80196037      84.73065718     100.78497039
C      72.79885049      78.78368847      95.01374623
O      71.49493933      77.89551711      93.26952885
N      74.77550421      77.36072456      95.92459432
H      75.94146534      78.05236439      97.26630000
C      75.41990087      74.60550360      95.38980177
H      74.02528286      73.27324655      96.11167722
H      77.23970732      74.15763846      96.24395806
C      75.91878863      74.35039054      92.57599929
O      77.11309565      75.93398119      91.38736144
N      74.95880766      72.38129573      91.31555184
H      73.92512736      71.16620171      92.36057049
C      74.58275212      72.29625804      88.66804527
H      75.81674340      73.63607400      87.71184376
C      75.28950977      69.64686175      87.65137252
H      73.96481162      68.26358209      88.41671167
C      75.10620631      69.29159320      84.72796591
H      76.71814285      70.14385977      83.77176440
H      73.45647523      70.20055156      83.89837606
H      74.85676243      67.28659359      84.33301311
C      78.17323212      69.08939249      88.16159862
H      78.57763354      69.29159320      90.17226742
H      79.31651654      70.56148929      87.27909643
C      78.95368908      66.45700373      87.42460536
H      80.95301953      66.34362016      87.91026502
H      79.12565417      66.33417152      85.37425231
H      77.84064029      65.06994462      88.46206511
C      71.84642842      73.04269994      88.27876165
O      70.26661723      71.48745518      89.01764464
N      71.41746054      75.39918865      87.32067041
H      72.91790323      76.56703951      87.15059504
C      68.94380881      76.38940524      86.33045382
H      68.43547243      75.50123387      84.54466246
H      69.21403967      78.41897130      86.09612776
C      66.53251803      76.55948060      87.89325749
O      64.49161360      76.92608751      86.85012856
N      66.78196191      76.39696414      90.37446813
H      68.43169298      76.13618191      91.30232375
C      64.66168898      76.76735050      92.23773828
H      63.08943669      75.59572018      91.60279024
C      65.75206106      75.78091336      94.76997154
H      67.28084965      76.85238818      95.64113537
H      66.47960570      73.90252541      94.33911394
C      63.76973815      75.50312359      96.82032459
N      62.57543113      73.30348217      97.34377878
H      62.73227841      71.57816204      96.54253482
C      60.76507333      73.81559800      99.09933452
H      59.38368338      72.46633341      99.76451818
N      60.70838154      76.36861825      99.54908938
H      59.29108679      77.26812797     100.45615801
C      62.70960169      77.43820334      98.15069191
H      63.04975244      79.41674679      97.78219528
C      63.83776830      79.48288721      92.06010401
O      65.03207534      81.14206691      93.18449116
N      61.66647278      79.84382494      90.88091479
H      60.76885277      78.29046991      90.23462839
C      60.50429108      82.38928628      90.76753121
H      61.82898924      83.66485154      89.83967559
C      58.18937636      82.26834380      89.14425630
H      56.98184124      80.84349016      90.01542013
H      58.85267030      81.72410262      87.26964780
C      56.73617683      84.60026607      88.87213572
H      55.95949931      85.04813120      90.72973668
C      58.15158183      87.02289520      88.08789930
H      59.01140730      86.95108560      86.21895997
H      59.49517723      87.69563777      89.49763513
H      56.72294874      88.45341802      87.67971841
C      54.61590390      84.08059133      87.05988818
H      53.32144137      82.72565756      87.91404447
H      55.36423551      83.30202409      85.30622216
H      53.57088524      85.83236762      86.77453951
C      59.82398962      83.27556792      93.45094257
O      58.39346680      82.03401773      94.86067840
N      60.71216098      85.59426211      93.93282278
H      62.00284405      86.31235811      92.72906712
C      60.18870680      86.96809314      96.22506080
H      59.55753821      85.62827718      97.65936307
C      62.64535101      88.10381865      97.31732261
H      61.91024746      89.30946404      98.81587557
H      63.61667033      89.23576471      95.89813815
C      64.60877665      86.24999714      98.29809056
H      65.10388493      85.22576548      96.58221907
C      66.84432287      87.57280556      99.57743528
H      67.57564695      88.88049616      98.16392000
H      68.14823402      86.07425259     100.12545591
H      66.17535976      88.77845094     101.11000332
C      63.66580321      84.65128868     100.53363679
H      65.08309794      83.59493167     101.59188353
H      62.17102970      83.37761314      99.89679903
H      62.81542637      85.90606695     101.92636509
C      58.06465441      88.88427562      95.72995251
O      56.01241165      88.73309751      96.79386842
N      58.55598327      90.71919987      93.89880771
H      60.32665681      90.70786151      93.18449116
C      56.94593645      92.85648033      93.13535828
H      55.05054095      92.08547199      92.90481167
C      56.82121451      94.74998609      95.25374147