 %block lattice_cart
   139.252   0.000   0.000
   0.000 142.425   0.000
   0.000   0.000   162.84
 %endblock lattice_cart

 %block positions_abs
N      93.80977250      43.98248870      79.93750971
H      94.23685064      43.43824752      81.71574217
H      95.46517275      44.19413805      79.01532327
H      92.99530045      42.63889328      78.85280681
C      92.45672846      46.43724317      79.75420626
H      93.41104024      47.69580090      81.07512495
C      92.38113940      47.87154544      77.14260449
H      90.91471178      47.07219122      75.93317965
H      94.08945199      47.71847761      75.99932007
C      91.46084269      50.52283146      77.36181275
H      89.54843966      50.43401432      78.12337245
H      91.52320366      51.35809049      75.47964534
S      93.52253410      52.39366051      79.36114319
C      96.42704344      52.45224203      77.64527169
H      96.19649683      54.02071487      76.33002218
H      96.72562020      50.70802464      76.59080441
H      98.02008272      52.55995644      78.94540340
C      89.76764791      45.95725269      80.43261801
O      88.66026829      44.17524078      79.48397540
N      88.59979705      47.58052759      82.01809838
H      89.37647457      49.23781757      82.56233956
C      86.02221036      47.51249744      82.91760811
H      85.04711158      46.31441096      81.55322571
C      85.92772404      46.09898216      85.51031261
H      86.91983036      44.29807299      85.35913450
H      84.02476965      45.67946292      86.17549627
C      87.09368518      47.41990087      87.83278625
O      86.68928375      49.57040940      88.45450620
N      88.59601760      46.09331298      89.15559467
H      89.35946703      47.20069261      90.50485925
H      88.87758682      44.22248393      88.89670216
C      84.82034442      50.07307660      83.08768347
O      86.12992476      51.99870771      83.00642524
N      82.38826666      50.38677117      83.48641573
H      81.28466649      48.83719559      83.35602461
C      81.22230552      52.89065854      83.66405000
H      81.78922342      53.78260935      81.89526617
C      78.29322974      52.74892906      83.62814520
H      77.70363513      51.63399053      81.99920112
C      77.21797547      51.20691240      85.73707977
H      78.15150027      49.40411348      86.06967160
H      75.23943202      50.72503219      85.41771602
H      77.19529875      52.22736460      87.52476086
C      76.96853159      55.29816985      83.29744310
H      77.09514326      56.63798581      84.85835703
H      74.91628882      55.18289655      83.14626499
C      77.73765020      56.86853242      80.98819754
H      77.78111391      55.57973907      79.38193018
H      79.65761214      57.59985650      81.14315510
H      76.23342806      58.23669428      80.65938516
C      82.18606594      54.74070059      85.70873387
O      82.29189062      57.04049751      85.13047762
N      83.04400169      53.87142649      87.91593420
H      82.66416670      52.00815635      88.06900204
C      84.29877996      55.49470139      89.81132970
H      83.23297432      57.25025714      89.97384616
C      84.27610325      54.14543681      92.33222460
H      84.62570261      55.51926783      93.82888784
H      85.54033015      52.56184615      92.70450068
C      81.57757407      53.07207227      92.91615003
C      79.69918612      54.60653002      93.89124881
H      79.98075534      56.54727895      94.44871807
C      77.20852684      53.75804292      94.10289815
H      75.86871088      55.13754312      94.79642771
C      76.47720275      51.31651652      93.32433091
H      74.57424836      50.58519243      93.41314805
C      78.42551058      49.79906628      92.30009925
H      77.86237214      48.03406191      91.43838405
C      80.98608974      50.63621505      92.16592868
H      82.46007626      49.45513610      91.39303062
C      86.95762488      56.24870219      89.03087273
O      87.56044758      58.40110046      89.26330907
N      88.47507511      54.57440469      87.87624995
H      87.79099419      52.80373112      87.66838006
C      90.96951385      55.20935273      86.90115117
H      92.00508387      56.28271727      88.32033564
C      92.43405174      52.83585647      86.50430865
H      94.04598828      53.14010240      85.25897901
H      91.30399540      51.51871723      85.39314958
C      93.36946626      51.36564940      88.80788502
H      94.32944723      49.57040940      88.49985964
H      91.71217629      50.77794452      89.87935984
C      95.04187405      52.88309963      90.59367639
O      94.10834925      53.89410320      92.53631504
O      97.36056824      52.90010716      90.21951058
C      90.97896248      56.77593583      84.46718368
O      92.86679907      57.93433806      83.78499248
N      88.80577722      56.83640707      83.19161842
H      87.52265305      55.61942333      83.90971442
C      88.20673398      58.08740590      80.87292424
H      89.90559793      57.93622779      79.71830146
C      86.05244598      56.70790569      79.45185005
H      84.30255941      56.92522422      80.51954542
H      86.58912825      54.72369305      79.35169455
C      85.40238013      57.82473393      76.87804281
H      87.01809613      57.47702429      75.64972071
H      85.32112190      59.88075616      76.92717569
S      82.57723929      56.71357486      75.25476791
C      83.37470380      57.65465857      72.02900509
H      81.95362961      56.98380574      70.69863777
H      85.19639996      56.92711395      71.39783650
H      83.51643327      59.69745271      71.79467903
C      87.61524964      60.92010564      81.47763666
O      88.54877444      62.60952097      80.16616659
N      85.79166375      61.26781528      83.25964857
H      85.05467049      59.84674109      84.29710832
C      84.95262527      63.86618896      83.90215552
H      84.48586287      64.88664117      82.17494567
C      82.36747967      63.86240951      85.48763589
H      82.10669744      65.71056185      86.35691000
H      82.58290847      62.35440791      86.87280528
C      80.26610401      63.09518062      83.86625072
H      80.83302190      61.46623655      82.73997383
C      78.06079340      62.15409693      85.49897425
H      76.42240069      61.68544479      84.34624120
H      77.42395564      63.63564236      86.78209842
H      78.67495445      60.68011039      86.80099568
C      79.48942650      65.15498231      82.01053948
H      78.10236738      64.17043489      80.84835779
H      81.02577399      65.93165982      80.88237287
H      78.60314485      66.79337503      82.88926221
C      86.93872762      65.49891249      85.24008175
O      87.18628177      67.67587721      84.61836179
N      88.67349638      64.35562807      86.79910595
H      88.38058880      62.51314492      87.21106629
C      90.95250631      65.42710290      87.80444035
H      90.59345831      67.03148054      89.04976999
C      92.11468799      63.34840395      89.64692351
H      93.95339170      63.92666021      90.37257841
H      92.26208665      61.55316396      88.64914801
C      90.65959873      63.01014294      92.13758279
H      88.84168202      62.12386130      91.75396835
H      90.38747814      64.93199460      92.82733289
C      92.26586610      61.39064749      93.92904333
H      92.00319414      61.84229208      95.91892514
H      94.28220407      61.51725916      93.52842135
N      91.61957970      58.60897035      93.89880771
H      92.77609220      57.49970101      92.86323769
C      89.79032463      57.58284898      95.25752093
N      88.43350114      58.87164232      96.93181844
H      87.33934960      58.00425793      98.23383987
H      88.80388749      60.70845630      97.28330754
N      89.75064038      55.19234518      95.31043327
H      88.38625798      54.17000325      96.17214847
H      91.18494265      54.30606355      94.41470299
C      92.83845317      66.31338453      85.81077909
O      94.21417393      68.22767730      86.32100520
N      93.18238336      64.84695691      83.74908768
H      92.21484349      63.23879983      83.39381914
C      94.65636988      65.93354954      81.66094011
H      96.11712832      67.14486412      82.46029434
C      95.96595022      63.96256501      80.07168028
H      96.98640243      62.96856897      81.55700516
C      94.13858487      62.12953049      78.76209994
H      92.92916003      61.08073237      80.05845220
H      95.14013982      60.57050627      77.86447995
H      93.20128062      63.01959157      77.15772230
C      97.84055872      64.77892678      78.04022449
H      97.02041750      65.85418105      76.48497974
H      98.76274516      63.13675460      77.20874492
C      99.87201451      66.35117906      79.23453152
H     100.26696731      65.60284744      81.11291948
H      99.45438499      68.36373758      79.38948908
H     101.54631202      66.25669274      78.03833477
C      93.36379709      67.85162175      80.02065767
O      94.75463565      69.35017473      78.98886710
N      90.76164395      67.97067451      79.76176516
H      89.68261023      66.69699897      80.68773106
C      89.44450471      69.51269119      77.86259022
H      90.78621039      70.02480702      76.38482424
C      87.39226194      67.96878478      76.50954618
H      85.64237537      68.39208349      77.50732167
H      87.71540514      65.93354954      76.56623797
C      87.00486804      68.68877052      73.72219987
O      84.81656497      68.46200336      72.63938669
O      88.84168202      69.42765350      72.52033393
C      88.13303465      71.83138537      79.03422053
O      87.48863798      73.61150756      77.68684567
N      88.13492438      71.94287922      81.56267434
H      88.51286964      70.31204542      82.47919160
C      87.40926947      74.15763847      83.02721223
H      87.01998585      75.74689830      81.77432369
C      85.00175815      73.61528702      84.65426659
H      85.66694181      72.47578205      86.23596751
H      83.70540590      72.74034373      83.31256091
C      83.44840312      75.91319420      85.47440781
H      84.51042931      77.08482453      86.79532650
H      81.74764944      75.28958452      86.45706549
C      82.60747491      77.88795821      83.52987943
O      82.06890291      77.20387727      81.33590718
O      82.43362009      80.19342431      84.11002541
C      89.37458484      75.13084751      84.76576044
O      89.42371772      77.36450402      85.30055299
N      91.22273717      73.48678562      85.59346057
H      91.12825086      71.68776618      84.96040225
C      92.91215250      74.15007956      87.71373349
H      94.04409856      75.80925927      87.25830945
H      94.17259995      72.55137110      88.02553833
C      91.42115844      74.69621047      90.27998182
O      89.15915604      74.24645560      90.49919007
N      92.87246824      75.50501333      92.22639992
H      94.70928222      75.88484831      91.87113138
C      91.76319890      75.93020175      94.76052291
H      89.74308147      75.55981539      94.90036266
C      93.15781692      74.31070630      96.63513141
H      95.18171380      74.60739333      96.38379781
H      92.71373123      72.35483957      96.17025874
C      92.40948530      74.87384474      99.37712429
H      93.03309498      76.75790187      99.92892438
C      89.58623419      74.39196453     100.34655389
H      88.24074905      75.17431122      98.99728930
H      89.26687044      75.14596533     102.23628020
H      89.39726155      72.34350120     100.24450867
C      94.10079035      73.22978285     101.05520126
H      95.96783995      72.96522115     100.22372168
H      93.36757654      71.33438736     101.39535200
H      94.24818900      73.86851033     103.00728854
C      92.20350513      78.60794393      95.38980177
O      94.30677052      79.54524819      95.14224763
N      90.21362332      79.94398044      96.12301558
H      88.53554636      79.03502208      96.18726628
C      90.04165823      82.59148699      97.11701162
H      92.01264277      82.91085075      97.62345827
C      89.21017865      84.58514826      95.17626270
H      89.12325124      86.46353622      96.01719091
H      87.35257768      84.09759886      94.43360026
C      91.10179469      84.99143942      92.97851100
H      91.94083317      83.16785352      92.52119723
H      92.52853806      86.35393208      93.57377479
C      90.10590892      86.08559096      90.55777159
H      91.83311877      86.72053899      89.63558515
H      88.92482998      87.68051996      91.11902031
N      88.70751145      84.15051121      89.21228646
H      88.35224290      82.46676507      90.03998658
C      88.40515524      84.17507765      86.85201829
N      88.95128614      86.07614231      85.53109960
H      88.24263878      86.23487933      83.76609522
H      89.63536707      87.60115146      86.45139631
N      87.48863798      82.23621845      85.63692427
H      87.63414690      82.21732119      83.73396987
H      87.39604139      80.54680312      86.52320591
C      88.86435873      82.99021925      99.78341545
O      86.59668716      82.43652943     100.00262370
N      90.16449044      83.95775912     101.67125204
H      91.89925919      84.68341403     101.33677048
C      89.19695057      84.09003997     104.37356066
H      87.86091406      82.52345686     104.41324492
C      91.54965983      83.81791938     106.17258011
H      90.99974947      83.98610502     108.14923384
H      92.84601208      85.35426686     105.72849443
C      93.08978677      81.39340051     105.87211363
H      94.03087047      81.41796695     107.70514815
C      91.45139406      79.04069125     105.91368761
H      90.73896724      78.62306175     104.02585102
H      89.77898627      79.50556393     107.02484668
H      92.47373599      77.32670948     106.42202399
C      94.85101169      81.34615736     103.65357494
H      93.74174235      81.22521488     101.92258564
H      96.16815093      79.78902288     103.93892361
H      96.20216601      82.87494595     103.37011599
C      87.59446265      86.40117525     105.08409776
O      86.15638093      86.26700467     106.91524256
N      87.79855309      88.25499676     103.50239683
H      89.23663482      88.24365839     102.24572884
C      86.27354396      90.60959575     103.59688315
H      84.86380813      90.37715941     105.08220803
C      87.98563600      92.81490636     104.40379629
H      89.64670543      92.93962828     103.19059199
H      88.74908543      92.49176316     106.28974315
C      86.87636665      95.31879371     104.28096408
H      85.25687120      95.24320467     105.54897043
H      86.30188985      95.95563148     102.40635557
C      88.68105528      97.46174335     105.29763683
H      89.97740753      97.87748314     103.74806125
H      89.76575819      96.66049940     106.85666104
C      87.31478316      99.91460810     105.81920129
H      85.75764868      99.41383063     107.06831039
H      86.77432143     100.58924040     103.94837224
N      88.84924092     101.87614403     106.87744803
H      89.66371296     101.36024873     108.52528937
H      87.76642775     103.33879219     107.45192483
H      90.22685141     102.44117218     105.68503073
C      84.65215878      91.13493965     101.32732185
O      85.44395411      90.57180122      99.23161537
N      82.49409133      92.41617410     101.56164791
H      82.37692830      93.38182425     103.20382008
C      80.50043007      93.04356324      99.66436269
H      79.72753201      91.23131571      99.06154000
C      78.33858317      94.70652240     100.88701562
H      79.36848401      96.30712057     101.68070067
C      76.65294730      95.47942045      98.66469747
H      75.73643004      93.76543869      97.97872682
H      77.90394612      96.33168701      97.26630000
H      75.15817379      96.76821380      99.25240236
C      77.02522338      93.17017490     103.03563443
H      78.30078864      92.60514674     104.55119494
H      76.36570890      91.39572189     102.22305212
C      74.79534633      94.71219156     104.03340993
H      75.23565257      96.66238913     104.52662850
H      73.85426263      93.81457158     105.62833894
H      73.46875846      94.81045733     102.45926791
C      81.61536860      94.18306820      97.31543289
O      82.80589617      96.20507536      97.44015482
N      81.07301715      93.05490160      95.06287912
H      79.75587791      91.69240892      95.27263874
C      81.96685769      93.87882226      92.58922738
H      83.05345032      95.62303965      92.70828013
C      83.98697512      91.94752198      91.89380809
H      85.46663082      91.99665486      93.32244119
H      84.99986842      92.85459060      90.34612224
C      83.07234759      89.28678733      91.19838881
C      82.44306872      88.72553860      88.64914801
H      82.45629681      90.27889364      87.32444987
C      82.03299811      86.26133549      87.81577871
H      81.86481247      85.99488408      85.79944073
C      82.14449197      84.20720300      89.56944473
O      82.22008102      81.80725057      88.75686241
H      82.61314409      81.71087454      86.98996831
C      82.74920439      84.68152430      92.09411908
H      82.98542017      83.07525693      93.33000009
C      83.17061335      87.17218358      92.95394455
H      83.37659352      87.47642952      94.96083390
C      79.83524641      94.44196070      90.79398738
O      77.88126940      93.19096189      90.98296001
N      80.24531702      96.07468425      88.78331858
H      81.98197550      96.86458984      88.77953913
C      78.44818730      96.40160690      86.68950183
H      76.70774936      96.06901507      87.74207938
C      78.20441260      99.13982033      85.93361130
H      76.72664663      99.10013607      84.49930903
H      80.01288068      99.72185603      85.14559543
C      77.31624124     101.07301034      87.88002940
H      78.89794216     101.39426382      89.15937412
H      75.57958275     100.58168149      88.87402545
C      76.70396991     103.41438125      86.38525589
H      75.51722179     104.55199649      87.62680608
H      75.47753753     103.04399489      84.77142962
C      79.19273946     104.82411708      85.53487905
H      79.58013336     104.46506908      83.54310752
H      80.78955820     103.95673269      86.50619838
N      79.02455382     107.59067640      85.84101471
H      77.64694334     108.41837652      84.81111387
H      80.62893146     108.55065735      85.46117972
H      78.43684894     107.79476684      87.64381362
C      78.58991677      94.34369494      84.73363509
O      80.56657049      93.59158387      83.71885206
N      76.33925273      93.43473658      83.96451648
H      74.85014840      94.03566955      84.99630705
C      75.77989374      92.09303089      81.61558668
H      76.90806035      90.38849776      81.87636891
C      72.88861248      91.28800750      81.60424832
H      71.88705754      92.97742281      80.98063864
H      72.52389531      90.61148547      83.51476162
C      72.60515354      89.14694757      79.66538912
O      71.28234512      89.26222089      77.78700117
O      73.73143042      87.19297056      80.50064815
C      76.31657602      93.69740854      79.23642125
O      76.25610477      95.96696985      79.40271716
N      76.55468153      92.66183851      76.86859418
H      76.66428566      90.75699440      76.88560172
C      76.48287193      94.12448669      74.46108286
H      78.25543521      95.13171082      74.17762391
C      76.45452604      92.22531174      72.13671949
H      76.87593500      93.17773381      70.36037676
C      78.36881879      90.01622169      72.21230854
H      80.07335193      90.59447794      73.21008404
H      78.88471408      89.40206063      70.31691305
H      77.64127416      88.45908719      73.35181351
O      74.12449349      90.91384169      71.58491941
H      73.14561526      92.13460488      70.66462269
C      74.23220789      95.87626298      74.13982938
O      74.48921067      97.79622491      72.93796345
N      72.06658154      95.19785124      75.18106858
H      71.78501232      93.45174411      75.89916458
C      69.75355653      96.88915628      75.14894323
H      70.18063468      98.31589965      73.72408959
C      67.48966441      95.40194168      74.27211022
H      65.94575801      96.70396310      73.87148825
H      67.08337325      94.23598053      75.92184130
C      68.01689805      93.64638593      72.02144619
H      66.25756285      92.91695157      71.24098922
H      69.16585165      92.01366239      72.52978256
C      69.19986672      95.04856286      69.83125339
O      71.07636495      94.09992025      68.70119705
O      68.41185085      97.10647481      68.93930257
C      69.46253868      98.44629077      77.59802854
O      67.38383973      99.40627174      78.07990875
N      71.52989927      98.66549901      79.08146369
H      73.13616663      97.76976875      78.56745813
C      71.81335821     100.38326023      81.20551607
H      71.27856567     102.27865573      80.60269337
H      73.83536537     100.33412736      81.58913051
C      70.55857994      99.68217178      83.72830069
O      70.95542247     100.90860414      85.63314482
N      68.88806188      97.75276120      83.79444112
H      68.52145497      97.02332686      82.06534154
C      67.82225624      96.49231375      85.99597227
H      66.53913207      97.83590917      86.88225391
C      66.07425940      94.24731890      85.11347008
H      65.02357157      93.52355372      86.73296553
H      67.48399523      92.90183377      84.45206587
C      64.33382147      94.80100871      82.93272592
C      64.17886391      92.98120227      80.93906466
H      65.44120108      91.38249380      80.85591670
C      62.26646088      93.26655093      78.91327805
H      62.16441566      91.97775759      77.33535658
C      60.92097574      95.49453827      78.81690201
O      59.49801183      95.84224791      76.58513523
H      58.28858699      97.17639469      76.80434348
C      61.16475044      97.29733717      80.78032765
H      59.94587697      98.93572988      80.78788655
C      62.74456164      96.84191313      82.82690124
H      62.73889246      98.18361880      84.36513846
C      69.94063944      95.45107456      87.88191913
O      72.11571442      95.06368067      87.17138204
N      69.29813249      94.99942997      90.35179142
H      67.48021578      95.20918959      90.89225315
C      71.15195400      94.55723402      92.27364308
H      73.10404128      95.05423203      91.84089576
C      70.68708133      96.19184728      94.59800645
H      72.16295758      95.84413763      95.99451419
H      68.85404681      95.54367115      95.28208737
C      70.61905118      99.11147442      94.16714885
C      68.29657754     100.56467396      94.34478312
H      66.54291153      99.60469300      94.74918455
C      68.44397620     103.18572436      94.17659748
H      66.60338277     104.00964502      94.50918931
C      70.90628958     104.30633207      93.88557963
O      70.93085602     106.81966806      94.03108855
H      69.28112495     107.55099214      94.18982556
C      73.18529952     102.87580924      93.83833647
H      74.86904566     104.02665257      93.73440152
C      73.01522415     100.25853830      93.97628649
H      74.74810318      99.23241691      94.31265777
C      71.25021977      91.64516577      92.86890687
O      69.38317017      90.36771078      93.16937335
N      73.53867834      90.53778614      92.78008973
H      75.01644431      91.69240892      92.42860064
C      74.27567160      87.81469053      92.98229045
H      72.50688777      86.81691504      93.33188982
C      75.33013888      86.82636367      90.48785172
H      76.87971446      85.51111416      90.81855382
C      73.37994133      85.34103878      88.92504806
H      71.56580407      86.31424784      88.88914326
H      72.91506865      83.47965837      89.67715913
H      73.94496949      85.03490312      86.96918132
O      76.33736301      88.74443588      88.93638641
H      76.93640625      90.12393608      89.94927972
C      76.29578903      87.27044935      95.03642295
O      77.70741458      88.93340851      95.80176211
N      76.44318768      84.95553462      96.17214847
H      74.95408334      83.78957349      95.92081487
C      78.48409210      84.01634064      97.94093229
H      80.19051496      85.12560998      97.61400964
C      77.63560498      84.70987020     100.75851423
H      76.49987947      86.42385196     100.89268480
C      75.69296633      82.70298086     101.71849519
H      74.58369699      83.44564329     103.28696803
H      76.49421029      80.89451277     102.29675145
H      74.46653396      82.08315062     100.18214770
C      79.91650464      85.29190589     102.45737818
H      81.30356376      86.38794716     101.40480063
H      80.82735273      83.47398919     102.79374947
C      79.52155184      86.76400270     105.02551624
H      81.24687197      87.08336644     106.10454997
H      78.47086401      85.42418675     106.18013902
H      78.71274898      88.63861119     104.75906483
C      79.23620317      81.23844295      97.70471651
O      77.96063791      79.67752902      96.50096084
N      81.47930830      80.62050246      98.58154952
H      82.45818653      82.09259925      99.29964551
C      82.57723929      78.02968768      98.56076253
H      81.23553361      76.69365117      99.36767566
H      84.20240392      78.02968768      99.83065861
C      83.19706952      76.96199232      96.01152173
O      84.92427937      77.83882533      94.73406674
N      81.98197550      74.81715295      95.29342573
H      80.51932734      74.22755833      96.36679028
C      81.94796043      73.48489590      92.78575891
H      83.66383192      74.24078642      91.93160262
C      82.31645706      70.56526874      92.99551853
H      80.49098144      69.69221518      93.38480215
C      83.19329007      69.47489665      90.38958595
H      81.71930354      69.99268167      89.04788027
H      83.35013735      67.42832307      90.57099967
H      84.96207390      70.38952420      89.86424203
C      84.16082994      69.38796925      94.97028253
H      84.26287516      67.33194703      94.92492910
H      83.38604215      70.00213031      96.77686089
C      86.86502830      70.62951944      94.82099415
H      86.64204059      72.66097523      94.56588110
H      88.13681410      69.78103232      93.43771449
H      87.76453802      70.18732347      96.61812388
C      79.71241420      74.39385426      91.17760182
O      78.28756056      72.78758688      90.34423252
N      79.10770178      76.86750600      90.96973193
H      80.14894098      77.98811369      92.11112662
C      77.34836658      78.07504110      89.15937412
H      77.49387551      77.17931083      87.30744233
H      78.17606671      79.92130372      88.76253159
C      74.54023328      78.13362263      89.89069820
O      72.92829674      78.32637471      88.22584932
N      74.09047842      77.25489989      92.22639992
H      75.54556768      76.65774638      93.31110283
C      71.51856091      77.67063968      93.38858161
H      70.03512575      76.70687926      92.33600405
C      71.63761367      76.27791138      95.96049912
H      73.21553514      76.90530053      97.11890135
H      71.97398495      74.27669123      95.60901002
C      69.11482904      76.57081897      97.28141781
N      67.14006504      74.73400498      96.99417941
H      67.17974929      73.36584314      95.66381209
C      65.26545654      75.44832154      98.60800568
H      63.34738433      74.74912280      98.58910842
N      66.05347241      77.68197804      99.65113461
H      65.10105035      78.56259049     101.05142181
C      68.36649742      78.38873568      98.92170025
H      69.41529552      80.06303320      99.43759553
C      70.81180327      80.50711888      93.74573988
O      72.10248634      81.97921568      94.97595171
N      68.57625704      81.07592650      92.64591917
H      67.30825068      79.72099273      92.19238485
C      67.56147401      83.62327756      92.27742253
H      68.92963586      85.05002094      91.70105601
C      65.68308605      83.49288644      90.09667837
H      64.48877902      81.90740607      90.65225791
H      66.77345814      83.11683092      88.39025551
C      63.91997140      85.81536008      89.80377079
H      63.06581511      86.48054375      91.55743681
C      65.41096546      87.88272068      88.49419046
H      64.38106462      89.64772505      88.73040625
H      65.73599839      87.68240968      86.47029358
H      67.19675683      88.23043032      89.45795088
C      61.82426492      84.82325377      88.08223012
H      60.59783254      83.46454055      89.02898300
H      62.71243629      84.06547353      86.38714562
H      60.80570244      86.52400746      87.52476086
C      66.17630462      84.23176944      94.77942017
O      65.32403805      82.67652469      96.26852451
N      66.06670049      86.71864926      95.39358123
H      67.02479174      87.88461041      94.22762009
C      64.88373182      87.77122682      97.68581924
H      64.50578656      86.33314510      99.11256261
C      66.63928757      89.56457710      99.08232699
H      65.40340656      90.03322922     100.65835873
H      66.87550336      91.18974173      97.83510762
C      69.13561603      88.09625974     100.04419768
H      70.44708609      87.68996859      98.50973992
C      70.39795320      89.91984564     101.87534248
H      71.95508769      88.83892219     102.68603507
H      69.11104958      90.60203684     103.33232147
H      71.14439510      91.51666438     100.80953684
C      68.52523443      85.47709907     101.29897595
H      67.81847679      84.13539340      99.90624766
H      67.00589447      85.49032716     102.68981452
H      70.17874495      84.67963458     102.22872130
C      62.42897734      89.22631609      97.13968834
O      60.59594282      88.84459136      98.40202552
N      62.47811023      90.80045811      95.17815243
H      64.05603170      90.72486905      94.10856733
C      60.44287499      92.54089604      94.47328451
H      58.58149457      91.67162194      94.30131942
C      60.06492972      94.62715388      96.54253482