 %block lattice_cart
   139.252   0.000   0.000
   0.000 142.425   0.000
   0.000   0.000   162.84
 %endblock lattice_cart

 %block positions_abs
N      92.44633495      40.62822448      84.12325350
H      92.14775821      38.87455848      83.43161367
H      91.71123142      40.82097657      85.87502978
H      94.35117909      40.74916698      84.09679732
C      91.16321079      42.41401586      82.39793337
H      91.54871497      44.32263943      83.07634511
C      92.39531235      42.26661720      79.79200078
H      92.31027467      40.34098608      79.07390478
H      94.34739964      42.91290360      79.89404600
C      91.08573201      44.12799762      77.88526693
H      89.18844680      43.40801190      77.52810866
H      92.02870545      44.26405792      76.05790158
S      90.97990735      47.30273783      79.14193493
C      89.42844203      48.99404287      76.70796744
H      87.71446027      48.06051807      76.04656323
H      90.71912510      49.25293539      75.12248707
H      89.03915842      50.79117260      77.63582306
C      88.28704734      42.10788019      82.35257993
O      87.24202870      40.06886550      81.87825863
N      86.87542179      44.17335105      82.91004920
H      87.87697673      45.78528759      83.09713211
C      84.10886247      44.32074970      83.20673623
H      83.25092672      43.10754541      81.78188259
C      83.47013498      43.18124473      85.77865374
H      84.53972007      41.42190954      85.83534553
H      81.44812781      42.79196111      85.75786675
C      84.11642138      44.55318604      88.09356847
O      85.35986128      46.41078700      87.89703694
N      83.49092197      43.59131534      90.22706949
H      83.91422066      44.47381754      91.86735192
H      82.50259511      41.96993018      90.06644274
C      82.99014449      46.94746927      82.79477590
O      84.41877759      48.72003256      82.33557240
N      80.56373591      47.15155972      83.09713211
H      79.69635153      45.48293139      83.42216503
C      79.17478707      49.59497585      83.09146292
H      79.38265696      50.53794927      81.27165648
C      76.33263869      49.28506073      83.62814519
H      76.08886399      47.69769062      82.33746212
C      75.48604131      48.39310990      86.30021820
H      76.69357641      46.93613093      87.11091079
H      73.86843558      47.13644191      86.09612776
H      75.22525906      50.02394372      87.53609921
C      74.56763431      51.32785487      82.63603888
H      74.99660219      53.07963117      83.62625547
H      72.55885524      50.92723289      82.86469576
C      74.89455696      52.08752485      79.68806583
H      73.52261566      53.52560657      79.15327328
H      74.72826105      50.45102187      78.45029510
H      76.81073944      52.74703933      79.31578975
C      80.31051257      51.54895285      84.93394608
O      80.63743522      53.63332097      84.13081239
N      80.71491400      50.97636577      87.38492110
H      80.76593662      49.15089016      87.94428009
C      81.86575734      52.80751058      89.06677752
H      80.84530513      54.59519167      89.13480767
C      81.94323611      51.56973985      91.76908615
H      83.00526229      52.77349550      93.05976922
H      82.98069585      49.79528683      91.65759230
C      79.31462681      50.88376918      92.75174383
C      77.84819920      52.86231264      93.67582000
H      78.42267599      54.78416429      93.30543364
C      75.42745978      52.20846734      94.64713933
H      74.28228563      53.67111550      95.48995727
C      74.63755418      49.63843954      94.88902429
H      72.77050458      49.31718608      95.64491483
C      76.05862838      47.75249268      93.70794535
H      75.46336458      45.80040540      93.67204055
C      78.40377872      48.39310990      92.63647054
H      79.47714328      46.98148435      91.62546695
C      84.57940432      53.66166687      88.25986439
O      85.19167565      55.82540349      88.80977474
N      86.21779703      52.07051731      87.10713134
H      85.82473395      50.21102663      87.29043479
C      88.59129329      52.86420236      86.02053872
H      89.67410646      53.82607306      87.48318688
C      90.36385656      50.57763352      85.43472355
H      89.13742419      49.61954229      84.08545897
H      90.34306958      49.48159226      87.17894094
C      93.05860628      51.19935348      84.58623643
H      93.14175425      52.86798182      83.38059105
H      93.59339884      49.58552721      83.42216503
C      94.85573601      51.23336855      86.77831896
O      96.37318623      49.47970254      87.13169779
O      94.34928935      52.79050304      88.62458157
C      88.12642060      54.68400880      83.79633084
O      89.42088313      56.66255226      83.65838082
N      86.28015801      54.08307584      82.14282031
H      85.55450310      52.31996118      82.23541690
C      85.57529009      55.55328290      79.89404600
H      87.31950747      55.67989457      78.80556364
C      83.58540827      54.06795802      78.16494642
H      82.00937654      53.34419285      79.27421577
H      84.46791047      52.41255777      77.31645931
C      82.60275060      55.49281166      75.82168579
H      84.19201043      55.54761373      74.51210546
H      82.29661494      57.42978113      76.45663384
S      79.84186046      54.13598818      74.19463144
C      80.83963594      54.49314645      70.87249258
H      79.42234122      53.81095525      69.54401498
H      82.54227936      53.51993739      70.24132399
H      80.95301953      56.50759470      70.45297334
C      84.86286327      58.29527579      80.46285362
O      86.02126549      59.82973355      79.24775960
N      83.09785888      58.69967723      82.27699088
H      82.30417384      57.23891878      83.21240541
C      82.20401835      61.10151937      83.01587387
H      81.69946142      62.17677363      81.33401745
C      80.04406117      60.62908778      84.83568031
H      79.73603578      62.26748050      86.04321542
H      80.46547014      59.00959234      86.03754625
C      77.51560736      60.08862606      83.44673147
H      78.07685607      58.85652450      81.89337645
C      75.67690365      58.54094020      85.00764540
H      75.41045225      59.50092118      86.81233403
H      76.59720037      56.74003104      85.40448793
H      73.90434038      58.21590729      84.00986991
C      76.18712977      62.41676888      82.36958747
H      75.83564066      63.92666020      83.72452124
H      74.48070691      61.96323457      81.31134074
H      77.40978269      63.31438887      80.97685918
C      84.33373990      62.55282917      84.52198574
O      84.41121868      64.88853090      84.27821105
N      85.89843329      61.27348446      86.04510516
H      85.81906478      59.37430952      86.19439353
C      88.08295691      62.44889422      87.31878068
H      87.57651026      64.21389860      88.25608493
C      89.01837142      60.68011039      89.45984060
H      89.84418182      58.97935672      88.63780965
H      87.48769312      60.00925755      90.66548598
C      90.96478953      61.77993111      91.21350662
H      90.15787640      63.38052930      92.23017937
H      92.72034527      62.42621750      90.35368114
C      91.56761223      60.01870618      93.53786999
H      89.93299896      60.16610483      94.78319962
H      93.32883714      60.75569944      94.31265777
N      92.04193352      57.39198662      92.87457604
H      93.32316797      57.22947015      91.46861967
C      90.92321556      55.36997945      93.73629124
N      89.38119887      55.26604450      95.73373196
H      88.68200014      53.57662919      96.27986286
H      88.84451660      56.83073789      96.68804375
N      91.58461977      53.23458873      92.87835550
H      90.84195732      51.53005558      93.30921310
H      92.38208427      53.31584695      91.14736619
C      90.32795176      63.09140118      85.45551054
O      91.72445950      64.78648567      85.93550102
N      90.12197159      61.95756539      83.17650061
H      88.75758920      60.63097751      83.04044031
C      91.80949720      62.80038331      80.99386671
H      93.64442145      63.30305052      81.78377231
C      92.24413424      60.68577957      78.99453628
H      90.45645315      59.67099655      78.80178419
C      93.24379946      61.90276333      76.57568659
H      94.71589626      63.26525599      77.05000791
H      91.74713622      62.98179705      75.65916934
H      93.92410094      60.40610008      75.33791586
C      94.10362493      58.80172244      80.14915905
H      93.68410569      58.42188745      82.13337169
H      95.94610809      59.68989380      79.89971518
C      94.38330444      56.21657684      78.77910747
H      92.73168363      55.05628488      79.18350891
H      95.98579234      55.20935273      79.59357952
H      94.74235243      56.25248164      76.74954141
C      90.76825799      65.17765902      79.91105355
O      92.04571298      67.12407712      79.96774533
N      88.38720284      65.08317270      79.17217055
H      87.54249517      63.37297039      79.24586987
C      87.06817388      67.15620248      77.87770802
H      88.17744322      67.67020802      76.22041805
C      84.41121868      66.17354478      77.07646407
H      83.01660065      67.66831830      76.83835855
H      83.54005485      64.95467131      78.48997935
C      84.45657210      64.86018501      74.58580480
O      86.25559155      65.22301246      73.11370799
O      82.49125675      63.61674508      74.01132799
C      86.94534167      69.65253094      79.36681237
O      87.06817388      71.70099425      78.34824989
N      86.49747652      69.64497203      81.84802301
H      86.11953127      67.99713069      82.73808410
C      86.31984225      71.88240797      83.46184928
H      86.65243409      73.50379315      82.23352717
C      83.53060622      72.02791690      84.25742406
H      83.05439519      70.46511324      85.51220233
H      82.33440946      72.22444844      82.59257517
C      82.74070062      74.42220015      85.64070372
H      83.73469665      74.56581934      87.43972317
H      80.77727498      74.19165354      86.21518052
C      82.91266572      76.71821762      83.92861168
O      84.93089342      78.05047466      83.93995004
O      81.06640311      77.17742110      82.51131694
C      88.10563362      71.92020251      85.73896949
O      89.30938928      73.81559800      85.98841336
N      88.16421514      69.76780423      87.16382314
H      87.43100133      68.15019851      86.46651412
C      89.71757017      69.52402955      89.50330431
H      91.39186768      70.61818107      89.01008573
H      90.10118461      67.54359636      89.91337491
C      88.62719809      70.84116878      91.75018889
O      87.27793350      72.73845400      91.51397310
N      89.40954478      69.99268166      93.87991044
H      90.90809774      68.81538217      93.77597549
C      88.27192953      70.53125366      96.29876013
H      86.21212786      70.56526874      96.23072998
C      89.04104814      68.45444444      98.01841107
H      91.07250393      68.52625405      98.34344400
H      88.67822069      66.66487362      97.06220955
C      87.57084108      68.07838892     100.64135119
H      88.10941307      66.27747974     101.48416913
C      88.30972407      70.07016044     102.63879190
H      87.12297593      71.74823742     102.49706243
H      90.26559080      70.71644684     102.60477683
H      87.88642537      69.38985897     104.53607712
C      84.60019131      68.11240399     100.51284980
H      83.75737338      67.57761143      98.71194062
H      83.83296243      69.94354879     101.06276017
H      83.70635076      66.79904419     101.82809931
C      89.07506322      73.15041433      97.28897671
O      91.31627862      73.53213906      97.74440076
N      87.32328692      74.85683719      97.97116791
H      85.54127501      74.46377413      97.40991920
C      87.92799934      77.37773209      99.15791603
H      89.95567568      77.58182254      99.44326471
C      87.07762250      79.41107761      97.29086644
H      86.68833889      81.06836759      98.44737894
H      85.25025716      79.06903714      96.40647452
C      89.16577008      80.07626127      95.30854353
H      89.53804616      78.39440486      94.18226665
H      90.84384704      80.73577576      96.30820875
C      88.07917746      81.95464922      93.32811037
H      87.84107194      83.77067621      94.27297352
H      86.10252372      81.61071904      92.85945823
N      89.52103863      82.01889992      90.94138603
H      91.18966697      82.92407882      91.15303538
C      89.01648170      81.01734498      88.73607542
N      86.91699576      79.88539891      88.21073150
H      86.80928137      78.98210973      86.53265454
H      85.63009214      79.53202009      89.57511390
N      90.62652852      81.27812721      86.86335664
H      90.30527505      80.34460241      85.23063311
H      92.23468561      82.30235887      86.95973268
C      86.65432381      77.90307601     101.64857531
O      84.64176528      76.98655876     102.38745830
N      88.08295691      79.23911252     103.10933375
H      89.83284346      79.43564405     102.37611995
C      87.87319729      79.97799550     105.81542183
H      86.49369708      78.77235011     106.75650554
C      90.54149083      79.77957424     106.83776377
H      90.50369631      80.50711888     108.76339488
H      91.72068006      81.10049294     105.78707594
C      91.63753210      77.13206768     106.70926238
H      91.65642937      76.60105458     104.71938057
C      94.58172570      77.30970195     107.42735838
H      95.56438338      78.96132275     106.68469595
H      95.33761621      75.59194073     106.57887127
H      94.85762573      77.27757660     109.47015252
C      90.39598191      74.93053652     108.13789547
H      90.98935597      73.10884035     107.38011522
H      88.33995968      75.05525846     108.04340916
H      90.87030322      74.92297761     110.14289510
C      86.92077522      82.68975276     106.25761780
O      85.89276410      83.33792888     108.32497838
N      87.08329169      84.24121806     104.30930996
H      87.74658562      83.47209946     102.69359397
C      86.39732104      86.95864450     104.15057296
H      85.53371610      87.43674526     105.95715131
C      88.79538372      88.75577422     103.81609140
H      88.35885695      90.70786150     104.31308943
H      89.45678793      88.83703246     101.86589384
C      91.07061420      87.81469053     105.55274988
H      91.32761698      85.83425734     105.04630323
H      90.59629290      87.56713638     107.54074196
C      93.59717829      89.20552910     105.26551148
H      93.99780026      89.28489760     103.24728378
H      95.18832783      88.41940295     106.31241986
C      93.35718304      91.93807333     106.26328697
H      92.77892679      91.95697060     108.23994070
H      91.76603349      92.72797893     105.22015805
N      95.65131078      93.40828041     105.49038891
H      95.41131555      95.30178618     105.56786769
H      96.30893554      92.70719195     103.84254756
H      96.87018425      93.29111737     106.95492680
C      84.54538924      87.32147195     101.91502672
O      84.56995568      86.03645807     100.00073397
N      82.90510681      89.23576472     102.14557334
H      83.18289658      90.33558543     103.68003110
C      81.21380175      90.00110387     100.12545591
H      79.96280294      88.45152830      99.59633254
C      79.33541379      92.01177266     101.04764235
H      80.57507427      93.63126811     101.34054993
C      77.33419363      92.81679607      99.16169549
H      76.18901949      94.27377506     100.05742576
H      76.18335031      91.21241844      98.57210088
H      78.38488147      93.85236609      97.72550349
C      77.95402387      91.17840336     103.52129409
H      79.43934874      90.48676353     104.77040318
H      76.73892985      89.63071752     102.91469195
C      76.11909962      92.89049540     105.02551624
H      76.97325591      94.70841212     105.49227864
H      76.01138521      92.04011857     106.89445557
H      74.26716783      93.09458584     104.14301405
C      82.39677042      90.79478893      97.53842058
O      84.46413101      91.88138156      97.54597949
N      81.19301477      89.91228673      95.50318534
H      79.61698302      88.85970917      95.73373196
C      82.10764231      90.31101899      92.93126783
H      83.16210958      92.07602336      92.78386919
C      83.86697750      88.29090156      91.88435946
H      85.34285375      88.06035495      93.30354392
H      85.03860782      89.05624072      90.37446814
C      82.86542256      85.76433748      91.37791280
C      82.50826428      85.12560998      88.81922339
H      83.20557329      86.40873414      87.39436974
C      81.13065380      82.84471032      88.19939315
H      81.11931544      82.31558696      86.22840860
C      80.38799135      81.25356077      90.12880371
O      78.98203498      79.16163373      89.52787075
H      78.51716230      79.24289196      87.77609445
C      80.61664824      82.01323075      92.69883151
H      79.89288307      80.81325453      94.18226665
C      81.70702033      84.30924821      93.28842611
H      81.97347174      84.93663734      95.21216749
C      79.89288307      91.02344580      91.19082991
O      77.79528686      90.13905388      91.51208337
N      80.49948521      92.46341725      89.16315356
H      82.24370260      92.86781869      88.50363908
C      78.47180887      93.46308247      87.47940742
H      76.71625314      93.56701743      88.55277197
C      79.15966926      96.25609796      86.69706073
H      80.90577637      96.11436849      85.61424755
H      79.14833090      97.39371320      88.41293222
C      77.21136143      97.42772827      84.71662755
H      75.26305360      96.91372272      85.14937489
H      77.60253478      96.72097064      82.82123206
C      77.52883544     100.26042802      85.10213172
H      79.46769464     100.94072949      85.23819201
H      76.71625314     100.58357123      86.96918132
C      76.24193182     101.78732688      83.04799922
H      74.30874181     101.14104049      82.75509164
H      77.18868471     101.12025350      81.34157636
N      76.30618252     104.57089374      83.38059105
H      75.51060775     105.24741576      84.97740978
H      75.51627692     105.18316506      81.75353669
H      78.14299650     105.08867876      83.40137805
C      78.12220951      91.58847397      85.34968587
O      80.01004610      90.90250332      84.06656170
N      75.79595642      90.80612727      85.00008650
H      74.56007540      91.46564177      86.29643875
C      74.90400560      89.07135852      82.91004920
H      76.39310994      87.64839460      82.83446014
C      72.35854425      87.73154256      83.67160890
H      70.92424199      89.16962430      84.01364936
H      72.69869499      86.82825338      85.49330507
C      71.73871403      85.67741007      82.00864974
O      70.06252679      85.97598682      80.34191114
O      73.12955258      83.84815500      82.18250456
C      74.76983502      90.50566079      80.32679333
O      74.86810080      92.83947280      80.19262276
N      74.82463710      89.09214551      78.30289644
H      74.82463710      87.21942673      78.66572390
C      74.73204051      89.94252235      75.69129468
H      75.95658316      91.56012807      75.34736449
C      75.51816665      87.81658026      73.89038550
H      75.17990564      88.33436527      71.92695987
C      78.39621983      87.42729664      74.10770403
H      79.21636105      89.21497772      73.48787380
H      78.75148837      85.67363061      73.08914155
H      79.12187472      87.09470479      76.00498925
O      74.06307739      85.54134978      74.54801026
H      75.15911865      84.49822085      75.54956522
C      72.05240858      90.95919510      74.78800551
O      71.89934075      92.22720146      72.83969767
N      70.15701309      90.56046285      76.33380164
H      70.57464262      89.18663182      77.59046962
C      67.59265450      91.75288016      76.46041329
H      67.12400236      92.22531174      74.51210546
C      65.66135420      89.97275797      77.56212374
H      65.48371993      90.60770602      79.51610074
H      66.13567550      87.98476589      77.31834903
C      62.93825858      90.26377582      76.74576196
H      62.30897971      92.14783296      77.28433396
H      61.78741526      88.79167902      77.60936689
C      62.80786747      89.98220661      73.80345809
O      61.96504954      91.78122606      72.47498049
O      63.50895593      88.03011933      72.71875519
C      67.73438397      94.31912850      77.81723678
O      66.32464814      96.01421299      77.36181274
N      69.73938359      94.87281830      79.24209043
H      71.11888380      93.58591469      79.53121855
C      70.12488776      97.16694605      80.70851804
H      69.47104244      98.84691274      79.71263227
H      72.11854902      97.27466044      81.21496469
C      69.04585403      97.10458508      83.51098217
O      68.82286633      99.13604086      84.69773029
N      68.69814439      94.86336968      84.54088300
H      68.68491629      93.37804479      83.33901708
C      68.08020387      94.51943948      87.23185327
H      67.39423322      96.32790757      87.93483146
C      65.63678776      92.73553784      87.20350738
H      65.11711303      92.51066042      89.18205083
H      66.37189130      90.94218758      86.50241893
C      63.34266001      93.73331334      85.63881399
C      62.09166120      92.01177266      83.91160414
H      62.64535101      90.04834702      83.77743357
C      60.24917803      92.99065090      82.09368743
H      59.49328752      91.84169730      80.58568583
C      59.46116217      95.43595674      82.34313130
O      57.60923038      96.32601784      80.86725506
H      57.48072899      98.06456604      81.37370170
C      60.74428634      97.08190837      84.00042129
H      60.41547396      99.09068743      83.88703770
C      62.66235855      96.30712057      85.53298932
H      63.56375800      97.61670091      86.81044431
C      70.24394051      93.83535855      88.99685765
O      72.35476479      93.33647081      88.05766368
N      69.84520826      93.61615031      91.50830392
H      68.12933677      94.05078735      92.21506156
C      71.66690443      92.56735221      93.14480691
H      73.59820472      92.71097140      92.44371844
C      71.57241810      94.07157435      95.64113537
H      72.78940185      93.07946804      96.97339243
H      69.62788973      94.08858188      96.31576766
C      72.45681003      96.85892066      95.52586206
C      70.54629672      98.69951409      96.05876488
H      68.56208409      98.21763388      96.08144160
C      71.21714955     101.24686515      95.85656417
H      69.69025070     102.56400439      96.18537654
C      73.75694172     101.89693100      95.27074901
O      74.39188977     104.31389096      95.40114012
H      73.08419915     105.48174183      95.86412307
C      75.62777078     100.04121976      94.78697907
H      77.53450463     100.67805753      94.42982080
C      74.95124875      97.56000912      94.87768594
H      76.24949073      96.01043354      94.60367562
C      71.14345023      89.72898328      93.83077756
O      68.97593416      89.09403523      94.44115916
N      73.13144232      88.20208442      93.62668712
H      74.70558433      88.91073178      92.81032535
C      73.36009920      85.59048266      94.32777558
H      71.52328522      85.16340451      95.15547571
C      73.46970333      84.12027559      91.77286560
H      73.56985882      82.14173213      92.33789377
C      70.95825705      84.20342354      90.28754072
H      69.44836574      83.36627479      91.41003815
H      71.06219201      83.35115697      88.41482194
H      70.22126379      86.10637793      90.01353041
O      75.43501869      85.04246203      90.19872358
H      76.57452366      85.87961078      91.33255937
C      75.30651730      84.78356951      96.24773751
O      77.22647923      86.08559094      96.62757250
N      75.06085287      82.46676505      97.19260067
H      73.37521700      81.61449849      96.91292117
C      76.91656411      81.15529500      98.87634681
H      78.77227536      81.95464922      98.47383511
C      76.00571604      81.94520060     101.55030955
H      75.66934475      83.97665638     101.66369313
C      73.54718210      80.46176544     102.40446584
H      71.75383183      80.88317441     101.47849995
H      73.29017932      80.78112918     104.42458327
H      73.94780409      78.47944254     102.01329250
C      78.08819443      81.52190190     103.70648728
H      78.46613970      79.50745365     103.92002634
H      77.44190804      82.29102051     105.50361700
C      80.67522976      82.83715141     103.09421594
H      81.93756694      82.96565281     104.71560112
H      80.46735986      84.80246678     102.51406997
H      81.94134639      81.89039854     101.77329725
C      76.96380727      78.42841993      98.49651182
O      75.32730430      77.46843897      97.15102669
N      78.65511233      77.03380191      99.97616753
H      79.83997073      77.99378287     101.12512114
C      79.02360896      74.25968368      99.60389144
H      77.22647923      73.29970271      99.89301957
H      80.43712425      73.46788835     100.87945671
C      80.01760499      73.68142742      96.91103145
O      81.99425873      74.55448098      95.86979225
N      78.26204925      72.46444368      95.49373671
H      76.54617777      72.04114499      96.20994299
C      78.53983902      72.13563131      92.77631028
H      79.74359469      73.61150756      91.99207386
C      79.34486244      69.43710214      92.04120674
H      77.78961768      68.25980263      92.70072122
C      79.14077199      68.65853488      89.21606590
H      80.63365577      69.64875147      88.19939315
H      77.21325115      69.01191372      88.58300759
H      79.46769464      66.66298391      88.82300283
C      81.94701557      68.46011363      93.11079184
H      81.53694495      67.85162175      95.03642295
H      83.11864587      70.11173442      93.48684737
C      83.69123296      66.44755510      91.74451971
H      85.11419686      66.28881809      93.22417541
H      84.85341464      67.30738057      90.27620236
H      82.70668554      64.72034525      91.20972716
C      75.91878862      72.81782250      91.60090051
O      74.03095204      71.41942504      91.81254986
N      75.83186122      74.93998516      90.36312977
H      77.28884021      76.17586617      90.36879895
C      73.65678622      75.98878326      88.96473230
H      72.79885049      74.40141316      87.97073626
H      74.46558910      77.31537112      87.61168826
C      71.46659343      77.04514027      90.58989693
O      69.71292741      78.24511648      89.59779062
N      71.38344548      76.57837786      93.07110758
H      72.64956211      75.49367496      93.99707347
C      69.06475128      76.77301968      94.67926467
H      67.65690518      75.82626679      93.51141381
C      69.28584926      75.29525370      97.21338766
H      70.36299327      76.40074359      98.57777006
H      69.86788498      73.36206368      96.81276568
C      66.83109479      75.11761943      98.52107827
N      65.41002060      72.93498553      98.67036665
H      66.01851247      71.15486334      98.34722345
C      63.33132166      73.45088082     100.02907986
H      61.86678377      72.22633817     100.75095532
N      63.47116141      75.82626679     100.86811835
H      62.36189206      76.83160120     102.05108703
C      65.69914873      76.89018271      99.91002711
H      66.28685361      78.77235011     100.43915047
C      68.40712654      79.43942350      95.08366610
O      70.04929870      80.92285866      96.02663954
N      66.02985084      80.18964485      94.75296400
H      64.75806503      78.84982890      94.27864269
C      64.98672190      82.65006852      94.70005166
H      66.21315429      83.89728788      93.61534876
C      62.52818798      82.59148699      93.17504253
H      61.23372545      81.41229777      94.26163517
H      63.16502574      81.45009230      91.58200325
C      61.09577543      85.18041204      92.34167322
H      60.59310823      86.14417246      94.09155979
C      62.83243391      86.57880952      90.61257365
H      61.99150570      88.41940295      90.21951058
H      62.88723598      85.57725457      88.81355420
H      64.71838077      86.80557667      91.40814842
C      58.71283055      84.35271192      91.10201276
H      57.55820777      83.53446043      92.59867601
H      59.04164293      83.06580831      89.52598102
H      57.60167148      85.98354572      90.51430788
C      64.34232524      83.85004471      97.20393903
O      63.36533673      82.67463496      98.93114888
N      64.98105273      86.32558619      97.60456100
H      66.09221179      87.23832400      96.35167246
C      64.43681155      87.74666038      99.98561616
H      63.81131214      86.45030812     101.45960268
C      66.82542560      89.11293251     100.85111081
H      66.45314953      90.23165047     102.53863641
H      67.39045377      90.46408682      99.40169073
C      69.03451567      87.28745688     101.50495611
H      69.77150893      86.32180673      99.84199696
C      71.41179136      88.63294201     102.51218024
H      72.70058471      87.20619865     103.25862213
H      71.20392148      89.83858740     104.16758049
H      72.22248396      89.44552434     100.80197793
C      68.40712654      85.37316413     103.55152972
H      66.86888932      84.22987971     102.79752892
H      67.80430384      86.29535056     105.29196765
H      70.02284253      84.21854135     104.09577090
C      62.23528040      89.66851203      99.69081885
O      60.60633632      89.82157987     101.35755746
N      62.08599202      90.97809238      97.61211991
H      63.30864494      90.35826214      96.27986286
C      60.55720343      93.33458108      97.33433014
H      58.58999834      92.89616458      97.75384938
C      61.34521931      95.36792660      99.17492357