 %block lattice_cart
   139.252   0.000   0.000
   0.000 142.425   0.000
   0.000   0.000   162.84
 %endblock lattice_cart

 %block positions_abs
N      90.64920523      43.35132011      78.40210708
H      90.36196684      42.16457198      76.93567947
H      89.99724966      42.21559459      79.78916620
H      92.49924730      43.78217770      78.58352081
C      89.01459198      45.55852044      78.21691390
H      89.87819690      46.83786515      79.58129630
C      88.99947416      46.85109324      75.58830461
H      87.87697673      45.69836019      74.30329070
H      90.93266417      47.12888300      74.93067985
C      87.84107194      49.49482035      75.59586350
H      85.79638807      49.39844431      75.82452038
H      88.13964868      50.14677593      73.66456322
S      89.10151939      51.93634675      77.78227686
C      92.37830480      51.88721386      76.81095753
H      92.64664595      52.57885369      74.89099560
H      93.39686729      50.10520195      76.98670207
H      93.45355908      53.05317500      78.12242758
C      86.22157648      44.97081556      78.96713524
O      85.27104415      42.85054263      78.64966123
N      85.11230713      46.91345421      80.02727171
H      86.05150111      48.55562637      80.27671559
C      82.46480057      46.82841652      80.58852042
H      81.60686483      45.79284650      79.02571676
C      81.76560183      45.14278065      82.81272829
H      81.72402786      43.12644267      82.39131932
H      79.83052209      45.73993416      83.18311465
C      83.25848562      45.43757795      85.19378344
O      83.54194456      47.47659265      86.17833085
N      84.16366453      43.41557080      86.13297743
H      84.99703383      43.17368583      87.83184139
H      83.92555902      41.76961918      85.19756290
C      81.34797231      49.58174776      80.91166363
O      82.85408419      51.40722338      80.96835542
N      78.86865140      49.89166287      80.95890678
H      77.82552247      48.30429277      81.14787942
C      77.41356213      52.23114405      81.06473146
H      77.65166765      53.24025790      79.28460927
C      74.49015553      51.62832136      81.18567393
H      74.28417536      50.25449033      79.66822371
C      73.44324715      50.45858077      83.56294965
H      74.00260615      51.45635626      85.27693140
H      74.23315275      48.57074418      83.78404762
H      71.39289410      50.41511706      83.35130030
C      72.73837923      53.86575731      80.57151289
H      72.70247443      55.25659588      82.09085285
H      70.80518921      53.18356611      80.35230463
C      73.41490126      55.31139794      78.12242758
H      71.75194210      56.39988030      77.57818640
H      73.93079654      53.88654430      76.72780957
H      74.95691792      56.67200089      78.22069335
C      78.26204925      53.84686005      83.25870371
O      78.42267598      56.17878232      82.97524476
N      78.99715278      52.67900919      85.45078623
H      79.24281720      50.79306233      85.59440543
C      79.92878785      54.08685529      87.73546534
H      78.54550819      55.48525276      88.34962640
C      80.42767561      52.22169542      89.87463553
H      82.41188823      51.67178506      89.96723212
H      79.07274184      50.70235546      89.57416905
C      79.93445703      53.24970653      92.57883388
C      82.12276010      53.91111074      94.05659986
H      83.95390491      53.95835390      93.16275932
C      82.01693543      54.90699651      96.56426667
H      83.76871173      55.57595962      97.37306953
C      79.71146934      55.05061571      97.76046344
H      79.42801038      55.87831583      99.60483632
C      77.60820394      54.03583268      96.40175022
H      75.83186122      53.92622855      97.39952571
C      77.64032930      53.11742569      93.89219367
H      75.97548041      52.29917420      93.03992711
C      82.37976288      55.58162880      87.17043718
O      83.24903699      57.14254274      88.61607781
N      83.69312267      54.85408417      85.15787864
H      83.11297670      53.43489971      84.02026340
C      86.18567169      55.95012543      84.45679019
H      86.86786288      57.20301398      85.94211506
C      88.41365900      53.98292034      84.13175727
H      90.02370582      55.11108695      83.51759621
H      87.98469113      52.83585647      82.47824673
C      88.61396999      52.27082830      86.39564938
H      90.26181134      51.08785963      86.05738838
H      86.88298070      51.15022060      86.37675212
C      88.83317824      53.59741617      89.03937649
O      88.33051104      52.41822696      91.12941380
O      89.81772566      55.73658636      89.25480529
C      85.81906478      57.54883389      82.05872749
O      86.93400331      59.61619448      81.87731378
N      84.39232141      56.68900842      80.29750257
H      83.65532814      54.94857049      80.56584371
C      83.93122818      57.94567642      77.93912414
H      85.64520995      57.84552093      76.79961916
C      81.74859430      56.51137415      76.70513286
H      80.05728924      56.92711394      77.80873302
H      82.24937178      54.52149234      76.51616023
C      81.15522024      57.39387634      73.97636805
H      82.56495607      56.76459747      72.61387539
H      81.18356613      59.45367802      74.00471395
S      77.91433960      56.30539398      73.20158027
C      78.09575333      56.34129878      69.87566195
H      79.25226584      54.67644990      69.51472424
H      78.64755342      58.03449356      68.84387138
H      76.13988661      55.94634598      69.35787695
C      83.21124246      60.65176450      78.54194682
O      84.37909332      62.39409216      77.59708368
N      81.54450386      61.09396046      80.36742245
H      80.56184617      59.55572324      80.93056089
C      80.55806673      63.52036904      81.51637605
H      80.32940983      64.94711241      80.04616898
C      77.97859030      62.78904496      82.96768585
H      77.27183266      64.42554795      83.99380724
H      78.56629519      61.30938926      84.27915592
C      75.86587628      61.90276332      81.20646093
H      76.62365653      60.21901718      80.29561284
C      73.63977868      61.14498307      83.00170092
H      74.30118289      60.03193427      84.60229911
H      72.39255932      59.79949793      82.07195558
H      72.85743199      62.96667923      83.56483936
C      75.04762480      63.97768281      79.31862435
H      76.70680450      64.78837540      78.41344543
H      73.80418488      65.37230083      80.18789845
H      74.03284177      62.81361140      77.95424195
C      82.27771766      65.04159873      83.29649824
O      82.11331148      67.33194702      83.59129554
N      84.20334877      63.81894580      84.37175251
H      84.35452688      62.01047772      83.77270927
C      86.42377719      65.01325283      85.57739790
H      85.62442296      66.73101405      86.38242130
C      87.58595888      63.30305052      87.72223725
H      89.17332898      64.32539245      88.54804766
H      88.17933294      61.50025162      86.92288303
C      85.58662843      62.90998744      89.69889099
H      84.20334877      61.63442218      88.85607305
H      84.81939956      64.77514732      90.11274105
C      86.50692516      62.15220719      92.37096399
H      84.71546460      62.12575102      93.38385729
H      87.76548288      63.55627384      93.19866411
N      87.70123218      59.72012943      92.39364070
H      88.26815007      58.67511078      90.90075692
C      88.01303703      58.56172720      94.70288625
N      87.47635476      59.53115680      96.97811674
H      87.73713698      58.47668951      98.54658957
H      87.17021909      61.40765503      97.15575102
N      88.59129327      56.17878232      94.69910680
H      88.53649121      55.34919247      96.41686802
H      88.54027066      55.09029996      93.13252370
C      88.51570422      65.61418580      83.61208253
O      90.13142022      67.13541548      84.20734631
N      88.46657134      64.71845553      81.25181437
H      87.29872047      63.24635873      80.92678143
C      89.95000649      65.51780976      79.14099006
H      91.76792321      66.15086807      79.87042442
C      90.71912511      63.19911557      77.60086313
H      89.14309336      62.12575102      76.82229589
C      92.20256027      64.33673081      75.35964771
H      90.98179706      64.73735279      73.74960090
H      93.68977487      63.17454913      74.53383731
H      93.39875702      65.87118858      76.03616974
C      92.17799381      61.22624130      79.21090994
H      91.02904023      60.56294736      80.78505196
H      93.88441668      62.06716951      79.99892582
C      92.89797954      58.90754711      77.57818640
H      94.70833735      59.26092593      76.65411024
H      91.43911083      58.59763200      76.15711223
H      92.82616995      57.22569070      78.76682426
C      88.66121315      67.71745119      77.72558507
O      89.90465306      69.55993434      77.15110827
N      86.24614293      67.68532584      77.23614595
H      85.27671333      66.15464752      77.83896864
C      85.07073315      69.74512752      75.76782861
H      86.28393744      69.99457139      74.12187699
C      82.56306634      68.91364794      74.56974211
H      81.93756692      70.63896806      73.63810704
H      81.03238803      68.42987801      75.86042518
C      82.79739240      66.86140517      72.61009594
O      81.52371686      64.81672129      72.74048704
O      84.19012070      67.28092441      70.73359770
C      84.77782557      72.24145598      77.24937402
O      85.38631745      74.22944806      76.32718759
N      84.18823097      72.02035800      79.62664974
H      83.82540351      70.24968444      80.23892106
C      83.54572402      74.14441038      81.34441096
H      83.19234520      75.91697366      80.36175327
C      81.12687435      73.52458014      82.60296867
H      81.62576208      71.84272373      83.68389212
H      79.75682276      72.94443417      81.18000477
C      79.92878785      75.54658730      84.33962716
H      81.24970656      76.06059286      85.83629040
H      78.27716707      74.64896730      85.18244510
C      79.01416032      77.93898081      82.95634750
O      78.95179935      78.10527673      80.59229987
O      78.76093699      79.93831125      84.21112577
C      85.59040789      74.75101252      83.23602698
O      86.08362646      76.99978683      83.80105516
N      87.08896085      72.89719101      84.08640383
H      86.76203820      71.12273800      83.46090442
C      88.86152415      73.31104107      86.22557402
H      90.08417706      74.95699269      86.02148358
H      90.07283870      71.64997164      86.30683224
C      87.41588352      73.86284115      88.64820316
O      85.08963042      73.83071581      88.79938126
N      88.75192001      74.30503711      90.69855619
H      90.63219770      74.08582886      90.44911233
C      87.65209930      74.91352898      93.18921549
H      85.64709969      74.45243576      93.23267918
C      88.72735357      72.93120608      95.08083151
H      90.76258882      72.89341156      94.77091640
H      88.05272127      71.03203114      94.64430474
C      88.21901719      73.53591850      97.94187716
H      89.25080777      75.19131875      98.60328137
C      85.41088389      73.58127193      98.47477998
H      84.97813656      74.18598435     100.39663164
H      84.81184065      71.66886891      98.00234839
H      84.56050706      74.88707282      97.12740512
C      89.37741942      71.33816680      99.44798902
H      89.03159951      69.45599939      98.68642933
H      88.59507274      71.52524971     101.34338453
H      91.32383753      71.85217236      99.88451581
C      88.30594460      77.59883008      93.96400327
O      90.47157096      78.22432949      94.12085056
N      86.42944637      79.03313235      94.89185889
H      84.62853719      78.45865555      94.63296639
C      86.64676490      81.62583685      96.22600567
H      88.67633096      81.82047866      96.52458243
C      85.79071889      83.55713714      94.15486562
H      85.26348524      85.38828194      94.94099178
H      84.23169467      82.91274047      92.96811750
C      88.10374389      84.10137832      92.34261810
H      88.58184465      82.28157188      91.50924878
H      89.74969550      85.03112366      93.15897985
C      87.24958759      85.70008678      90.09195406
H      88.99947416      86.42763141      89.28504091
H      86.11764154      87.35926648      90.54548836
N      86.02504495      84.08815023      88.08317498
H      85.33907430      82.42141163      88.71245384
C      85.34285374      84.52278729      85.75503217
N      85.69812230      86.67329583      84.66843954
H      85.22002154      86.60904514      82.82217693
H      86.06472919      88.25877621      85.66054585
N      84.12775973      82.66140687      84.46434910
H      83.89532338      82.65195824      82.56895361
H      83.47769387      81.16852308      85.45456569
C      85.32962566      81.54268889      98.88863004
O      83.16210958      80.99277853      98.97177799
N      86.66566217      82.10582733     100.94087282
H      88.51570422      82.51589794     100.69331867
C      85.78504970      82.32503558     103.53357732
H      84.47924882      80.73388603     103.58459993
C      88.06405963      81.89417799     105.27779471
H      87.44422941      82.04913554     107.23555117
H      89.68166537      83.09037474     104.83181930
C      89.13175501      79.20887689     105.38928856
H      90.21834764      79.01990426     107.12972649
C      87.25336705      77.06025808     105.30236115
H      86.58062449      77.26812797     103.36728140
H      85.96079425      77.33426839     106.88217235
H      88.45145353      75.41052701     105.59526872
C      91.02904023      78.54180351     103.26712591
H      91.86240953      76.67286418     103.51090061
H      92.72223499      79.68130847     103.56570267
H      90.30149559      78.81581382     101.36039206
C      84.47924882      84.70609074     104.52379391
O      83.30005961      84.86293802     106.48721955
N      84.82695847      86.71675954     102.99122587
H      86.07228810      86.49377183     101.56259277
C      83.57406991      89.31891267     103.36161223
H      82.53094099      89.08458661     105.12472688
C      85.57529008      91.25777187     103.71877050
H      86.89620877      90.93273894     102.17297437
H      86.67889024      90.94029785     105.43275227
C      84.80239203      94.06401544     103.85105133
H      83.38887673      94.39282782     105.31558924
H      83.98791997      94.82935460     102.12195177
C      86.94345193      95.79878420     104.40852061
H      88.11319253      95.20541013     105.99967016
H      86.12331072      97.66583379     104.69197954
C      88.68766931      96.16728083     102.22966616
H      87.66721711      97.05923165     100.67631114
H      89.30372010      94.24731889     101.81392637
N      90.87219294      97.61481118     102.90996764
H      90.74558127      99.36658748     103.65263008
H      91.92099104      98.04188933     101.37173042
H      92.02492598      96.61703569     104.06081095
C      81.92244911      89.69118875     101.04291803
O      82.59330196      88.73120779      99.00201361
N      80.03272280      91.34469928     101.28669274
H      79.84941935      92.19696584     102.98555669
C      77.97292112      91.79445414      99.44420958
H      77.17167716      89.91606618      99.16453008
C      75.95847287      93.60481195     100.62717824
H      76.78995245      95.38304441     101.25456739
C      74.02339313      94.45518879      98.55603821
H      72.38500041      95.38871359      99.38184861
H      73.36954782      92.79789881      97.52424765
H      74.73015077      95.84980681      97.21433253
C      74.55818568      92.35381313     102.91752654
H      75.95658314      91.55823835     104.20065071
H      73.48293141      90.75699439     102.17864356
C      72.90467515      94.25487780     104.39718224
H      71.02628719      94.38337919     103.56759240
H      73.82497186      96.08035342     104.66552338
H      72.42279494      93.39127287     106.20376060
C      79.19935350      92.91128239      97.05559552
O      80.80562086      94.62148470      97.39952571
N      78.56440546      92.04578774      94.87674107
H      77.02805797      90.91573140      94.84839519
C      79.39399531      93.08324748      92.38986125
H      80.04217144      95.03155531      92.54292908
C      81.39899494      91.50532601      91.15398024
H      83.05439519      91.29745612      92.36151535
H      82.23236423      92.19129666      89.40031423
C      80.53727973      88.76522286      90.49635548
C      79.65666726      88.20775360      88.10585169
H      79.67745426      89.57780517      86.59218092
C      78.83274660      85.69630733      87.48791119
H      78.16756293      85.23710383      85.61519241
C      79.00660141      83.80847074      89.36629914
O      78.13921704      81.38962106      88.99591279
H      78.23937254      80.85482851      87.26492348
C      79.64910837      84.46798522      91.87207623
H      79.81162482      82.96376308      93.24401755
C      80.61475851      86.90195271      92.41064823
H      81.21191203      87.40461991      94.29659510
C      77.14522100      93.36670643      90.60029044
O      75.25360496      92.07224391      90.86674185
N      77.21892032      95.19785123      88.81827852
H      78.68156849      96.42428361      88.78237372
C      75.44446731      95.56634786      86.81516862
H      73.59442526      94.87281830      87.40287351
C      75.48226184      98.29322293      85.73802462
H      74.39377948      98.10047085      83.99758669
H      77.44001830      98.77888259      85.32417457
C      74.25582946     100.49664381      87.23468786
H      75.40100361     101.27521105      88.75969701
H      72.43791275      99.86736495      87.97168113
C      73.98181915     102.70573387      85.43755814
H      72.82530664     101.94417417      83.91254901
H      75.81674340     103.11958393      84.59851966
C      73.16167794     105.11324519      86.92477276
H      74.73581995     105.45528566      88.20600719
H      71.44391672     104.58601155      87.93010716
N      72.83286555     107.51130788      85.45645540
H      71.30785642     107.35824005      84.31695045
H      74.30307262     107.93460658      84.31506072
H      72.45303056     109.03442729      86.54115832
C      76.10587152      93.63315784      84.73457996
O      78.21858554      93.54056125      83.77648871
N      74.31819043      91.92106580      84.08262437
H      72.54751688      92.05712610      84.78182311
C      74.67723843      90.10881827      82.05494805
H      76.47058870      89.15450648      82.40643714
C      72.45114084      88.13594400      82.30061247
H      70.80140977      89.36993528      82.32895835
H      72.86121144      87.24777263      84.11285999
C      72.15256408      86.18007726      80.11608885
O      73.09931696      84.01067146      80.42789369
O      71.09053789      86.76967187      78.06195634
C      74.89644669      91.42028833      79.42066956
O      74.48826580      93.67284209      79.38854421
N      75.51438719      90.08614155      77.43078775
H      76.07185646      88.26255566      77.35141925
C      75.42934951      91.12549102      74.90422367
H      76.56318529      92.84136252      75.03839425
C      76.59531064      89.26411061      73.12221177
H      75.36509881      87.73532202      72.50049180
C      77.67245465      90.75510467      70.77139222
H      78.31307186      89.23765444      69.53362150
H      79.28061173      91.95886033      71.22492655
H      76.30807224      91.92295553      69.76038865
O      78.94613017      88.48932282      74.19746604
H      79.68501317      87.32903086      73.01449736
C      72.87254980      92.21208365      74.08030301
O      72.87632926      94.03377982      72.61009594
N      70.72771044      91.49209793      75.12532166
H      70.67668783      89.95575044      76.25537798
C      68.39956763      92.97553308      74.82296544
H      68.23894088      93.44796466      72.82363500
C      66.12055768      91.21997734      75.62420941
H      64.33665605      92.25176791      75.59208406
H      66.58732008      90.29212172      77.40433158
C      65.54419117      88.93907768      73.80818242
H      64.86766915      87.32336168      74.88721614
H      67.28651883      88.13594400      73.05418162
C      64.09666080      89.53812092      71.27783888
O      64.12689642      91.73398290      70.48982301
O      62.90046406      87.72776311      70.25549695
C      68.16902101      95.51154580      76.41033554
O      66.40023718      96.95340697      75.96247041
N      69.95859183      95.95752121      78.18100911
H      71.31541533      94.62715388      78.36620228
C      69.81686235      97.86425506      80.01404362
H      68.87955811      99.35335939      78.94823799
H      71.74438319      98.38392979      80.52238001
C      68.53184846      97.37292621      82.55950497
O      69.06286155      98.85069219      84.11852918
N      66.90668383      95.50209717      82.91288379
H      66.57976118      94.11125860      81.64865688
C      65.67647200      94.84447241      85.36952799
H      64.67302734      96.50932129      86.05171920
C      63.84910667      92.73553784      84.77426420
H      62.88345651      92.05145692      86.45801035
H      64.90168421      91.17651363      83.94467436
C      61.74584127      93.32135300      83.02248791
C      61.07498843      91.78878496      81.01748830
H      62.18992695      90.15228197      80.51860056
C      59.29486624      92.63916180      79.18445377
H      58.82999357      91.35603763      77.66889328
C      58.12134620      94.98620188      79.48492026
O      56.28264250      95.81201228      77.76715904
H      55.60045130      97.41450019      78.28305432
C      58.72416890      96.55845417      81.51826578
H      58.01741125      98.45951884      81.74881239
C      60.56854179      95.75721022      83.29271877
H      61.24506381      97.08757754      84.68166761
C      67.62855928      94.01488256      87.38586598
O      69.55041094      92.89616458      86.76414601
N      66.96148589      94.50432167      89.81794374
H      65.35143908      95.50965607      90.02959309
C      68.75672590      93.98275721      91.83806116
H      70.64645221      94.23598054      91.06138366
C      68.36366282      95.68162116      94.15675536
H      69.35198968      94.84825186      95.75924326
H      66.36811184      95.86870407      94.63674583
C      69.52395477      98.27432567      93.71266967
C      68.15012375     100.45695956      93.77881009
H      66.12622687     100.54010752      94.01880533
C      69.40301229     102.77943320      93.43676962
H      68.28240460     104.48207660      93.35551140
C      72.07319557     102.97785446      93.25535591
O      73.37710673     105.25875412      93.02291956
H      72.24138122     106.67226940      93.10795724
C      73.42623962     100.72530069      93.25535591
H      75.43501869     100.77632330      92.89819762
C      72.21303532      98.37637089      93.46889497
H      73.26939233      96.62837405      93.41976209
C      68.60932725      91.15194719      92.51269346
O      66.67424750      90.13527444      92.91898461
N      70.83164539      90.00677305      92.63930513
H      72.30752164      91.20108008      92.45411194
C      71.53462357      87.29501579      92.83016749
H      69.90756923      86.19330535      93.44810799
C      72.12043873      86.44463895      90.12407941
H      73.89489174      87.22131646      89.42110122
C      72.23571203      83.69886661      89.57038959
H      72.34909561      83.21320695      87.57294887
H      70.52550972      82.88250485      90.38108218
H      73.86465612      82.63684043      90.24880133
O      70.16646172      87.24588290      88.44600243
H      69.93402538      89.00521810      88.82205798
C      73.56041018      86.69030337      94.76902668
O      74.70936378      88.42885158      95.80081725
N      73.95914244      84.22232080      95.42476170
H      72.85932173      83.02801377      94.42320677
C      75.93012699      83.32470080      97.05370579
H      77.61765257      84.44341878      96.67009135
C      75.12699329      84.10704750      99.75601441
H      74.30685207      85.98543545      99.56326234
C      72.98026420      82.25133626     100.54969947
H      73.69836021      80.32381542     100.43631590
H      71.38155575      82.42897053      99.26090613
H      72.27350656      82.76912127     102.41485934
C      77.43056968      84.05035571     101.60227703
H      78.96880690      85.18986068     100.84071732
H      77.98236975      82.11527596     102.03502436
C      76.56507502      85.25411137     104.13262056
H      75.03628643      86.62605267     103.95876574
H      78.13732731      86.23865878     105.02646110
H      75.99626740      83.81413992     105.49322351
C      76.34775649      80.47310380      96.71733450
O      75.06841178      79.13895702      95.27547333
N      78.06929716      79.42808515      98.11573198
H      79.06707266      80.62428190      99.21933214
C      78.57196436      76.61806212      98.07226827
H      76.90711548      75.67130924      98.83382798
H      80.06484815      76.04169559      99.36862052
C      79.34864188      75.79792090      95.44554869
O      80.77160579      77.17364166      94.06604848
N      78.81006989      73.40741711      94.77658559
H      77.95780331      72.31137585      96.08805564
C      78.87810002      72.63262933      92.11396120
H      80.27460777      73.74945758      91.09161927
C      79.70013097      69.90953371      91.73223649
H      78.25260061      68.81538217      92.70355582
C      79.45446655      69.05159796      88.82772714
H      77.45891556      68.79459518      88.39120037
H      80.39555026      67.24124015      88.54048875
H      80.18579064      70.54637148      87.61074340
C      82.28149711      69.25379868      93.01725038
H      83.56462129      70.80904343      93.42354155
H      83.24903699      67.88941628      91.81349472
C      82.40999851      67.77603270      95.53058639
H      84.40177004      67.73634845      96.05593029
H      81.66733607      65.89953447      95.11862604
H      81.20435312      68.59428419      96.98756536
C      76.27216744      73.24868010      90.94988980
O      74.45991990      71.81437783      91.20311313
N      75.89800163      75.40296810      89.74991359
H      77.18868471      76.80703475      89.81038484
C      73.71914719      76.00579079      88.05293937
H      73.37899645      74.46377412      86.72824121
H      74.32385962      77.71977256      87.08728921
C      71.13022215      76.58404705      89.47779300
O      69.04585402      76.38751551      88.24758118
N      71.17746530      77.41552662      91.88719405
H      72.83475527      77.71599311      92.78670378
C      68.83042522      77.48544650      93.50668950
H      67.53596269      76.07949012      92.73568117
C      69.37844585      76.41019222      96.22222622
H      70.58031178      77.63662460      97.35606200
H      70.17213091      74.55070153      95.83483231
C      66.95581673      76.14563054      97.84928057
N      65.44970484      74.09716722      97.84739085
H      65.78418640      72.42097998      96.99890373
C      63.38990316      74.54314263      99.23444996
H      61.85166595      73.22222393      99.45932738
N      63.56753744      76.76357105     100.42119808
H      62.23717011      77.63473488     101.47377563
C      65.81442202      77.76701572      99.51601917
H      66.56842282      79.65107285      99.71066099
C      67.56241886      80.08004072      93.51235868
O      68.85121222      81.82992729      94.43076566
N      65.27396031      80.26712363      92.57694416
H      64.44626017      78.61739256      92.08939476
C      63.81698131      82.57258973      92.24624205
H      65.08876713      84.07114270      91.63775018
C      61.91591664      82.19842392      90.12407941
H      60.64224110      80.69042232      90.70611510
H      62.89668459      81.50678409      88.45167161
C      60.50429108      84.64561950      89.61007385
H      59.44982381      85.11994080      91.31838644
C      62.36189205      86.74510543      88.76536619
H      61.23372544      88.42507212      88.38175173
H      63.18959217      86.11960602      86.98524400
H      63.77351760      87.42351718      90.09951295
C      58.68259492      84.43963933      87.36318925
H      59.76162864      83.86894198      85.70211982
H      57.83788725      86.31424783      87.21768033
H      57.30876389      82.94486582      87.71467836
C      62.63023318      83.35871588      94.93154315
O      61.69103921      81.63339575      96.32994061
N      62.81164691      85.81347036      95.63452132
H      63.60533196      87.08525617      94.45344239
C      61.48127959      86.76211297      97.87006756
H      61.06553981      85.36938467      99.32515681
C      63.65068539      88.44396939      99.06059513
H      62.87400788      89.43418597     100.68953921
H      64.19681630      89.98976551      97.81148604
C      66.01662275      86.89439381      99.89207472
H      66.67046805      85.89472859      98.21588748
C      67.94981276      88.78412012     100.98244680
H      67.25628320      89.88583056     102.58115525
H      68.33342720      90.43574092      99.80892676
H      69.70347877      87.91106657     101.61739483
C      65.32876236      84.93096817     101.91408186
H      64.84688216      83.22076586     100.87284267
H      63.94548270      85.55835731     103.30303070
H      67.08620783      84.27901259     102.76634843
C      59.20226965      88.53656598      97.42976133
O      57.12735016      88.10948783      98.38407312
N      59.52352313      90.42062311      95.67798504
H      61.33766040      90.67573616      95.14319249
C      57.40513994      92.23665010      95.00713219
H      55.76296776      91.06501978      94.59895130
C      56.88546519      94.29456205      96.95166056