 %block lattice_cart
   139.252   0.000   0.000
   0.000 142.425   0.000
   0.000   0.000   162.84
 %endblock lattice_cart

 %block positions_abs
N      92.09957018      42.76078063      78.65155096
H      93.66048412      42.53590320      77.58007613
H      90.99974947      41.22443314      78.38509955
H      92.57389149      43.00077587      80.48647521
C      90.49519254      44.90562000      78.17156046
H      90.99597001      46.23031814      79.66822371
C      90.69928298      45.90906467      75.35586826
H      90.22307195      44.46342404      73.96880914
H      92.64381136      46.50810791      75.02327643
C      89.05333136      48.22397940      74.83052434
H      87.08990573      47.71942248      75.18957234
H      89.30466496      48.65672673      72.83119390
S      89.32923141      50.97731064      76.71458148
C      92.54743532      51.74831898      76.37821020
H      93.64158685      50.84125035      77.86920425
H      92.63247300      53.80245148      76.50104240
H      93.26553132      51.06234833      74.57541130
C      87.80044282      44.35381991      78.75170644
O      86.87825638      42.29023878      78.23581117
N      86.61369469      46.03756606      80.26348749
H      87.46407154      47.53989848      81.08362872
C      83.85091483      45.87882905      80.68489647
H      82.83802152      44.83192067      79.22791747
C      83.41627777      44.71664737      83.31728521
H      84.43106080      42.92707655      83.39098455
H      81.41316788      44.26311305      83.47980168
C      84.36869983      46.21331061      85.54149309
O      85.61591920      48.09925747      85.44700678
N      83.50131546      45.55568585      87.73735507
H      84.13059432      46.30401747      89.37574778
H      82.19929403      44.20075208      88.06049827
C      82.70574068      48.53389452      80.62820468
O      83.84902510      50.44818727      80.18411900
N      80.28122182      48.75121304      80.86819991
H      79.11904014      47.24699090      81.03638556
C      78.97542094      51.25132096      80.66599920
H      79.76532654      52.18484576      79.01059896
C      76.08224995      50.73542567      80.35041491
H      75.76855538      49.59781043      78.66288932
C      74.78967715      49.16317338      82.53871797
H      75.84792389      47.49076559      83.11508450
H      72.88105358      48.47342328      82.18155970
H      74.77266962      50.50487906      84.10152164
C      74.65928604      53.15238563      80.09341212
H      74.74621345      54.40905363      81.72046649
H      72.71097821      52.48342251      80.03294088
C      75.21486557      54.74164546      77.86542481
H      74.09803732      56.45184777      78.12431731
H      74.61393261      53.83457683      76.11931770
H      77.21419601      55.18573114      77.62920901
C      79.67650940      52.89538285      82.99981120
O      79.59336144      55.23675375      82.78627213
N      80.56657049      51.92973270      85.02559780
H      80.89160342      50.04756530      85.05961289
C      81.13537811      53.37159388      87.22334950
H      79.85225395      54.97786125      87.37830707
C      80.81223491      51.69729637      89.53637452
H      81.60214051      52.67995405      91.16531860
H      81.91583508      49.98331460      89.24535667
C      78.10614683      50.79022774      90.27147805
C      76.64727812      52.22075056      92.09884339
H      77.46552961      53.88937889      92.94355106
C      74.22464899      51.38360180      92.56749552
H      72.94719400      52.37381839      93.81471489
C      73.17018170      49.37104328      91.26169463
H      71.16140263      49.03845144      91.40909329
C      74.53834355      48.11626500      89.37007861
H      73.33080844      46.73109562      88.47812778
C      77.14805559      48.70019043      88.94677990
H      78.37070852      47.79501153      87.58806669
C      83.86225318      54.58479817      87.07028167
O      84.34791285      56.41216352      88.37986201
N      85.41749794      53.63804529      85.32606430
H      84.73530674      52.04878546      84.51726142
C      87.69839760      54.83046259      84.29994290
H      88.63759158      55.88681960      85.79660614
C      89.38592320      52.69507186      83.60641334
H      88.63003267      51.60847923      82.02849187
H      89.74875065      51.62359704      85.32795401
C      92.19594622      53.59269186      82.95067832
H      92.11090854      54.89660301      81.35574930
H      93.13514020      51.97130668      82.09652202
C      93.64914576      54.92305918      85.07284097
O      94.92282129      53.71930352      86.58273228
O      93.42048887      57.30411434      85.37141772
C      87.18628177      56.57845943      81.92077747
O      87.97996682      58.68739400      81.63164934
N      85.53655070      55.85658398      80.31073065
H      84.73152729      54.15394057      80.61497660
C      84.84680059      57.00364785      77.84274809
H      86.48141385      57.07734718      76.59174927
C      82.88526468      55.40682912      76.46513760
H      81.06734797      55.84524562      77.33252198
H      83.41249832      53.42639594      76.26860608
C      82.53944476      56.07201278      73.58330498
H      84.06634362      54.96652289      72.75371513
H      82.85124961      58.09024048      73.31496384
S      79.42706553      55.41249830      72.72725897
C      79.63871487      55.08935510      69.34842832
H      77.94740982      54.12370495      68.67568575
H      81.47930830      54.27488306      68.91568098
H      79.63493542      56.87892592      68.32797611
C      83.95296005      59.69650785      78.21502417
O      84.52176767      61.33490056      76.67867668
N      82.71707904      60.32578671      80.39009917
H      82.31645706      58.89904335      81.59385482
C      81.90260700      62.98841109      80.98536294
H      81.74009053      64.11279824      79.26571201
C      79.33257921      62.83723298      82.21557477
H      78.74676405      64.78932026      82.50281318
H      79.71430393      61.67505130      83.87286475
C      77.24443163      61.74119172      80.63198413
H      77.94552010      60.00453324      79.77215865
C      75.01077513      60.89648406      82.08707340
H      73.52167080      60.39192713      80.75670607
H      74.46275450      62.59912747      83.10941532
H      75.50210397      59.34312903      83.34563112
C      76.44129795      63.73674271      78.64210232
H      75.30179299      62.89959395      77.14543908
H      78.12882355      64.61924489      77.85597617
H      75.06368747      65.00285934      79.50381752
C      83.86603264      64.43216199      82.55005633
O      83.84524565      66.79809933      82.66910910
N      85.55355823      63.16226591      83.81050379
H      85.71796442      61.32545193      83.31539549
C      87.87414215      64.41515445      84.95756765
H      87.20328930      66.17826910      85.77770888
C      88.93049915      62.57267130      87.04004606
H      90.00197397      61.13647930      86.02337331
H      87.39226194      61.89048010      88.23246335
C      90.72384943      64.10712906      88.82205796
H      89.59568282      65.62835875      89.63275056
H      92.36035241      64.86868877      87.82806192
C      91.49485776      62.49708225      90.97445624
H      89.83945751      61.78843488      91.97601119
H      92.72695932      63.44005568      92.32750028
N      92.82900454      60.26720520      90.20155818
H      92.55688395      59.70028730      88.39875928
C      93.80977249      58.69873236      91.74168513
N      93.85512593      58.99730911      94.18132180
H      94.31810887      57.62536781      95.42287199
H      93.38458407      60.73207787      94.82571846
N      94.51653014      56.43484023      90.93666171
H      95.27053093      55.27265855      92.25002151
H      94.48062534      55.84524562      89.12063473
C      89.63347734      65.05766140      82.84485365
O      90.93927823      66.98707196      82.89398653
N      89.82811915      63.58367488      80.83229511
H      88.81522585      61.96417942      80.85497183
C      91.51375502      64.11846742      78.64021260
H      93.26931077      64.86112986      79.42066956
C      92.12791608      61.72418418      77.04528358
H      90.22874113      60.96073475      76.80906780
C      93.33167174      62.35535277      74.44124073
H      92.04098867      63.45517349      73.27338986
H      93.63402795      60.52987715      73.53795156
H      95.14769872      63.31344401      74.61887501
C      93.56599780      59.68705922      78.68556602
H      93.61135123      58.05622541      77.43078776
H      92.72129014      59.38092356      80.54127726
C      96.37980028      60.18594696      79.01626813
H      97.32466344      59.14659749      77.50826653
H      97.20750041      59.35257766      80.70568345
H      96.92593118      62.14937260      78.72336055
C      90.39314732      66.19527664      76.87142876
O      91.92004618      67.76752893      76.10231015
N      87.98941545      66.16315129      76.22514237
H      86.72707827      64.79498944      76.63710270
C      86.62881251      68.27775504      74.90233395
H      87.74564076      68.63869276      73.20913917
C      83.94162169      67.45005491      74.05195710
H      82.62070300      69.03175584      73.97258860
H      83.15171609      66.02709100      75.31618402
C      83.75642851      66.01575264      71.49704714
O      81.97063714      64.58900927      71.25138272
O      85.27576847      66.60345752      69.79062427
C      86.45684741      70.73628897      76.38198965
O      86.81967486      72.74506804      75.17634427
N      86.29433095      70.82132665      78.88965647
H      86.11291722      69.12624215      79.75137166
C      85.77843566      73.19671263      80.25781832
H      85.46096164      74.88801768      79.12398254
C      83.11959074      72.98506328      81.58818565
H      83.42761613      72.39924813      83.54027293
H      81.92528371      71.45816442      80.88520745
C      81.63615559      75.40958214      81.81306308
H      82.73030712      77.01773923      82.49336454
H      80.33602388      75.33588282      83.40988180
C      80.29444990      76.01996374      79.42066956
O      81.42639597      77.49583999      77.92967551
O      78.17984616      75.15824854      79.02571676
C      87.86091406      73.73528463      82.09274257
O      89.06278000      75.72327671      82.14565490
N      88.42216278      71.94193436      83.69523048
H      87.39226194      70.37535124      83.34752084
C      89.79410408      71.93815490      86.07250619
H      91.58178517      72.96238657      86.01203495
H      90.02654042      69.99362653      86.70745422
C      88.39570661      73.18348455      88.27781680
O      86.48708303      74.49684433      87.98301948
N      89.43505608      73.02096808      90.59084179
H      91.17927347      72.25373920      90.69099729
C      88.21807233      73.70693873      92.90575653
H      86.18094737      73.91102918      92.68087911
C      88.93805806      71.49784867      94.65942255
H      90.94305768      71.75107200      95.06193426
H      88.60357650      69.73284430      93.65408816
C      87.44328455      71.36367811      97.13685374
H      87.24486328      73.08899823      98.24801282
C      84.62948207      70.76274514      96.54347968
H      83.55233807      70.00118543      98.12896007
H      84.68617386      69.10923461      95.32082676
H      83.64493466      72.28019537      95.55893227
C      88.64326075      69.30765588      98.57304575
H      90.60101722      69.89725049      98.83004852
H      88.92482998      67.71839605      97.28992157
H      87.53210168      69.01663803     100.28135833
C      89.02687520      76.32043022      93.93943683
O      91.30588513      76.88356867      94.15864508
N      87.21084821      77.96827157      94.49501636
H      85.43072602      77.45993519      94.02636423
C      87.52265305      80.53263018      95.71011039
H      89.54277048      80.90868571      95.85750903
C      86.77243170      82.71337434      93.79014844
H      86.71007074      84.44814310      94.89941780
H      84.84680059      82.26928866      93.21378193
C      88.49964156      83.07242234      91.51491796
H      88.70940118      81.37922756      90.36218492
H      90.27598429      83.85287931      92.21033725
C      87.46596126      85.14356238      89.73668550
H      88.90404299      86.23204474      88.74079973
H      86.52109811      86.57786465      90.87430074
N      85.66127263      84.05885948      87.86963590
H      84.43672998      82.66046200      88.30805241
C      85.86536307      84.22326567      85.28638004
N      87.41682838      85.83331248      84.19978740
H      87.65115444      85.84843029      82.30628164
H      88.18972644      87.10509829      85.39220471
N      84.63704097      82.65857228      83.86908530
H      85.06411912      82.19936878      82.06439667
H      83.38982160      81.42269127      84.62308610
C      86.01276173      80.74427952      98.22344638
O      83.82823811      80.07531641      98.34816832
N      87.18061259      81.70803994     100.20954873
H      89.04577246      82.00283725      99.92231033
C      86.54377482      81.84976942     102.84004776
H      85.22663558      80.29641439     103.13862452
C      88.99474985      81.13167342     104.38773360
H      88.66593747      81.06931245     106.42107913
H      90.30055073      82.70959489     104.17419453
C      90.38180896      78.78652306     103.52223896
H      91.31344404      79.08509982     101.70810170
C      92.39436749      78.21393599     105.59337899
H      93.43182723      79.97894037     105.81447697
H      93.82678003      76.86467140     104.98488713
H      91.60446189      77.55631123     107.37728064
C      88.77743132      76.29586378     103.25956701
H      87.33934960      76.18814938     104.72977407
H      89.88481094      74.65747107     102.68131074
H      87.80611200      76.64546315     101.47755509
C      85.19639996      84.31586226     103.66963761
O      84.36492038      84.23082457     105.87305850
N      84.93750746      86.30763379     102.12384148
H      85.78977402      86.10354335     100.42875699
C      83.67706000      88.67168141     102.66052375
H      82.78699891      88.50538549     104.51245554
C      85.76898703      90.75415980     102.81737104
H      84.84302114      92.53806144     102.36005728
H      87.17116396      90.24204397     101.39629686
C      86.72140909      90.75793926     105.53101803
H      87.53966059      88.93246364     106.00911878
H      85.18506160      91.12265643     106.85571617
C      88.93238888      92.75915942     105.99778043
H      88.33145591      94.72069533     105.82014616
H      90.53487679      92.49648746     104.73166380
C      89.79221435      92.43790595     108.75300139
H      90.88069671      90.68990911     108.79835482
H      88.27665385      92.24893332     110.13439132
N      91.46084269      94.57896586     109.71487208
H      92.35846269      94.26905075     111.37027234
H      90.27976374      95.98114279     110.23832627
H      92.64192163      95.24037007     108.36938696
C      81.68906792      89.13844381     100.64607552
O      81.75331862      87.98949021      98.68264988
N      80.07902110      91.11131808     101.04669749
H      80.58546776      92.24326414     102.49989702
C      78.26110439      92.10531412      99.19476571
H      77.26143917      90.47070086      98.43887517
C      76.11248557      93.72858902     100.34371929
H      76.96097269      95.40288653     101.19031668
C      74.09047842      94.20102060      98.33871969
H      72.96798099      95.87909756      98.74879029
H      73.02089333      92.47003130      98.01746621
H      74.81235387      94.83029946      96.51513378
C      74.74999290      92.12799083     102.37706482
H      76.18618490      91.88610586     103.83215408
H      74.54779219      90.19102136     101.70621198
C      72.34059185      93.09175125     103.58648966
H      70.75322175      93.23537045     102.28257849
H      72.68263232      95.03061045     104.18931234
H      71.76989451      91.69146405     104.98488713
C      79.66328132      93.41111500      96.93276331
O      80.76121230      95.45390914      97.16142018
N      79.51966212      92.23192578      94.65942255
H      78.38582633      90.70313719      94.50635471
C      80.93317740      92.93112452      92.38230234
H      81.97063714      94.67723163      92.71489417
C      82.81156535      90.88455092      91.76814129
H      83.79422304      90.43290633      93.52180731
H      84.11169706      91.75382502      90.42643560
C      81.70796519      88.53751084      90.37919246
C      81.74764944      88.27294915      87.77514959
H      82.70952013      89.57119113      86.52981995
C      80.57412940      86.08275636      86.66776997
H      80.44940746      85.88244537      84.64009363
C      79.76721626      84.06452866      88.25325034
O      78.92061887      81.91402011      87.05894331
H      79.04345108      81.93669683      85.25047524
C      79.83713614      84.25917047      90.81949868
H      79.49131622      82.66613118      92.04782078
C      80.75176367      86.53062149      91.94388584
H      80.85569862      86.91801539      93.94699574
C      79.20407782      93.58308009      90.02959308
O      76.94585488      93.25615744      90.19210954
N      80.42295129      94.47692064      87.86018727
H      82.31078788      94.74337205      87.82050302
C      79.11715041      95.09297142      85.46779377
H      77.10648161      94.65077546      85.51314719
C      79.25699016      97.88220746      84.89898615
H      78.86581681      98.09574653      82.88642763
H      81.23742333      98.29794724      85.29204921
C      77.53922894      99.47146729      86.73013094
H      78.08724957      99.20312615      88.69544630
H      75.60603892      98.78360691      86.57706311
C      77.36726385     102.40999170      86.12352879
H      76.10114722     103.37753157      87.43121941
H      76.48854111     102.64809722      84.27915591
C      80.06768275     103.61752682      85.89298218
H      79.65005323     105.56394492      85.36007936
H      81.24309251     102.78604724      84.42277512
N      81.80056178     103.45312063      88.21356610
H      83.59202232     104.10696593      88.16821266
H      81.97819605     101.63331419      88.76158673
H      81.23553361     104.37152761      89.78770811
C      80.24720675      93.49615268      83.39476400
O      82.52432695      93.28450334      83.38531536
N      78.73920515      92.60609159      81.53716303
H      76.85514801      92.83096902      81.74692265
C      79.58391281      91.63477227      79.06162156
H      81.28655622      92.69301900      78.58541053
C      80.22830948      88.80396225      79.58885520
H      78.43117976      87.84965046      79.90443949
H      81.36781445      88.72081429      81.30283697
C      81.59647133      87.63044221      77.23614595
O      83.72619289      88.47514987      76.52749858
O      80.46641500      85.81630495      76.20246565
C      77.79245227      91.93712848      76.85442123
O      75.49643480      91.62343391      76.95835618
N      78.85636818      92.68357037      74.75115584
H      80.70452051      92.29617647      74.47903525
C      77.60536936      92.96891904      72.37010069
H      79.00376683      93.56985201      70.98115184
C      76.75877197      90.37432481      71.36098684
H      75.15250461      89.59197812      72.38521850
C      76.09925749      90.72581391      68.55663298
H      77.73387075      91.53461677      67.60799037
H      74.36826819      91.83697298      68.46025694
H      75.45108136      88.93435336      67.77239657
O      78.59936540      88.49971631      71.45547315
H      78.16850780      87.44335930      72.86520899
C      75.59659029      95.05895634      72.32852671
O      76.11626503      97.22080325      71.54806974
N      73.35159543      94.46747201      73.26583096
H      73.06813648      92.76104915      74.07085438
C      71.32202937      96.23814556      73.45102414
H      71.20486634      97.04883815      71.56318755
C      68.90128996      94.83974809      74.12187699
H      67.21943354      95.97547361      74.47714552
H      69.30002221      93.90811302      75.91522725
C      68.11516382      92.73270325      72.25293766
H      66.26512176      91.91445176      72.64222127
H      69.56647363      91.29084208      72.49860208
C      68.18697342      93.67378696      69.56763656
O      67.59737881      95.91311264      68.96481388
O      68.86349544      92.17334426      67.86499316
C      71.73209998      98.27527053      75.52594364
O      70.99699644     100.43144825      75.09130658
N      72.74877274      97.46268821      77.77471794
H      73.27978583      95.68445575      78.22258307
C      73.36860297      99.35619398      79.66633398
H      73.13805636     101.22135385      78.82162633
H      75.33958751      99.18044943      80.24647996
C      71.77745341      99.34485562      81.98313845
O      71.96264659     101.18355932      83.40421263
N      70.29023880      97.29072312      82.54249744
H      70.46031417      95.74681672      81.43700753
C      68.63483855      96.87498333      84.79505119
H      68.06414121      98.76470964      85.38275608
C      66.13284091      95.72414001      83.89932092
H      64.85538593      95.58430026      85.50936774
H      66.27457039      93.80228835      83.17177630
C      64.82137085      97.11497857      81.75826101
C      64.34138037      95.79028043      79.48680999
H      65.30514079      94.00826851      79.24303528
C      63.14140416      96.98080800      77.40244186
H      62.92786509      96.02082704      75.61476076
C      62.20221018      99.39398851      77.72558506
O      60.67342160     100.45979415      75.94168343
H      59.99689958     102.03771562      76.52560886
C      62.58015545     100.68467158      80.09908130
H      61.55592378     102.39298417      80.54694645
C      63.70265288      99.46390838      82.10219120
H      63.96721456     100.35963865      83.91632846
C      69.96898533      95.58996944      87.05516386
O      71.83981438      94.31062472      86.65265217
N      68.96176120      95.88476674      89.36251970
H      67.19108765      96.59152438      89.41354230
C      70.12961207      94.94935222      91.67932415
H      72.11949387      95.47658586      91.69444197
C      68.78034748      96.04917293      93.92998819
H      69.58537089      95.59752834      95.77058163
H      66.79613485      95.50304203      93.81660461
C      68.94286394      98.87620350      94.11140191
C      66.82637047     100.49569895      94.19643960
H      64.94420306      99.72280088      94.03581286
C      66.82826020     103.03549111      94.85028490
H      65.02546129     103.92366248      95.22067126
C      69.06191670     104.23735705      95.32082676
O      69.37183181     106.67321426      96.12773989
H      67.82603569     107.61429797      95.96711315
C      71.29179375     102.75014244      95.09405960
H      73.07758511     103.68933642      95.40397472
C      71.30124238     100.04972354      94.70855543
H      73.04734949      98.99525625      94.73123215
C      69.98410314      92.09208603      91.85317897
O      67.96209599      90.98092696      92.14608656
N      72.15728840      90.75038035      91.82861253
H      73.74843796      91.78784010      91.63775018
C      72.48043160      88.05752035      91.66042690
H      70.61149228      87.21659215      91.86829678
C      73.66529000      87.43580040      89.14709089
H      75.66273071      87.93468814      89.11874500
C      73.19096869      84.67113080      88.39497983
H      71.16329236      84.31397253      88.45167162
H      74.14339076      83.37855800      89.68944235
H      73.85993181      84.38200268      86.46745899
O      72.55413093      88.83041842      87.24980568
H      73.11537964      90.50849538      87.64286875
C      74.14150103      87.12210583      93.78258955
O      75.67028962      88.69057867      94.78225477
N      73.82780646      84.81663973      94.65375338
H      72.45397543      83.80185670      93.80148680
C      75.45297109      83.51461830      96.46222145
H      77.23309328      84.54451914      96.59450229
C      74.26622297      83.77540053      99.11350748
H      73.74465850      85.71803918      99.55381371
C      71.89461644      82.00283725      99.38184860
H      71.07258550      82.63589556     101.16386052
H      72.32358432      79.99027872      99.46310683
H      70.53212377      82.43369485      97.89841345
C      76.17673627      82.96281821     101.21110368
H      78.04378587      83.62611215     100.65363441
H      76.04445543      80.90868571     101.12795571
C      75.73076086      84.19680950     103.75656502
H      75.30557244      86.19236048     103.48822388
H      77.31624123      84.16090470     105.07370427
H      74.12071404      83.16501893     104.52190418
C      76.14083147      80.85766310      95.57971926
O      74.87849429      79.77296020      93.90164229
N      78.10614683      79.73705540      96.52647214
H      79.17762165      80.49483565      97.91164154
C      78.86959626      77.16891734      95.98034125
H      77.42584536      75.76107124      96.39986049
H      80.41161294      76.68892686      97.26157568
C      79.78611353      76.62656589      93.40464428
O      81.31679184      77.99094829      92.21411671
N      79.18707028      74.41936555      92.37663316
H      78.21008178      73.31765511      93.58983746
C      78.87715517      73.83355040      89.63653002
H      80.25665538      75.05053414      88.70867440
C      79.23998262      70.80998830      89.44755738
H      77.97575572      69.81032308      90.73257127
C      78.69385172      69.71772649      86.77170491
H      80.31901635      69.70449840      85.50747802
H      77.22364465      70.82510611      85.84195958
H      77.89071803      67.82233100      86.85674260
C      82.00465222      70.06732586      89.99746773
H      82.43550982      71.08021916      91.73979539
H      83.18006198      70.71361225      88.43655380
C      82.42417146      67.24029529      90.28092668
H      82.59991601      66.26330679      88.47812778
H      80.88971369      66.28220405      91.26925354
H      84.13059432      66.74896645      91.32594534
C      76.33169383      74.74439848      88.64064425
O      74.47409286      73.36678800      88.86741140
N      76.07658077      77.12167418      87.49924956
H      77.46363989      78.41235725      87.73357562
C      73.90150579      77.92102841      85.87219519
H      73.74087905      76.87412003      84.10530109
H      74.52889492      79.85232870      85.52637527
C      71.39572870      78.07787570      87.24791595
O      69.44553114      78.01929418      85.91565890
N      71.30124238      78.20070791      89.81038484
H      72.93774537      77.82465237      90.72123292
C      68.83137009      78.25928942      91.09161927
H      67.48021578      77.28230092      89.88597388
C      68.76145022      76.77963372      93.57660938
H      70.13150179      77.54686260      94.91075616
H      69.67985720      74.97872454      93.18354630
C      66.34637999      76.66813987      95.02602945
N      64.98955650      74.59511010      95.33783429
H      65.71143195      72.84711326      95.07705207
C      62.82581987      75.24895541      96.32427143
H      61.33860526      73.90158054      96.67387081
N      62.95432126      77.63190029      96.93276331
H      61.62206421      78.75439772      97.71322027
C      65.10105035      78.56920454      96.16175497
H      65.52623877      80.55152744      95.93498781
C      68.11894327      81.04663573      91.18988504
O      69.11860849      82.44125375      92.70544555
N      66.27834984      81.78929817      89.62708137
H      65.46387780      80.46837948      88.51592231
C      65.27490517      84.35365678      89.68944235
H      66.85849582      85.66890630      89.66298617
C      63.68564534      84.90923632      87.23090841
H      62.13606976      83.55430255      87.21957005
H      64.79302496      84.63522600      85.51692664
C      62.72755410      87.74571551      87.26681321
H      61.88473616      88.17468339      89.09795801
C      64.98199759      89.55796305      86.77359465
H      65.90229430      89.11198764      84.98402383
H      66.35771835      89.25371711      88.27403734
H      64.33004201      91.50627088      86.60540900
C      60.65830379      88.13121968      85.30716702
H      60.12729069      90.11921176      85.21079098
H      59.01613162      87.11076747      86.01770412
H      61.07404357      87.35643189      83.44389688
C      63.97099401      84.74483013      92.18766053
O      62.56692736      83.02328946      92.91331543
N      64.21476871      86.99360444      93.28748125
H      65.42419355      88.33153067      92.66198184
C      62.60094244      87.48304356      95.57216035
H      61.73166833      85.74449535      96.24868237
C      64.22043789      88.56018755      97.73211753
H      63.01101305      89.02317050      99.33082599
H      65.30892024      90.23070561      97.22000170
C      66.11961283      86.45881189      98.70343686
H      67.17785957      85.70481110      97.10472839
C      67.95642681      87.56619151     100.42497754
H      67.10793969      89.11576709     101.48511400
H      69.47954621      88.26350052      99.22311160
H      68.94097422      86.15645568     101.56070304
C      64.77601742      84.36499514     100.05648091
H      66.22921696      83.11777577     100.81615088
H      63.53257751      83.19147510      98.90374784
H      63.71777069      85.13600347     101.64196127
C      60.29925579      89.12521572      94.72367324
O      58.13173971      88.67546086      95.31704730
N      60.65452433      91.04706738      93.01725039
H      62.41763898      91.33808523      92.34828727
C      58.65897335      92.95191151      92.20655780
H      56.96199912      91.92201066      91.65097826
C      58.11095272      94.85108645      94.45722183