 %block lattice_cart
   139.252   0.000   0.000
   0.000 142.425   0.000
   0.000   0.000   162.84
 %endblock lattice_cart

 %block positions_abs
N      91.43344165      41.17246567      81.98880762
H      90.62652852      40.24649978      80.52615946
H      91.03281967      40.45625940      83.71223802
H      93.32316797      41.26128280      81.75070211
C      90.11441269      43.53840302      81.98691790
H      90.89297993      44.53806823      83.60830307
C      90.56605727      45.01994844      79.45279491
H      90.10307433      43.92012773      77.77282822
H      92.61452060      45.23159779      79.37909558
C      89.57206123      47.78083858      79.47736135
H      87.53493627      47.85642764      79.77593811
H      89.87630717      48.71247365      77.66322409
S      90.76447854      49.78961766      81.93967474
C      93.98646190      50.45669104      80.82851567
H      93.91276258      51.62076246      79.13154144
H      94.96156068      48.78806271      80.11986830
H      95.18265866      51.21258156      82.32706863
C      87.35163282      43.14722966      82.48769537
O      86.36897513      41.47104242      81.34819040
N      86.27259909      44.93491076      83.98813806
H      87.43100132      46.19535821      84.83095600
C      83.61942335      45.09553750      84.75914640
H      82.53849990      43.96737088      83.41555099
C      83.33218495      43.78595716      87.49735983
H      84.16555425      41.90378976      87.48980092
H      81.30639834      43.54029273      87.78648795
C      84.29594537      45.21836971      89.77070058
O      83.53438566      47.35753990      90.28848559
N      85.76237299      43.92768664      91.41476247
H      86.47668953      44.95191829      92.85851338
H      86.28960663      42.10410074      91.19744395
C      82.72180335      47.85075846      84.73457996
O      84.07106794      49.75749230      84.76103612
N      80.18201119      48.04540026      84.91032450
H      79.22014049      46.40133837      84.99536219
C      78.76471645      50.47558831      84.74024913
H      79.11998500      51.31651652      82.89209680
C      75.84508930      50.05039989      84.60985802
H      75.64099885      48.67278941      83.09240779
C      74.49960416      48.96380725      87.02681797
H      72.46625865      49.22081003      86.82461726
H      75.07597069      50.16378346      88.59907027
H      74.92479258      46.95313846      87.17043717
C      74.21992467      52.38043244      83.82940105
H      74.22181439      53.82040389      85.30338758
H      72.28673465      51.78894809      83.43633798
C      75.09297822      53.75804292      81.46346371
H      76.84853397      54.71613415      81.95857200
H      73.80985406      55.27549314      80.90977390
H      75.18179536      52.63743521      79.73814358
C      79.49415081      52.41255777      86.69233642
O      79.67556453      54.60653002      85.99313768
N      79.87209607      51.81540426      89.11685528
H      80.26704887      50.00693619      89.57794850
C      81.02671885      53.64276960      91.01036104
H      79.89666251      55.35675138      91.17854668
C      81.02482912      52.51082354      93.66164706
H      81.48025316      54.12276010      94.86162327
H      82.59708141      51.18045623      93.68810323
C      78.48314723      51.49037133      94.30604373
C      76.69924559      52.97569621      95.31515758
H      77.14333127      54.92022459      95.75357409
C      74.32574934      52.12720910      95.62696242
H      72.85932172      53.40655381      96.24301320
C      73.57363827      49.68946216      94.87485135
H      71.68580168      48.92223327      94.98445548
C      75.56729953      48.03784137      94.22856495
H      75.21581043      46.04606983      93.95644436
C      78.00504647      48.94302027      93.83550188
H      79.49981999      47.78272831      93.07016272
C      83.57406992      54.71613415      90.38108218
O      83.97091244      56.93467284      90.69288702
N      85.29372086      53.03994692      89.55905123
H      84.84774545      51.18612540      89.61574302
C      87.92799934      53.48781205      89.08661965
H      88.56672684      54.81062046      90.52848083
C      89.19033652      50.98581441      89.33228408
H      91.12541626      51.26549390      88.68221822
H      88.54782957      49.72914642      87.83373111
C      89.14120363      49.46269501      91.95900365
H      90.46968123      47.89044271      91.87396597
H      87.21935197      48.74459900      92.15931464
C      89.83284347      51.16344868      94.11329165
O      91.93232940      52.40877833      94.15108617
O      88.25303227      51.39966447      95.85183986
C      88.54971930      54.71235470      86.62241654
O      90.24669353      56.36586522      86.65832134
N      87.11352730      54.26071011      84.60040939
H      85.86819766      52.84341537      84.89331697
C      87.44044995      55.57218017      82.04927887
H      89.39820641      55.27360341      81.48425070
C      85.95323534      54.20212860      79.93656485
H      86.25181210      52.16311391      79.96680047
H      86.56172722      54.96368831      78.12431731
C      83.01093148      54.37031423      80.19167790
H      82.27204849      56.28838645      80.31073066
H      82.41566769      53.26860380      81.82629116
S      81.63143127      52.91333525      77.42133912
C      81.21569148      55.84430076      75.51838473
H      83.05628491      56.76837692      75.48625938
H      79.88154470      56.90065777      76.67867668
H      80.51082356      55.49848085      73.61543033
C      86.63164709      58.34062923      82.06061722
O      87.83729248      59.77682121      80.73969853
N      84.87042217      59.17210879      83.73869419
H      84.09185493      57.88520519      84.91788341
C      84.39988032      61.90276332      84.20356686
H      84.15988507      62.73613262      82.33651726
C      82.01504571      62.16165582      85.89676164
H      81.58607784      64.16665545      86.10274181
H      82.32307110      61.37552969      87.77703932
C      79.57351931      61.07695293      84.74213886
H      79.79839674      59.05683550      84.40765730
C      77.33986281      61.49647217      86.39753911
H      76.77105519      63.47123616      86.27470690
H      77.88221426      60.83128851      88.27025789
H      75.74304408      60.30972404      85.86085684
C      78.85731304      62.23724488      82.08707339
H      77.11498538      61.46056737      81.31039588
H      80.37854272      61.88008661      80.74536771
H      78.47180887      64.25925204      82.03227133
C      86.61652928      63.30871969      85.30527730
O      86.75636903      65.64820088      85.17677591
N      88.54216039      61.98591127      86.33328842
H      88.47413025      60.08484660      86.46178981
C      90.70967647      63.29549162      87.47090366
H      90.08039761      64.95089187      88.52348121
C      92.01736708      61.49836190      89.16976761
H      93.51969950      62.60385179      90.04471090
H      93.08128300      60.03949318      88.17955102
C      90.26559079      60.43255625      91.18421586
H      88.79349399      59.26470538      90.34517738
H      89.40387559      61.98591127      92.22545506
C      91.81894582      58.79794298      93.10228807
H      93.01892203      59.99791919      94.27202866
H      93.16065150      57.48647293      92.24813178
N      90.34684902      57.37308934      94.93910205
H      90.30905450      55.50415003      94.54414925
C      89.36986052      57.96079423      97.11417703
N      89.32072763      60.07539798      98.32927105
H      88.64231589      60.30405486     100.09805488
H      89.89898389      61.56072285      97.27669350
N      88.59885218      55.95579462      98.34249914
H      88.21712747      56.10319327     100.20576928
H      89.01459197      54.24937175      97.59605724
C      92.52948291      64.17232463      85.35818964
O      93.87496805      65.92221119      85.89865136
N      92.42176851      62.92699498      83.08106943
H      90.95912035      61.70245234      83.13587150
C      93.62174472      63.66209851      80.75670607
H      95.35462375      64.65609457      81.26126299
C      94.30015647      61.22246184      79.12209281
H      92.75247062      59.92044042      78.73280919
C      95.42076417      62.04827224      76.54639584
H      94.23968523      63.44478000      75.60531214
H      95.61162653      60.37586446      75.35775799
H      97.30860076      62.82872921      76.82229588
C      96.06138139      59.35163280      80.44301150
H      95.05037782      58.93022383      82.18911861
H      97.90575427      60.24358361      80.65466085
C      96.42609857      56.82884818      79.13532089
H      94.61574076      56.01815559      78.57596190
H      97.06293634      55.38887673      80.46190876
H      97.60528779      56.88742969      77.44590557
C      91.83973281      65.56883237      79.42444902
O      92.57861580      67.68910530      78.88020784
N      89.51725917      64.69577881      79.10319554
H      89.27159475      62.86463401      79.58129630
C      87.62564313      65.93354955      77.60464258
H      88.53649121      65.85040159      75.75649024
C      85.31450785      64.21956778      77.56495832
H      84.06539876      64.56727743      79.16744624
H      85.80772642      62.23535515      77.80873302
C      83.86886722      64.56160825      75.07996822
O      85.07640234      64.14775819      73.07874806
O      81.64087990      65.30805014      75.01193808
C      86.91888549      68.66042461      78.22825226
O      86.77526629      70.13819059      76.45946843
N      86.47102035      69.49757338      80.58852043
H      86.81495054      68.18799304      81.93211583
C      86.18945113      72.14319022      81.31417533
H      87.12297593      73.24679038      79.84774771
C      83.32462604      72.74979235      81.62031099
H      82.34763754      71.45155039      82.88264817
H      82.27393821      72.26035325      79.91577786
C      82.78038487      75.38596057      82.48769537
H      83.94634600      75.79225172      84.13553671
H      80.79050306      75.45399072      83.01681874
C      83.26793425      77.58749171      80.70568346
O      84.21468714      77.28513550      78.55517491
O      82.45724167      79.80225096      81.30472670
C      87.74469589      73.00112596      83.49302977
O      88.45334326      75.19887766      83.63475924
N      87.97524250      71.23234213      85.20134236
H      87.46123694      69.43521241      84.81961764
C      89.28482283      71.65942028      87.63342012
H      90.80983197      73.02569241      87.40098378
H      89.95756540      69.76591452      88.08884416
C      87.79760823      72.57026835      89.97290130
O      85.90221273      73.88740759      89.59873549
N      88.65176452      71.98067375      92.25380096
H      90.10118460      70.75046192      92.40308933
C      87.34785336      72.36806764      94.56682596
H      85.30505922      72.49845876      94.35895607
C      87.80327741      70.07771935      96.45466255
H      89.84796128      69.93410015      96.65686326
H      87.22313143      68.29003827      95.60806516
C      86.37842377      70.25157418      98.90752730
H      86.98502591      71.93721005      99.92420006
C      83.49281169      70.35739885      98.45021354
H      83.08841025      68.59806364      97.46188667
H      83.03738764      72.06571143      97.39196680
H      82.56495607      70.40842145     100.28891724
C      86.82628890      67.76658407     100.52513303
H      87.22691088      66.22078794      99.22689105
H      85.38631745      67.44722033     101.96699420
H      88.56861656      67.79870942     101.62306402
C      88.37964393      74.87195501      95.78569943
O      90.67944085      74.70187965      96.49056735
N      86.87353206      76.91474915      95.97467207
H      85.08774069      76.90719024      95.30192950
C      87.74280616      79.33737828      97.21811198
H      89.77615168      79.41107761      97.54881408
C      87.24202869      81.68252865      95.56838091
H      87.72390890      83.35493643      96.66631190
H      85.23513935      81.56158616      95.10917741
C      88.86152414      81.49544574      93.06638327
H      88.94845155      79.59060161      92.29159548
H      90.78148607      81.89417798      93.69566213
C      88.25114254      83.33225972      90.90264664
H      87.95256578      85.20308877      91.71144950
H      86.43322583      82.77101099      90.10707186
N      90.08606679      83.06202885      88.91087511
H      91.66965744      84.09381941      89.16220871
C      89.95189622      81.62016768      86.89264741
N      88.19256103      79.84949411      86.58651174
H      88.43633572      78.56448022      85.19945263
H      86.69400806      79.79658178      87.77137014
N      91.86240953      81.62016768      85.40732252
H      92.01925681      80.18586541      84.15443398
H      93.22679192      82.95620417      85.40165334
C      86.60330120      79.68886739      99.82404457
O      84.38665223      79.04069125     100.08482680
N      88.15665623      80.42964009     101.63818183
H      89.87063799      80.98332991     101.00701324
C      87.50092120      80.71876823     104.24789386
H      85.90599219      79.43375432     104.46332266
C      89.80260784      79.87972973     105.88439685
H      89.40576532      80.12917361     107.88939647
H      91.33517588      81.15340527     105.36661184
C      90.41109972      77.04514027     105.26267689
H      90.98935597      76.53491417     103.35027387
C      92.72979390      76.53869361     106.93508468
H      94.18866262      77.96165753     106.64406683
H      93.61418582      74.70754881     106.61572093
H      92.18366300      76.42908949     108.91740758
C      88.15098705      75.29903316     105.95809618
H      86.52015324      75.51824140     104.71843572
H      87.59351778      75.76768528     107.88561702
H      88.64798507      73.30159244     105.88250712
C      86.50503543      83.35493643     104.73544325
O      85.50348048      83.74610978     106.79146548
N      86.67700052      85.23710383     102.89673955
H      87.52737736      84.84782021     101.23378039
C      85.91544082      87.80524190     103.38428894
H      84.71168516      87.78445491     105.05480700
C      88.27948844      89.55134901     103.50145197
H      89.31505846      89.09970442     105.22299264
H      87.54060545      91.47509039     103.49956224
C      90.06527980      89.23198527     101.35850233
H      89.14120363      89.89527920      99.63885139
H      90.64920523      87.26666990     101.16386052
C      92.32539247      90.85526017     101.44354002
H      93.29293234      90.51888888     103.23122111
H      91.66587799      92.80545772     101.42842220
C      94.39842224      90.30723954      99.47255547
H      95.93288000      91.65083494      99.74467606
H      93.39308784      90.65116973      97.70566137
N      95.26391689      87.68429941      99.72388907
H      96.52247461      87.40273018      98.31793269
H      93.89008586      86.53723554      99.06059513
H      95.95744645      87.33658976     101.46810646
C      84.25626112      88.64428038     101.16763997
O      84.51137417      87.73343230      99.06437459
N      82.54038962      90.49243272     101.75534486
H      82.84085611      91.33903009     103.43720128
C      80.64310441      91.43351641      99.98089185
H      79.37698778      89.97086825      99.27980339
C      79.00471169      93.43662631     101.26023656
H      80.17823173      94.88415667     102.14084902
C      77.28884020      94.71030185      99.27035476
H      76.63877435      93.13238037      98.11951143
H      78.34330748      96.14460412      98.22911556
H      75.65800639      95.56067868     100.20198983
C      77.26994294      92.52010904     103.51090060
H      78.14677595      91.11982185     104.74111243
H      75.61832214      91.60737124     102.68131075
C      76.52917022      94.67817650     105.28535361
H      75.64855776      96.09736095     104.08537740
H      78.16000403      95.22619712     106.41729967
H      75.17045700      93.99409557     106.67241272
C      82.12087038      92.52577822      97.63385177
O      84.13531863      93.66339346      97.92675935
N      80.86987156      92.09681036      95.45310760
H      79.22958912      91.12171158      95.49846103
C      81.83741144      92.96041528      93.17976685
H      82.90321708      94.71597103      93.32716550
C      83.45312743      90.73242796      91.97601119
H      84.83073792      90.40550531      93.47267443
H      84.61341939      91.27288968      90.36029519
C      82.25693068      88.21720224      91.56027140
C      82.23992314      87.29312606      89.02992787
H      83.12053560      88.57058106      87.70333999
C      81.55584221      84.88372501      88.43844353
H      81.61064428      84.22987971      86.50525351
C      80.36909409      83.42107685      90.32816984
O      79.38832613      81.16096418      89.61574302
H      79.78138921      80.63562027      87.92443797
C      80.13287830      84.32436603      92.73568117
H      79.37509805      83.06391858      94.15108617
C      81.26104491      86.66384720      93.50102032
H      80.99081405      87.38383293      95.39074663
C      79.65666727      93.65394484      91.29193026
O      77.52694572      92.87348787      91.84750980
N      79.95146457      95.20918959      89.34929161
H      81.58985729      96.18617810      89.26803338
C      77.99937729      95.40194168      87.24602623
H      76.21925511      95.72886433      88.23246336
C      78.47747805      97.77165847      85.53771364
H      77.64410875      97.71874614      83.65365650
H      80.49192630      97.97952837      85.16732728
C      77.72158753     100.15082390      86.87752959
H      78.72314247     100.29633283      88.67276959
H      75.70335982     100.02421224      87.27248239
C      78.54361847     102.50920233      85.40165334
H      78.19968828     102.35613450      83.37775646
H      80.52594137     102.92494213      85.79093696
C      76.96380727     104.86758078      86.30683225
H      77.73481561     106.54943719      85.40354307
H      77.19435388     104.86947050      88.35340585
N      74.20480686     104.64459306      85.69456092
H      73.30529713     103.29154903      86.69800560
H      73.87221503     104.70506432      83.81617297
H      73.33931221     106.21306591      86.35785486
C      77.97670058      92.97553308      85.68133284
O      79.80028647      92.02689048      84.67788817
N      75.58808652      92.24042956      85.19189372
H      74.16323288      93.25332286      85.95723288
C      74.87754942      90.75510467      82.94122968
H      75.97170096      89.00899756      82.92422215
C      72.05429831      90.17873814      83.17744547
H      70.99227212      91.83413839      82.56517415
H      71.55163111      89.79890316      85.13898139
C      71.26628244      87.96019946      81.57306783
O      72.18468943      85.87772106      81.95101310
O      69.86599524      88.46286665      79.71168742
C      75.52383582      92.04767747      80.28805394
O      75.74493380      94.35881275      80.13876556
N      75.97170096      90.50188135      78.35675365
H      75.95091397      88.60648586      78.58163108
C      75.75060298      91.39950135      75.66011420
H      77.18490525      92.87537760      75.56562789
C      76.37988184      89.37560447      73.71180637
H      76.55562639      90.17117923      71.82019033
C      78.92345346      88.09625974      74.25415782
H      79.03116786      87.64083571      76.26104717
H      80.35397628      89.41528872      73.57952553
H      79.14644117      86.29157111      73.28661795
O      74.35031578      87.56524665      73.39433235
H      74.43157401      86.30479921      74.69446405
C      73.23348753      92.74498648      74.79650928
O      73.29206905      94.55534429      73.30173576
N      71.16801667      92.17806859      76.11175879
H      71.16612695      90.55668341      77.11898291
C      68.86821975      93.61615031      75.97380877
H      68.51673065      93.93929351      73.97258860
C      66.65912969      92.01555212      77.01693769
H      66.82731533      91.67162194      79.04272430
H      66.74227765      90.06346484      76.37254102
C      63.95871079      92.86214951      76.26671635
H      63.74895117      94.87470803      76.65222052
H      62.43748111      91.92484526      77.28716856
C      63.40313125      92.25554736      73.50393648
O      61.87434266      90.54534505      72.97481311
O      64.40846565      93.55945852      71.82774924
C      68.86255057      96.13704521      77.49881790
O      67.17124552      97.68851052      77.20024115
N      70.61999604      96.50932130      79.26382228
H      72.00894488      95.21296905      79.43011820
C      70.86377074      98.87903809      80.73969853
H      69.76583975     100.40971640      79.90066005
H      72.89900597      99.14171004      80.89465609
C      69.89434114      98.82423603      83.45712497
O      69.96237128     100.65538083      84.95000876
N      68.80396905      96.70396310      84.21679495
H      68.66979849      95.36603688      82.86375091
C      67.65879491      96.39971716      86.66965970
H      66.83298451      98.17605991      87.30649747
C      65.45159458      94.53833674      86.43722336
H      64.59743828      94.46841688      88.30994214
H      66.00906384      92.65238989      85.81928286
C      63.20282026      95.58335539      84.71757242
C      62.22205231      93.97141885      82.79950021
H      63.22360725      92.23853983      82.40076796
C      60.10555884      94.55345456      81.46535343
H      59.26085117      93.46875166      79.95924156
C      58.73361753      96.74553708      82.27793575
O      56.66436722      97.32379334      80.87953828
H      55.90658697      98.92817098      81.26126299
C      59.73139303      98.59368942      84.08073465
H      58.57488052     100.19239787      84.59662994
C      62.05197694      97.92283658      85.29204922
H      62.98361201      99.22674774      86.55438640
C      69.51072670      95.40383139      88.50836340
O      71.38344547      94.52132922      87.70145027
N      69.07419992      95.62303965      91.03870694
H      67.43202775      96.46963704      91.51869742
C      70.87888855      94.53077785      92.79993186
H      72.76861486      95.06934985      92.18010163
C      70.53495836      95.74587186      95.46255623
H      71.38533520      94.56101347      96.91953522
H      68.53562792      96.02933081      95.86506794
C      71.91823802      98.32345856      95.56649118
C      70.59542960     100.50798217      96.39797076
H      68.62444505     100.29066364      96.87796124
C      71.71414758     102.93439075      96.28080773
H      70.61999604     104.55577593      96.86662289
C      74.24449111     102.97974419      95.48334322
O      75.37076799     105.35513017      95.64774941
H      74.22181439     106.69683584      96.05970975
C      75.65044749     100.74608769      94.96933767
H      77.62521148     100.95773704      94.50068554
C      74.52606033      98.37448117      95.06760344
H      75.48982075      96.70207337      94.40997868
C      70.71637208      91.68107056      93.23645864
O      68.80207933      90.80612728      94.03203342
N      72.79507103      90.24298884      93.08150108
H      74.34464660      91.14060884      92.42009687
C      72.89900597      87.41406855      93.60495527
H      71.02439747      86.75266434      94.14730672
C      73.66434513      86.02511971      91.12185489
H      74.30874180      84.13161394      91.61129401
C      71.51761604      85.59993128      89.38141696
H      70.76361524      87.49154732      89.06016349
H      69.97370964      84.46609550      90.13919721
H      72.26405793      84.82514350      87.62586121
O      75.20636180      87.42918635      89.60818412
H      76.70302504      87.76555765      90.57761372
C      74.90211587      86.60904514      95.75546381
O      76.42712500      88.03389877      96.77591602
N      74.93235149      84.11082696      96.31482280
H      73.42434989      83.10360282      95.71577956
C      76.41956610      82.73888564      98.29147653
H      78.32063077      83.53068097      98.37651421
C      75.17423646      83.19808914     100.92197555
H      74.81896791      85.21631685     101.13551463
C      72.66279019      81.76567660     101.28480301
H      71.15100914      82.41574245     100.04325282
H      72.17524080      81.89984716     103.28224372
H      72.93302105      79.73988999     101.02968995
C      77.05829359      82.35149175     103.09138136
H      77.44757721      80.33326406     103.22933138
H      76.17957085      82.96943226     104.84882683
C      79.58107822      83.85193444     103.34649441
H      80.96813733      83.17541243     101.98022229
H      80.35586601      83.61571866     105.23811045
H      79.15211034      85.72276349     102.59060389
C      76.77294492      79.90240646      97.70188192
O      75.32163511      78.79313710      96.29214609
N      78.83085687      78.61928228      98.68831905
H      80.15366529      79.62839614      99.62751303
C      79.15022062      75.89240722      97.99667922
H      77.42679022      74.97400022      98.65619370
H      80.70168592      75.30092289      99.21366297
C      79.65288782      75.48800578      95.19232537
O      81.49915043      76.63317994      94.36273552
N      78.31496159      73.91764323      93.70700049
H      76.73892984      73.25245956      94.55170815
C      78.39999927      73.70977333      90.94611035
H      79.82674264      75.00612557      90.22423490
C      79.01982950      70.98667771      90.05226980
H      77.24915595      69.93787961      90.11274104
C      79.86075771      70.80337426      87.31027692
H      79.81162483      68.84939725      86.66021107
H      81.80717581      71.47800656      87.26870294
H      78.50960340      71.81626757      86.13675688
C      80.99837295      69.63930285      91.67554470
H      80.69979619      70.08149880      93.66542651
H      82.76715678      70.68432150      91.54893304
C      81.41033329      66.85951544      91.39397548
H      79.60375493      66.02614614      90.85540348
H      82.37220398      66.34550988      93.14197232
H      83.00337257      66.57794623      90.12029995
C      75.85075848      74.68487210      89.88408416
O      74.00638559      73.36584314      89.82739237
N      75.77516942      77.00734575      89.00725115
H      77.34553199      78.08071029      89.16409843
C      73.65111705      78.40196377      87.83751056
H      73.14089094      77.44009306      86.09140345
H      74.30496235      80.26712364      87.26114404
C      71.17935503      78.78746793      89.47212382
O      69.28395954      79.64351394      88.40064900
N      71.14156050      78.14685071      91.93632693
H      72.78940185      77.40040882      92.55237771
C      68.93813962      78.22055004      93.46700525
H      67.47549146      77.44387253      92.24435232
C      69.15356842      76.63129020      95.88585493
H      70.55574535      77.52513076      97.09905922
H      69.87544387      74.72455636      95.59483708
C      66.78196190      76.38373605      97.52424764
N      65.62355967      74.07449050      98.08738608
H      65.78796586      72.41531081      97.15764074
C      63.85666557      74.62629059      99.78247059
H      62.42803247      73.31859997     100.42875699
N      64.01162312      77.13773685     100.54592002
H      62.68881471      77.99567260     101.62117429
C      65.96560013      78.28669045      99.13618419
H      66.58165091      80.22177020      99.35917189
C      68.23327171      80.92285867      94.01880533
O      69.84142880      82.38172737      95.00524247
N      66.03929946      81.84693483      93.33094495
H      64.69759378      80.61105382      92.77158597
C      65.23238632      84.43585988      93.27236344
H      66.84810232      85.59993128      92.74701952
C      63.14801820      84.60026606      91.20500285
H      61.58143509      83.32470081      91.60940428
H      64.09666081      84.14484203      89.43432930
C      61.98961597      87.25911099      90.51714247
H      61.10333433      88.08303167      92.18388108
C      63.96437997      89.06002016      89.45511629
H      64.78452119      88.24554812      87.74869343
H      65.39490279      89.55890792      90.84784458
H      62.88912569      90.80045811      89.23212858
C      59.77107728      87.14950687      88.62552643
H      60.42492258      86.34259373      86.84729397
H      58.93959770      89.01466674      88.36663393
H      58.40102570      85.85882380      89.46645464
C      64.39901702      85.34481824      95.87262684
O      62.78330102      84.18263656      97.06315442
N      65.32120346      87.48020897      96.78725438
H      66.71015230      88.34192417      95.79892752
C      64.53696704      88.51199954      99.18720680
H      63.85477584      86.95486505     100.35316793
C      66.54385638      89.63827642     100.82182006
H      65.75961996      90.75888413     102.36194700
H      67.72115588      90.91762114      99.72010962
C      68.30697103      87.64083571     102.11061340
H      68.73215945      86.22543070     100.67253168
C      70.82219676      88.87104754     102.87028338
H      70.41023642      90.56991149     103.95876574
H      71.99004762      89.57780518     101.32637698
H      71.89367158      87.44052471     103.89451504
C      67.22037840      85.86827243     104.07403904
H      65.93914396      86.74888488     105.42708308
H      68.74916699      84.92907845     105.08504262
H      66.26795634      84.36971946     103.02713067
C      62.19937559      90.15606143      98.82815880
O      60.07532321      89.33403048      99.26468558
N      62.68692498      92.61459536      98.17998267
H      64.50862115      93.05868105      97.82093467
C      60.77452195      94.44762988      97.55637299
H      58.92259016      93.63693729      97.93998743
C      60.89735416      96.63593296      99.30625956