 %block lattice_cart
   139.252   0.000   0.000
   0.000 142.425   0.000
   0.000   0.000   162.84
 %endblock lattice_cart

 %block positions_abs
N      91.57895057      41.72804521      77.91928201
H      92.64853568      41.11577388      79.37437127
H      92.86963366      41.62411026      76.51710508
H      90.11063323      40.52239982      77.73030938
C      90.51314493      44.24138120      78.02699641
H      91.37108068      45.39222453      79.50476238
C      91.20856423      45.70024992      75.54011658
H      90.46779151      44.63066482      73.94707730
H      93.23246110      45.96670133      75.25476791
C      90.14464831      48.34208730      75.60436727
H      88.09051580      48.48381677      75.61570563
H      90.92888472      49.15277989      73.88093688
S      91.22557176      50.05417934      78.43895674
C      94.45700375      51.01227058      77.50921140
H      95.27147579      51.84563989      79.20807535
H      94.33039210      52.27460776      75.88971595
H      95.51336076      49.32663471      76.97063940
C      87.68611437      43.92579691      78.87737325
O      86.37653403      42.09087266      78.24242521
N      86.74692039      45.72103691      80.37403649
H      87.69367327      47.34242208      80.70851804
C      84.18067206      45.65300676      81.24142086
H      82.86164310      44.52861960      80.12837207
C      84.13342890      44.23949148      83.78499248
H      85.19167565      42.47259737      83.81333838
H      82.19645944      43.93713527      84.41805080
C      85.18222700      45.79095678      85.89770650
O      83.96713299      47.48793101      86.92004844
N      87.59162806      45.31474575      86.71973745
H      88.14153841      46.25582945      88.28443083
H      88.59129327      44.04862912      85.70117496
C      83.18100684      48.44224280      81.65905038
O      84.63798583      50.22803416      81.40393733
N      80.68845784      48.79562162      81.93117097
H      79.46958437      47.36131934      82.24675526
C      79.35431106      51.23525829      81.74597779
H      80.01571527      51.80217618      79.88081792
C      76.48570652      50.87243083      81.53810790
H      76.16256331      49.76505121      79.83168504
C      75.25171524      49.62899092      83.95884730
H      75.48604130      51.05762401      85.42338520
H      76.16256331      47.89233244      84.59190562
H      73.22970808      49.44190802      83.62247602
C      74.88321860      53.22702982      81.17150099
H      74.79440146      54.30417382      82.92705674
H      72.90278542      52.72814207      80.90693931
C      75.69202146      54.74259032      78.93595476
H      77.30017856      55.93311790      79.42161443
H      74.06496712      55.75359390      78.17817451
H      76.30807225      53.62765180      77.31645931
C      80.25193106      53.17600721      83.80011029
O      80.13098858      55.44556851      83.31067118
N      81.03238802      52.39743997      86.09612776
H      81.05884420      50.49637530      86.24541614
C      82.26259985      54.01315597      88.03120751
H      81.04372638      55.64210005      88.36001989
C      82.51015401      52.67334001      90.52753597
H      83.13754313      54.14354708      91.82766767
H      84.07106794      51.32974460      90.46517500
C      80.23681325      51.43367955      91.63680531
C      78.03906154      52.84530511      92.23017937
H      77.85764782      54.85219445      91.91270535
C      76.02272357      51.60375492      93.40558914
H      74.35787468      52.57318452      94.08211116
C      76.20980647      48.96380726      94.06510362
H      74.83408571      48.10209206      95.30098463
C      78.39055064      47.55785088      93.36968434
H      78.69101713      45.66434512      94.06510362
C      80.38799135      48.91089492      92.30765815
H      82.22480533      48.04351054      92.11679580
C      84.87609134      55.14888148      87.32067041
O      85.20868318      57.47324485      87.08445462
N      86.52393269      53.41222300      86.57800797
H      85.77560107      51.68312342      86.27187231
C      89.13175501      53.90355184      85.75030785
H      89.82717428      55.38887672      87.00130667
C      90.64353605      51.46580490      86.46840385
H      92.58617470      52.07618650      86.15470928
H      89.98780102      49.82363273      85.41393656
C      90.34873874      50.76093698      89.17827138
H      91.74146705      49.30206827      89.59212144
H      88.47790969      49.95402385      89.49385567
C      91.08006284      52.85853319      91.07366687
O      90.10685378      52.86798182      93.22039596
O      92.90175899      54.33818889      90.44060856
C      89.43411122      55.05817462      83.03099168
O      91.13675462      56.65499335      82.81178343
N      87.64454040      54.64243483      81.30189211
H      86.29527580      53.36309011      81.73085998
C      86.89620877      56.18634123      79.16083219
H      88.47035080      56.36397550      77.84558268
C      84.67200091      55.19612464      77.64905114
H      83.28494179      54.62164784      79.05878697
H      85.13120439      53.46324561      76.63237839
C      83.60997471      56.95357011      75.51555014
H      84.88742970      57.06884341      73.90361359
H      83.30572878      58.83195806      76.30167628
S      80.35397628      56.09374464      74.10959376
C      80.78672360      57.66032775      71.16540016
H      78.91589455      57.96457369      70.36037675
H      81.65221826      56.39610085      69.78967941
H      82.03961215      59.28360265      71.36382143
C      86.38409294      59.06250467      79.99231177
O      87.81650550      60.59885217      79.15516302
N      84.59641185      59.71068080      81.57779215
H      83.81973433      58.32740114      82.63792861
C      83.72902747      62.32039284      82.10124634
H      83.39832537      63.30305052      80.32112415
C      81.24025792      61.89898387      83.47507737
H      81.16466886      63.09896008      85.14748515
H      81.13443324      60.05839044      84.39159463
C      78.80062125      62.56605726      81.82912575
H      79.14833089      61.76481330      79.96396588
C      76.47058870      61.16765979      82.94406427
H      76.52917023      59.11163756      82.85902659
H      74.86054189      61.74780577      81.79700040
H      76.12287907      61.73835713      84.89237210
C      78.29417459      65.41198509      81.64771202
H      79.93445704      66.28314892      80.75576120
H      77.86898618      66.18110370      83.51287189
H      76.57830311      65.57828100      80.52143514
C      85.45056815      63.97768281      83.69995480
O      85.44867841      66.23590576      83.23508212
N      86.97179782      62.62652850      85.36669341
H      86.63542655      60.78026589      85.71440305
C      89.22813104      63.68099578      86.44572713
H      88.79160426      65.46678715      87.37736220
C      90.22968599      61.79882838      88.57166923
H      91.27848409      60.37964392      87.50964304
H      88.69144877      60.91443646      89.61857761
C      92.07027942      63.06683473      90.38769622
H      91.10084982      64.08161776      91.89380809
H      93.08884190      64.58428496      89.43338443
C      94.15275782      61.49647217      91.59523133
H      95.29604223      62.72290454      92.79331782
H      95.41320526      60.91065701      90.07589138
N      93.07750354      59.17399853      92.87457605
H      93.09829053      57.49403184      91.96750742
C      92.17043491      59.06817385      95.30665381
N      92.30649521      60.98057688      96.94126707
H      91.43533138      60.78404535      98.62879267
H      93.25891727      62.53771136      96.38379781
N      91.18966696      57.04805643      96.28931150
H      90.92321555      56.87231188      98.17147890
H      90.79471416      55.54383428      95.18193188
C      91.29360191      64.15153764      84.42938915
O      92.37452536      66.19055233      84.71473783
N      91.92854994      62.76258880      82.40927173
H      90.77014772      61.28860227      82.04833400
C      93.45355908      63.66776770      80.33624196
H      95.28659361      64.31027465      81.02221261
C      94.25102358      61.41899339      78.57879649
H      92.56160826      60.46279187      77.89093611
C      95.71934093      62.56416753      76.16183654
H      97.37663090      63.67532660      76.66828319
H      94.48912910      63.94366774      75.25098845
H      96.25035403      60.87664194      75.10925898
C      95.96500535      59.60674585      80.14726933
H      95.21478400      59.14943209      82.01053947
H      97.66953849      60.65554396      80.63103927
C      96.61885065      57.15010165      78.66383417
H      97.46544804      55.84241104      80.01120903
H      97.59394943      57.37497908      76.86292500
H      94.81605175      56.22224603      78.30100672
C      92.06461024      65.78615090      78.93217531
O      93.10584944      67.78926079      78.28399918
N      89.65331946      65.41009536      78.36903687
H      89.08262211      63.67343688      78.91705750
C      88.43066655      67.09573123      76.42828795
H      89.68355508      67.46233814      74.83524866
C      86.03638330      65.75213582      75.41728437
H      84.54538924      66.11307355      76.79111540
H      86.34629842      63.71879031      75.30768024
C      84.94790094      66.53448252      72.85859494
O      82.64243484      66.23401603      72.59025380
O      86.57117584      67.10706959      71.19752551
C      87.69934245      69.74323780      77.45062988
O      86.94912111      71.32493872      75.95396664
N      87.37619925      70.17220567      79.86003093
H      87.50470064      68.71711641      81.08646331
C      86.88676014      72.71955674      80.76898929
H      87.72201917      73.94976857      79.34224592
C      83.93122819      73.08238419      81.04866878
H      83.17533767      71.94476895      82.58879573
H      83.06573353      72.23956626      79.37815072
C      83.27927261      75.94531956      81.47763665
H      84.32807071      76.63506966      83.11224991
H      81.33852368      75.95665791      82.17305594
C      83.45312743      77.63851433      79.21563426
O      82.51960263      77.03191219      77.05756681
O      84.70790571      79.68886738      79.49153430
C      88.52326314      73.48300617      83.10469101
O      88.92766456      75.72044212      83.42972394
N      89.56639205      71.72367097      84.58434671
H      89.08073239      69.94732824      84.09112814
C      91.24635874      72.06382171      86.89359227
H      92.89986927      73.16742188      86.35124082
H      91.68855471      70.21755910      87.69294650
C      89.93677841      73.25056983      89.18394056
O      87.70501164      73.97055556      88.91937887
N      91.18588750      73.51702124      91.34956691
H      92.94900215      72.83294032      91.09634359
C      90.13142022      74.29936794      93.75707824
H      88.08673635      74.17842545      93.53409053
C      91.04226830      72.38129573      95.59956139
H      93.05671656      72.50412794      96.00963200
H      90.90242856      70.57471737      94.61690371
C      89.46812628      72.25846352      98.11856657
H      87.43289104      72.47767177      97.89557886
C      90.24669352      69.94165906      99.68514968
H      90.62652851      68.21255948      98.63068240
H      88.74058165      69.45977885     101.00228892
H      91.90020405      70.26291253     100.87000808
C      90.32228258      74.40141316      99.87412231
H      90.13330995      73.93654048     101.87156302
H      89.15443171      76.06815177      99.55664829
H      92.24035478      75.11950916      99.63412707
C      90.87786211      77.14340604      94.25407626
O      92.91876654      77.87284039      93.98762485
N      89.02404060      78.69676107      95.13657844
H      87.28549240      77.95598835      95.40114013
C      89.26025639      81.25734022      95.96805802
H      91.21612312      81.74111016      96.39513617
C      88.03760346      82.79935689      93.86290291
H      87.22502116      84.48310304      94.72461811
H      86.54471968      81.86016291      92.79898700
C      90.04260308      83.86894199      91.97695605
H      91.24068956      82.27968216      91.43838405
H      91.27659436      85.18608123      92.96528291
C      88.87853168      85.11427163      89.56944473
H      90.35440793      86.06858341      88.49230073
H      87.39698624      86.37282935      90.24974620
N      87.82595412      83.20186860      88.03876641
H      87.51036982      81.49166628      88.82489256
C      87.17021909      83.19997887      85.62558591
N      87.42344241      85.20686822      84.27443160
H      87.32517664      85.37127440      82.37525665
H      88.00925757      86.70164173      85.30811189
N      86.63731627      80.96821210      84.63347960
H      86.05717029      80.87750523      82.81934234
H      86.73747176      79.31848102      85.58401193
C      88.07539800      81.85260401      98.48895292
O      85.82851340      81.80158140      98.89146463
N      89.64387084      82.36283011     100.27474429
H      91.53359714      82.47621369     100.02907987
C      88.71979466      82.63495070     103.03185498
H      87.50659038      81.02490388     103.45515367
C      91.17265943      82.84093087     104.82898470
H      90.36763601      82.99021925     106.72060074
H      92.21011916      84.61349415     104.65701961
C      92.98490695      80.60916410     104.93480938
H      94.48912910      80.98899908     106.28974314
C      91.77737185      78.27913155     105.87211363
H      93.14553369      76.75412242     106.07620407
H      90.22401681      77.75756709     104.62111481
H      91.07628338      78.44164801     107.80152419
C      94.40976059      79.89673728     102.49517271
H      95.98012316      78.77235012     103.21137898
H      95.05415726      81.42930532     101.27818896
H      93.17387958      78.65518709     101.41046980
C      87.17210882      84.96120379     103.45137422
O      85.48269350      84.72687773     104.94236828
N      87.61052532      87.13060960     102.25895692
H      88.88420085      87.07580754     100.83788273
C      86.22724566      89.50032640     102.49328298
H      85.13498386      89.18474210     104.21104420
C      88.12831033      91.70563701     103.09799540
H      89.43789066      91.78311578     101.51062530
H      89.26403584      91.26911023     104.76095456
C      86.70723614      94.34747439     103.49672765
H      85.45434760      94.13393532     105.11622310
H      85.26915442      94.72730938     102.07187401
C      88.42499736      96.44129115     104.22427228
H      87.37430953      98.13070647     104.75150592
H      89.67410645      96.84758230     102.63501245
C      90.20889901      96.01232327     106.50328222
H      92.03626435      95.19029233     106.02707119
H      89.45300847      94.47408605     107.64656664
N      90.77203744      98.38204007     107.94703312
H      91.38430876      99.77854781     106.79996925
H      92.29704657      97.92094685     108.99583122
H      89.36608107      99.14171005     108.99205177
C      84.26193029      90.04267785     100.54119570
O      84.58507349      89.22631608      98.40391524
N      81.98669982      91.03478416     101.12323140
H      81.80906554      91.57146644     102.94681730
C      80.06484815      91.79823359      99.23728454
H      79.30139872      90.00299360      98.58154951
C      77.96914168      93.40450096     100.56009296
H      78.68345822      95.07312930     101.53708147
C      76.10776125      94.47219633      98.62879267
H      74.76605557      95.53989169      99.77018736
H      75.09108850      92.96797418      97.65369389
H      77.26805321      95.74209241      97.49684661
C      76.51783187      91.76421852     102.44981928
H      78.01449510      91.06313006     103.67814138
H      75.78650778      90.22031212     101.30086568
C      74.64700282      92.90561321     104.26962571
H      75.45013649      94.70841212     104.86111005
H      74.29173427      91.51099520     105.74361224
H      72.87821898      93.35347835     103.31531393
C      81.22891956      93.13238037      96.91859036
O      82.69723690      94.95974572      97.20771848
N      80.45980095      92.34625423      94.64147015
H      79.40722339      90.75699440      94.55076329
C      81.44812781      93.35158862      92.24718691
H      82.26826904      95.21107932      92.58166847
C      83.44367880      91.59414315      91.31366211
H      85.08963042      91.56390753      92.55332257
H      84.16933370      92.52199877      89.62424679
C      82.73314171      88.84648109      90.65414763
C      82.32307109      88.32302691      88.06900203
H      82.47991838      89.84614631      86.71973745
C      81.54450385      85.84937516      87.30555260
H      81.24025792      85.32781070      85.35724477
C      81.17789695      83.95586940      89.12535904
O      80.51082356      81.53512999      88.28065138
H      80.36342491      81.38584161      86.47974220
C      81.64654907      84.49255167      91.64625394
H      81.15144079      82.89951239      92.81788426
C      82.68778828      86.93029861      92.43049036
H      83.27171370      87.38194320      94.33344476
C      79.27683228      93.54056126      90.27620237
O      77.18490525      92.59380837      90.88847369
N      79.68501316      94.59124909      88.01608970
H      81.34230314      95.46997182      87.65137252
C      77.74237451      94.60447717      85.93361130
H      75.92256807      94.10936888      86.76320115
C      77.53261489      97.29733717      84.72985564
H      76.35153594      97.12726180      83.04988895
H      79.48470217      97.76032011      84.25931379
C      76.51405241      99.42138954      86.44950658
H      77.86142727     100.08090402      87.86302187
H      74.68479734      98.78644150      87.15059505
C      75.83753039     101.71740701      84.77142962
H      74.67912816     101.15993775      83.16327253
H      77.52883544     102.59424002      83.98719320
C      74.33141853     103.61847168      86.46084494
H      75.25360496     103.96996078      88.26931302
H      72.58531140     102.83234554      87.22051492
N      73.90434038     106.04110082      85.13047762
H      72.95002858     107.16926742      86.33612300
H      72.95758749     105.74819324      83.49964381
H      75.39911388     107.20706195      84.90560019
C      78.40944791      92.64294126      84.03632608
O      80.55428726      92.49554260      83.34657598
N      76.49326543      91.32391229      82.96296154
H      74.75093777      91.48831848      83.72074179
C      76.56129556      89.81402097      80.58946529
H      78.29795405      88.73687697      80.82379135
C      74.27661645      87.99232480      80.69717969
H      72.42846413      88.89939343      80.79166600
H      74.38622058      86.90006299      82.43950735
C      74.06118765      86.09503958      78.50887662
O      75.35376045      84.06925297      78.57690676
O      72.57775251      86.50699992      76.68340100
C      76.72003258      91.55823835      78.25187384
O      76.17390167      93.80134349      78.28588891
N      77.07719085      90.55479368      75.96530500
H      77.31718609      88.66506737      75.86137005
C      76.90522576      92.22153229      73.63905191
H      78.16945266      93.83346883      73.85448071
C      78.02961292      90.98943073      71.29390155
H      77.64221903      92.46908644      69.91062189
C      80.81129004      90.51132998      71.50366117
H      81.91866966      92.24420900      71.35248307
H      81.44812781      89.06946880      70.17707330
H      81.36120041      89.70252711      73.31779843
O      76.68790723      88.57813996      70.77800627
H      77.18112580      87.91295630      69.16606972
C      74.21803494      93.28733793      73.19874568
O      73.96103217      95.36792660      72.18774210
N      72.19980724      92.01744185      74.15683692
H      72.54562716      90.31668817      74.95052197
C      69.63355891      92.93206938      74.38927325
H      69.23860611      94.13393532      72.76221890
C      67.81375246      90.68896425      74.57824589
H      65.99394602      91.59225343      74.91650690
H      68.05374770      89.63638669      76.33380163
C      67.55674968      89.26600034      72.15372703
H      66.52306939      87.49910623      72.39183254
H      69.43135820      88.80679684      71.42996185
C      66.25661798      90.97620265      70.22431646
O      67.37155651      92.77900155      69.20953343
O      64.07398409      90.46030737      69.61960404
C      69.23104720      94.92762037      76.60781195
O      67.11833318      95.62303965      77.23331135
N      71.19069339      95.74776159      78.01376832
H      72.84042446      94.85770050      77.64905114
C      71.05652283      97.67339270      79.98286314
H      70.26094804      99.37414638      79.13626575
H      72.94813885      98.10991948      80.66505434
C      69.61466164      96.74553708      82.31478541
O      69.59576438      98.10047085      84.16671720
N      68.49027448      94.46085797      82.27888061
H      68.30886076      93.53678180      80.61970091
C      67.56808804      93.39316260      84.55978027
H      66.10543988      94.62904361      85.31945025
C      66.50417214      90.76455330      83.96262676
H      65.44781512      90.12960526      85.61235783
H      68.12933677      89.57591545      83.53176916
C      64.67113760      90.49243271      81.71952162
C      64.64279171      88.27956320      80.28710908
H      65.98071794      86.79990750      80.72363585
C      63.03085516      87.96208918      78.28966836
H      63.07620860      86.34448346      77.04622845
C      61.40002136      89.88205111      77.59424908
O      59.87312249      89.50410585      75.52688849
H      58.67881547      90.82313482      75.17917885
C      61.42836725      92.19696585      78.99642600
H      60.15280199      93.70496744      78.47675127
C      62.97227365      92.50877069      81.03922015
H      63.01384763      94.25109835      82.10313606
C      69.61088219      93.07946804      86.64792785
O      71.77272909      92.48042479      86.00542090
N      69.07042046      93.50654618      89.07811588
H      67.22037840      93.69362909      89.50708376
C      70.82786594      93.07946804      91.24752169
H      72.74782787      93.66150374      90.78264902
C      70.24016105      94.68384567      93.46417066
H      70.96770568      93.86748391      95.21216750
H      68.31075048      94.82557515      94.17470775
C      71.14156051      97.45040500      93.17882198
C      69.47671163      99.49886832      92.72150822
H      67.44903528      99.27966007      92.65158834
C      70.50661246     101.95551253      92.43804927
H      69.18191432     103.50508810      92.34734241
C      73.10498614     102.40148794      93.14102746
O      74.21236576     104.73529993      93.37346379
H      73.16356766     106.18849947      93.08811512
C      74.70936378     100.29444310      93.31488228
H      76.70302505     100.52121026      93.68715836
C      73.82497186      97.78866601      93.23740350
H      74.95880765      96.09736096      93.34511790
C      70.94691869      90.35448269      91.91081563
O      68.95136770      89.21875718      92.01475058
N      73.26183342      89.39261200      92.47962325
H      74.71503297      90.63227246      92.45127735
C      73.89867119      86.72998762      92.45883626
H      72.21114560      85.66796144      92.97851099
C      74.97581519      86.03834779      89.83778586
H      76.95057919      86.58636842      89.62802624
C      74.92479259      83.16974325      89.21795563
H      76.00571604      82.12661433      90.62580174
H      75.77894887      82.85226923      87.36980330
H      72.97081557      82.51778767      89.28220633
O      73.37899645      87.13816851      87.96317736
H      73.54151293      88.92018042      88.26742330
C      75.86020711      86.15929028      94.51485849
O      77.07341141      87.99988371      95.21783668
N      76.02839274      83.80280156      95.37468396
H      75.01738918      82.35149176      94.65469823
C      77.94646495      83.04313159      97.33999933
H      79.67934399      84.00122283      96.76930198
C      77.02994770      83.68752826      99.99128534
H      76.15878387      85.52623196      99.66625242
C      75.08163986      81.69197727     101.05520126
H      73.66434513      81.31214228      99.60767090
H      74.08575409      82.55369247     102.64068163
H      75.84508930      79.83248658     101.50306639
C      79.37509805      84.17696737     101.65046505
H      80.34830711      85.78890392     100.81520601
H      80.45980095      82.49133150     102.12856580
C      78.50204450      84.96498325     104.27718462
H      76.99971207      86.36716017     104.08632226
H      80.17445229      85.96464847     104.94236828
H      77.83686083      83.49477618     105.55652933
C      78.58330272      80.18586540      97.08299655
O      77.04695523      78.85927753      95.96049912
N      80.74703935      79.38084199      97.83510762
H      81.88843404      80.74522439      98.52296800
C      81.79583745      76.73711488      97.71983431
H      80.33318929      75.51068250      98.48706320
H      83.32651577      76.67664364      99.09933452
C      82.57440469      75.81303871      95.14980653
O      83.76115282      77.25867934      93.79676249
N      81.78827856      73.52269042      94.46761533
H      80.61097906      72.67987249      95.71105524
C      81.85819842      72.60995261      91.75774780
H      83.23013972      73.78158293      90.76375176
C      82.65944239      69.77158369      91.41003816
H      80.96624761      68.66798352      91.80688068
C      83.23958837      69.24812950      88.59623567
H      81.35175177      68.98923700      87.80821980
H      84.21468713      67.46233814      88.28065138
H      84.24492276      70.83738933      87.75341774
C      84.86664271      69.13663565      93.28653638
H      84.15799534      69.25379868      95.21594695
H      86.44456418      70.41787009      92.93315756
C      86.00425795      66.50613662      93.06921786
H      84.48113854      65.14175422      92.83300207
H      86.96801837      66.21133932      94.86634758
H      87.24769786      66.24913384      91.44783268
C      79.42612066      73.12584790      90.39525512
O      77.77261014      71.53469834      90.14014207
N      79.05573430      75.45021126      89.58834199
H      80.49192630      76.69365118      89.76597626
C      76.68601750      76.20988124      88.21640069
H      76.39877910      75.04392010      86.54588263
H      76.83530588      78.21677058      87.77609446
C      74.15000480      76.12295383      89.38614127
O      72.26972711      75.51635168      88.25797466
N      73.92134791      76.62751075      91.82766767
H      75.38399607      77.03569164      92.98418017
C      71.35509957      76.63506966      92.98606990
H      70.14000555      75.16486259      92.19994375
C      71.59131536      76.03035724      95.85845390
H      72.84420392      77.29080469      96.89591364
H      72.36988260      74.12551312      95.96616830
C      69.01561840      75.98500381      97.17559314
N      67.55297024      73.81748773      97.27763836
H      68.01028400      72.19988200      96.37434918
C      65.19270207      74.37684672      98.05620560
H      63.62611895      73.12395817      98.43793031
N      65.29852675      76.81270393      98.82532421
H      63.98516695      77.91252465      99.66436269
C      67.65879490      77.81614861      98.10344876
H      68.24838951      79.76445643      97.92959393
C      70.43669259      79.39407008      92.68560342
O      71.48549069      81.07970595      93.82888784
N      68.74916699      79.69075711      90.90737096
H      68.03296072      78.04858494      90.24974620
C      67.42446884      82.09448898      90.49352089
H      68.72838000      83.61949811      90.02486877
C      65.59143432      81.47276902      88.33167399
H      64.13823478      80.30302843      89.20283782
H      66.61566598      80.25578528      87.02209366
C      64.14390396      83.45131247      86.89359227
H      65.35899799      84.45475714      85.57267357
C      62.25039820      82.13606296      85.15882351
H      60.71216098      81.42930532      86.33423328
H      62.88534624      80.63750999      83.90026579
H      61.47561041      83.57981386      83.91349387
C      62.76818321      85.28434699      88.51308772
H      61.33199121      86.55046362      87.74585883
H      64.04752792      86.49566156      89.57889336
H      61.65513441      84.18452628      89.85101395
C      66.08087344      82.85226923      92.98418017
O      64.69381432      81.26489913      93.95172005
N      66.42480362      85.14828670      93.84211592
H      67.45470446      86.37660880      92.80843563
C      65.43080758      86.14984165      96.22317107
H      64.96593491      84.46987495      97.32299179
C      67.47360173      87.55012884      97.86156379
H      66.54763583      89.10915305      98.84044202
H      68.55263546      88.78412013      96.61434442
C      69.27073146      85.94953066      99.56609692
H      70.03040143      84.38861672      98.45871730
C      71.31541533      87.80335217     100.41458404
H      70.50472274      89.59292299     101.03063481
H      72.43035384      88.14539263      98.71760981
H      72.50405317      86.97376232     101.87723220
C      67.70225861      85.06513874     101.89801919
H      68.76806425      83.78201458     103.10933376
H      66.16591112      83.80847074     101.35755747
H      66.93314000      86.65061912     102.96571456
C      63.03652434      87.59170282      95.62223811
O      61.12979049      87.17407331      96.86567802
N      63.16691546      89.56079764      93.94038169
H      64.85444107      89.90094838      93.11457129
C      61.01262746      91.14816774      93.23173432
H      59.43281626      89.88583057      92.83489180
C      60.36067188      93.09458585      95.25185175