 %block lattice_cart
   139.252   0.000   0.000
   0.000 142.425   0.000
   0.000   0.000   162.84
 %endblock lattice_cart

 %block positions_abs
N      91.46462213      41.37655611      84.01270450
H      90.87313780      41.29340815      85.82495203
H      93.35623817      41.17435540      83.84451886
H      90.38558842      40.25027923      82.90910433
C      90.83156382      43.99382706      83.07540026
H      91.44950432      45.55096154      84.27537646
C      91.89736946      44.51728124      80.46568822
H      91.60068244      42.79952003      79.36586751
H      93.94394306      44.55885522      80.69812455
C      90.83534327      46.78306309      79.06351130
H      88.87569709      46.52983977      78.48147558
H      91.60068244      46.75282747      77.15299799
S      91.42493788      49.76127176      80.92300199
C      90.70684188      52.14232692      78.46635778
H      88.80388749      51.50926860      77.99203647
H      91.82744959      51.75871248      76.78072191
H      90.78432066      54.05850940      79.21657913
C      87.91004695      44.30374217      83.06406190
O      86.60802552      42.50283299      82.10030148
N      86.88014610      46.43724318      84.23002303
H      88.09901957      47.86209682      84.58529158
C      84.06067444      46.55818566      84.84607381
H      82.98730990      45.32419438      83.59696472
C      83.72997234      45.40356288      87.56538997
H      84.89971292      43.74816263      87.93010716
H      81.72497272      45.15033956      87.96790168
C      84.92427937      47.10809602      89.51558753
O      84.85246978      49.35687033      89.23212858
N      86.03921790      46.00449585      91.43365973
H      86.82156459      47.08730903      92.79804214
H      85.61025002      44.18468941      91.80782554
C      82.98542018      49.14711071      84.29049427
O      84.25531625      50.99715277      83.69712022
N      80.58168831      49.30773745      84.59851966
H      79.91839437      47.65233720      85.27882113
C      79.14360658      51.70957959      84.55127651
H      79.40249908      52.69790645      82.76548514
C      76.27311231      51.07841100      85.00481082
H      75.67028962      49.71780806      83.58373664
C      75.89516704      50.04284098      87.76003178
H      76.56979935      51.28250144      89.25669502
H      76.68885209      48.14366604      87.87908455
H      73.86938044      49.74237450      87.98490921
C      74.63282986      53.42545108      84.54371760
H      75.11848954      54.87865062      85.92132808
H      72.69775012      52.79806195      84.86686080
C      74.62527096      54.61219921      81.90376993
H      73.72954069      56.45279264      82.11919873
H      73.79757083      53.22514009      80.62442523
H      76.52444590      55.03549790      81.22724791
C      80.15838960      53.85252923      86.18966922
O      80.55901159      56.02949394      85.33551292
N      80.92939795      53.36120039      88.56316546
H      80.74231503      51.62643163      89.33984298
C      81.90071726      55.25470615      90.32816984
H      80.67617462      56.91010640      90.43966370
C      82.18417622      54.00748679      93.00780176
H      82.78699891      55.40966371      94.38919168
H      83.72052371      52.66389138      92.72812226
C      79.79367243      52.69601673      93.90353203
C      77.66395088      53.97158199      94.79548285
H      77.59781046      56.00870695      94.91453560
C      75.64194373      52.71113454      95.84239123
H      74.15283938      53.64465934      96.88363043
C      75.42651492      50.07118688      95.53625557
H      73.73709959      49.18679496      96.26191046
C      77.45608098      48.71814284      94.38352252
H      77.22742410      46.79629118      93.72589776
C      79.71241420      50.08441496      93.70889021
H      81.25254115      49.05073467      92.86229282
C      84.43861971      56.43389537      89.44755739
O      84.76176291      58.77337655      89.50424918
N      86.08268161      54.80684102      88.46867915
H      85.42316711      53.03049828      88.24569145
C      88.57523061      55.29250068      87.52570572
H      89.58812392      56.51326388      88.84284497
C      90.03409932      52.78483386      87.25358514
H      91.52887283      52.99081403      85.84951849
H      88.88703545      51.32218570      86.36919321
C      91.29643649      51.93634675      89.78203894
H      92.91026276      50.72125273      89.38708614
H      89.96417944      50.77605479      90.84406512
C      92.03531949      53.93189774      91.69822142
O      91.22840636      53.67300523      93.87518614
O      93.40537106      55.69501239      91.03681722
C      88.63570184      56.71168514      85.03315671
O      90.20606441      58.39921074      84.72135188
N      86.77621115      56.22413575      83.43066881
H      85.52332262      54.93534241      84.06561684
C      86.27354396      57.40143525      80.91733281
H      88.00453326      57.29750030      79.80995319
C      84.12114568      55.84619049      79.58885520
H      82.34102351      56.02004531      80.61497660
H      84.47263478      53.81473470      79.57751684
C      83.82634838      56.66255226      76.88276712
H      85.26254038      55.66288704      75.79428476
H      83.98319567      58.70345668      76.65222052
S      80.71396914      55.67422540      75.77160806
C      81.37348363      55.86130830      72.50616099
H      83.10825238      54.88998898      71.97136843
H      81.35458636      57.84930038      71.96758898
H      79.76154708      55.07896161      71.49137795
C      85.61213975      60.19256101      81.21213010
O      86.62503305      61.80260783      80.06695597
N      83.97563676      60.65554396      83.06406190
H      83.39360106      59.03982796      83.89932093
C      82.93439757      63.12730597      83.84073942
H      82.49220160      64.49546782      82.36486315
C      80.39082594      62.69266892      85.22968826
H      79.84847450      64.40476096      86.23691238
H      80.62515200      61.03159949      86.42588500
C      78.25921467      62.03882362      83.35130029
H      78.94896476      60.46090215      82.22313368
C      75.93485129      61.03348922      84.65143199
H      76.51688701      59.33084581      85.65298695
H      74.64416822      60.72546383      83.07351052
H      75.02211349      62.44889423      85.83818013
C      77.55623647      64.26870067      81.59574456
H      75.81390881      63.91532185      80.56017453
H      79.20596754      64.54271098      80.39198888
H      77.48253715      66.03370504      82.65777073
C      84.70696084      64.75058088      85.47535268
O      84.91105128      67.06549561      85.27126222
N      86.19795490      63.48824370      87.14020156
H      85.82189937      61.69111398      87.65798656
C      88.66026830      64.46523220      88.05671882
H      88.05366614      66.01291805      89.27559228
C      90.06055549      62.56605726      89.61196358
H      91.54965982      61.55694341      88.61418807
H      88.68294500      61.12419608      90.13352804
C      91.27753924      63.86429924      91.89286323
H      89.69394858      64.47279111      93.05882436
H      92.41704420      65.48946387      91.33539397
C      92.82333536      61.88197633      93.32338605
H      93.80599305      62.60385179      94.98445548
H      94.20850474      61.25647692      91.93254748
N      91.44194543      59.75036505      94.20588824
H      91.73863245      58.00992712      93.48023334
C      89.43316635      59.62753284      95.80081724
N      88.72262925      61.56828177      97.09905922
H      87.50753524      61.35285297      98.55225875
H      89.68827941      63.21612311      97.03291881
N      88.43917031      57.40143525      96.41686803
H      87.40171057      57.35986127      98.01746622
H      89.24419373      55.82162405      95.71200010
C      90.45739801      65.43466180      86.00447604
O      91.89359002      67.19588673      86.58273229
N      90.62747339      64.16287599      83.83129078
H      89.64103625      62.56038808      83.51192704
C      92.14870307      65.13797477      81.55983976
H      93.95906088      65.94677763      82.11919873
C      92.86679907      62.89486964      79.67956206
H      91.29832623      61.57206122      79.49247916
C      93.49607793      64.04571296      77.02260688
H      91.73485300      64.08917667      75.95680124
H      94.61101645      62.76258880      75.85853546
H      94.47117671      65.85796050      77.12654183
C      95.19872133      61.37741941      80.77560333
H      94.90959320      60.95978989      82.77115431
H      96.77853254      62.69266892      80.66221975
C      95.67115291      58.91321630      79.24114557
H      95.85445637      59.44233966      77.26071239
H      94.11023897      57.56962089      79.33752161
H      97.32277372      57.75670379      79.66255453
C      90.84290218      67.30927031      80.27482585
O      91.96917906      69.33505691      79.99514637
N      88.42216278      67.03714972      79.45657436
H      87.73430239      65.28159397      79.15610789
C      86.88392555      68.92876576      78.19990637
H      87.84201680      69.64686175      76.52749858
C      84.55389301      67.60406761      77.06985004
H      83.22352568      69.16687127      76.89977466
H      83.52021272      66.30771536      78.28872351
C      84.96963281      66.26236193      74.47336608
O      86.86313856      66.98234765      73.20724945
O      83.30478393      64.85829528      73.56629745
C      86.11669667      71.25690857      79.57940658
O      86.02410008      73.10884036      78.23770089
N      85.54599932      71.43832230      82.09652203
H      85.46096164      69.94165906      83.27949069
C      85.00364787      73.81937745      83.51381675
H      84.90727183      75.42375509      82.22502342
C      82.57723928      73.57182331      85.11630468
H      82.31078787      75.19887766      86.35029596
H      82.72652766      71.94854840      86.37675212
C      80.06579301      73.17120133      83.75948117
H      78.48031264      72.72522592      84.99725191
H      80.27933210      71.76713468      82.26848711
C      79.22486481      75.58060238      82.36108370
O      77.04601038      75.55981539      81.33874177
O      80.59869585      77.55347665      82.08707340
C      87.15604615      74.50723783      85.33362320
O      87.81178117      76.72199707      85.65298695
N      88.22563124      72.58160672      86.56950420
H      87.81745036      70.76180028      86.17266169
C      90.27409456      73.02380268      88.57261410
H      91.91248727      74.11417476      87.96412223
H      90.98085220      71.17754007      89.14898063
C      89.26876017      74.41653097      90.77603497
O      87.11447216      74.84171939      91.08217064
N      90.92793986      74.87195501      92.55237772
H      92.80254837      74.68298238      92.24246260
C      90.15882125      75.73367021      95.14130277
H      88.12925519      75.59572019      95.45688706
C      91.27942896      73.83449526      97.08394141
H      93.29576693      73.68142743      96.68520915
H      90.30621991      72.03358609      96.84583589
C      90.82778437      74.79825568      99.86939799
H      91.71784547      76.65585665      99.86561854
C      87.95540038      74.75857143     100.73867211
H      87.34312905      72.83860950     101.17708860
H      86.75542416      75.32359960      99.16075062
H      87.75697912      75.88484831     102.45265387
C      92.31688870      73.10695063     101.69109417
H      94.21606365      72.78380743     100.95977007
H      91.50241666      71.22289350     101.84605172
H      92.33956542      73.90252541     103.58837938
C      90.95439604      78.48322199      95.44743843
O      92.89703468      79.29391458      94.55170816
N      89.26498072      79.90807563      96.76835711
H      87.65115445      79.09738305      97.38629762
C      89.43883554      82.54991302      97.54692435
H      91.40793035      83.13950763      97.70377164
C      88.07256341      84.26389479      95.69121312
H      88.14815247      86.19141562      96.41119885
H      86.03921790      83.94453104      95.59294736
C      89.11947179      84.29035095      93.00591202
H      89.04577245      82.43086026      92.12340984
H      91.09801523      84.85348939      93.12118534
C      87.74753048      86.11771630      91.30137889
H      88.11980657      87.96586863      92.13474819
H      85.81245073      85.41662784      91.28248164
N      88.60357651      86.08181150      88.62930589
H      89.95851027      87.30068497      88.05860854
C      87.54155031      84.57003045      86.91910358
N      85.62158838      82.92218910      87.30082828
H      85.14348763      81.71465399      85.90243082
H      85.23041503      82.35905066      89.08284020
N      88.25019768      84.75333390      84.55694568
H      87.72863322      83.45887138      83.25492425
H      89.29710606      86.22354097      83.93900518
C      88.20673397      82.59148700     100.23789462
O      85.87292197      82.23999790     100.61206043
N      89.70339721      83.09226447     102.17675382
H      91.51942421      83.33603917     101.64763046
C      88.93994778      83.01856514     104.96032068
H      87.31478315      81.75622797     105.03590973
C      91.01486728      81.86394237     106.60438257
H      90.68983435      82.47621369     108.54324178
H      92.69294425      82.94675555     106.10360510
C      91.65926396      79.04447071     106.22076813
H      91.81044206      78.69676107     104.19687125
C      94.13480542      78.42841993     107.42074435
H      95.63902756      79.30336321     106.31714418
H      94.57889110      76.41964086     107.35649365
H      94.42393355      79.00100700     109.37850080
C      89.55032938      77.23978208     107.26578678
H      89.80355271      75.38596057     106.40596132
H      87.73052294      78.14496098     106.92752577
H      89.90559794      77.25301016     109.29346312
C      87.52076332      85.35237714     105.94486810
O      85.82378909      85.16718396     107.50389230
N      88.25586687      87.54445966     105.04346864
H      89.64103625      87.51233432     103.73577804
C      86.90660228      90.05779566     105.15874195
H      85.69150826      90.36771078     106.79524493
C      88.78121078      92.31790833     104.99055631
H      89.71662531      92.25176791     103.15752179
H      90.48196445      92.03066993     106.11872292
C      87.54532976      94.84825186     105.69731394
H      86.63259196      94.58369018     107.52278957
H      86.21307272      95.64382664     104.34049046
C      89.42371772      96.96474533     105.93352974
H      88.32389700      98.68817573     106.18486333
H      90.55944324      97.29922689     104.24789387
C      91.05266180      96.56412336     108.25789310
H      91.76508863      94.63282306     108.18041432
H      90.00764316      96.67372748     110.02856665
N      93.01230799      98.54266681     108.05191293
H      93.96095059      98.48786474     106.39462295
H      94.22551229      98.16283182     109.47298711
H      92.32444761     100.32278899     108.10293555
C      84.78066018      90.28267309     103.09516081
O      85.23419448      89.54756956     100.97110843
N      82.75298384      91.61493014     103.70743214
H      82.52432695      91.82091031     105.58959954
C      80.66483626      92.35570286     102.15029766
H      79.66517104      90.57558067     101.87439761
C      78.79778666      93.96574968     103.67908625
H      80.04689576      95.27155056     104.67119256
C      76.90806036      95.47186155     102.12006203
H      77.74142965      96.43562197     100.50434603
H      75.84981361      96.79089051     103.29547181
H      75.64005399      94.08480243     101.27724410
C      77.28033644      92.24420901     105.54991530
H      78.52755580      91.62626850     107.06736552
H      76.62271168      90.53967587     104.59749324
C      75.03723131      93.52355372     106.87272372
H      75.60036974      95.45107456     107.33381693
H      74.18685447      92.43507136     108.39773285
H      73.46119956      93.66906265     105.55180502
C      81.54922817      93.55945852      99.61050550
O      83.15738526      95.19218205      99.65963837
N      80.28311154      92.69396387      97.64330040
H      78.96030312      91.33525065      97.86817784
C      81.06734797      93.29300711      95.03358836
H      81.99142413      95.12793136      94.88618970
C      82.82668316      91.36737600      93.90353203
H      84.47452451      91.01210745      95.09028015
H      83.54666889      92.10436926      92.12340984
C      81.83268713      88.72931806      93.16086959
C      81.61914805      88.07736248      90.56627535
H      81.83079739      89.55890791      89.17543679
C      81.05600960      85.53001141      89.95967322
H      80.99553836      84.94797571      88.00569620
C      80.46452527      83.78957348      91.84373035
O      79.74453955      81.51056355      91.13508297
H      79.84280531      81.18742035      89.35307106
C      80.88215479      84.48877222      94.31171291
H      80.47964308      82.96376308      95.60617544
C      81.45852131      86.96053423      95.03169863
H      82.00654195      87.33847950      96.96110920
C      78.62771130      93.66906265      93.44999771
O      76.52444590      93.49331810      94.57627460
N      78.69574145      94.09614079      90.84406512
H      80.37003895      94.20007574      89.93699649
C      76.62271168      94.36259220      89.17921624
H      74.85770730      93.89394008      90.13163830
C      76.66806511      96.90238437      87.96790168
H      75.19029914      96.83435422      86.53548914
H      78.49920990      97.45985363      87.21012143
C      75.48887588      98.81100794      89.91243005
H      76.53578426      99.02454702      91.67365498
H      73.73898933      97.99086672      90.62107743
C      75.08258474     101.31678503      88.46867915
H      74.08669897     100.70829316      86.77359465
H      76.80412541     102.33156806      87.95278386
C      73.45742011     103.14981956      90.08628487
H      74.58369698     103.67705320      91.72845704
H      71.66973902     102.21818449      90.52092193
N      72.81302343     105.43449867      88.49891478
H      74.37771681     106.37747210      87.95467360
H      71.81713766     106.77053517      89.42866012
H      71.88894726     105.06789177      86.87186041
C      77.00254667      92.48231452      86.98146454
O      79.13604767      91.93996307      85.98557877
N      74.78589770      91.58658425      86.01392467
H      73.13238717      92.20074530      86.74146931
C      74.54212301      90.31290871      83.54027293
H      75.93674103      88.80679684      83.36074892
C      71.88327809      89.22064690      83.47980169
H      70.51511623      90.73809713      83.72924556
H      71.78690205      87.92429465      85.07662042
C      71.56769379      87.79201381      81.00614995
O      70.19008331      88.71042080      79.29783736
O      72.79601590      85.86827242      80.69434509
C      75.23376283      92.12137679      81.37653629
O      75.30179298      94.43440180      81.69590005
N      75.62682592      91.11037322      79.20524077
H      75.28289573      89.29623596      78.71580164
C      76.03122734      92.68829469      76.93001029
H      77.37671248      94.17928875      77.39866241
C      77.15939395      91.09147595      74.78706064
H      77.37293303      92.23476037      73.08441723
C      79.78044435      90.31668817      75.74893134
H      80.77633012      92.11948707      75.81318204
H      80.73097669      89.18852156      74.31273935
H      79.78989297      89.36048665      77.57440696
O      75.86493143      88.88805507      74.40911539
H      76.66428565      87.51611377      75.28594839
C      73.70308453      94.12826614      76.04372864
O      73.94874895      95.89516024      74.53383731
N      71.40517733      93.47820029      76.92623084
H      71.31258074      91.90216854      77.99959538
C      69.08648314      94.98431216      76.45568897
H      69.04112971      95.79689447      74.56407294
C      66.83959855      93.12860092      76.69379449
H      66.76211978      92.76388374      78.71958111
H      67.42730343      91.30690475      75.93412452
C      64.25445296      93.89205035      75.79050531
H      63.95587620      95.91783696      76.01349303
H      62.82770960      93.00576871      76.98481234
C      63.92753030      93.32891191      73.01449737
O      64.62483932      94.73675801      71.32319232
O      62.69920820      91.48453903      72.39655686
C      68.92585640      97.23308647      78.35675366
O      67.55391511      99.11336415      77.96747003
N      70.48488062      97.11403371      80.38820943
H      71.54690680      95.54934033      80.63387385
C      70.46787307      98.89793535      82.55005633
H      69.66662912     100.77254386      82.25714877
H      72.42185008      99.17383539      83.13020231
C      69.29813248      98.18361881      85.16732728
O      69.51356129      99.49508887      87.06272277
N      67.92430146      96.11058904      85.20701153
H      67.84115350      94.98053271      83.67066404
C      66.59204440      95.10714437      87.37641734
H      65.55080520      96.63404323      88.29104488
C      64.42830778      93.48009001      86.51281242
H      63.30581034      92.82057553      88.10963115
H      65.14262432      91.77366715      85.60574378
C      62.52346366      94.64416142      84.68544708
C      61.78080121      93.25899204      82.36864261
H      62.63117805      91.53178219      81.69590005
C      59.97989203      94.29456205      80.73969854
H      59.54147553      93.27222012      79.02949621
C      58.86873296      96.69829392      81.24614518
O      56.99979364      97.76409957      79.84207854
H      56.36106614      99.09635662      80.89465609
C      59.62840294      98.02488180      83.47224278
H      58.51913359      99.61414163      84.12041891
C      61.58237996      97.11403371      84.99347246
H      62.02457590      98.30456129      86.59218093
C      68.36838714      93.96385995      89.40976285
O      70.28645936      92.80167827      88.64820316
N      67.87705830      94.25676753      91.89286323
H      66.21220941      95.00320942      92.45978113
C      69.71765172      93.77866677      93.99423889
H      71.58470132      94.27188534      93.27803262
C      68.98821738      95.16194643      96.35639678
H      70.09181753      94.47408605      97.95510524
H      66.99644584      94.81423679      96.75134958
C      69.63261404      98.05889687      96.29781526
C      67.75800555      99.90893893      96.37151460
H      65.80969771      99.33257241      96.55670778
C      68.38917413     102.53376878      96.21844677
H      66.92085678     103.93216625      96.44899337
C      70.93841492     103.18950381      96.09750428
O      71.54690680     105.73118570      96.01057686
H      70.17307578     106.91226465      95.91231110
C      72.82058234     101.38859463      96.16931388
H      74.83881003     101.66827413      96.06537893
C      72.19697265      98.85069220      96.21655703
H      73.76733522      97.55811940      96.39041185
C      69.97843396      90.86470880      94.47800882
O      68.10760491      89.60048189      94.75957805
N      72.23854664      90.04078812      94.88241025
H      73.66528999      91.23887461      94.46100129
C      72.97742962      87.24021373      95.12051578
H      71.28045539      86.34070400      95.87073711
C      73.90906470      86.10448821      92.61284896
H      74.93896553      84.43585988      93.24212782
C      71.80201985      85.64339499      90.64753358
H      72.31224596      85.31458262      88.67843877
H      70.70219914      87.33847950      90.25069107
H      70.53968267      84.19775436      91.39586521
O      75.49454507      87.86760286      91.50357960
H      77.09514326      87.14194796      91.05760420
C      74.90117101      87.00021849      97.33149556
O      76.42995959      88.65372901      98.05715047
N      75.06746692      84.68719348      98.29147653
H      73.95441812      83.37572342      97.46188667
C      76.96475215      83.61382893      99.85994937
H      78.42362085      85.00088805      99.42153286
C      75.98587391      83.84059609     102.55847854
H      75.47942725      85.83425735     102.66241349
C      73.57458314      82.26078489     103.03468957
H      72.04579455      82.72376784     101.73833733
H      73.05679813      82.56503083     105.00567412
H      73.96008731      80.28035172     102.62083950
C      77.72253240      83.46265083     104.84126793
H      78.32157563      81.50300464     104.60883159
H      76.75688224      83.73855087     106.63650792
C      80.10736700      85.15962506     104.80347341
H      81.52466173      84.40184481     103.51845951
H      80.92372876      84.97821133     106.68564080
H      79.61981761      87.13816851     104.49355829
C      77.81512899      80.93230730      99.13240473
O      76.48476165      79.69075711      97.62062368
N      80.03933685      80.15940923     100.14151859
H      80.84247053      81.43875395     101.30558999
C      81.00498699      77.56481501      99.94120760
H      79.48375731      76.42531004     100.73867211
H      82.65282834      77.30970195     101.15252216
C      81.66828093      76.82026284      97.34661336
O      83.67894974      77.55347665      96.30915362
N      79.97508615      75.14029615      96.51324407
H      78.59936540      74.61873168      97.72833808
C      80.04311631      74.06504187      93.98479026
H      81.41316789      75.01935366      92.77914487
C      81.08435550      71.26257775      94.24746222
H      79.54233884      70.20055156      95.10350823
C      81.53977954      70.17787485      91.57727894
H      81.27143840      68.14263961      91.76247212
H      83.42383667      70.60117354      90.86674185
H      80.16594851      70.72778521      90.14675611
C      83.42005722      70.96211127      95.85561931
H      83.05156060      71.37407160      97.83794221
H      84.88648484      72.18098474      95.07894179
C      84.43484026      68.19744167      96.22411593
H      84.97530198      67.57572172      94.33627935
H      83.01565579      67.08061342      97.21433253
H      86.02598982      68.15019851      97.53180654
C      77.52789058      74.33905219      92.62040787
O      75.89516704      72.60806289      92.59395169
N      77.23876245      76.68420254      91.64530909
H      78.73920514      77.84638423      91.83806116
C      75.05990801      77.46843896      90.10707186
H      74.64038877      75.93776065      88.79182235
H      75.20919639      79.32981938      89.23968748
C      72.48610078      77.88417875      91.49224126
O      70.75322174      78.35661033      90.18266092
N      72.36704803      77.69709585      93.97156218
H      73.89583660      77.36261429      95.06004454
C      69.98599286      77.85016368      95.40586444
H      68.45531456      76.70121008      94.64430474
C      70.38472512      76.66152583      98.14407787
H      71.86249109      77.82181778      98.98500609
H      71.10471084      74.73211526      98.12707034
C      67.98477270      76.31759564      99.66719728
N      66.43141768      74.19543299      99.61617467
H      66.68653072      72.61940124      98.57304575
C      64.36972626      74.75101253     101.01079269
H      62.64818560      73.65497126     101.05047694
N      64.72877426      77.12639850     102.08793668
H      63.20754459      78.05992330     102.76256899
C      66.89629034      78.18842469     101.11283792
H      67.61060689      80.09704827     101.25834683
C      68.96554065      80.56947984      95.54192474
O      70.02567712      82.22865955      96.82504890
N      66.86605472      81.12505938      94.17376289
H      66.26323203      79.77012561      92.97000722
C      65.46198807      83.59115222      94.37974306
H      66.84715746      84.94797571      93.68999296
C      63.23589047      83.74044060      92.49379619
H      62.15307729      82.00756157      92.77158596
H      63.84627208      83.75177895      90.52659110
C      61.32915662      85.88150051      92.66198184
H      60.74334147      86.18385672      94.61217939
C      62.58582463      88.35326253      91.70578033
H      61.24033948      89.84803604      92.14797628
H      62.94109317      88.29090156      89.67810399
H      64.14295910      88.98443112      92.89819762
C      59.01235216      85.36371550      90.91776445
H      57.59127797      84.13161394      91.75869267
H      59.88540572      84.74010582      89.15842925
H      58.03158421      87.15139659      90.62485688
C      64.58326533      84.32058657      97.01213182
O      63.17352950      82.78801853      98.08927582
N      65.13695515      86.67140611      97.89841345
H      66.31047519      87.66540215      96.76835711
C      64.10138513      87.48209870     100.33238095
H      63.44187065      85.86827242     101.43220166
C      66.17441489      88.85404000     101.95565584
H      65.14829350      89.41339899     103.65074035
H      66.83959855      90.43763065     100.81237143
C      68.28145973      87.21942674     102.93453407
H      69.30947084      86.36527045     101.36795097
C      70.27512100      89.02033592     103.98144246
H      69.57970170      89.77244699     105.77101328
H      70.78912654      90.32613680     102.47722031
H      72.02311783      88.00744261     104.37261581
C      67.56336373      85.24088329     104.91496725
H      69.22821261      84.22798999     105.58015091
H      66.26134230      83.77823512     104.28001922
H      66.48810947      86.15173137     106.41918939
C      61.76946286      89.20930855      99.82593429
O      59.72666871      88.72742834     100.78969471
N      62.09827523      91.07068896      98.15919568
H      63.79524946      91.11982185      97.28992159
C      60.19910030      92.93395911      97.26913459
H      58.38874249      91.96641924      97.10094894
C      60.19154139      95.06368066      99.34972326