 %block lattice_cart
   139.252   0.000   0.000
   0.000 142.425   0.000
   0.000   0.000   162.84
 %endblock lattice_cart

 %block positions_abs
N      92.26208665      44.09776199      79.96018642
H      94.11779788      44.48704561      79.74853708
H      91.84445712      43.11510431      78.37659577
H      92.00886331      43.03951525      81.52865926
C      90.65203983      46.29173425      80.25876318
H      91.45517351      47.49171046      81.72897025
C      90.92416041      47.83375091      77.88715666
H      90.12858564      46.77550417      76.30923519
H      92.97262373      47.98681874      77.74542718
C      89.84890615      50.47369858      78.07046011
H      87.78910446      50.43023487      78.12715190
H      90.15693153      51.33352405      76.22419750
S      91.20383990      52.47302901      80.57812693
C      94.17071021      53.19679419      79.33279729
H      94.13669515      54.65944235      77.88148748
H      95.21950832      51.47147406      78.92839586
H      95.19116242      54.11898063      80.86536533
C      87.97051819      45.61143277      80.95040301
O      87.07667764      43.69336056      80.24364537
N      86.73841662      47.43501867      82.15226895
H      87.59257292      49.05829356      82.67950259
C      84.08146143      47.15722890      82.82879097
H      83.53722025      45.85331774      81.33212773
C      83.60336068      45.65867592      85.38748039
H      84.48775259      43.80107496      85.36669341
H      81.59458161      45.35254027      85.72385168
C      84.72963756      47.07975011      87.59090128
O      83.43895449      48.71436338      88.58678704
N      86.89715363      46.47692742      88.52253635
H      87.77776611      47.50493853      89.86991121
H      87.76075857      44.82341689      88.12191437
C      82.57345983      49.71402860      82.68328204
O      83.83957646      51.63965970      82.77587863
N      80.11681562      49.59308611      82.84390878
H      79.22864426      47.91500914      83.04610949
C      78.58424758      52.01004606      82.69651013
H      79.02644355      52.78105440      80.83890916
C      75.65328207      51.18045621      82.71351766
H      75.23187311      49.92945740      81.13181674
C      74.78211824      49.81607381      85.13614680
H      72.75255218      49.56474022      84.89615155
H      75.26777791      50.83085684      86.86146692
H      75.46241972      47.87532489      85.20417694
C      73.72954069      53.27805242      82.20518128
H      74.08480923      54.77471567      83.57523286
H      71.76233559      52.74325987      82.49619914
C      73.96386675      54.66511153      79.73719872
H      73.32513926      53.28750105      78.34636015
H      75.93296158      55.15833011      79.38948908
H      72.73743437      56.30350424      79.50287266
C      79.19651891      54.07551693      84.57867753
O      79.28344632      56.26193027      83.88703770
N      80.04500602      53.44056889      86.96918132
H      80.33224442      51.60564464      87.40192864
C      80.74231503      55.36808973      88.90804052
H      79.41950661      56.94412146      88.91181997
C      80.52877596      54.03205322      91.51208338
H      81.39049116      55.26415477      92.92181920
H      81.83079739      52.43712421      91.49696556
C      78.08535984      53.17978666      92.49285133
C      76.85703774      54.28527655      94.58477836
H      77.66206114      55.86697747      95.59389221
C      74.53267437      53.31206749      95.36334560
H      73.56702423      54.18134159      96.93937735
C      73.38183105      51.22580964      94.24651735
H      71.66595956      50.41133760      94.98729006
C      74.68952165      50.09197385      92.26041500
H      73.77489413      48.66900994      91.11713058
C      77.08191518      50.97069659      91.55554708
H      78.02866805      49.93890602      90.07211192
C      83.40871886      56.52271251      88.31844591
O      84.02476964      58.78660462      88.50174936
N      85.09057528      54.85030471      87.36791357
H      84.80711633      52.96624759      87.24886081
C      87.74564076      55.73658636      86.99563749
H      88.02532024      57.06695367      88.54332334
C      89.61080062      53.50104013      87.30177315
H      91.49485775      54.26637928      86.96918132
H      89.13269987      52.14232691      85.82967635
C      89.60891090      52.36531462      89.92282355
H      90.97896248      50.82707740      89.93038245
H      87.84012707      51.40155420      90.34423251
C      90.02276097      54.40432931      92.01286085
O      88.29366139      54.76904649      93.80999057
O      91.92382563      55.76871171      91.65192312
C      87.91004695      57.13309410      84.53710355
O      89.11569234      59.16643962      84.27065214
N      86.29244121      56.40365974      82.73241492
H      85.29088627      54.84085608      83.17839033
C      85.56489658      57.89843326      80.47608171
H      87.27131944      58.12331068      79.34413565
C      83.69973672      56.18067204      78.84902735
H      81.98197550      56.20334875      79.98475287
H      84.41972244      54.25126147      78.86225544
C      83.10636265      57.12364546      76.15616736
H      84.74853483      56.77593583      74.95997060
H      82.73030711      59.13809371      75.97853308
S      80.68562324      55.26982395      74.85981511
C      80.21130195      56.84774542      71.84003246
H      82.04811592      56.92711393      70.91028711
H      79.59525117      58.79227380      72.13482976
H      78.77888939      55.72713772      70.87816176
C      84.44050943      60.54216037      80.92583657
O      85.21718695      62.34495927      79.67672748
N      82.78510919      60.84829604      82.76643000
H      82.45251735      59.24580812      83.74719796
C      81.68528846      63.21234365      83.75664659
H      81.26765896      64.28192875      82.04833400
C      79.24754153      62.67566138      85.09646254
H      78.62582156      64.17988352      86.35879972
H      79.41194771      61.07128373      86.37769698
C      77.05923845      61.96512429      83.28421501
H      77.74898856      60.59696243      81.90849425
C      74.70652920      60.87286248      84.66749467
H      74.17740582      62.14275856      86.20195244
H      75.03156212      58.93967245      85.29299408
H      73.11915909      60.93522345      83.35602461
C      76.30145820      64.18933216      81.65716065
H      77.83213652      65.00947337      80.54789131
H      75.81390881      65.75213582      82.90815947
H      74.76511071      63.80760743      80.34191114
C      83.57501479      64.73924252      85.34779614
O      83.66383192      67.05604697      85.14559543
N      85.35702670      63.58650945      86.52509564
H      84.86191841      61.76292356      86.79154705
C      87.49619688      64.68821990      88.00097189
H      86.95006598      66.44755509      88.92126860
C      88.52420800      62.80416277      90.09289891
H      89.73930201      61.39631667      89.21039673
H      86.91416118      62.10496403      91.17004291
C      90.19472605      64.04193351      92.02041975
H      89.18561221      65.13608503      93.44527339
H      91.69894820      65.12474667      91.12279975
C      91.52320366      61.90276332      93.64558438
H      92.69483396      62.75880933      95.10823255
H      92.88947577      61.03348922      92.37001912
N      89.91504657      60.04516234      94.69816194
H      90.07945276      58.34251894      93.85345428
C      88.72262925      60.21334799      96.87512665
N      88.78876967      62.24102432      98.26974467
H      87.85146542      62.16921473      99.93081410
H      90.08134247      63.59973754      97.91258640
N      87.22218656      58.40487991      97.40047057
H      86.17527818      58.35763676      98.99728930
H      87.29210643      56.80995090      96.35545192
C      89.47285060      65.72190020      86.16982709
O      90.99408028      67.23368124      87.11846970
N      89.33301085      65.08317270      83.68672671
H      88.08012232      63.72256975      83.20484650
C      90.89581452      66.24535438      81.79511067
H      92.40948529      67.07683395      82.91193892
C      92.01264277      64.22523695      79.93939943
H      90.58778913      62.90053880      79.26476714
C      93.17482445      65.55749400      77.53566756
H      93.99496568      64.16287598      76.25821258
H      94.51653014      67.03525998      78.04022449
H      91.73674272      66.64030718      76.53600234
C      94.15370268      62.73424289      81.18472907
H      93.53387245      62.51125518      83.13492663
H      95.85445637      63.88508622      81.36425307
C      94.71684113      60.08862605      79.98097341
H      92.92727031      59.36108142      79.26665687
H      95.64658646      58.86975259      81.35669417
H      95.62202003      60.40798980      78.15738752
C      89.37836429      68.33350196      80.39482348
O      90.43094185      70.37062692      79.97530423
N      87.08423655      67.86862928      79.65405076
H      86.59668716      66.05638176      79.99609122
C      85.54788905      69.75835559      78.42383893
H      86.71951936      70.41031118      76.86103527
C      83.14982636      68.66420407      77.28622369
H      81.79678233      70.12307277      76.76087978
H      82.41094337      67.59083951      78.88304243
C      83.75075932      66.85384626      74.94296306
O      85.47607945      67.54737581      73.48976353
O      82.47330435      64.93577405      74.59714315
C      85.04900130      72.09405733      80.20207139
O      84.89215402      74.19732271      79.24398015
N      84.69184304      71.84650317      82.63414916
H      84.62003344      70.08149880      83.35413488
C      83.91138606      73.87795895      84.26498296
H      83.26132022      75.44832152      83.10280128
C      81.51521310      73.21088558      85.96951610
H      80.75365339      74.74156389      87.11846970
H      82.15583033      71.67075863      87.18083067
C      79.36848400      72.39830326      84.14026103
H      77.87748995      71.42320448      85.17583105
H      79.91839437      70.82794069      82.92516701
C      78.01921942      74.57148851      82.63036970
O      76.07658077      73.91575348      81.44173185
O      78.90928052      76.75601214      82.29399842
C      85.99197473      75.08360434      85.88069896
O      85.72741305      77.26056906      86.59690524
N      87.93650311      73.56426439      86.36257917
H      87.85524488      71.67831754      86.07534077
C      90.07945276      74.25968368      88.07278149
H      90.60857612      76.19854288      87.62302662
H      91.64603586      72.97089032      87.70995403
C      89.42938689      74.32015492      90.79965656
O      87.93461339      72.83294031      91.85412384
N      90.83345354      75.76201610      92.19427457
H      92.27720446      76.68420253      91.34956691
C      89.97362807      76.44987647      94.80020716
H      87.92516475      76.24389631      94.79264825
C      91.09801523      74.51857619      96.52552728
H      93.11057375      74.13307201      96.33277520
H      89.97551781      72.88207320      95.96238884
C      90.49897200      75.02502284      99.29019688
H      91.49674748      76.70121008      99.95727027
C      87.77398665      75.34438658     100.10277919
H      87.05400092      77.15474439      99.43570581
H      87.54910921      75.14029613     102.13990416
H      86.60802552      73.82315689      99.34877840
C      91.39848172      72.69121084     100.77363204
H      91.48918858      72.95766225     102.81453645
H      93.37513545      72.37751626     100.28041347
H      90.18716715      71.06604621     100.40324568
C      90.75030559      79.08037549      95.46161137
O      92.96884428      79.61705778      95.04965103
N      88.97585259      80.56381065      96.61812387
H      87.17872286      79.93831125      96.46505604
C      89.67316160      82.94108635      97.82376926
H      91.70083793      83.17163297      98.10155903
C      88.82656421      85.08781545      96.00774227
H      88.34657372      86.79234858      97.06031983
H      87.19195095      84.53412563      94.88902430
C      90.88069670      85.84937516      94.15392076
H      91.55721873      84.14106256      93.22228569
H      92.34712433      86.93218834      95.11012228
C      89.89992875      87.61248980      92.31332733
H      89.52198348      89.42662707      93.21472678
H      88.02909970      87.10415343      91.61790805
N      91.66304340      87.82791861      90.13447289
H      93.23529569      88.89939342      90.28187155
C      91.39470227      86.92651916      87.85168351
N      89.70339721      85.27867781      87.26964780
H      90.01331233      84.38294753      85.61613728
H      88.88703545      84.08437077      88.51308772
N      92.83467372      87.63894597      85.99786199
H      92.35657295      87.09092535      84.23285762
H      94.52030959      88.35515224      86.53454427
C      88.32956619      83.25289120     100.36734088
O      86.06000489      83.29635491     100.55064433
N      89.85646504      83.04124185     102.39690694
H      91.61391051      82.42519108     101.98116715
C      89.07411835      83.20942749     105.13134091
H      87.49619688      81.92063415     105.44125603
C      91.22840634      82.57447946     107.01161859
H      90.63125283      82.76156235     108.97315451
H      92.79498946      83.90673650     106.86233022
C      92.11279827      79.77390506     106.63556306
H      93.05766142      79.55280708     104.81953607
C      94.08567253      78.99344808     108.55552499
H      94.86990895      77.18309029     107.97159956
H      93.20694979      78.82337272     110.41123623
H      95.67115291      80.26901335     108.22671261
C      90.15126236      77.71032392     106.49194386
H      88.92482997      77.96543698     104.85733060
H      89.21395810      77.48733621     108.30986057
H      90.96951384      75.84894351     106.14234449
C      87.94028256      85.77189637     105.77195813
O      86.34724328      85.79079363     107.46137346
N      88.28421275      87.70130694     104.25261818
H      89.32167250      87.30068497     102.70304260
C      87.53021195      90.39416694     104.56631275
H      86.47385494      90.43952037     106.33509657
C      89.75253009      92.18940694     104.50773123
H      90.61991448      91.97775759     102.65201999
H      90.92793986      91.62437877     106.10454996
C      88.89648407      94.89927447     104.94992719
H      88.06689422      95.05234230     106.83020487
H      87.44328455      95.58335539     103.66113384
C      91.33423103      96.52443910     104.94047856
H      92.17893868      96.38648908     103.06587005
H      92.72695931      95.94807257     106.34454521
C      90.41771377      99.18706347     105.28062929
H      89.65237461      99.42138954     107.17791451
H      88.91727106      99.72941493     103.97671814
N      92.52097915     100.90293497     104.83654361
H      91.96350989     102.52809960     105.66613346
H      93.06333059     101.24686516     103.03752416
H      94.05921636     100.33034789     105.80975266
C      85.47229999      90.92329031     102.61422546
O      85.60836030      90.09181073     100.35033334
N      83.50698464      92.44640972     103.30397557
H      83.38982161      92.90372348     105.15212790
C      81.29600484      93.19285161     101.65991368
H      80.44751773      91.36926571     101.20448963
C      79.17951138      94.43629152     103.20948925
H      79.13037850      93.13993926     104.81008744
C      79.88626902      97.17072549     103.88601127
H      78.64471883      97.65827488     105.45448411
H      79.73131147      98.50298255     102.32320761
H      81.77410560      97.37670567     104.68347578
C      76.64160893      94.28700314     101.87534248
H      76.21831024      92.29712133     101.55786846
H      77.02144392      95.27155054     100.10655865
C      74.52889493      95.46052318     103.59877287
H      74.65361685      97.50709678     103.41168997
H      74.82180249      94.80100870     105.52629371
H      72.73176520      94.88415665     102.77296247
C      82.36747966      94.37582027      99.17303385
O      84.07579226      96.02744107      99.14657768
N      81.47552884      93.47442082      97.03197394
H      80.19807386      92.06090554      97.16425478
C      82.15960978      94.28322368      94.48651259
H      82.65660779      96.28255413      94.52052767
C      84.31389777      92.48987342      93.59456177
H      85.65182400      92.18184803      95.12712981
H      85.48552808      93.38560369      92.15459032
C      83.44462366      89.77622643      92.72528767
C      83.15549555      89.30190513      90.14203180
H      83.63170658      90.84770126      88.89670216
C      82.51865778      87.03045409      89.17449193
H      82.33535432      86.62227322      87.18272039
C      82.00087276      84.93285789      90.82611272
O      81.25821032      82.71998837      89.79243243
H      80.85569861      82.67085549      88.02553833
C      82.32590569      85.34670795      93.50196518
H      82.42606119      83.74422005      94.76052291
C      83.09124485      87.75988845      94.40336463
H      83.23675378      88.31735771      96.36112109
C      79.86359230      94.49676276      92.84434043
O      77.75087828      94.05834626      93.74196042
N      79.92973273      95.05801148      90.44816746
H      81.71741381      95.25643274      89.80755024
C      77.82268788      95.09202654      88.58111786
H      76.07091160      94.47975523      89.47495841
C      77.42395563      97.77165847      87.72885130
H      76.16161845      97.76598929      86.09990721
H      79.20029837      98.63904283      87.15248477
C      76.14650065      99.45351489      89.85479340
H      77.00821584      99.37414637      91.72373272
H      74.25110516      98.67116818      90.03242767
C      76.35626027     102.24086120      89.01386519
H      75.09392309     103.38603534      90.17226742
H      75.60414919     102.13503651      87.09768271
C      78.97164148     103.26509286      88.99685765
H      80.09602864     101.77598852      88.12380410
H      79.80501079     103.55044152      90.86012780
N      79.31557168     105.65748636      87.49830469
H      79.45541141     105.27198220      85.63503454
H      80.75554313     106.63825433      88.27876165
H      77.65072280     106.59101116      87.53798894
C      78.22897904      93.52166399      86.23407778
O      80.28878073      92.86025978      85.46306945
N      76.09358830      92.78089127      85.11913926
H      74.48921067      93.44040576      85.92038322
C      75.78745265      91.31068420      82.68706149
H      77.17451175      89.79701343      82.52265530
C      73.12671800      90.02756004      82.68139231
H      71.57336297      91.37871435      82.64548751
H      72.99821661      88.95986466      84.43883779
C      72.81302343      88.10003920      80.55545021
O      70.62849981      87.63327680      79.87136929
O      74.58180726      86.95675478      79.52554937
C      76.48476165      92.83947278      80.41561047
O      76.06146297      95.14871833      80.33435223
N      77.09892271      91.66028357      78.34636015
H      77.14238642      89.75354972      78.42005948
C      77.20663710      92.99820980      75.80467826
H      78.50298936      94.59691826      75.84625224
C      78.30267836      91.21052871      73.75621494
H      79.92406354      90.15795114      74.46864176
C      76.38271643      89.22064690      72.77922643
H      76.02933762      87.98287617      74.38549380
H      77.17451175      88.00744261      71.31468854
H      74.57991753      90.00110387      72.15750648
O      78.79967638      92.65050016      71.69641326
H      80.00532177      91.76232879      70.67218160
C      74.60070452      94.19629628      75.05256719
O      74.57046891      96.19562672      73.72597932
N      72.47287270      92.92262075      75.81979607
H      72.67507341      91.23131570      76.67773182
C      69.85749147      93.81079211      75.55145494
H      69.50033321      94.61014633      73.68629506
C      68.05469257      91.50721574      75.83680361
H      67.88272747      90.73809712      77.73975801
H      68.62538991      89.94819152      74.61981986
C      65.24089009      91.71886509      74.76532879
H      64.12595157      93.22119749      75.62326454
H      64.05225225      90.05779566      75.04689801
C      65.31647914      92.18940694      71.98176193
O      64.38295435      94.13960449      71.07091385
O      66.27079094      90.67951561      70.54368021
C      69.08837286      95.91405750      77.35047439
O      67.05880680      97.02143711      77.21063464
N      70.79668545      96.51499046      79.13437603
H      72.26311308      95.29989645      79.20051645
C      70.71920668      98.68439627      80.86536533
H      69.50222292     100.07523484      79.95640697
H      72.60326381      99.51587584      80.85780642
C      70.08047919      98.29322292      83.64137328
O      70.13906070     100.09602183      85.27031736
N      69.12616739      96.09169177      84.35380010
H      68.82003173      94.75943471      83.02154305
C      68.09437682      95.46808209      86.85957719
H      67.04368899      97.07434946      87.61357799
C      66.24622450      93.29300710      86.60446414
H      65.33159696      93.18718243      88.44883702
H      67.03424036      91.45241368      86.12636338
C      64.39429270      93.96952912      84.56922890
C      64.15429746      92.45018916      82.37147720
H      65.15207295      90.68896425      82.11069497
C      62.30614513      93.14371872      80.52710432
H      62.15874648      92.18562748      78.72997459
C      61.17986825      95.59091430      80.64804680
O      59.82493447      96.40538634      78.61848074
H      59.26368576      98.12692700      78.69784925
C      61.67119708      97.09702617      82.63981834
H      60.83026888      98.95462713      82.70028958
C      63.18297813      96.34302537      84.65804604
H      63.28691309      97.43528717      86.37769698
C      70.03512575      94.68384567      88.97229121
O      71.86627054      93.40261123      88.36757879
N      69.77056407      95.43028756      91.47806830
H      68.18886314      96.44696031      91.80121150
C      71.45053075      94.67439703      93.54920834
H      73.34592624      95.32635262      93.06543840
C      70.87038477      96.18806781      96.02286008
H      71.43919239      95.22241767      97.75195966
H      68.84648789      96.32034866      96.38379781
C      72.15917813      98.80533876      96.11356695
C      70.64928681     101.01442882      95.82821827
H      68.67641252     100.77821302      95.36712505
C      71.84737329     103.38414562      96.19104573
H      70.61716146     105.00742052      96.30631903
C      74.51755657     103.50508810      96.20238408
O      75.70052523     105.81433365      96.31954712
H      74.47031340     107.08989892      96.70883074
C      76.00099171     101.33379256      96.50851975
H      78.03433724     101.50953711      96.51796838
C      74.72353674      98.96596550      96.46316632
H      75.80823964      97.24820428      96.65969785
C      71.30124237      91.85303565      93.98384539
O      69.31136058      90.78911973      94.24840708
N      73.64639274      90.88171632      94.07833171
H      75.12415870      92.08358225      93.98195567
C      74.16795719      88.18696660      94.25029680
H      72.44074735      87.09470479      94.50729958
C      75.33958750      87.33847949      91.69538683
H      77.22931382      88.11326727      91.42704569
C      75.17707104      84.51522838      91.23240388
H      75.77989375      84.08626050      89.30866249
H      73.19285841      83.97476665      91.38925116
H      76.32413492      83.42296656      92.55143285
O      73.83914481      88.32680635      89.78298380
H      73.61993656      90.10125935      90.08911946
C      76.04823487      87.71642476      96.46505604
O      77.38238165      89.54190037      97.05465065
N      76.13516229      85.39395112      97.52141305
H      75.05612856      83.95964883      96.86945747
C      78.09669820      84.55302291      99.34121949
H      79.87682039      85.50355524      98.93303861
C      77.11970970      84.95175516     102.08699182
H      76.41106232      86.88116572     102.02085140
C      74.93518607      82.96565279     102.67658643
H      73.18152007      83.27934737     101.64101641
H      74.49487984      83.03935213     104.68914496
H      75.44919164      81.06836759     102.06053565
C      79.07746615      84.99710859     104.20348529
H      80.14138207      83.24533229     103.98049759
H      77.77355500      84.98388051     105.79841430
C      80.76877121      87.32903085     104.20537502
H      82.57723928      86.94730614     105.11622310
H      79.85981286      89.02411536     104.94236828
H      81.37537335      87.58414391     102.25328774
C      78.86392709      81.75811769      98.72138926
O      77.47686796      80.34082296      97.44582400
N      80.81412463      80.79435727      99.89679903
H      82.03488784      82.05480472     100.64702037
C      81.33190964      78.09393836      99.98939562
H      79.67650940      77.02246355     100.57899022
H      83.02699416      77.70654448     101.09299578
C      82.14260223      76.85427791      97.39480139
O      83.29722502      78.29046991      95.93215322
N      81.40182953      74.42031042      97.07543764
H      80.88593424      73.70032468      98.76674269
C      81.31301239      73.13340679      94.67170577
H      82.95707427      73.65119180      93.54164944
C      81.59269187      70.35928856      94.93248800
H      79.83524640      69.78481177      95.84333608
C      82.05945428      69.50702200      92.13002388
H      82.09913854      67.45288950      91.98262523
H      83.79233330      70.41220091      91.47995803
H      80.44184856      69.89252617      90.91681959
C      84.15327103      69.38985897      96.15892038
H      85.61213975      70.81849206      95.87168198
H      84.54444438      67.44155113      95.61656893
C      83.82823810      69.11962811      99.02185574
H      82.15205087      67.96122587      99.32232223
H      83.55800724      70.94510372      99.93459355
H      85.47796917      68.04815328      99.63979625
C      78.96219286      74.13496174      93.31299255
O      76.96664186      72.97466979      93.12590965
N      79.17951138      76.46499429      92.24718691
H      80.67806434      77.60638898      92.55332257
C      77.28789534      77.25301015      90.42171129
H      77.21986520      75.93965037      88.83434119
H      77.79434199      79.02935289      89.51086321
C      74.65361685      77.44576224      91.39492034
O      72.85459740      77.07915533      90.00219205
N      74.32291475      78.14118153      93.79109331
H      75.63060537      79.17108237      94.72272838
C      71.84359384      78.21488084      94.96839280
H      70.76644984      76.89396215      93.81188030
C      72.01555892      77.37584236      97.68392951
H      73.03034196      78.65518708      98.93681806
H      73.05868785      75.60138935      97.59700210
C      69.43419278      77.05647862      98.72705844
N      67.96209598      74.86250637      98.85744955
H      68.50066799      73.05403829      98.57399061
C      65.77757236      75.60894826      99.86089423
H      64.41130025      74.26157341     100.55820324
N      65.79269017      78.01456986     100.56198269
H      64.29035776      79.06336796     101.09866496
C      68.02445696      78.90652067      99.67759077
H      68.67830226      80.81892371      99.95160109
C      70.66440461      80.85293879      94.69060303
O      71.59226023      82.64817878      95.79987238
N      68.53846250      81.08348539      93.41881723
H      67.68430621      79.51501255      92.74796438
C      67.14006503      83.43997411      93.21472678
H      68.30791590      84.91774009      92.38513693
C      65.04813800      82.96565279      91.27397786
H      64.23177624      81.15907445      91.83333685
H      65.78135181      82.48944176      89.40881799
C      63.06581510      85.07836681      91.09634359
H      61.87906699      85.22954492      92.77442055
C      64.03902415      87.73910147      90.39903458
H      65.41474491      87.53312130      88.87969462
H      65.03868937      88.60081666      91.98073550
H      62.48377940      89.00899754      89.93794136
C      61.26679565      84.43585988      88.85134873
H      59.76635296      85.78890392      88.44883702
H      60.38618320      82.62739179      89.29921386
H      62.51401502      84.11460639      87.24319163
C      66.22921695      84.19019545      95.83388745
O      64.82704003      82.58581781      96.97528215
N      66.53913206      86.54101499      96.55576290
H      67.31769931      87.82980833      95.38224286
C      65.34104558      87.70886585      98.95004614
H      64.67019275      86.17440808     100.15380180
C      67.33281712      89.31702293     100.47883473
H      66.38606423      90.40739502     101.94526235
H      68.13028163      90.63416218      99.11067288
C      69.36994208      87.56902609     101.76006917
H      70.18063467      86.24999714     100.40135595
C      71.60359858      89.22064690     102.58021039
H      72.67696313      87.97909671     103.82176058
H      70.94975328      90.87415741     103.61767014
H      72.60137409      89.59859216     100.81709574
C      68.21720903      86.33314508     104.04096883
H      67.05502735      84.75900307     103.39090298
H      67.14006503      87.51422403     105.34110053
H      69.62505513      85.51300387     105.30141628
C      62.80125342      89.14505784      98.38879743
O      60.80003325      88.36649060      99.28263797
N      63.16408087      91.32013283      97.12834998
H      64.94420306      91.77177742      96.61056497
C      61.06270522      93.16450572      96.51607865
H      59.31848782      92.11003842      96.21939162
C      60.61295035      94.92384091      98.76296324