 %block lattice_cart
   139.252   0.000   0.000
   0.000 142.425   0.000
   0.000   0.000   162.84
 %endblock lattice_cart

 %block positions_abs
N      94.08945199      41.21498451      81.63731853
H      93.81355194      40.79546527      83.47980168
H      95.98106802      41.43041331      81.51637605
H      93.48096011      39.77312333      80.54694645
C      92.51908942      43.34281634      80.90032527
H      92.90081413      44.99254741      82.07762476
C      93.58111561      44.31791511      78.33785639
H      93.61702041      42.84770804      76.89788494
H      95.51241590      44.99254741      78.59485917
C      92.31121952      46.60826340      77.34008089
H      90.32700690      46.21331061      76.96402536
H      93.30332584      46.99754703      75.57696624
S      92.40570584      49.43529397      79.32240380
C      95.69005017      49.89827692      80.09719158
H      96.25885779      48.29767873      81.25748354
H      95.69760908      51.63115594      81.21213011
H      96.81254760      50.10236736      78.38132009
C      89.76575818      42.73243474      81.29905752
O      88.92294025      40.59515428      80.83229512
N      88.46751620      44.58247680      82.38187070
H      89.26876016      46.22086951      82.95823722
C      85.76331785      44.27445141      83.14154067
H      84.78443962      43.27478619      81.63164935
C      85.49308699      42.81369297      85.64164859
H      86.53999536      41.05246804      85.44700678
H      83.51643326      42.35259975      85.99124795
C      86.27165423      44.32925347      87.91876879
O      85.00175815      46.11882429      88.51970176
N      88.18783671      43.68107735      89.35496079
H      88.29744084      44.29712812      91.15775969
H      89.39159237      42.27701070      88.88630867
C      84.45562724      46.84447919      83.15854821
O      85.79166374      48.81924319      82.75414678
N      81.87426110      46.94085524      83.42877907
H      80.80656573      45.41017692      83.83318051
C      80.66105680      49.44096315      83.11886396
H      81.02388426      49.89260774      81.14221024
C      77.71308376      49.13104803      83.19067356
H      77.03278228      47.90839511      81.68078223
C      76.47909247      48.15216980      85.67377393
H      76.99120831      46.16795717      85.90054109
H      74.42307025      48.29011982      85.65676640
H      76.82869184      49.39183026      87.28004130
C      76.37515753      51.71619363      82.74658788
H      76.29578902      52.83680133      84.47379773
H      74.40417298      51.35336618      82.27226657
C      77.27655698      53.33379935      80.60552796
H      76.25043559      55.11014209      80.43734232
H      76.97986995      52.37381839      78.80839824
H      79.31179222      53.59647131      80.78505196
C      81.65883230      51.57257443      84.81016901
O      81.80812068      53.81945902      84.24892029
N      82.25787554      51.09069422      87.25736458
H      82.47519407      49.26899805      87.78081877
C      82.84180097      53.09569384      89.18677515
H      81.32435074      54.42417144      88.77103536
C      82.61503381      51.81445940      91.83806117
H      83.22163596      53.22041577      93.21567165
H      84.01154156      50.30645780      91.99679818
C      79.94862998      50.77133047      92.42576605
C      78.03433723      52.09791834      93.67487514
H      78.38204687      54.02354946      94.25691085
C      75.74587866      51.01510517      94.56493624
H      74.24354625      52.07335190      95.45121788
C      75.41139711      48.52444589      93.82227380
H      73.68796671      47.63060534      94.45533211
C      77.37293302      46.99943675      92.76591679
H      77.23309327      45.02278303      92.27080849
C      79.62926624      48.19185406      92.07805641
H      81.16750346      47.19029911      91.18610559
C      85.44962328      54.40527417      88.70678467
O      85.73686168      56.72963754      89.05827376
N      87.12581052      52.90294175      87.85073865
H      86.58345907      51.08313531      88.04349073
C      89.72418420      53.45852129      87.28571048
H      90.18716715      54.97408179      88.60095999
C      91.51942420      51.16061409      87.82617220
H      93.48096011      51.77099569      87.94522496
H      91.26242142      49.78111388      86.31628088
C      90.85235081      49.78867279      90.27525751
H      92.26775582      48.36759860      90.74579936
H      88.98719094      48.93262677      90.10329241
C      90.85235081      51.60281005      92.57694416
O      88.85868955      52.19051493      93.78069982
O      92.93293948      52.42106154      93.39141620
C      90.00008424      54.49976049      84.50781280
O      91.87469275      55.75642849      84.10908055
N      88.19728534      53.84969464      82.79005158
H      86.92172008      52.49098142      83.20768110
C      87.62469827      55.18384141      80.41844506
H      89.44450471      55.05156057      79.46035382
C      85.82378909      53.60214049      78.74036809
H      84.34791284      52.98419998      80.03483062
H      87.00486804      52.05067519      78.07140498
C      84.62570261      55.13092908      76.57285201
H      85.92772404      54.77943998      75.01382780
H      84.70129166      57.16049514      76.91678220
S      81.47930830      54.24086798      75.67523201
C      80.43617937      56.67483547      73.52850292
H      81.63426586      56.58223888      71.85609513
H      80.81979382      58.55511316      74.28439345
H      78.42551058      56.48775257      73.13166039
C      86.67038648      57.83890688      80.98158350
O      87.66249279      59.66438250      79.88365251
N      84.71451975      58.36047135      82.49147482
H      83.82823811      56.80711632      83.15287903
C      83.84335592      60.94750667      83.07351053
H      83.48808737      61.77331707      81.22157874
C      81.40749870      60.74908540      84.57395322
H      81.18073154      62.29488153      85.91754863
H      81.38293226      58.85935909      85.39031499
C      79.01510519      60.91160187      82.76548514
H      79.23242371      59.63225715      81.16677668
C      76.50365892      60.15193189      84.08073465
H      75.02967239      60.15760107      82.64265293
H      75.90839513      61.69016911      85.31472593
H      76.75877197      58.33968436      85.02748753
C      78.69952089      63.77264751      82.00770489
H      80.17728687      64.30932978      80.67733756
H      78.95463394      65.10490456      83.55539074
H      76.98175967      63.83500847      80.87197937
C      85.85213499      62.45550827      84.62875528
O      86.15071174      64.70617230      84.01081478
N      87.31478315      61.16293547      86.20856648
H      86.79132896      59.37714410      86.63564463
C      89.77709654      62.16638014      87.28004130
H      89.49174787      63.86524410      88.40253873
C      90.86746862      60.23507985      89.13386281
H      91.86146466      58.74786524      88.11341060
H      89.36324648      59.34123930      90.22234517
C      92.75152576      61.41237934      91.13319325
H      91.82933931      63.01675698      92.03837216
H      94.42015409      62.16071096      90.18455064
C      93.93638415      59.46218179      93.03236820
H      95.06455076      60.26342574      94.55926706
H      95.28564874      58.33968436      91.95333447
N      91.93327426      57.73497194      94.08872521
H      91.94272289      55.92461413      93.47834361
C      90.14559317      58.50975972      95.64963914
N      90.15882125      60.64137101      96.79292356
H      88.98908067      60.75853404      98.29525598
H      91.36824609      62.02087121      96.25813101
N      88.28043330      56.99230949      96.12773990
H      87.23730437      57.22474583      97.70755110
H      88.37491961      55.25943047      95.33972402
C      91.76508862      62.88447614      85.26748278
O      93.71339645      64.03720919      85.84006985
N      91.42115843      62.54432540      82.77682350
H      89.95473081      61.45206359      82.22313369
C      92.93104976      63.87847218      80.73213963
H      94.59211918      64.77987163      81.54850139
C      94.14803350      62.01142258      78.75926535
H      92.63058327      61.06844915      77.73314397
C      95.70327826      63.77453723      76.82040616
H      97.19238259      64.85168123      77.75015150
H      94.43905135      64.94616755      75.69223955
H      96.60845716      62.53298704      75.44846485
C      95.73162415      60.02720995      80.29372312
H      94.64503152      59.05967008      81.75070211
H      97.36623741      60.98719092      81.10441571
C      96.50830167      57.95229046      78.47202696
H      94.97006445      56.93561771      77.54795079
H      97.81221282      56.72018891      79.48492026
H      97.75741076      58.92172006      77.15110826
C      91.21517826      65.68316081      79.22980721
O      91.95973043      67.88469196      78.95579689
N      88.89270462      64.89703466      78.57029272
H      88.29366138      63.15092755      79.04650375
C      87.08423654      66.23685062      76.84308287
H      88.18216753      66.62613424      75.14043947
C      84.87514648      64.55877365      76.04750810
H      83.37470379      65.03309496      77.37409597
H      85.16427461      62.51975896      76.07963344
C      83.73564152      65.24663403      73.53228237
O      85.15671570      65.49040872      71.59909235
O      81.43395487      65.56599778      73.39244263
C      86.50409056      68.96372569      77.67834190
O      86.40771452      70.58133141      75.98136767
N      86.43228096      69.59300455      80.04616897
H      86.44928850      68.14736392      81.28960889
C      86.11102749      72.26318783      81.02882666
H      86.84613103      73.45938459      79.52082506
C      83.38604215      72.77341393      81.58440619
H      82.61314409      71.27486097      82.76737486
H      82.32590569      72.43515292      79.84963744
C      82.58857764      75.22060951      82.84863310
H      83.70351617      75.15068964      84.57773267
H      80.60814447      75.33588281      83.40421263
C      83.28777638      77.66024618      81.42566918
O      85.51576370      78.39534972      81.57306783
O      81.59269188      78.80353060      80.13498611
C      87.71918458      72.69026598      83.35507975
O      88.53176690      74.85211288      83.69145103
N      88.32389700      70.70038417      84.83662518
H      87.48107907      69.02419693      84.48702581
C      89.91126711      70.75518623      87.15531936
H      91.75941944      71.55265074      86.72635149
H      90.16638016      68.78798114      87.70900917
C      88.92671970      72.11200973      89.54960260
O      87.32045233      73.77118943      89.57227932
N      90.28732264      71.69060076      91.65853717
H      91.70650710      70.43015331      91.46200563
C      89.31789304      72.27641591      94.14352727
H      87.26942972      72.32554880      93.92620874
C      89.95851026      70.11645874      95.87262685
H      91.92760508      70.40369714      96.40741939
H      89.58623418      68.29665230      94.99012466
C      88.66782719      69.96150118      98.45777244
H      88.42783195      71.77941789      99.39507669
C      85.90315760      68.94860788      98.00612785
H      84.89782320      68.53853727      99.75601442
H      85.95606993      67.12313226      97.05559552
H      84.86758758      70.51141154      97.15386129
C      90.18527742      68.20783516     100.26246107
H      89.90559793      66.22740199      99.78058086
H      89.89425957      68.60656741     102.26368124
H      92.18838731      68.69727428     100.23600490
C      90.03976850      74.79542109      95.35295211
O      92.27342500      75.45115612      95.50035076
N      88.24074905      76.23350281      96.34694815
H      86.47763440      75.50028900      96.35261733
C      88.66971692      78.79975115      97.30314966
H      90.67849599      79.24950601      97.33716474
C      87.39226193      80.74050007      95.56649118
H      87.53777086      82.60377021      96.43576529
H      85.41182876      80.33609864      95.17342811
C      88.95317587      80.90490626      93.12685451
H      89.16482521      79.03785666      92.28592630
H      90.83723300      81.53229540      93.67676487
C      87.85335515      82.70203598      90.98579460
H      88.10657848      84.66546162      91.55649195
H      85.84835553      82.36944415      90.65698222
N      89.25742180      82.39779005      88.61418808
H      90.78621039      83.52028748      88.40442846
C      88.63003267      80.97671586      86.62808572
N      86.62503305      79.64634853      86.62241654
H      86.16771928      78.71849292      85.01803890
H      85.41182876      79.50839851      88.08884416
N      90.03787877      80.69325691      84.68166762
H      89.57111637      79.32698479      83.43066880
H      91.79910369      81.43025017      84.67410871
C      87.43950509      79.12100462      99.92042061
O      85.23797394      78.78085388     100.23411518
N      89.04577246      80.15468491     101.65896882
H      90.83912273      80.31909110     101.02024132
C      88.63192239      80.37767262     104.40852060
H      86.97841187      79.27407245     104.94520287
C      90.71629052      79.00384159     105.78613108
H      90.18716715      78.67691894     107.74766700
H      92.40192639      80.17547190     105.60660708
C      91.49107830      76.44893161     104.83937820
H      92.62113464      76.85522277     103.16508069
C      93.42993750      75.12234374     106.53446270
H      94.02898074      73.36678800     105.64251188
H      92.29421199      74.88612795     108.23899584
H      95.14958845      76.23917199     106.70642780
C      89.25553208      74.67258888     104.39151306
H      88.05555587      75.33588281     102.85705530
H      88.36169153      74.34188677     106.21698868
H      90.19283633      72.94915848     103.75467530
C      88.11791684      83.03651754     105.30236115
O      86.79888787      83.37477855     107.16941074
N      88.99286012      85.01128154     103.87750751
H      90.11535755      84.54451914     102.40541071
C      88.12925519      87.57375042     103.73388831
H      87.15226669      88.09720461     105.47054679
C      90.46873637      89.23293012     103.24066974
H      89.76197873      91.01872149     102.50178675
H      91.67438176      88.56774646     101.70999143
C      92.05232702      89.40867467     105.84093315
H      92.68160588      87.50383054     106.30013664
H      90.78243094      90.03228435     107.33759639
C      94.35401367      91.25493728     105.79557971
H      93.58867451      93.16545058     105.71432148
H      95.36123779      90.82218995     104.05136233
C      95.62768920      90.84297694     108.37505613
H      95.60879194      88.82096978     108.75867057
H      94.44472053      91.82185517     109.74888716
N      98.05787724      91.88421614     108.40529175
H      99.12935206      90.62754814     107.44720051
H      98.84967257      92.00326890     110.13628106
H      97.87268406      93.52449858     107.44720051
C      86.15638092      87.77406141     101.69865307
O      86.17527819      86.19802966      99.93175897
N      84.75420400      89.75260486     101.97644284
H      85.18128215      90.82407968     103.49578279
C      82.72085849      90.37054536     100.25868162
H      81.80434122      88.61876907      99.68609454
C      80.72341777      92.46058266     101.29047218
H      81.74198026      94.09897538     102.00856818
C      78.81479420      93.24670881      99.36484107
H      77.73576047      91.65555925      98.62217863
H      79.65950186      94.40133159      97.88329564
H      77.45797070      94.43534666     100.35694739
C      79.36848401      91.05273656     103.52790814
H      80.88215478      90.32519193     104.72032544
H      78.17417698      89.52016852     102.84760667
C      77.86993104      92.60231214     105.52534885
H      76.21642052      93.51882940     104.70520763
H      79.07368670      94.05362195     106.36060788
H      77.09892270      91.36076195     106.97476893
C      83.72052371      91.34753387      97.69999219
O      85.58946303      92.79695395      97.71699973
N      82.56212148      90.51038511      95.71577956
H      81.02955344      89.40300549      95.97278234
C      83.50131545      91.33052633      93.16464904
H      84.72396838      92.98025740      93.33094495
C      84.82790333      89.19513559      91.92876803
H      86.24708779      88.49593686      93.24590727
H      85.86158362      89.93401858      90.30927258
C      83.31801200      86.98037636      90.88941856
C      83.20273870      86.69502768      88.29860378
H      83.80556139      88.18035256      87.03626661
C      82.06890291      84.51806297      87.29515911
H      81.64371449      84.20058895      85.32417457
C      80.88404451      82.68691817      88.93922100
O      79.51021348      80.79530213      87.94711469
H      79.15683466      81.06175354      86.18777949
C      81.08435550      82.86644217      91.62830155
H      80.12248481      81.64567897      92.94922024
C      82.31078788      85.05096579      92.48623729
H      82.39771529      85.35899118      94.50068554
C      81.21096716      91.97492300      91.43932891
O      79.06990725      91.41934346      92.16309409
N      81.39993979      93.03505946      89.16787789
H      83.18195171      93.25993689      88.51025313
C      79.24754152      93.70024312      87.43499886
H      77.49198578      93.18623757      88.37797229
C      79.32124085      96.51593533      87.04949469
H      80.64026982      96.87120388      85.50747802
H      80.06012384      97.35119436      88.78237372
C      76.76444115      97.87842800      86.52037132
H      75.59470056      97.50804165      88.17766130
H      75.84603416      96.93545457      84.93678067
C      77.54300839     100.69978939      86.10085208
H      79.11337095     100.77159899      84.77048476
H      78.28000165     101.40843676      87.88664345
C      75.34525669     102.34574101      85.32795402
H      73.94874894     102.17188619      86.83406589
H      74.56290999     101.66732926      83.54783183
N      75.95941774     105.10852088      85.45267596
H      77.40127892     105.10096197      86.70367477
H      74.44574696     106.06472239      86.11408016
H      76.89105281     105.71512302      83.90121065
C      79.20596754      92.02216616      85.04071562
O      81.13537811      90.99793450      84.24514084
N      77.05734873      91.77839146      83.69900994
H      75.50588342      92.71191626      84.30183263
C      76.51877673      90.04929189      81.68267196
H      78.14205163      88.97214789      81.01181912
C      74.44196751      88.25027244      82.59163032
H      72.89995084      89.39355686      83.33429276
H      75.19407858      87.21659214      84.20734632
C      73.83914482      86.29440570      80.51293137
O      74.99754704      84.21759649      80.38065053
O      72.19886238      86.98604553      78.88398729
C      75.63627454      91.77650174      79.55484013
O      74.52700519      93.79094999      80.04238952
N      76.07658077      91.16423041      77.14732881
H      77.30490287      89.72047951      76.90544384
C      75.61926700      92.80829230      74.85320107
H      76.37704725      94.69801862      75.18201344
C      76.75499252      91.51571951      72.53072743
H      75.28856490      90.40456043      71.60098208
C      77.51655222      93.33363622      70.29707093
H      78.41795167      92.42089841      68.68135493
H      78.78455858      94.79628439      71.00004911
H      75.75343757      94.26716102      69.79251400
O      78.86770653      89.96047475      72.89733433
H      78.78833803      88.65089442      74.15211260
C      72.87349467      93.29584169      74.42423319
O      72.40484254      95.00604401      72.92379050
N      71.21809442      91.88232641      75.61854022
H      71.75855614      90.32330220      76.58041092
C      68.51578579      92.49837719      75.83774847
H      67.69753430      92.83096902      73.97636806
C      66.96621021      90.16078574      76.88843630
H      67.07014516      90.13621930      78.94445853
H      67.87705830      88.47326014      76.14010468
C      64.18075363      90.00960764      76.27616498
H      63.27179527      91.79539900      76.74481711
H      63.21132403      88.46192179      77.23236649
C      63.50801106      89.68835416      73.40756044
O      63.51934942      91.77650174      72.20002532
O      62.68031094      87.67957509      72.61387538
C      68.03579531      94.86998371      77.37598569
O      65.86261005      95.60697697      77.69345971
N      70.07669973      95.74870645      78.54572628
H      71.75666642      94.83974809      78.54572628
C      70.05024356      97.88031773      80.28238476
H      68.82570091      99.35808371      79.53405314
H      71.90028562      98.78171718      80.34663546
C      69.26789686      97.55150535      83.04705436
O      68.90317969      99.55461524      84.21490522
N      68.99577627      95.22714199      84.07128602
H      68.81436255      93.72480957      82.90721461
C      68.51578579      94.79439466      86.78115355
H      67.82792541      96.61231137      87.46334475
C      66.39740259      92.71758544      86.90965494
H      65.67363742      92.59664296      88.83528606
H      67.15707257      90.92990435      86.22557402
C      64.15429746      93.31662868      85.21457044
C      63.13951443      91.40611538      83.80861406
H      63.88028715      89.51260962      83.94845381
C      61.09483056      91.74437639      82.37620152
H      60.44287498      90.24204397      81.15543832
C      59.81359612      94.11787264      82.27037684
O      57.71977937      94.54306106      80.78316224
H      56.83727718      96.12476198      80.90977390
C      60.97388808      96.17767432      83.49114004
H      60.23500509      98.06929036      83.29460851
C      63.02424113      95.75626535      85.18433482
H      63.71021178      97.27182586      86.36730349
C      70.85715669      93.94023837      88.35529557
O      72.64861724      92.98970603      87.34807145
N      70.64928680      93.96669453      90.86296239
H      69.12805712      95.01360291      91.33917342
C      72.69963985      93.04450809      92.58639279
H      74.47976204      93.04639782      91.55082277
C      72.92451728      94.78872548      94.93154314
H      73.84103454      93.70402258      96.42064748
H      71.00266562      95.17611938      95.55704255
C      74.15472911      97.33607655      94.48934718
C      72.70719875      99.62264539      94.36462525
H      70.70597859      99.53004880      94.75390887
C      73.81268865     102.03960534      94.39486087
H      72.77333917     103.79705082      94.41186841
C      76.56413016     102.11330467      94.15675535
O      77.71119403     104.30916665      94.12840946
H      76.39972397     105.50158395      94.52147253
C      78.00599134      99.83807419      93.97534163
H      80.03366767      99.89098653      93.73912584
C      76.80979458      97.45512931      94.22856495
H      77.91717420      95.74303727      94.29659510
C      72.30468705      90.26094124      93.44621826
O      70.24110592      89.51071989      94.17754234
N      74.43629833      88.91923555      93.70700049
H      76.15594927      89.54284524      93.16653877
C      74.47787231      86.16212486      93.98290053
H      72.62405080      85.39111653      94.44210403
C      75.20919639      84.91679522      91.39208576
H      76.26366367      83.16312920      91.63397073
C      72.73176520      84.45381228      89.69133208
H      71.75855614      86.19425021      89.18110597
H      71.21998415      83.62800188      90.82138841
H      73.09459265      83.08376070      88.19655856
O      76.74932334      86.55329821      90.03526226
H      78.44629757      86.43802490      90.66643085
C      76.49232056      85.39300625      95.91042137
O      78.25165576      86.91612566      96.50946461
N      76.23720751      83.10643741      96.65686327
H      74.63471959      82.15968453      96.23167484
C      78.02299887      81.63812007      98.36895530
H      79.95618889      82.17102289      97.90030318
C      77.56757483      82.43558457     101.15630162
H      77.52033167      84.49538625     101.13551463
C      74.96731142      81.43025017     102.18998191
H      73.45553037      81.37922756     100.79347416
H      74.20197227      82.64912365     103.66207871
H      75.18840940      79.44792727     102.69831829
C      79.89004847      81.98960916     103.00256422
H      81.42639596      82.63589556     101.79502911
H      80.23775811      79.98083009     103.28602317
C      79.97697588      83.43147034     105.48944405
H      81.91961453      83.58642790     106.15840717
H      78.78266885      82.41857704     106.82737028
H      78.91683942      85.19080554     105.35905294
C      77.82079816      78.75061826      97.91353126
O      76.54901235      78.07031679      96.13907826
N      79.16061411      77.09521801      99.24011914
H      80.44373828      77.87567498     100.41930835
C      79.48753676      74.46093953      98.58816356
H      77.59970018      73.64835722      98.47855943
H      80.25854510      73.39135444     100.17364393
C      80.88215478      74.03197166      96.08805564
O      82.81912425      75.11100538      95.67798504
N      79.59147171      72.58633103      94.34572798
H      77.98331462      71.65091650      94.76146777
C      79.82012860      72.81498791      91.63208100
H      81.05978906      74.35511486      91.05571447
C      80.32090607      70.29220329      90.39808972
H      78.66550582      69.06766063      90.47934795
C      80.84058080      70.44149166      87.54460298
H      82.80778590      70.74573760      87.01170016
H      79.58580253      71.77185899      86.59596037
H      80.10169782      68.64814139      86.85296315
C      82.64337971      68.91270308      91.62641182
H      81.98386522      68.10578994      93.40086483
H      84.14193267      70.19582724      92.21789616
C      83.62414766      66.61668561      90.09951296
H      85.14348762      65.75497041      91.19366449
H      84.66916631      67.03431512      88.37419284
H      82.10858716      65.27875938      89.70644989
C      77.18018094      73.59544488      90.76469662
O      75.27344709      72.16870151      90.95177953
N      76.93640624      75.86689591      89.71778824
H      78.55968114      76.86845085      89.67432454
C      74.65739631      76.80797961      88.48190724
H      73.88638797      75.31698555      87.28571048
H      75.04479020      78.23850243      87.05138442
C      72.37838638      77.65835645      90.21478626
O      70.50188815      78.55975590      89.19811351
N      72.43129871      77.14813035      92.72434281
H      74.07158115      76.35066585      93.28748125
C      70.35637922      77.50339890      94.54981843
H      68.78979611      76.40924736      93.78447927
C      71.08203412      76.51129258      97.23134006
H      72.37082747      77.89079279      98.05337101
H      72.17240621      74.77652383      97.02535990
C      69.23199206      76.02752265      99.04925678
N      67.69564457      73.90347027      99.29681092
H      67.92241173      72.23295221      98.40486010
C      65.65474015      74.62723545     100.69520840
H      63.90107413      73.58599625     100.57615564
N      65.95331691      77.04608513     101.48322427
H      64.59271397      78.14212639     102.24856343
C      68.09626655      77.99472774     100.38340355
H      68.72365569      79.93547666     100.49678713
C      69.50033320      80.31153220      94.93721232
O      70.71542722      81.79874681      96.15608579
N      67.29313287      81.04285628      93.95266491
H      66.30291628      79.61233346      93.16653877
C      66.03457514      83.48438268      94.02447451
H      67.28368424      84.85443425      93.12496479
C      63.80091864      83.27273333      92.31427220
H      62.49322803      81.92157902      93.15709013
H      64.41696942      82.29574483      90.60784934
C      62.37039582      85.74638507      91.76058239
H      62.09071633      86.54384958      93.63897034
C      63.80847755      87.66823673      90.23557325
H      64.78357632      87.09375993      88.51403258
H      65.35616340      88.42979644      91.35996041
H      62.37606500      89.12521572      89.97668075
C      59.68698446      85.10198840      90.73824045
H      58.79692336      84.04752112      92.26702904
H      60.03091465      83.81319506      89.16976761
H      58.74590075      86.74982975      89.93510677
C      65.22388255      84.33098006      96.67198108
O      63.78013165      82.98171548      97.97400251
N      66.27834984      86.38700229      97.52235792
H      67.58793017      87.26383530      96.44143447
C      65.73221893      87.49438191      99.90908225
H      65.36750175      86.13377897     101.40952494
C      68.13406108      88.88522048     100.82370979
H      67.64084251      90.20424945     102.32604220
H      68.82570091      90.07763778      99.29303147
C      70.13717097      87.02006061     101.81392637
H      70.85715669      85.65945766     100.44387480
C      72.43696789      88.77750608     102.53391210
H      72.97553989      90.04929189     101.00701324
H      73.98087429      87.53028671     103.08949163
H      71.92863151      89.81307610     104.23844523
C      69.36238318      85.78984878     104.32159319
H      71.00266562      85.06797333     105.34015567
H      68.06036175      84.22704512     104.00033972
H      68.73688377      87.26572503     105.61416599
C      63.49289325      89.30284999      99.78058086
O      61.74489641      88.91167665     101.26779547
N      63.45509873      91.07730300      97.93053880
H      64.97443868      91.32296742      96.80615164
C      61.45198883      92.86120464      97.40519489
H      59.65863856      91.88988532      97.69243328
C      61.44254020      95.19501664      99.20043488