 %block lattice_cart
   139.252   0.000   0.000
   0.000 142.425   0.000
   0.000   0.000   162.84
 %endblock lattice_cart

 %block positions_abs
N      92.81199699      41.78095753      80.74820230
H      92.29799145      40.26728677      79.70507338
H      92.30555035      41.40868145      82.55100120
H      94.69227469      42.10599046      80.74631257
C      91.31155430      43.86721539      79.68239666
H      92.04854757      45.54907181      80.61403173
C      91.64414613      44.18090996      76.81946130
H      90.81266657      42.54818643      75.88026732
H      93.68127111      44.26594765      76.52088454
C      90.45172883      46.41645619      75.68373578
H      88.52798745      46.33708767      76.42072904
H      90.60668639      46.21614520      73.63716218
S      91.75941944      49.37576759      76.65316538
C      89.73741229      51.55084258      75.01666239
H      90.70873162      53.33285448      74.66517330
H      88.01398190      51.89099332      76.09191667
H      89.25553207      50.88376918      73.12882581
C      88.45995730      43.48738040      80.29844744
O      87.27320918      41.64678697      79.53688773
N      87.48107907      45.27317177      81.73463944
H      88.68861419      46.64133362      82.29588815
C      84.72207865      45.57552797      82.48297106
H      83.56367642      44.45869973      81.20362634
C      84.18917583      44.57019357      85.23819202
H      84.82790332      42.61432685      85.19850777
H      82.16716867      44.37744149      85.56700440
C      85.31734245      46.26905754      87.31500124
O      85.71985414      48.55562638      86.86146692
N      85.24553284      45.23726697      89.63747488
H      86.15638093      46.07063626      91.09445386
H      84.23074981      43.66501468      90.01353041
C      83.70918535      48.09831261      81.89337645
O      85.21340749      49.85575808      81.30567156
N      81.21285689      48.54806747      82.24297581
H      79.89382792      47.18935425      82.01242920
C      80.16027933      51.23336855      82.05589291
H      80.56090131      51.81729398      80.12270289
C      77.21608574      50.91211509      82.40171282
H      76.68129319      49.54017377      80.95985165
C      76.54334317      50.03528207      85.05488857
H      76.85325829      51.59997546      86.36068945
H      77.59025155      48.40444826      85.74652840
H      74.50243875      49.76883067      85.18150023
C      75.84225470      53.29883942      81.80455931
H      76.40728287      54.75392868      83.15004444
H      73.78812221      53.32151614      81.93684015
C      76.39027533      54.51393343      79.19673700
H      74.97109087      55.81973431      78.47675127
H      76.66428565      52.99081402      77.83424433
H      78.20441260      55.48525276      79.30823085
C      81.26198977      53.13065377      83.94183977
O      81.52655146      55.40210481      83.32956844
N      81.75142888      52.38799134      86.23596751
H      82.09913854      50.51905200      86.41171206
C      82.94573592      54.13409844      88.09356848
H      81.77977479      55.80083706      88.41860140
C      83.07423730      52.64688384      90.67304490
H      84.39326628      53.57851892      91.95238961
H      84.02099019      50.83463631      90.42360102
C      80.61003419      52.19523925      92.10167799
C      80.02610877      53.64276960      94.24840708
H      81.48308775      54.78227458      95.11012228
C      77.80945980      53.19490447      95.52208262
H      77.48442687      53.98292035      97.37968358
C      76.09547803      51.42801036      94.69627222
H      74.23220789      51.38265693      95.52586207
C      76.62460140      49.97859029      92.53631504
H      75.37927176      48.42145581      92.09789854
C      78.98675929      50.25638006      91.31555184
H      79.54611829      49.01860931      89.79054271
C      85.46663083      54.97880611      87.29421425
O      86.40204535      56.90254750      88.14648082
N      86.57401044      53.75048401      85.42338520
H      85.88048088      52.00437690      85.08890364
C      88.94183752      54.45535192      84.26120352
H      90.04354796      55.57595963      85.59157084
C      90.64070147      52.02894334      83.78877194
H      89.79032462      51.09352880      82.16171758
H      90.60290693      50.85164384      85.48007699
C      93.32789228      53.01160102      83.03288141
H      93.32411283      54.27960737      81.41338596
H      94.39936711      51.29006035      82.66627451
C      94.92282130      53.98103062      85.20417695
O      97.25285383      54.01504569      85.01709404
O      94.00063485      54.64810401      87.32444987
C      88.48263402      55.83485212      81.79889013
O      89.85268559      57.69623255      81.25086950
N      86.72518855      54.99014447      80.20963030
H      85.99575419      53.30828804      80.74253312
C      85.81245073      56.48491799      78.03266559
H      87.26942973      56.84396598      76.62292976
C      83.52210245      55.18856573      76.91394761
H      81.83268713      55.47202468      78.06101148
H      83.65060383      53.13443323      76.85725582
C      83.02321470      56.16177478      74.20974926
H      84.53877521      55.52304729      72.97008880
H      82.83235235      58.21401755      74.20785953
S      80.06012383      54.66322181      73.30079090
C      80.57412939      53.78638881      70.00132876
H      78.93006750      52.62420712      69.57236089
H      82.23708855      52.58074342      69.86904792
H      80.60247530      55.41155344      68.73332240
C      85.17561296      59.20234441      78.71863624
O      86.11291722      60.95601044      77.59613881
N      83.79044358      59.73902669      80.79355573
H      82.95707427      58.28582715      81.71007299
C      83.23864349      62.21456817      81.80266958
H      82.79266809      63.15754159      80.02632685
C      80.83869108      62.03315444      83.52421025
H      80.27555263      63.88697595      84.22340899
H      81.38671171      61.01081250      85.22496394
C      78.48787154      60.94467207      82.29210870
H      79.06612779      59.07762248      81.64393257
C      76.63782948      60.52137339      84.36135901
H      76.21264106      62.33362092      85.24197147
H      77.53355975      59.37430952      85.82022772
H      74.99565732      59.58973831      83.53365889
C      77.44096316      62.45456341      80.03010630
H      76.26933285      61.21868240      78.87170407
H      78.95463394      63.19155667      78.84335818
H      76.12193421      63.92854992      80.59891392
C      85.51009452      63.64509098      82.88926221
O      85.58757331      65.93921873      82.94973346
N      87.42438728      62.27503941      83.74341851
H      87.42816673      60.37397474      83.58657122
C      89.73741229      63.47690533      84.93016663
H      89.07033890      65.13041587      85.96006747
C      91.22462690      61.80071810      86.86713610
H      92.00130441      60.18122264      85.86369143
H      89.96795890      61.26781528      88.40915277
C      93.51308546      63.09896008      88.28821029
H      92.73640794      64.57861578      89.49763513
H      94.89825484      63.85863005      86.96540187
C      94.76597401      61.08829128      89.95872835
H      93.32222311      59.89965343      90.82422300
H      95.79965430      61.75347495      91.61223887
N      96.40625644      59.36297116      88.53765416
H      95.58989467      57.64709966      88.35813016
C      98.91770271      59.22313141      88.47907265
N     100.51074199      60.99569469      88.93638641
H     102.35322515      60.51192476      89.07055698
H      99.86634532      62.50180657      89.91337492
N     100.11767893      57.08774067      88.03687669
H     101.98661824      56.81373036      87.75530747
H      99.09533699      55.70824047      87.20728684
C      91.42304816      64.43121713      82.68517177
O      92.81577645      66.27559000      82.99508689
N      91.40793034      63.03659911      80.60269337
H      90.41015486      61.41143448      80.52143514
C      92.67404698      64.01925679      78.32179371
H      94.48251507      64.76380896      78.97185957
C      93.14458884      61.80449755      76.34325026
H      91.30966459      60.90876728      76.05790159
C      94.16504104      62.59818260      73.72597932
H      95.85634609      63.72634921      74.05101225
H      92.69672370      63.64698071      72.73009355
H      94.62235480      60.84262685      72.75277027
C      94.96061581      59.81650546      77.47708605
H      94.34645477      59.65587874      79.43862197
H      96.88057775      60.55538845      77.57913127
C      95.03620488      57.14443247      76.38671397
H      96.63680306      56.26948918      77.34669494
H      95.48029056      57.27482357      74.37982463
H      93.42237859      56.02949393      77.02355174
C      91.13392003      66.05827149      76.99898530
O      92.33578596      67.89130601      76.13538037
N      88.59601760      65.84851187      77.02166201
H      87.80800172      64.19689107      77.56401346
C      86.92172009      67.55871418      75.69318441
H      87.87225241      68.12563207      73.95841566
C      84.50664986      66.14141944      74.76154934
H      83.05345031      67.53981692      74.33636092
H      83.52021271      65.07939325      76.22230778
C      84.83168278      64.55782878      72.45986269
O      83.42194696      62.61896960      72.29356678
O      86.27543368      65.13419531      70.67029187
C      86.10724805      69.90197480      77.02166201
O      85.70473634      71.74634769      75.72719949
N      85.97685692      70.04181454      79.55767472
H      86.36047136      68.48656979      80.59135502
C      85.00364787      72.14696967      80.88804205
H      84.81845469      73.70221442      79.55200554
C      82.46763516      71.62540519      82.29399842
H      82.76054275      70.34983994      83.88325825
H      81.26954868      70.71455712      80.88804205
C      81.10703222      73.97244529      83.22563350
H      82.28433172      74.87762419      84.65048714
H      79.47808814      73.42820411      84.36324874
C      80.33980333      75.79036199      81.14504483
O      78.27244275      75.84327434      80.03955493
O      81.85914328      77.52135130      80.48175089
C      86.79510841      72.99923623      83.05177868
O      87.56422703      75.21777493      83.24075131
N      87.71729486      71.20021678      84.51820629
H      87.22407630      69.40119732      84.12136377
C      89.42938689      71.44021202      86.69517101
H      91.32478239      72.10728540      86.24541614
H      89.95284108      69.56560352      87.36980330
C      88.43161140      72.90286018      89.09701315
O      86.20551381      73.73811921      89.22173509
N      90.24196921      73.36395341      90.82800245
H      92.00319414      72.64396769      90.69383189
C      89.62969788      74.16141792      93.51141382
H      87.70973595      73.53969795      93.92526388
C      91.32478239      72.78947661      95.39169150
H      93.30332584      73.02002321      94.86256813
H      91.34178993      70.74101328      95.16114489
C      90.57645077      73.24868011      98.22250152
H      90.64637064      75.20076739      98.87067764
C      88.03665860      72.08271896      98.79697832
H      87.57745511      70.46133380      97.61967882
H      86.72707827      73.66253017      98.58910842
H      88.00264354      71.47233737     100.76229368
C      92.69483396      71.70666343      99.67381133
H      94.41448492      72.80837388      99.43192636
H      92.91404223      69.75457615      99.05587082
H      92.10901881      71.59139013     101.64668560
C      89.87725203      77.12828823      93.95360978
O      92.09012154      78.01645960      93.92526388
N      87.93272365      78.55503158      94.63580097
H      86.21496244      77.76890545      94.91925992
C      88.13303465      81.08348539      95.76585731
H      90.11724727      81.61449850      95.92081487
C      86.87825638      83.26800902      94.07455226
H      87.10313380      85.15584560      94.87012704
H      84.85246976      83.03368296      93.77975495
C      88.35035318      83.28879600      91.59334161
H      88.76042379      81.39151078      90.90548123
H      90.20039524      84.09003997      92.02041976
C      87.27887835      84.89695310      89.43716389
H      88.93427861      85.77378610      88.58867677
H      85.93150349      86.31235811      90.08534001
N      86.08457132      83.15840488      87.61168827
H      85.70851579      81.36505462      88.14648082
C      85.25687121      83.47209946      85.34023724
N      85.66883154      85.55268813      84.05144390
H      84.86380812      86.10448820      82.41116146
H      86.38503780      86.96809314      85.11158036
N      83.96807785      81.69953618      84.27821105
H      83.46541065      81.84126565      82.44139708
H      83.20840788      80.29546953      85.32511943
C      86.98408105      81.16285391      98.43415086
O      84.99986842      80.08948935      98.87067764
N      88.22185178      82.68786304     100.15002236
H      89.49930678      83.85571390      99.34688867
C      87.79855309      82.46487534     102.75973439
H      86.26409532      81.08915457     102.81075700
C      90.18149797      81.59182177     104.26773599
H      89.92827464      81.91118553     106.28596369
H      91.68005093      82.85415896     103.62333932
C      90.79187957      78.83660081     104.04474829
H      90.32322744      78.19787331     102.14368362
C      93.54332109      78.42086103     104.47182643
H      93.89669990      79.28446595     106.30675068
H      94.46361780      79.45643105     102.94870703
H      94.08000336      76.43286894     104.43214218
C      89.26687043      77.11317041     105.92313624
H      90.02465068      77.53268965     107.79396529
H      89.33490058      75.11761943     105.42046904
H      87.29021671      77.68386775     106.03651982
C      86.53999537      84.90829145     103.85766538
O      85.53277124      84.87805583     105.92691569
N      86.68928374      86.98510067     102.42147338
H      87.63603663      86.79045887     100.77552177
C      85.27954791      89.47009078     102.86366934
H      84.81089579      89.64016614     104.86488951
C      87.03132421      91.57713562     102.35533296
H      86.15449119      93.38938314     102.78619056
H      87.12581052      91.80201304     100.31064909
C      89.68827941      91.35792736     103.28696804
H      90.75975422      89.92362508     102.26651583
H      89.86780340      90.90817250     105.28818820
C      91.22840634      93.85803528     102.98650155
H      90.14370344      95.57579650     103.31720366
H      92.07500373      94.30967987     101.16291566
C      93.52631354      93.73331334     104.80630799
H      94.46361780      91.92106580     104.50773123
H      92.70806205      93.82213047     106.69414458
N      95.31210491      95.89327051     104.53985658
H      96.25318861      96.12570684     106.18391847
H      94.40503628      97.37670567     103.74995098
H      96.65947977      95.42461839     103.27373995
C      82.93439756      89.66851204     101.15724648
O      82.85502905      88.17940771      99.43003663
N      81.22419525      91.53178218     101.48605886
H      81.39049116      92.66750769     103.01106799
C      79.13415794      91.83413839      99.87223259
H      78.27433247      89.98598605      99.57743528
C      77.09325352      93.59725305     100.93425878
H      78.05134477      95.38115468     101.32165267
C      74.94463472      93.82779966      98.88201600
H      73.39505913      95.03722450      99.49617705
H      74.19063392      91.96452951      98.44170977
H      75.66273071      94.71030183      97.16614451
C      75.88949787      92.60325701     103.32854201
H      77.41639672      92.60325701     104.71182168
H      75.16951214      90.72297932     102.89768442
C      73.87504961      94.17550929     104.60032782
H      73.25332966      93.22686669     106.31997877
H      72.29901788      94.60636690     103.34554955
H      74.81424359      95.91972668     105.16913544
C      80.28878073      92.96797417      97.29653562
O      81.72497272      94.78022171      97.27385891
N      79.65194296      91.90783771      95.13657845
H      78.24787631      90.61715464      95.18760106
C      80.29822935      92.60892618      92.53253559
H      81.32624046      94.36826138      92.23773828
C      82.20685294      90.68518479      91.46106077
H      83.92272442      90.55101423      92.59300683
H      82.98919962      91.39950133      89.69416667
C      81.18829045      88.07358303      90.83934081
C      80.27366291      87.52178294      88.32789454
H      80.46641500      88.98065166      86.91626899
C      79.54989774      85.07647710      87.61357800
H      79.06423807      84.79112842      85.65204208
C      79.55178746      83.25289120      89.55621665
O      78.73353596      80.96821209      88.93638641
H      78.47464346      80.88317441      87.14303614
C      80.33980333      83.76500703      92.01475058
H      80.02421903      82.27401298      93.37346380
C      81.15049593      86.14228273      92.65725752
H      81.96496796      86.40306496      94.50918931
C      77.85670296      92.79789881      90.86201753
O      76.08980886      91.32013283      91.31744157
N      77.92284337      94.14149421      88.72662679
H      79.43273471      95.25643274      88.37135825
C      76.00288144      94.20196547      86.79910595
H      74.20764145      93.75410032      87.70806431
C      75.70808414      96.86647957      85.71062360
H      74.48921067      96.86270011      84.04766444
H      77.52600086      97.48064061      84.96607143
C      74.71030864      98.85069220      87.44161290
H      76.07658077      99.11525388      88.95906313
H      73.06246730      98.00598453      88.34490208
C      74.15283938     101.41127135      86.31911547
H      73.00766523     102.22385365      87.82900680
H      72.84892823     101.07867952      84.75820154
C      76.41295206     103.07045104      85.86558116
H      77.51088304     102.04055021      84.45773505
H      77.47875769     102.95517775      87.62113690
N      75.79123209     105.76520077      85.26086874
H      74.66306549     106.78754271      86.41360179
H      74.97487033     105.88803298      83.54121779
H      77.15183504     107.07856055      84.99819678
C      76.57735824      92.03633910      84.93961526
O      78.61070376      91.79067468      83.86058154
N      74.68574220      90.26377582      84.63158987
H      72.99632689      90.52455805      85.48007699
C      74.75377235      88.16240016      82.89115194
H      76.51121782      87.10415343      83.06311703
C      72.48043159      86.35771154      83.31067118
H      70.69652995      87.35926649      83.54877670
H      72.79601589      85.39773057      85.10591118
C      72.40673227      84.32436603      81.26409758
O      73.74843795      82.43086025      81.64015312
O      70.80046490      84.62861195      79.53121855
C      74.64227851      89.23576472      80.14537961
O      73.86749072      91.43918559      79.82979531
N      75.14116624      87.69752750      78.29533755
H      75.90461568      85.96275873      78.53155334
C      74.71597783      88.32302691      75.60625700
H      76.31468628      89.49276749      75.03555966
C      75.11093063      86.04779643      74.10392458
H      73.38561050      84.93474762      74.26455132
C      75.40572793      86.51644855      71.25421730
H      73.63694410      86.98888012      70.31124387
H      76.32035547      84.81758459      70.53234185
H      76.66995483      88.13027482      71.05390631
O      77.17451175      84.51333865      74.97319869
H      76.51877673      83.02423432      75.77444264
C      72.24610553      89.73087301      74.98075759
O      72.15161921      91.60170206      73.62393410
N      70.17685522      89.05813043      76.06923995
H      70.32614360      87.74855011      77.45251961
C      67.65785005      90.32235735      76.01254816
H      67.33470684      90.82502453      74.04156362
C      65.65285042      88.44585912      76.91394761
H      63.88973577      89.48709831      77.10858942
H      66.29157792      87.45942197      78.60714239
C      65.16719076      86.40684443      74.93162471
H      63.54391586      85.38072304      75.67428715
H      66.77156840      85.21442712      74.43084724
C      64.15996664      87.43485553      72.33136130
O      64.57192697      85.97409710      70.48887815
O      63.13384525      89.53623119      72.19908046
C      67.31203013      92.85837005      77.37315111
O      65.27301544      94.11503805      77.19740656
N      69.33970647      93.83535855      78.47864100
H      71.06313686      93.11726255      78.08557793
C      69.34915509      96.22019316      79.80900832
H      68.10193573      97.39371320      78.66761363
H      71.29935266      96.87970764      79.86570011
C      68.40807139      96.19373699      82.58501628
O      68.07925901      98.20818524      83.82656646
N      67.42541371      94.07913326      83.52043080
H      67.36683220      92.54845493      82.37903611
C      66.30858546      93.90149897      86.06967160
H      65.67552714      95.75909995      86.69895046
C      63.95776592      92.04011856      86.12069421
H      63.13384525      92.07224391      88.00853079
H      64.58137561      90.07669291      86.06589215
C      61.86205944      92.69018442      84.24986516
C      60.79247435      90.89494441      82.45273543
H      61.58426967      89.02033592      82.59257518
C      58.78180555      91.53367191      80.84646807
H      57.92009035      90.21842240      79.54633637
C      57.65741839      93.90338870      81.05055851
O      55.62407288      94.40794562      79.67105830
H      55.07416252      96.05767671      80.19073304
C      58.69487814      95.78744583      82.66060533
H      57.87284719      97.65260570      82.53210394
C      60.66586268      95.07879847      84.30844667
H      61.37828950      96.51499046      85.56700440
C      68.28334946      93.12482146      87.98396435
O      70.07103054      91.71697536      87.34145741
N      68.08492820      94.10180997      90.20439277
H      66.84715746      95.52099442      90.51430789
C      69.75922571      93.51599481      92.30387870
H      71.66973902      93.75221059      91.57066489
C      69.25088933      95.39249304      94.52241740
H      70.65495598      95.13737998      96.00774228
H      67.38195000      94.95218680      95.26885929
C      69.28868385      98.19873662      94.07077281
C      67.05691708      99.56878819      94.01408102
H      65.21254419      98.80533875      94.42982081
C      67.23833081     102.16338242      93.45283230
H      65.54135657     103.29154902      93.33566927
C      69.39261880     103.45973466      93.07110759
O      69.24333042     105.96173230      92.54765340
H      67.56903291     106.62124680      92.76875138
C      71.75288696     102.23330230      93.35267681
H      73.42151530     103.40682234      93.29598502
C      71.67540819      99.55178066      93.70605563
H      73.27033719      98.27810512      93.78542413
C      69.69119556      90.73809712      93.19205007
O      67.67674732      89.50221613      93.59834123
N      71.95886713      89.68174013      93.67393028
H      73.42151530      90.85903962      93.33566927
C      72.49743914      86.95864450      93.49251656
H      70.81747244      85.93441284      94.10478788
C      73.03412141      86.17629781      90.69005243
H      74.76511071      86.96431369      89.89447766
C      73.28167555      83.23777340      90.55399214
H      74.86337647      82.59715617      91.70861492
H      73.75032769      82.73888564      88.61135349
H      71.66784928      82.26456434      91.38547172
O      70.92140739      86.93596779      89.15748439
H      70.98754781      88.74821533      89.17827138
C      74.52700519      86.38983688      95.28019765
O      76.30712739      87.86571314      95.77719567
N      74.38716544      84.20909271      96.51985811
H      72.84325906      83.11872064      96.24584779
C      76.24287668      83.27367820      98.32832619
H      77.95874817      84.31869685      97.88424051
C      75.88571841      83.99366391     101.09299579
H      75.33013887      85.96842792     100.91158206
C      73.89016742      82.23054927     102.23628021
H      73.37427214      83.32470081     103.90112909
H      74.89550182      80.54680312     102.86933852
H      72.15350894      81.95275951     101.16669511
C      78.35937015      83.99366391     102.66146863
H      79.95240943      84.82892295     101.65991368
H      78.90361133      82.04724581     103.05075225
C      78.43306949      85.34481824     105.17291490
H      77.17829122      84.40940371     106.51273085
H      77.54678784      87.19863974     105.00283953
H      80.24720674      85.69441760     106.07998353
C      76.70208018      80.47121408      97.70660623
O      75.11282035      78.95376384      96.86000885
N      78.98486956      79.62461669      98.33399537
H      80.36814922      80.93797647      98.29242139
C      79.92784299      76.97333067      98.27352413
H      78.65605719      75.60327908      99.14090850
H      81.43773433      76.73711488      99.65491406
C      80.50987871      76.27791138      95.52586207
O      81.40938843      77.93520136      94.03297828
N      79.77288544      74.03480624      94.64147015
H      78.83747091      72.97466979      95.92459432
C      79.79556215      73.24679038      92.03553757
H      81.11837058      74.56392962      91.16248401
C      80.64593899      70.50668723      91.63302586
H      79.10581206      69.23868087      92.13947252
C      81.15238565      69.92654124      88.82111311
H      81.28655621      67.94232861      88.29010002
H      82.87770578      70.92431674      88.30332810
H      79.86359230      70.84305851      87.50586360
C      83.08935511      69.85284191      93.23740350
H      82.98730990      70.33850159      95.23673394
H      84.59924645      71.09250237      92.58922738
C      84.08902033      67.02203191      93.29409529
H      85.74064114      66.86140517      94.51485849
H      84.52176766      66.24535438      91.43649433
H      82.63393107      65.71245156      93.94227142
C      77.08380489      73.66253017      90.95461412
O      75.46997863      72.00335046      90.89414287
N      76.46775411      76.01523943      90.25352565
H      77.83969543      77.27568688      90.67115517
C      74.30401749      76.68420253      88.67560418
H      74.16228802      75.33871740      87.12224915
H      74.68574220      78.49078090      87.76475610
C      71.70753354      77.00545602      90.08722974
O      69.78001269      77.44954170      88.71717816
N      71.53934789      76.81648338      92.63269108
H      73.13238717      76.65207720      93.66826110
C      69.15451329      77.10183206      93.94605087
H      67.83359459      75.94342982      92.87079660
C      69.26978659      75.94154010      96.61245470
H      70.46409363      77.00167656      97.91636585
H      70.03512574      74.03102680      96.53308619
C      66.81125266      75.38785028      97.72361377
N      65.61316618      72.96711088      97.83699735
H      66.31614436      71.42509422      96.95827461
C      63.57226175      73.07671500      99.25807154
H      62.26079169      71.53469834      99.51129486
N      63.39084803      75.48611605     100.04797714
H      61.95654576      76.28736002     101.01740673
C      65.40718600      76.96955121      99.13145987
H      65.70954221      78.98022001      99.31098387
C      68.11516381      79.81547905      94.11234679
O      69.32269892      81.27245803      95.52775179
N      65.99300116      80.58837711      92.90103222
H      64.92152634      79.31659129      91.96561769
C      64.92908525      83.17163297      92.97284182
H      66.17063543      84.70798047      92.38702666
C      62.89007055      83.25478093      90.92815795
H      61.25545729      82.09070952      91.39114090
H      63.68942479      82.37983764      89.24441180
C      61.71466079      85.97976628      90.28376128
H      63.11494799      87.44052471      89.91526464
C      60.59027363      85.73221213      87.60790882
H      62.11150331      85.11049216      86.36446890
H      60.11217287      87.60493091      86.89926145
H      59.12384601      84.30924821      87.35279576
C      59.51501936      86.87171709      91.94105125
H      58.56637675      88.57436051      91.28153677
H      60.23500509      87.33658976      93.81565975
H      58.07126846      85.40906892      92.05443483
C      63.87272824      83.74233032      95.68081963
O      62.35149856      82.30802805      96.72583828
N      64.52657354      86.06102451      96.48017386
H      65.65851960      87.18163220      95.43137575
C      63.74989603      86.96242396      99.05398109
H      63.39084803      85.29379563     100.20671415
C      65.98544226      88.51577898     100.19537579
H      65.33726613      89.50221613     101.88479111
H      66.85660609      89.90094837      98.94626669
C      67.99989052      86.57314034     101.14779785
H      68.54224196      85.25600110      99.66247297
C      70.35826894      88.12271592     101.72416437
H      69.83670448      89.79890316     102.80130837
H      71.23321223      88.80868657      99.98939562
H      71.70753354      86.99454931     102.79563919
C      67.28746369      85.00088804     103.45326395
H      66.71676634      86.38794716     104.87055869
H      68.96743039      83.91618514     103.93514416
H      65.72466002      83.74988923     102.96760429
C      61.38206896      88.64428037      99.22783592
O      60.03658382      88.60081666     101.04386290
N      60.92097574      90.12771554      97.27763836
H      62.38362390      90.14472307      96.05120598
C      58.50968496      91.40706024      96.65591840
H      57.03380871      90.00866278      96.98473078
C      57.88040610      93.56134825      98.49840156