 %block lattice_cart
   139.252   0.000   0.000
   0.000 142.425   0.000
   0.000   0.000   162.84
 %endblock lattice_cart

 %block positions_abs
N      88.27476412      38.69314474      80.68773106
H      89.96984863      37.88245216      80.35324950
H      87.34123932      38.11488850      79.12870684
H      87.39793111      38.15835219      82.29588814
C      88.17460863      41.45970406      80.61403173
H      89.21962728      42.27039665      82.19762239
C      88.99852930      42.28173502      77.89471556
H      87.84768598      41.30096706      76.49064891
H      90.98841111      41.75261165      77.83613406
C      89.21206837      45.14467037      77.48086550
H      87.36769549      46.02150339      77.75298609
H      89.60135200      45.49049030      75.48720425
S      91.62713860      46.44858154      79.51421102
C      91.19817073      49.74426423      78.78288693
H      92.34145515      50.91967399      80.02632684
H      89.25931153      50.28472594      79.22130343
H      91.68760984      50.09008413      76.81190238
C      85.41560821      42.27984529      80.92394685
O      83.77721550      40.79641014      80.12837206
N      84.85624922      44.68924633      81.71007300
H      86.24897752      45.98181914      81.87447918
C      82.28244198      45.42246015      82.24297581
H      81.25821032      44.69113607      80.61214200
C      81.59836106      44.24516065      84.78276797
H      82.07268236      42.24205077      84.75253235
H      79.55934637      44.17335105      85.06622692
C      82.51298859      45.77583896      87.07500599
O      81.20529799      47.43501867      87.94805956
N      84.61436426      45.23726696      87.99908217
H      84.96774308      46.23693219      89.58645227
H      85.43639520      43.54029274      87.68916705
C      81.79300287      48.20602701      82.00864975
O      83.36714489      49.87843479      81.72708053
N      79.32124085      48.59342090      82.19951210
H      78.29700919      47.27250221      83.11791910
C      77.85481323      50.99526305      82.14093060
H      78.04756532      51.80595563      80.25876318
C      75.07124637      50.39244034      82.80800398
H      74.46653395      48.76538600      81.69873463
C      74.60259425      49.48348199      85.54999686
H      76.22019997      48.33452839      86.09801749
H      72.80168507      48.48570650      85.64637290
H      74.49299012      51.16155895      86.73863472
C      73.27600638      52.62231739      82.09557716
H      73.48765572      54.16055462      83.44673147
H      71.32013964      52.03083306      82.35069022
C      73.51978107      53.94512581      79.52554937
H      74.49487985      53.01915992      77.96463544
H      74.50810793      55.70635075      79.93561999
H      71.70375408      54.66511155      78.86981434
C      78.71841816      53.13632295      83.87003017
O      78.85069900      55.24714725      82.86280604
N      79.42517580      52.75648796      86.35690999
H      79.54989774      51.01227058      87.12035943
C      80.43995883      54.89754788      87.88947803
H      79.33824839      56.63798582      87.98018489
C      80.91428013      53.91111075      90.73729559
H      81.81567959      55.49281166      91.70105600
H      82.26354472      52.35964544      90.84878944
C      78.58235786      53.19679420      92.24529718
C      77.61670772      54.90699651      94.03675773
H      78.42929003      56.72680295      94.46572561
C      75.39816903      54.14354709      95.41436821
H      74.77455934      55.36431028      96.92992872
C      74.09614760      51.85886797      94.96650308
H      72.37460693      51.41667201      95.97183748
C      75.09959227      50.21102663      93.22795487
H      74.34559147      48.35153594      92.84623016
C      77.30679260      50.80440068      91.92404371
H      78.01543997      49.33986280      90.68816270
C      83.17817226      55.79327815      86.88414364
O      83.56367643      58.02315521      86.58556689
N      84.74097592      53.96969226      86.18683463
H      83.91327579      52.25382077      86.09423804
C      87.28643726      54.32874025      85.17961050
H      88.29555111      55.46635551      86.57044907
C      88.81711558      51.75115357      84.96985088
H      90.63881174      52.33696872      84.20262200
H      87.78343528      50.48314722      83.71885206
C      88.97585259      50.48881640      87.62869580
H      90.05488631      48.73892982      87.49830468
H      87.00108859      50.06551769      88.04254586
C      89.91882602      52.31807147      89.74707901
O      88.60924568      52.43712422      91.76719644
O      91.84256740      53.64087988      89.47306869
C      87.26376055      55.81784459      82.75509164
O      88.62625322      57.63954075      82.37903610
N      85.57434522      55.11486641      81.07323523
H      84.75609373      53.40655382      81.30756129
C      85.12081091      56.47168989      78.77154857
H      86.80833650      56.38854195      77.59046964
C      83.00998662      55.06384379      77.58102100
H      81.28466649      55.43989933      78.63926774
H      83.58446341      53.08530035      77.60180798
C      82.41661255      55.69312265      74.82768977
H      83.99831348      55.39643563      73.54267586
H      82.08024127      57.72079900      74.96563978
S      79.60658953      53.96780253      73.70519233
C      79.91650464      54.88243007      70.30935415
H      78.62582157      53.75615319      69.16418001
H      81.75898780      54.32685053      69.57425061
H      79.62737652      56.91766530      70.19030138
C      84.42917108      59.26848484      79.17406028
O      85.40238013      60.92010563      77.77188335
N      82.85880851      59.68422463      81.15827291
H      82.25220636      58.17622303      82.15415868
C      82.10102826      62.20511954      81.96140659
H      81.63993504      63.38241902      80.33435223
C      79.57446418      61.85363043      83.51665134
H      79.48753677      63.59595810      84.60891315
H      79.74831900      60.26059116      84.81111388
C      77.17073231      61.44544955      81.95762713
H      77.39749947      60.05083154      80.45718444
C      75.05234911      60.81617069      83.84357400
H      75.36226423      59.01904097      84.80355497
H      73.21175568      60.41743845      83.01209443
H      74.83692031      62.25425241      85.30433245
C      76.35437054      63.90398348      80.80111464
H      75.94618966      65.42710289      82.12770251
H      74.70086002      63.63564236      79.60302816
H      77.71497349      64.75813978      79.51421102
C      84.14949158      63.73201839      83.25775884
O      84.07768198      66.02992559      83.20106705
N      86.15449120      62.43755587      84.27065214
H      85.89181924      60.54971929      84.15348911
C      88.52987718      63.16699022      85.68416742
H      88.18972644      64.63908703      87.08256490
C      89.64670543      61.11474744      87.38681084
H      91.09045633      60.10374387      86.32289492
H      88.10657848      59.84296165      87.89892667
C      90.76731313      61.94433730      89.96061807
H      89.24419372      62.70778673      91.11713058
H      92.16382088      63.38241902      89.48251731
C      91.95973043      59.82406437      91.60656970
H      92.86301961      60.58940354      93.29031584
H      93.27686967      58.69967723      90.49163117
N      89.90181848      58.05528055      92.47395407
H      90.07378357      56.31484261      91.70672518
C      88.24830795      58.22346620      94.32399614
N      87.90437777      60.18689182      95.74696004
H      86.72518855      60.05839045      97.24173355
H      89.27253962      61.51914888      95.70538606
N      86.88959474      56.22980493      94.71705920
H      85.42883630      56.26004055      95.94160186
H      87.07100846      54.77471567      93.49251655
C      90.59345831      64.12319174      83.81522811
O      92.07311401      65.89386529      84.45017615
N      90.51975898      63.04793746      81.53810789
H      89.49741705      61.45300846      81.30567156
C      91.93138454      63.99658007      79.29878222
H      93.68883001      64.76380896      80.05278302
C      92.27909418      61.66654753      77.56401347
H      90.37236033      61.00892278      77.14827367
C      93.43560668      62.32984147      74.98642677
H      95.36690698      62.97045868      75.31145969
H      92.32066816      63.79437936      74.06424033
H      93.24663405      60.80672207      73.61070602
C      93.68883001      59.18344715      78.65438554
H      93.11435321      58.85085532      80.60647282
H      95.71272689      59.51414927      78.85280681
C      93.08222786      56.71168514      77.36937165
H      93.90236908      55.10541777      78.36714715
H      93.62835877      56.87231188      75.39082821
H      91.08478715      56.31484261      77.67928677
C      90.46684665      66.21133932      77.99298133
O      91.56099818      68.29948690      77.55267511
N      87.99697436      65.96000571      77.77566280
H      87.08423655      64.34051027      78.21407931
C      86.51731865      68.04815330      76.64560647
H      87.33368042      68.50924652      74.81257195
C      83.70162645      67.39808745      76.14482901
H      82.62448245      69.13474593      75.90483375
H      82.89282358      66.36062770      77.73030938
C      83.13659828      65.78048171      73.69952315
O      84.58034918      66.13575026      71.88916534
O      81.24876169      64.40665069      73.71086150
C      86.71196046      70.58038656      78.17250533
O      87.28265781      72.57593753      77.11047914
N      86.30000013      70.52936395      80.56111940
H      85.75764867      68.95711164      81.49653392
C      86.95762488      72.67042385      82.16927648
H      88.23130042      73.95543774      81.18661880
C      84.43484026      73.80048018      83.33334790
H      84.80522661      74.83793993      85.07378583
H      83.32935036      72.08271898      83.60357876
C      82.87203659      75.14029614      81.33968663
H      80.90861096      74.96833105      81.93872987
H      83.14226746      74.04803433      79.61625623
C      83.69973672      77.91441437      80.74820229
O      82.00276249      79.15029538      79.70507337
O      86.05811516      78.50589870      80.86914479
C      88.55633334      71.99579155      84.40671244
O      90.09835002      73.55292604      85.13047762
N      88.19161617      69.95866659      85.91660377
H      86.80266733      68.77569793      85.36102422
C      89.25742181      69.57505215      88.41104250
H      91.14714812      70.39141392      88.35813017
H      89.49363760      67.59272925      88.91559942
C      87.85146543      70.81660234      90.60501475
O      86.40771453      72.57782726      90.12691399
N      88.36358126      70.03992482      93.07866649
H      90.05299658      69.29726238      93.57377478
C      86.69495293      70.78636671      95.18949079
H      84.75420400      70.91864757      94.50918932
C      86.81967486      68.90230958      97.35133769
H      88.50342101      69.32371855      98.45871730
H      86.91416118      66.91998668      96.80142733
C      84.47263478      68.86829452      98.96705368
H      84.22886009      70.70321877      99.87034286
C      82.13882279      68.23523619      97.48172881
H      80.91050068      67.28848331      98.83855229
H      82.31645706      66.84439763      95.97561692
H      81.08435550      69.85851109      96.78064034
C      85.15671571      67.16376137     101.13834922
H      86.88770501      67.75524572     102.08510209
H      85.50442535      65.24001999     100.48639363
H      83.73942097      67.49068402     102.59532821
C      87.49052770      73.40552738      96.13624366
O      89.75819928      73.80425965      96.63513142
N      85.66694181      75.21399548      96.34411357
H      83.84335592      74.70187965      96.11167722
C      86.02598981      77.74433901      97.45905208
H      88.03665861      78.12795345      97.69337814
C      85.27765819      79.80225096      95.65247374
H      84.98286089      81.50111492      96.78253007
H      83.50887436      79.27501731      94.73217702
C      87.35446741      80.38617638      93.62668713
H      87.79288391      78.53424460      92.84245071
H      88.99852930      81.37828271      94.36934956
C      86.23952888      81.87906018      91.41003815
H      85.42316712      83.53068097      92.32466569
H      84.49720122      81.03246278      90.70705996
N      88.12547574      82.48377260      89.38425154
H      89.28954715      83.98421529      89.57511390
C      88.14248328      81.45198204      87.12224916
N      86.82912349      79.42619543      86.43249905
H      86.94817625      78.83660081      84.62025151
H      86.03921790      78.45109664      87.87058077
N      89.54843966      82.42897054      85.38370095
H      89.47851978      81.72032316      83.61302738
H      90.65770900      83.90862623      85.85235307
C      84.87892594      78.11472536     100.15002236
O      82.80778590      77.21710536     100.65079982
N      86.21685217      79.42430570     101.80353288
H      87.61713937      80.37861748     100.93047932
C      85.79544320      79.53013037     104.49828260
H      84.17405802      78.36794869     105.00283952
C      88.01965107      78.21110140     105.92880542
H      87.27320918      77.85016368     107.81475228
H      89.61080063      79.50934338     106.07620407
C      89.09679507      75.61272772     104.90457376
H      89.81111162      75.82437706     102.98461183
C      91.30210568      74.93242625     106.67713704
H      92.86679906      76.27224220     106.67335759
H      92.14492361      73.19954723     105.95148213
H      90.66526791      75.00045640     108.63678323
C      87.12392080      73.44710136     105.02929570
H      87.87036269      71.65375110     104.34710449
H      85.53466097      73.58316167     103.72349481
H      86.57212072      73.31104108     107.00972887
C      85.42316712      82.28913078     105.43747658
O      84.22886009      82.71998838     107.33287207
N      86.66282758      84.17507765     104.23939010
H      87.76831747      83.70075635     102.75784466
C      86.05055625      86.98888012     104.33765587
H      85.50820480      87.38383292     106.28407397
C      88.44294977      88.63861119     103.92758525
H      87.82311953      90.60203683     103.92380581
H      89.03065465      88.32302691     101.97927742
C      90.64259119      88.20397415     105.74550197
H      91.48729886      86.35582181     105.40913068
H      89.94717191      88.13216454     107.68436116
C      92.79687919      90.22976076     105.58865468
H      92.14114416      92.00610348     106.39178836
H      93.21639843      90.60581629     103.60444205
C      95.17415489      89.23009554     106.86988913
H      96.09634133      88.08681112     105.42613823
H      94.79054045      88.30601936     108.66701885
N      96.79742979      91.47320066     107.38011522
H      95.74863169      92.69585360     108.39867772
H      97.46450318      92.47097616     105.89479035
H      98.33188756      91.08958623     108.45159005
C      83.89626826      87.46131170     102.43470147
O      83.77532577      86.08559094     100.59032858
N      82.25598582      89.36615582     102.82209536
H      82.16338923      90.03889840     104.60410728
C      80.35303142      90.01244223     100.97961220
H      79.45352169      88.20964333     100.54686489
C      78.43684894      91.91539662     102.10588909
H      79.54044910      93.33458108     103.11311321
C      76.60381441      93.03978378     100.12167646
H      77.50143441      94.11881750      98.61367486
H      75.16384296      94.17361956     101.05898072
H      75.49832452      91.60737124      99.13334959
C      76.79467677      90.77589165     104.19214693
H      77.91528448      89.45686269     105.31275464
H      75.30935189      89.59481272     103.39279271
C      75.73265058      92.70341249     105.98927667
H      74.40606271      91.69807809     107.20437069
H      74.52889492      93.94874214     104.87055869
H      76.99120831      93.97708803     107.00216996
C      81.39993980      91.02911498      98.43226114
O      83.19706952      92.52766795      98.60989541
N      80.33413416      90.08236211      96.35167246
H      78.58613732      89.34158939      96.54631428
C      81.15049592      90.81557591      93.78920358
H      82.36558994      92.47853507      93.87046181
C      82.97408182      88.62349339      92.77631028
H      84.48208341      88.14539263      94.09722897
H      83.98508539      89.36426610      91.13980729
C      81.64371449      86.37849852      91.88246974
C      81.32435074      85.85126489      89.31811113
H      81.92717344      87.24588291      87.95939791
C      80.01288068      83.81602965      88.38458633
H      79.61981761      83.63650564      86.38714561
C      79.08313534      81.97732595      90.08534001
O      77.85103378      79.96287770      89.22929399
H      77.78300363      80.19342430      87.43216426
C      79.80690051      82.18330611      92.67048560
H      79.44407306      80.62428191      93.93660223
C      80.97853083      84.43208042      93.58889260
H      81.28466649      84.67396539      95.59011277
C      79.03400245      91.56012807      92.07900127
O      76.84380966      91.41272942      92.72339795
N      79.59147172      92.45207889      89.74707901
H      81.39049117      92.56924193      89.12535904
C      77.61670772      93.08513722      87.84979379
H      75.75154785      93.29111738      88.70395007
C      78.03622696      95.70240816      86.71973744
H      76.57735825      96.01232327      85.29866327
H      79.92217382      95.54556087      85.91093458
C      77.69985568      97.74331258      88.90237135
H      78.74487433      97.24442482      90.60501475
H      75.70619442      97.93228520      89.38047210
C      78.49543045     100.29444310      87.92727256
H      77.27277753     101.10135623      86.47974220
H      80.39460540      99.97507936      87.18838958
C      79.03022300     102.33156806      90.06077357
H      80.73286641     103.34068192      89.49196595
H      79.33068948     101.33190285      91.83711630
N      76.94396515     104.02854229      90.28376128
H      75.21486557     103.22540860      90.38580649
H      76.91561926     104.92049311      88.59623568
H      77.02144393     105.54410280      91.44405323
C      77.49765496      91.01210744      85.73707977
O      79.43462443      90.11070799      84.74497345
N      75.19218886      90.73620741      84.63347959
H      73.64639273      91.31824312      85.58968112
C      74.47787231      88.90317289      82.67761287
H      75.43596355      87.16084523      83.21240541
C      71.69052600      88.15484127      82.85524713
H      70.44141691      89.72142437      82.37903610
H      71.45242048      87.57280556      84.81678306
C      70.96865055      85.90606695      81.30189210
O      71.23510196      83.87650088      82.52076558
O      70.22031893      86.18007726      79.06067671
C      75.03345185      89.98787578      80.00931931
O      75.53233959      92.22153228      79.71074255
N      75.01644431      88.37971869      78.04967312
H      74.97487033      86.56558143      78.64682663
C      74.76889016      89.12805031      75.34547477
H      76.54145345      89.45308323      74.34958900
C      73.82402701      86.70920064      74.18707254
H      72.06091236      86.08937040      75.05634665
C      73.37994132      86.64117049      71.40539540
H      71.99855139      88.08870085      70.91406656
H      72.28767952      84.90640174      71.19752551
H      75.08825391      86.75077461      70.26022126
O      75.54556768      84.56058182      74.41950888
H      74.94841416      83.61949811      75.85003169
C      72.88294330      91.13304994      74.81635141
O      73.31758036      92.84703169      73.26488611
N      70.71164777      90.83069373      75.91995157
H      70.44141691      89.34158939      77.08213326
C      68.72365569      92.68262551      75.54200631
H      68.95042285      93.41961878      73.62960327
C      66.23110668      91.10281432      75.68751523
H      65.82859498      90.87793688      77.69440457
H      66.30291628      89.29056678      74.71241645
C      63.86516934      92.40105628      74.49698765
H      63.52879805      94.24920862      75.33980560
H      62.35716774      91.13871912      75.11492816
C      63.82548509      92.60325701      71.69452354
O      64.02390635      94.71408129      70.68729941
O      62.84660686      90.70975123      70.37549456
C      68.81436255      94.80667788      77.53944703
O      67.26856643      96.51499048      77.60936689
N      70.69841969      94.87659776      79.18350892
H      72.05335345      93.55756879      78.92650613
C      71.46186912      97.10836453      80.81056326
H      71.09904166      99.01509839      80.12459261
H      73.49143518      96.87592820      81.08079414
C      70.49054979      97.18962276      83.52798970
O      70.84770806      98.89226618      85.05488856
N      69.03357080      95.28855809      84.16293774
H      68.73877350      93.76165923      83.05177867
C      68.01878777      95.00131970      86.67438402
H      67.66351923      96.81734669      87.57578347
C      65.54891548      93.53111263      86.12447366
H      64.48877902      93.62370922      87.88758832
H      65.98166281      91.54690000      85.78432292
C      63.96343511      94.35125385      83.81144865
C      63.02991031      92.60892619      82.03888537
H      63.76501384      90.70975123      82.16171759
C      61.38584842      93.57646605      80.29466799
H      60.56003802      92.37837957      78.86414516
C      60.54869966      96.09358151      80.18695358
O      58.77991583      96.65483022      78.40305195
H      58.14874724      98.34991473      78.55423006
C      61.32159772      97.62614955      82.22218883
H      61.05325658      99.65004642      82.19762239
C      63.04691784      96.74742681      83.95128840
H      63.69698370      97.77354820      85.58968112
C      69.67040857      93.52922290      88.54710280
O      71.06313686      91.93996307      87.67026979
N      69.16018247      94.07913326      90.92248876
H      68.20020150      95.67028280      91.35901555
C      70.57558748      93.15694681      93.10512266
H      72.52956448      93.37426534      92.48907189
C      70.23165729      94.61770526      95.53909015
H      71.01967316      93.30623519      96.91859035
H      68.20209123      94.77833198      95.84522581
C      71.36738280      97.25765291      95.53531069
C      69.92930108      99.48564024      96.03608818
H      67.92997064      99.31367515      96.40647452
C      70.99699644     101.92338718      96.03986762
H      69.69497501     103.44083740      96.45560742
C      73.56702423     102.01976323      95.51074426
O      74.82558195     104.29688343      95.59767166
H      73.63694410     105.55355142      96.15136148
C      75.03156212      99.75965055      95.10445309
H      77.04601037      99.96374099      94.84178114
C      73.98276402      97.41072075      95.00618733
H      74.98242924      95.68351089      94.58288864
C      70.36960731      90.24676829      93.37157407
O      68.13028163      89.32080240      93.51897272
N      72.43318844      88.81246601      93.30354392
H      74.14717021      89.64205587      93.18638089
C      72.39539392      86.05157587      93.43015558
H      70.64739708      85.26356001      94.18226665
C      72.51066722      84.75711336      90.89414288
H      72.98498852      82.75589319      91.00185728
C      70.05024356      84.83270241      89.28409605
H      68.43830702      83.90484679      90.17226743
H      70.27701072      83.72532279      87.56444511
H      69.45875922      86.76400270      88.87591518
O      74.25677433      85.93819229      89.36724401
H      74.44385724      87.66729188      89.87935984
C      74.30779694      85.05946957      95.20460859
O      75.92540267      86.52589719      96.02474981
N      74.04701471      82.74833428      96.14569230
H      72.63916861      81.61827795      95.53342097
C      75.47564781      81.48221765      97.96549873
H      77.35403576      82.25700543      97.64046581
C      74.63471960      82.00756157     100.73583752
H      74.44763669      84.03523789     101.05709099
C      71.89272672      80.99844771     101.14968758
H      71.65084175      79.08415496     100.43348131
H      70.39417375      82.05291499     100.20671414
H      71.51100200      80.81136480     103.16602556
C      76.61515277      81.24033268     102.63501245
H      76.94018570      79.20698717     102.56509259
H      75.63249509      81.49166628     104.43025246
C      79.32691003      82.37416848     102.61044601
H      80.26988346      81.81103002     104.35277367
H      79.17573193      84.42074206     102.42714256
H      80.26610401      81.70898481     100.90402316
C      75.43407383      78.58715693      97.39102193
O      73.76355577      77.74244927      96.05498544
N      77.22364464      77.03002245      98.29431111
H      78.38582633      77.82937668      99.57932501
C      77.54867757      74.45243577      97.46094181
H      75.77611429      73.45277054      97.77463638
H      78.89605243      73.43576302      98.64013103
C      78.24031740      74.14252065      94.61690371
O      80.05256494      75.34816604      93.82132893
N      76.57357879      72.93876499      93.18827061
H      74.98053951      72.14507993      93.88180017
C      76.78711787      73.09939173      90.52564625
H      78.20819205      74.51668647      90.06455302
C      77.66206115      70.56337901      89.18583028
H      76.18051572      69.13096647      89.22551454
C      78.31590645      71.29470310      86.37769699
H      80.06768275      72.34161147      86.10179695
H      76.73231580      72.33027311      85.57078386
H      78.35559071      69.48056583      85.40259821
C      80.03744712      69.70166382      90.45194691
H      79.52722102      68.63396844      92.13569306
H      81.03711234      71.44588121      90.89603261
C      81.67206039      67.74390736      88.99307821
H      82.25409609      68.44688555      87.14870532
H      80.41161293      66.14519889      88.69828089
H      83.32935036      67.19777645      90.08911946
C      74.28323050      73.99134254      89.47684813
O      72.49176996      72.50412793      89.38047210
N      74.02622772      76.36483879      88.78898777
H      75.48698616      77.45332115      89.35779539
C      72.00422057      77.42497525      87.31689096
H      71.68674655      76.10027711      85.77109483
H      72.57491791      79.20698717      86.45706549
C      69.62127569      77.80858969      89.00630628
O      67.78068226      78.88573369      88.12947327
N      69.69308529      77.19442865      91.52720118
H      71.28045539      76.51223744      92.33222459
C      67.49155413      77.37962183      93.30165419
H      65.83615388      76.51790662      92.42860065
C      67.93752954      75.97933462      95.77530594
H      69.22821261      77.05269918      96.97150269
H      68.73121459      74.11228503      95.43137576
C      65.65096070      75.46532907      97.47605963
N      63.99933991      73.42253492      97.40047056
H      64.00689881      72.06949088      96.05309571
C      62.41196980      73.65497127      99.38846265
H      60.95877027      72.33027311      99.93837301
N      63.02235140      75.76201611     100.65646901
H      62.15307730      76.27413193     102.27407473
C      65.04057910      77.01679438      99.56042774
H      65.81725662      78.84982890     100.01207233
C      66.55802933      80.14051197      93.96116867
O      67.84871241      81.50111492      95.36334560
N      64.51901464      80.84349015      92.79520754
H      63.29258227      79.71721328      91.86168274
C      63.77824193      83.38328232      92.70639040
H      65.13317569      84.67207566      91.83900603
C      61.16097098      83.47776864      91.21917579
H      59.81926530      82.23432872      92.16970813
H      61.71466079      82.78045963      89.36157483
C      60.01957629      86.19708481      91.00374700
H      59.71155090      86.76967188      92.95961374
C      61.59560804      88.15673098      89.49574540
H      63.55147477      87.70508639      89.95683863
H      61.19876551      90.09936964      90.05132493
H      61.07782303      87.86004395      87.52665058
C      57.38340808      86.12149575      89.82077832
H      56.22311613      84.57569962      90.53131543
H      57.48734303      85.83614707      87.78365336
H      56.60295112      87.96397891      90.31210717
C      63.02802058      84.19019545      95.37657368
O      61.87717726      82.79746717      96.72016910
N      63.86516934      86.51266909      96.12490530
H      65.18608803      87.36871512      95.04209214
C      63.31525898      87.56713638      98.58532897
H      62.43275679      86.22354098      99.87223258
C      65.68875523      88.64617010      99.77963599
H      64.94609279      89.81591069     101.30464514
H      66.35960807      90.05212649      98.43037141
C      67.96398571      87.11360206     100.72638889
H      68.64806664      86.01378134      99.12768042
C      70.00866958      88.85781945     101.89801920
H      70.45086554      90.25054775     100.44481966
H      71.57714242      87.60304118     102.35344324
H      69.58915034      89.99732441     103.56286807
C      66.97376912      85.25033192     102.82587482
H      68.49121935      84.31113794     103.85577566
H      65.65662988      83.91618515     101.97171852
H      65.74355729      86.29913002     104.10332981
C      61.35183334      89.63071752      98.25651658
O      59.56226252      89.69307849      99.59444281
N      61.70521216      91.40894997      96.54442454
H      63.15085279      91.36170682      95.29720518
C      59.80792694      93.25521258      95.86412307
H      58.08827600      92.13649460      95.67704018
C      59.42053305      95.35280878      97.94660147