 %block lattice_cart
   139.252   0.000   0.000
   0.000 142.425   0.000
   0.000   0.000   162.84
 %endblock lattice_cart

 %block positions_abs
N      91.30871971      40.26634190      80.80394922
H      91.31438889      39.80146922      82.65777073
H      93.07750354      40.15862750      80.10097103
H      90.08039761      38.97943829      80.11230940
C      90.32228258      42.90628957      80.45246013
H      91.42588276      44.12705276      81.69401031
C      90.86085458      43.61871638      77.70479807
H      89.37552971      42.64361761      76.66166914
H      92.78837542      43.25588893      77.07551921
C      90.46401205      46.37960652      77.24748431
H      88.45712271      46.71408809      77.57251723
H      90.92888473      46.60448395      75.25571278
S      91.85863007      48.67184454      79.24303529
C      90.54904975      51.40438879      77.60842203
H      91.53926633      51.84847448      75.85853546
H      90.64542579      52.83680133      79.08807773
H      88.59129328      51.12281957      77.02827605
C      87.54627464      42.92518682      81.14787942
O      86.11953126      41.38883934      80.39009917
N      86.78282520      44.98120906      82.45368029
H      88.20389938      46.19252361      82.85619200
C      84.24114330      45.56702421      83.19445301
H      82.96179860      44.42185007      82.06061722
C      83.90099258      44.49743911      85.84762875
H      84.41688785      42.50755730      85.97990960
H      81.93000802      44.94908370      86.23880210
C      85.45056815      45.72954068      87.96223249
O      86.66755190      47.61737726      87.59940504
N      85.21057290      44.83947957      90.22612463
H      86.09874428      45.84859342      91.58294811
H      84.16177480      43.33147798      90.75146853
C      83.40966373      48.28445064      82.93745024
O      84.92711397      50.06457283      82.79194130
N      80.90010718      48.66428563      82.95634749
H      79.81918373      47.09203334      83.06406190
C      79.73981523      51.20218808      82.77115431
H      80.31996120      51.83146694      80.89654581
C      76.76160656      50.97542092      82.67666801
H      76.32696952      49.77544470      81.05906228
C      75.78083860      50.16661806      85.29582867
H      73.82686159      49.53167002      85.15220948
H      75.90933999      51.65005321      86.71501313
H      77.05262441      48.69074181      85.96479178
C      75.35376045      53.58513295      82.10786039
H      76.08508455      54.98919961      83.42499962
H      73.39789373      53.15427536      82.59540978
C      75.77705916      54.49598103      79.37153668
H      75.07975015      56.42161215      79.15232843
H      75.10053713      53.20529796      77.91455769
H      77.78205877      54.75676326      78.97847361
C      80.57129480      53.19206989      84.79505119
O      80.66200167      55.41060857      84.20167714
N      81.34041342      52.27366290      87.00981043
H      81.08907982      50.42362084      87.40287352
C      82.49692592      53.84402546      89.08661965
H      81.45379700      55.57501476      89.49480053
C      82.88431981      52.28311153      91.48090289
H      84.19390015      53.27521783      92.72623254
H      83.93122820      50.58046812      90.98390488
C      80.37098382      51.62926623      92.87363118
C      78.89888702      53.66261173      93.83361215
H      79.63399055      55.55422778      93.63897034
C      76.61798737      53.21474660      95.14697194
H      75.48604131      54.73786601      95.90097274
C      75.67123448      50.76755103      95.40019527
H      73.72859583      50.39338522      95.89908302
C      77.14144156      48.66617537      94.59139240
H      76.60286955      46.74999288      95.04870618
C      79.39777476      49.15183502      93.19866411
H      80.15366529      47.52289095      92.22734478
C      84.90632697      55.20273867      88.12285923
O      85.34096403      57.41560819      88.44222299
N      86.50881488      53.78922340      86.73013094
H      86.22535593      51.90327654      86.79249191
C      88.74058166      54.73219683      85.49047049
H      89.58906878      56.24586761      86.60162955
C      90.63975661      52.50420950      85.00859027
H      89.83473319      51.24754151      83.58940581
H      90.85707514      51.46486004      86.76981520
C      93.16632069      53.54166925      83.99947643
H      92.79593433      54.96652289      82.55572552
H      94.21322906      51.92406353      83.27193180
C      94.83116956      54.63771052      86.13297743
O      96.41664995      53.38293223      87.40854268
O      94.40598114      56.92049989      86.47312816
C      88.03949320      56.24019843      83.10752561
O      89.13742419      58.19228571      82.59918923
N      86.28960663      55.29155582      81.46535343
H      85.71135039      53.47741855      81.58818565
C      85.57529008      56.68428411      79.15799760
H      87.17021909      56.74853480      77.85597617
C      83.44556853      55.26698938      77.82574056
H      81.61253401      55.46163119      78.74036810
H      83.91988983      53.26198976      77.78227685
C      82.80117185      56.10224840      74.98737163
H      84.32429126      55.69406753      73.66078376
H      82.62542731      58.15260146      74.90611340
S      80.02894335      54.77943999      73.75149063
C      80.43901397      54.60369543      70.33486545
H      80.63932495      56.55767245      69.71503523
H      78.84786442      53.66072200      69.42779683
H      82.14543683      53.45285211      70.26494557
C      84.77404612      59.41115918      79.79672511
O      85.25025716      61.29899577      78.50604202
N      83.16210958      59.48863796      81.68078224
H      82.44212386      57.89937812      82.45557002
C      82.24748204      61.88103146      82.74658787
H      81.55017304      63.03376452      81.18756366
C      79.93823649      61.44828415      84.44356210
H      79.71902825      63.12069193      85.62653077
H      80.45791123      60.04610721      85.86085683
C      77.40789297      60.92105050      82.97902422
H      77.37954706      59.26565025      81.75448156
C      75.45580569      60.31822780      84.93489095
H      74.71503296      61.81678077      86.13864660
H      76.35909485      58.88014608      86.10085208
H      73.89111229      59.54721947      83.84073942
C      76.57641338      63.14525837      81.56739866
H      74.55062677      62.92793984      81.26126300
H      77.62521148      63.54399062      79.83640936
H      76.84853397      64.77609219      82.79572075
C      84.39421114      63.35123855      84.08262437
O      84.46602074      65.67371217      83.65743596
N      86.37464431      62.30999935      85.28449031
H      86.29149635      60.41460386      85.50369857
C      88.70089740      63.69894818      86.16132332
H      87.95067606      65.38080461      87.08162003
C      90.44700452      62.20795413      87.94711469
H      92.11752259      63.41548924      88.00191675
H      90.93833337      60.44861892      86.99469262
C      89.90276334      61.92638490      90.80438087
H      87.88075618      61.57300608      90.98579459
H      90.30905450      63.67249202      91.81538445
C      91.45611838      59.73241265      91.90609131
H      90.52826276      57.93717265      91.51491796
H      91.74713623      59.71162566      93.94510600
N      94.05827150      59.46596125      90.96122815
H      94.48912911      58.10346857      89.70078070
C      96.04815331      60.86246898      91.38452685
N      95.90264439      62.80321790      92.79993186
H      97.35206446      64.03909891      92.66954075
H      94.33228182      63.23596524      93.79203817
N      98.18354405      60.23319013      90.22423489
H      99.80114977      60.99474982      90.88752884
H      98.35172968      58.83668238      88.93355182
C      90.25803188      64.62869353      83.91821819
O      91.17076970      66.72440001      84.18277987
N      90.40732026      63.30021593      81.72991512
H      89.62875302      61.55788827      81.63920825
C      91.76981294      64.16949003      79.50003806
H      93.53670704      64.88191686      80.28049504
C      92.58428498      61.86402393      77.71802615
H      91.02337105      60.53932579      77.51393572
C      93.15876178      62.97896246      74.93634902
H      93.82961463      61.47663003      73.69668856
H      94.61574076      64.43594144      74.85698052
H      91.50147180      63.69516873      73.94424270
C      94.84628738      60.37869905      78.87831811
H      94.38519415      59.80422225      80.80205950
H      96.48468010      61.55410881      79.29027844
C      95.66264915      57.96173909      77.69534945
H      97.27458569      56.96774305      78.50793175
H      96.16909580      58.34157408      75.73381352
H      94.13764002      56.62570259      78.04872826
C      90.19567093      66.31621913      78.37565091
O      91.32572726      68.33444682      77.94479331
N      87.66910685      66.07622388      77.93345496
H      86.87731152      64.48696406      78.62887423
C      85.98158125      67.96028101      76.69946368
H      86.98691564      68.88624691      75.15744700
C      83.55895211      66.66959794      75.59586351
H      81.84686007      67.81288237      75.51649500
H      83.05061573      65.18238333      76.92434110
C      84.13342891      65.51497517      72.98048228
O      82.97502667      63.52131390      72.59119867
O      85.66788668      66.46361778      71.47814987
C      85.27104415      70.19204780      78.48525503
O      85.97780180      72.37279195      77.95613167
N      83.92744874      69.86512515      80.60552796
H      83.16966849      68.16626118      81.03449584
C      83.34352331      71.95138299      82.23069259
H      83.41155346      73.61812159      81.02504720
C      80.59397153      71.82666105      82.98658312
H      80.35397629      70.28653410      84.33395798
H      79.58107822      71.49217949      81.22157874
C      79.54139396      74.20015731      84.21868467
H      80.76215717      74.90502521      85.71912736
H      77.68757245      73.69371065      84.95756766
C      79.04817540      76.40357818      82.32139946
O      77.19246417      77.70370988      82.64832211
O      80.53916947      76.97805498      80.58663069
C      85.10285851      72.44271184      84.47757717
O      85.49403186      74.66314026      85.12764302
N      86.12520045      70.55298551      85.69645064
H      85.88142575      68.76908388      85.06150260
C      88.15476650      70.83266502      87.50113927
H      89.66843728      71.85311723      86.55060694
H      88.84640633      68.97695377      88.06805718
C      87.49336229      72.25184948      89.90109169
O      85.18222701      72.52397006      90.43777396
N      89.35285298      73.17214619      91.49035152
H      91.15754161      72.67136871      91.13508297
C      88.93333374      74.27385663      94.02825397
H      86.94723138      73.75229217      94.20777796
C      90.46968123      72.62223583      95.85561931
H      92.41609933      72.59955912      95.18287674
H      89.92921951      70.63235403      95.83861178
C      90.52070384      73.36489828      98.65808344
H      91.39564714      75.22249923      98.83193826
C      87.96201441      73.20238181      99.67664591
H      87.31572802      71.25029452      99.56704178
H      86.96612866      74.61022791      98.54847931
H      87.74469589      73.41781060     101.71188115
C      92.25169315      71.41281100     100.06026035
H      94.26803112      71.50918703      99.64641030
H      91.69044444      69.46261344      99.69176372
H      92.04382325      71.73784392     102.08415723
C      89.25080777      77.13490226      94.31738208
O      91.33328617      78.12511886      93.99990806
N      87.29872049      78.60321962      94.93343286
H      85.55450310      77.90402087      94.60462048
C      87.44233968      81.22993919      95.83861178
H      89.41521395      81.79118790      96.01435631
C      86.04772166      83.03651755      93.91487039
H      85.21813181      84.63522600      94.91264588
H      84.51137418      81.99149890      93.02480930
C      87.91288153      83.95303480      91.68499334
H      89.44544957      82.58487296      91.51869742
H      88.54216039      85.66701657      92.63930512
C      86.70534643      84.75805822      89.29448955
H      88.16043568      85.65945766      88.14742567
H      85.15199139      86.06763854      89.64030947
N      85.87764630      82.58109351      87.78648795
H      85.63576133      80.92947270      88.70867440
C      84.93656259      82.59054213      85.46023486
N      84.58507350      84.57475476      84.19033877
H      83.49092196      84.59743148      82.62753512
H      84.97246739      86.33597969      84.81583818
N      84.07673712      80.52318154      84.49080527
H      83.02226984      80.62144732      82.90343516
H      83.98414053      78.97360597      85.60385407
C      86.41999775      81.31875633      98.59383274
O      84.43767485      80.35499591      99.10216912
N      87.71446027      82.45448183     100.35505765
H      89.16577009      83.61099434      99.90530280
C      87.27604376      82.55274761     103.08760190
H      86.22157648      80.87845010     103.65829926
C      89.87441744      82.37322360     104.44064594
H      89.46623657      82.43369484     106.45698393
H      91.01581214      84.04563139     104.06459041
C      91.30305055      79.82020335     104.08348767
H      91.57895059      79.40257385     102.08793668
C      93.95433655      80.11500066     105.14362414
H      94.80660312      81.74583448     104.21954797
H      95.07494426      78.51440247     104.49733774
H      94.09039685      80.57420415     107.14673403
C      89.89898390      77.54686261     105.27590498
H      89.43978039      78.02496336     107.22421281
H      91.17832861      75.93303633     105.35338376
H      88.13964870      77.10466665     104.29891647
C      85.68867366      84.82986782     104.00978835
O      84.18445151      84.55585749     105.79557972
N      86.09685454      87.03706815     102.72855390
H      87.39887597      87.13911336     101.33771534
C      84.61530912      89.37843904     103.02902040
H      83.86697750      89.32741644     104.95087205
C      86.62975737      91.53650649     102.76823816
H      87.33462529      91.75571476     100.84449678
H      88.08862609      91.31918798     104.20254044
C      85.26726469      94.13488018     103.24633891
H      84.24492276      94.12921101     105.03402002
H      83.78193982      94.37109596     101.83849281
C      87.08329168      96.38743394     103.23689028
H      87.99791921      96.23436612     101.39818658
H      88.61397000      96.17011541     104.59560350
C      85.70757092      98.85541650     103.73010885
H      85.36175101      98.94612338     105.75967492
H      83.84052134      99.03871997     102.88162174
N      87.10407867     101.07584493     102.76634843
H      88.89175977     100.94356408     103.41452456
H      86.36708542     102.71801709     103.39940674
H      87.13620402     101.12308809     100.85772485
C      82.26637931      89.52016853     101.20543450
O      82.37031425      88.34664849      99.15697117
N      80.30862285      91.05462629     101.65329963
H      80.39366053      92.16578537     103.20098548
C      78.16945266      91.40044621      99.89963361
H      77.33986282      89.59575757      99.35539245
C      76.01327494      93.10308961     100.98811597
H      76.82774699      94.73203370     101.95376612
C      74.16134315      93.83063424      98.83949716
H      74.99282274      95.15533239      97.49968121
H      72.56074496      94.76604876      99.73711715
H      73.54529238      92.00137918      98.11951143
C      74.49204527      91.37210031     102.84004777
H      75.70524955      90.27038986     104.08915685
H      73.34120194      89.94913640     101.89140516
C      72.85365255      92.78183613     104.69764872
H      74.03851094      93.12198688     106.34926953
H      71.25305436      91.64611063     105.32503786
H      72.14878463      94.58274532     103.98900135
C      79.37509805      92.58341487      97.49590174
O      81.18167641      94.10275484      97.61495450
N      78.46802942      91.59886747      95.37562883
H      77.44757721      89.98882065      95.31326785
C      79.37320832      92.35853744      92.84906474
H      80.23114408      94.21424869      93.10417779
C      81.46324562      90.46692140      92.00057763
H      82.80684104      90.31574331      93.55393266
H      82.72558281      91.22281194      90.55493700
C      80.64877359      87.96303405      91.06138365
C      79.57540905      87.71925935      88.53859902
H      79.47903301      89.24993767      87.19122416
C      79.22014049      85.21726170      87.71656807
H      78.46236024      84.99994319      85.83629039
C      79.36375969      83.10643741      89.42299094
O      78.54550821      80.70648500      88.69922576
H      77.60253477      80.76317679      87.14965018
C      80.03839199      83.54674364      91.86073788
H      79.93445705      82.04630095      93.23645863
C      80.76782635      85.91268099      92.80938049
H      81.58040866      86.22826528      94.65375338
C      77.14900045      92.71002653      90.95555898
O      75.09108851      91.50816061      91.20878230
N      77.46458476      94.26149184      89.00725116
H      79.06707266      95.25737760      88.71245384
C      75.63155022      94.84163782      87.12697346
H      73.70591912      94.62242957      87.82050302
C      75.43312896      97.53638754      86.20289730
H      74.27283700      97.51182110      84.50025389
H      77.33041418      98.10330544      85.63597941
C      74.33519797      99.50359263      88.07561607
H      75.34431183      99.55650497      89.87085608
H      72.32452917      99.09541175      88.27214761
C      74.37866168     102.32684374      87.31027693
H      73.46781359     102.46101431      85.46968349
H      76.34208732     102.92966644      87.12130429
C      72.98026422     104.10129675      89.17732652
H      74.27661647     104.72490644      90.65320277
H      71.49871878     103.07139592      90.16943284
N      71.73304484     106.33873271      87.98679895
H      70.72204127     105.74157919      86.48257679
H      72.84987309     107.79949114      87.46712421
H      70.36488300     107.00580609      89.13764227
C      75.95469343      92.79506423      85.00859027
O      78.12031978      92.77427723      84.10530109
N      74.12354862      91.43068182      84.19033877
H      72.42846413      91.88988531      84.94056012
C      74.23693221      89.80362747      81.93400557
H      76.06240782      88.85120541      81.96046172
C      72.24327094      87.77784087      82.31762001
H      70.44803095      88.73593210      81.99447681
H      72.23193260      86.97092772      84.21301550
C      72.35665452      85.53095627      80.55450536
O      70.26472750      84.58987257      79.83640936
O      74.52039115      84.71081506      79.81562236
C      73.95725271      91.36265167      79.46035381
O      73.57741773      93.67000751      79.50570724
N      73.79851570      90.06440971      77.34386034
H      73.72670611      88.16523476      77.52905352
C      73.76450064      91.01494203      74.73792776
H      75.51816664      92.06374014      74.47714552
C      73.77205953      88.94191227      72.77261240
H      74.17457124      89.87732679      70.98304157
C      75.76572079      86.97470717      73.45669333
H      75.07975015      85.90512208      75.07807849
H      77.52127654      87.98949021      73.80629268
H      75.77327970      85.61599397      71.91089719
O      71.52895440      87.70225181      72.57986031
H      70.57653233      88.47892932      71.24382381
C      71.83320034      93.13710468      74.33541605
O      72.37555178      94.84730699      73.01638708
N      69.49938834      92.93301425      75.32752238
H      69.16301705      91.61020583      76.66355888
C      67.57186751      94.91533714      74.92123122
H      68.01406345      95.88854620      73.16000629
C      65.05097260      93.53583693      74.13510507
H      63.89446009      95.12320704      73.52094401
H      64.03052039      92.73648270      75.73381352
C      65.20215071      91.41745374      72.13010544
H      63.22738671      91.13966397      71.60854098
H      65.69158982      89.64111100      73.05418162
C      66.98227289      91.75004558      69.93613319
O      68.49027449      90.03039463      69.34653858
O      66.96715509      93.88732604      68.79473850
C      67.25817294      96.77293811      77.09252674
O      65.76528914      98.56061920      77.03583495
N      68.62444505      96.51026616      79.14287979
H      69.77528838      94.99092619      79.26760173
C      68.78318207      98.20913011      81.33874177
H      67.63800792      99.87208926      80.92489170
H      70.73715907      98.62675963      81.85274732
C      67.65312574      97.21135462      83.74436336
O      67.56619833      98.49636850      85.57550817
N      66.42102417      94.99281593      83.69712021
H      66.56464338      93.75693491      82.24770012
C      65.22860687      93.77205273      86.01770412
H      64.21760330      95.13832486      87.17988580
C      63.63178814      91.57241129      85.10874577
H      62.61700510      90.89399955      86.76792546
H      64.81853627      90.14944739      84.20545659
C      61.64190634      92.14877782      83.08862834
C      60.47216574      90.27227959      81.63731852
H      60.83877264      88.29562588      81.99258707
C      59.05676073      90.87321256      79.41311065
H      58.20449416      89.34253424      78.36431255
C      58.36701063      93.36576157      78.73091946
O      56.98940014      93.90055412      76.50671159
H      56.29965004      95.54650574      76.83174451
C      59.23250529      95.26871597      80.33907655
H      58.89802373      97.26426696      80.06884568
C      60.83499319      94.63187820      82.52926934
H      61.70993647      96.21168940      83.47980168
C      67.38100514      93.04639783      87.83184138
O      69.63544863      92.60798131      87.12697346
N      66.74227765      93.06151564      90.27903696
H      64.91869175      93.42623281      90.70611511
C      68.46948750      92.71002653      92.35395646
H      70.38755971      93.32985676      91.94199611
C      67.61155175      94.22936649      94.73501161
H      68.63389369      93.69268422      96.44143446
H      65.64245693      93.78717054      95.14319248
C      67.89879016      96.99781555      94.49690609
C      65.82009121      98.66266443      93.97723135
H      63.94548270      97.89354582      93.73723612
C      66.33598650     101.24969974      94.00935670
H      64.71271160     102.46857321      93.83361215
C      68.76428480     102.33062319      94.03959233
O      69.14411979     104.89498180      93.82983271
H      67.47171201     105.60173944      93.79959708
C      70.83542485     100.56561883      94.58005404
H      72.68168746     101.43300321      94.58761295
C      70.34220627      97.92378143      94.82949792
H      71.87099487      96.63687781      95.23767881
C      68.66034985      89.76016376      92.97945587
O      66.92369138      88.30318478      93.19299494
N      70.93558033      88.83608760      93.48968196
H      72.42468467      89.99071037      93.19866411
C      71.75194210      86.21503720      93.71644912
H      70.26850695      85.04907607      94.54603897
C      72.70058472      85.29096104      91.14831107
H      74.67534871      85.74071589      90.77036581
C      73.05018408      82.40912840      90.74957882
H      73.67379376      82.31086264      88.78804289
H      71.38155575      81.25261590      91.08972955
H      74.57141377      81.83087216      92.01002626
O      71.03384610      85.99771867      89.14709089
H      71.14911942      87.80429703      89.04126622
C      73.79284653      85.80685632      95.64396996
O      75.17234674      87.58508878      96.31104335
N      73.95536298      83.63745052      96.73434205
H      72.59476005      82.36188524      96.33560980
C      76.13988661      82.85510382      98.24612310
H      77.66111629      84.14389716      97.73211753
C      75.51627692      83.14045250     101.07126393
H      74.30496236      84.79963219     101.19787559
C      74.26716783      80.82364803     102.19943054
H      75.51816664      79.68036362     103.37106085
H      73.39411427      79.52162660     100.86150431
H      72.81207856      81.61922280     103.42019373
C      77.90111153      83.87177658     102.43564634
H      78.69479658      85.54607408     101.53802633
H      79.16722816      82.25039140     102.38651344
C      77.25293541      84.56530613     105.22299265
H      79.10486719      84.88655961     106.06392085
H      76.13232770      83.16312920     106.23399621
H      76.14933523      86.28495707     105.46487762
C      76.90522576      80.22082534      97.49968121
O      75.40856252      78.86589158      96.33372006
N      79.10108773      79.26651355      98.50501560
H      80.41444752      80.43814387      99.24389859
C      79.45068711      76.59066108      98.67698069
H      77.60253477      75.80075550      99.13051501
H      80.67522976      75.92169798     100.19443093
C      80.35019684      75.56264997      96.12396044
O      81.99425872      76.59821999      94.75957804
N      78.97447607      73.55198118      95.40964389
H      77.71402862      72.96049684      96.71544478
C      79.17100761      72.25562892      92.96811751
H      80.47113932      73.08143932      91.59806592
C      80.06484815      69.34922986      93.27425317
H      78.55306710      68.25129888      94.14352726
C      80.42200644      68.16059201      90.61351852
H      78.54172875      68.05665705      89.77825949
H      81.15899970      66.24063007      90.74201991
H      81.64654909      69.26230244      89.37763750
C      82.44590331      69.00152021      95.05815480
H      81.95646419      69.01852776      97.05937496
H      83.87075696      70.46605811      94.80493147
C      84.04083232      66.49574312      94.90886642
H      82.76715678      64.90081412      95.16775893
H      85.47513460      66.65825958      96.37907350
H      85.14443248      66.45983832      93.17031822
C      76.63877435      72.65625091      91.78703856
O      74.83408572      71.25596370      91.96278310
N      76.32319005      74.78597246      90.48879658
H      77.60820395      76.18436994      90.69288703
C      74.15945342      75.40769242      88.85796278
H      73.87788421      73.83732986      87.55216189
H      74.64700281      77.13868172      87.85829756
C      71.68958113      75.85177810      90.42454588
O      69.68647125      75.84799864      89.29826901
N      71.62910989      75.89524181      92.98890449
H      73.28262043      76.01240484      93.93376764
C      69.06664102      75.96705141      94.25313139
H      67.76084013      74.57243339      93.47645388
C      69.54474178      75.23572732      97.05748525
H      70.85621183      76.43381380      98.10250389
H      70.39511862      73.35922909      97.04236743
C      67.23738594      75.01462935      98.72989304
N      65.63489803      73.03608590      98.77902592
H      65.85221655      71.46572332      97.72266891
C      63.62422924      73.71071818     100.23411517
H      62.01418242      72.47672690     100.46277205
N      64.06453547      76.14468568     101.12795572
H      62.80975719      77.20104269     102.10683395
C      66.43614199      76.87600976     100.29647614
H      67.47927092      78.53329973     100.87473239
C      67.78162712      78.68447785      94.21722659
O      68.93436017      80.48727675      95.22445071
N      65.69158982      79.03785666      92.93410242
H      65.06231096      77.41080231      92.15553518
C      64.31775880      81.46237552      92.62418732
H      65.52907336      82.91746478      91.81160500
C      62.08410229      81.10710697      90.69666648
H      61.15057750      79.37422795      91.31460698
H      62.98361201      80.82553775      88.86552167
C      60.09611021      83.25572579      90.46234041
H      59.65391425      83.91146083      92.36718454
C      61.15435694      85.42513160      89.06205321
H      61.72883374      84.90356715      87.15342964
H      62.76440376      86.29629543      90.00502664
H      59.75595947      86.92746403      88.87874977
C      57.67915025      82.37133389      89.12441419
H      58.17425855      82.02929342      87.15531936
H      56.35067265      83.94736563      89.08284020
H      56.99884878      80.73483089      90.17510201
C      63.34266001      82.33920854      95.27358360
O      62.27496464      80.92191379      96.77969548
N      63.66013403      84.88844933      95.81593506
H      64.48216498      85.90134263      94.42131703
C      62.53196742      86.13944814      97.93620798
H      61.71182621      84.72782259      99.18909652
C      64.46704718      87.71547989      99.48200410
H      63.62989841      88.34286902     101.25456739
H      64.87522806      89.46914592      98.47666971
C      67.02006741      86.70069686     100.10750351
H      67.97626894      86.42668654      98.30281489
C      68.80585878      88.59420263     101.57582085
H      67.88556207      89.39733631     103.23500057
H      69.13845061      90.24393370     100.38907273
H      70.58031180      87.67957509     102.07092915
C      67.12400236      84.13066907     101.46243727
H      66.70448312      84.40845885     103.45987799
H      69.07231020      83.52595665     101.19409615
H      65.89756998      82.83431683     100.43631590
C      60.37201024      87.74382579      97.07638250
O      58.27252431      87.34698327      98.01368676
N      60.75184523      89.58441921      95.47767404
H      62.49606263      90.17779327      94.97500684
C      58.59377779      91.16612015      94.75201914
H      57.01018713      89.85842953      94.58194377
C      57.81710028      93.13332524      96.79859273