 %block lattice_cart
   139.252   0.000   0.000
   0.000 142.425   0.000
   0.000   0.000   162.84
 %endblock lattice_cart

 %block positions_abs
N      94.18015884      44.27634113      79.17595001
H      93.71906563      43.47131772      80.84457835
H      96.04909818      44.59759460      78.95107257
H      93.76630879      43.11226972      77.72275047
C      92.62302436      46.65739628      78.87548353
H      93.07466895      48.12571363      80.24931455
C      93.21450871      47.74587864      76.17695434
H      92.60412711      46.24165651      74.91083771
H      95.24218504      48.10114719      76.09947557
C      91.63469750      50.06268310      75.59869810
H      89.62780817      49.60725907      75.53444741
H      92.41326474      50.75054349      73.82235537
S      91.77642697      52.56279102      77.71141212
C      95.08911721      53.43584457      77.48086550
H      95.91492761      53.54733842      79.36681237
H      95.53320289      55.10258319      76.35647834
H      96.17193038      51.97130669      76.51899481
C      89.77331709      46.01866879      79.22130343
O      88.79632858      44.18185482      78.30289646
N      88.34846344      47.57580327      80.53844267
H      89.12325123      49.32002067      80.58001666
C      85.55355823      47.45864024      80.86914479
H      84.73719647      46.12827292      79.52932883
C      85.06600884      46.19252361      83.47318764
H      85.41182875      44.16484729      83.56200478
H      83.03833250      46.24354622      83.83790483
C      86.34535356      47.61548753      85.52920988
O      85.62725755      49.67528921      86.26620313
N      88.36358126      46.42307022      86.54210318
H      88.94561696      47.02400319      88.25986440
H      88.99663957      44.74688298      85.88825788
C      84.32523613      50.08158037      80.75009203
O      85.56678632      51.85792310      80.13782070
N      81.91016590      50.21764066      81.34346609
H      80.94640548      48.59247603      81.59857915
C      80.49098144      52.68184377      81.24142087
H      81.15805482      53.45852129      79.45185005
C      77.68473786      52.30011906      81.46062912
H      77.22931382      50.88660377      80.03199602
C      76.63971922      51.31368192      84.04955417
H      77.36726384      52.28878071      85.71251333
H      76.84191993      49.27655695      84.28765969
H      74.60448397      51.55367716      84.26309325
C      75.99532254      54.60369543      80.50631734
H      75.88571842      55.86036343      82.13715115
H      74.10370650      53.82323846      80.28143990
C      76.72664663      56.00965181      78.10069574
H      78.73542570      56.45751695      78.04400395
H      75.57958275      57.71607468      78.21785877
H      76.14650065      54.97408179      76.41505987
C      81.26765896      54.78132970      83.15949308
O      81.03144317      57.07734717      82.49052997
N      82.33346460      54.23519880      85.38181123
H      82.65660780      52.38704647      85.72574141
C      83.23108459      56.11358677      87.17327177
H      81.86481246      57.65371371      87.13358752
C      83.23108459      54.82101396      89.73574065
H      84.19673474      56.06823333      91.06043879
H      84.48964231      53.22230551      89.41448718
C      80.67806434      54.08213097      90.78075929
C      79.33068948      55.88870933      92.09600882
H      80.25476564      57.67639043      92.44182873
C      76.96097269      55.31423253      93.31866174
H      76.00477118      56.69184301      94.48084342
C      76.04256570      52.85002942      92.95394456
H      74.32102503      52.06201354      93.71550427
C      77.36537412      51.19084971      91.44594296
H      76.66806511      49.28222614      91.26452923
C      79.63871488      51.68028882      90.30832772
H      80.56090131      50.38771603      89.02520356
C      85.71796442      57.20017939      86.18494491
O      86.04677679      59.47918933      86.50619837
N      87.56989620      55.97185728      85.04921939
H      87.01431668      54.21819127      84.53710356
C      90.04165822      56.90349235      84.11002542
H      90.94683713      58.31700764      85.30622217
C      91.88414138      54.70952010      83.82089729
H      93.60379233      55.26509964      82.83634987
H      90.99974947      53.23553358      82.68139231
C      92.56633257      53.29411510      86.23029834
H      94.25763763      52.15272040      85.93928048
H      90.90148369      52.15649987      86.66304566
C      93.02931552      54.98164069      88.45639594
O      91.40793035      55.31045307      90.25163593
O      95.13447064      56.08335114      88.55277197
C      89.67694105      58.15449117      81.39259897
O      90.92605013      60.11602709      80.89182150
N      87.71540513      57.33057050      79.99231178
H      86.82156459      55.76209766      80.61592146
C      86.89526391      58.40015560      77.58102100
H      88.60357651      58.64204057      76.45663384
C      84.76176291      56.69940191      76.71741608
H      83.25754076      56.80144713      78.12337246
H      85.26631983      54.70763039      76.56623798
C      83.56178669      57.54977875      74.20030062
H      85.06600884      57.35513694      72.80946205
H      83.38037298      59.59824209      74.34958900
S      80.80845546      55.80178191      73.28000392
C      80.26610400      56.86002866      70.15817605
H      79.03211272      58.50787000      70.14494796
H      79.58391281      55.29911472      68.99977381
H      82.08780018      57.49119725      69.43063142
C      86.07701242      61.07411834      78.13282109
O      86.77243171      62.86368915      76.88182226
N      84.44239916      61.34812864      80.06601111
H      83.73942098      59.81934005      80.96363111
C      83.64871411      63.85579546      80.91638794
H      83.23486404      64.81388671      79.14193494
C      81.15427537      63.69138927      82.39604365
H      80.63838010      65.58300531      83.01965333
H      81.42450623      62.58589938      84.11191514
C      78.84880928      62.65770898      80.96741056
H      79.18896001      60.74530595      80.28143990
C      76.78522814      61.96795888      82.94028483
H      77.78678308      60.98152175      84.44450697
H      75.46808889      60.59412784      82.15226895
H      76.03878625      63.79910367      83.52043081
C      77.34269740      64.33767567      79.06634589
H      78.48031264      64.47184624      77.35236412
H      77.00443639      66.22173281      79.82034669
H      75.54178823      63.41359951      78.68273145
C      85.66883154      65.34489980      82.44328680
O      85.56489659      67.62202000      82.49997860
N      87.52076332      64.10712907      83.67160890
H      87.65115443      62.20417466      83.55255614
C      89.62402871      65.42237857      84.87725430
H      88.89837381      67.05132265      85.90715513
C      90.94305768      63.69894818      86.77076007
H      91.87847221      62.37991922      85.49519480
H      89.54466021      62.67471652      87.88191914
C      92.96884428      64.89892439      88.51308773
H      92.10523936      66.30677049      89.74518928
H      94.25763763      65.90236907      87.25452999
C      94.66203906      62.92982957      89.96250781
H      96.17759957      63.76130914      91.08689496
H      95.68438099      61.87158283      88.52253635
N      93.11435321      60.93427859      91.15681484
H      93.10301485      59.36958519      90.06455303
C      91.85957494      60.77932103      93.31488228
N      91.72162492      62.40070620      94.98917979
H      91.27375979      61.85079585      96.75985336
H      92.98018265      63.83122902      94.88902431
N      90.71629051      58.72329879      93.86668237
H      89.47096088      58.97463240      95.29153600
H      90.74841586      57.23041501      92.67804451
C      91.23596525      66.66770822      82.82501151
O      92.58900930      68.42893315      83.31067119
N      91.13392003      65.63213819      80.46852281
H      90.11913700      64.03342973      80.23797620
C      92.43405173      66.76975343      78.35391906
H      94.28598353      67.36690696      79.02855136
C      93.13136074      64.65892915      76.44340576
H      91.53265229      63.37769470      76.24687422
C      93.62835877      65.53387243      73.72408960
H      95.23651585      66.80943769      73.54834505
H      91.84445712      66.31432940      73.05323676
H      93.85512593      63.84445710      72.56946681
C      95.29509738      63.13203028      77.69251485
H      94.80187881      62.56322266      79.61247678
H      97.12435244      64.07311399      77.82668543
C      95.72973443      60.59979703      76.45096467
H      96.16437147      60.76798266      74.44407533
H      93.81355195      59.85146540      76.36781671
H      97.00152023      59.27887834      77.39015864
C      90.93549878      68.90136472      77.31645932
O      92.10712908      70.83644446      76.88182226
N      88.49775182      68.39491806      76.99520585
H      87.83445790      66.60912670      76.83835855
C      86.88770500      70.20905532      75.77444265
H      88.02154079      71.00651984      74.24943352
C      84.29877996      69.06010174      75.01666239
H      82.94384619      70.53597799      74.54234109
H      83.52021272      68.01319335      76.60970167
C      84.46129643      67.43871655      72.72064493
O      82.82290370      65.86835398      72.31624350
O      86.26598505      67.78642620      71.14083373
C      86.41716315      72.69971460      77.22197301
O      86.74408580      74.63101491      76.08813722
N      85.82189937      72.58066186      79.65971995
H      85.66127263      70.81565747      80.36458785
C      85.33434998      74.97116564      81.22063388
H      85.37970341      76.63412480      80.00365014
C      82.90038248      74.75573683      82.76265056
H      82.67361533      76.14657540      84.26498297
H      82.91361058      72.88868724      83.63570411
C      80.64404927      74.74628820      80.95985165
H      78.97164148      73.97339014      81.88203809
H      81.01065618      73.36111881      79.48019595
C      80.05445467      77.30119819      79.69562475
O      77.89260776      77.82843182      78.97185957
O      81.77032615      78.73550045      78.92461641
C      87.55855784      75.67414383      82.94784372
O      87.78532501      77.89079279      83.73963905
N      89.21017865      73.79953532      83.76042605
H      88.92482997      72.09878165      82.94595401
C      90.88825561      74.21716484      85.88447842
H      91.90303865      75.98972812      85.59724001
H      92.28665309      72.70727351      85.82400718
C      89.42371772      74.16614223      88.45450621
O      87.06722901      73.71827710      88.48852127
N      90.77109258      74.27574635      90.55966131
H      92.61924491      74.74628820      90.51052843
C      89.63536706      74.39479911      93.10890212
H      87.59068319      74.29653335      92.87646577
C      90.51408980      71.86634530      94.53564549
H      92.46428736      72.21405495      95.10823256
H      90.30244046      70.27519575      93.24685213
C      89.09868479      71.19360273      97.06598901
H      87.08234681      71.58099664      96.89780338
C      89.21962727      68.48940439      97.86156380
H      91.07722825      67.84500771      98.47005567
H      88.42972167      67.39903231      96.30064986
H      87.91571612      68.16248174      99.42247773
C      89.97929726      72.66947898      99.32610168
H      91.78587562      72.06098712     100.10844838
H      88.50342101      72.23106248     100.69615327
H      89.92638491      74.70282450      98.99350985
C      90.41582404      76.70404466      94.64902905
O      92.63247300      77.30119819      94.83422223
N      88.56389225      78.16858256      95.52019289
H      86.80266732      77.55064205      95.12524010
C      88.96073477      80.61577813      96.86378830
H      90.99219056      80.75561788      97.17181369
C      88.24452851      82.89289835      95.13279900
H      87.96106955      84.53507050      96.34033410
H      86.53432618      82.29952427      94.15014131
C      90.31755827      83.49005186      93.08622539
H      90.78621040      81.70615021      92.16781841
H      91.93894345      84.43491502      93.93282278
C      89.38403346      85.31741720      91.18138128
H      88.81522585      86.98604554      92.25096636
H      87.70406678      84.43680473      90.37635787
N      91.30021594      85.89756318      89.35023648
H      92.70050314      87.16556954      89.60345980
C      91.77831671      84.26294991      87.38681084
N      90.60290693      82.08220576      87.08445463
H      91.23029608      80.95592887      85.67282907
H      88.94750669      81.76284200      87.97451573
N      93.71906563      84.75994793      86.03754626
H      94.25385818      83.42391143      84.78843715
H      94.49196370      86.48715778      86.29832848
C      87.61713937      80.76695623      99.40169074
O      85.36647533      80.20570752      99.46027226
N      88.76798268      82.03307286     101.19693074
H      90.20039524      83.17257783     100.65646901
C      88.10090930      81.98205026     103.92569553
H      86.40960426      80.80853022     104.05608665
C      90.35913225      81.11088643     105.52251426
H      90.01142261      81.49828032     107.51617553
H      91.97484825      82.23716332     104.92158129
C      91.03754399      78.33487847     105.48283002
H      92.08634209      77.85110853     107.18736315
C      88.73963679      76.64546316     105.30330602
H      87.81178117      76.50373367     103.46649204
H      87.34312905      77.20482214     106.71115212
H      89.29143687      74.70093477     105.68692046
C      92.72695931      77.71882770     103.13767965
H      93.64914576      75.90091098     103.43247697
H      94.30677052      78.97927515     102.74083714
H      91.55721873      77.71126879     101.44259516
C      87.28454754      84.61821846     104.89512513
O      85.95795967      84.63522600     106.66957814
N      88.03098943      86.74227084     103.64979548
H      89.52198348      86.60054136     102.47060627
C      86.74030636      89.19891504     103.67625166
H      85.62347811      89.48615344     105.38456425
C      88.90404298      91.16423042     103.55530918
H      89.51631431      91.32485716     101.59188354
H      90.60101722      90.59164334     104.56820248
C      87.94406202      93.70969175     104.41135519
H      87.53399140      93.47914515     106.41824453
H      86.21874189      94.17645416     103.38523380
C      90.20228496      95.50115231     104.15057297
H      91.99563524      94.63187819     104.67780661
H      89.73552256      96.93545457     105.55463961
C      90.31944799      96.65955453     101.43125679
H      88.75097515      97.98992186     101.28007870
H      89.84890615      95.15344267     100.11033810
N      92.66081890      98.03149584     100.73583752
H      92.89892441      99.34296590     102.10210964
H      92.48318463      99.02171243      99.11634206
H      94.10079035      96.80695318     100.45426830
C      84.85058004      89.19135615     101.46905133
O      85.15860543      88.02539500      99.38279347
N      82.94573592      90.82785913     101.84132741
H      82.54889339      91.23415028     103.66302357
C      80.93128767      91.68390514     100.02907988
H      79.88815874      90.01527681      99.41680855
C      79.26832852      93.74370683     101.04764236
H      80.52688624      95.28005432     101.59566299
C      77.33324877      94.77360767      99.10689344
H      76.41106232      93.18245812      98.17903782
H      78.30078865      95.91878182      97.69337814
H      75.76477593      95.82429550      99.93459356
C      77.62804608      92.76293888     103.26240160
H      78.85447845      91.52705787     104.36033259
H      76.15405956      91.57997020     102.44226038
C      76.48665138      94.89077070     104.98016281
H      75.97264583      94.01960687     106.77162336
H      74.91250937      95.51627011     103.80475304
H      77.84158515      96.44034627     105.04441351
C      82.44495844      92.77616695      97.81243090
O      84.12114568      94.40511104      98.12990493
N      81.83835630      92.03161479      95.52208262
H      80.44373828      90.74849063      95.29909491
C      82.80778589      93.01616221      93.13724801
H      83.77532577      94.80195357      93.47172957
C      84.76365263      91.21336329      92.09222936
H      85.98252611      90.64266595      93.65125357
H      85.80867129      92.33208127      90.71650861
C      84.00020320      88.66034305      90.96028329
C      83.92650388      88.32019231      88.36757880
H      84.41972244      89.72236924      86.96918133
C      82.96841263      85.99204950      87.46428961
H      82.82857288      85.45725694      85.49897426
C      82.22386047      84.10043346      89.13480768
O      80.94262603      82.00094753      88.25041576
H      80.35492114      82.09354412      86.53643399
C      82.34291322      84.60121093      91.75585808
H      81.38860143      83.33698402      93.04087197
C      83.21785651      86.76872701      92.73284657
H      83.16872363      87.19202571      94.72839757
C      80.54956295      93.55851365      91.45917105
O      78.31401672      92.95758068      92.25852527
N      80.98986919      94.46558228      89.09701315
H      82.78699890      94.70935698      88.50363909
C      79.09825315      95.04005908      87.24697110
H      77.32568986      94.49203845      88.13892191
C      79.10014287      97.76882387      86.66115593
H      77.88315912      97.96724514      85.00953514
H      80.98986919      98.39243357      86.13581201
C      78.18740507      99.51304126      88.77575968
H      79.47241895      99.47713647      90.38580649
H      76.28823012      99.03305079      89.41070772
C      77.89827694     102.20779099      87.62113691
H      76.62271168     102.12086358      86.00542091
H      79.68406831     102.83895958      86.81044431
C      76.96664187     104.08806866      89.63369542
H      78.46897429     104.45656530      90.99051892
H      75.38872040     103.26414800      90.66926545
N      75.91217459     106.44644711      88.60379459
H      77.04601037     107.56894453      87.55688620
H      75.22998338     107.43666369      90.08534001
H      74.42684969     105.99858197      87.48885605
C      79.41950661      93.60008763      84.78465771
O      81.43773433      93.94401783      83.66782946
N      77.46363988      92.16956482      83.93050142
H      75.86871088      92.59475323      84.88859265
C      77.49765496      90.56329745      81.74408806
H      79.26076961      89.53717606      81.46440858
C      75.22809366      88.58097455      82.11069498
H      73.50277353      89.65244936      82.45840462
H      75.70241497      87.32997572      83.67916781
C      74.91439909      86.89911813      79.81278778
O      76.51121782      85.13600347      79.74475763
O      73.16640225      87.09564966      78.33880126
C      77.07057682      91.98626135      79.21185481
O      75.96130747      94.06496030      79.38948909
N      78.02488859      91.06785437      76.91583734
H      79.04156135      89.45024865      76.92528597
C      77.59403101      92.06374014      74.30990476
H      78.58424759      93.87031849      74.24754379
C      78.62960102      90.27983849      72.20474963
H      78.37448797      91.24737837      70.40195073
C      81.48497747      89.86220898      72.52222366
H      82.01032140      88.76427800      74.18518282
H      82.33724405      91.73114831      72.65072505
H      82.06890290      88.71892456      70.91217685
O      77.27088781      88.03295391      72.01955647
H      78.38204688      86.74038112      71.39405706
C      74.95408334      92.92734506      73.76755331
O      74.71030864      94.77549740      72.23687499
N      72.97931934      91.95791546      74.97319868
H      73.34025707      90.73148308      76.39238314
C      70.31102580      92.86687382      74.73887262
H      69.77056407      93.13710468      72.76977781
C      68.52334469      90.84108722      75.71586113
H      66.78668622      91.87476750      76.11270366
H      69.04679889      90.00015901      77.52243949
C      68.15295835      88.71136565      73.79211975
H      67.32903767      87.17501816      74.88816101
H      69.81402776      87.87610663      72.90583811
C      66.52023481      89.58441921      71.52822762
O      67.38950891      90.72014474      69.64606022
O      64.25823241      89.04017803      71.70397216
C      69.61560650      95.35186393      76.12593174
O      67.80713843      96.57451685      75.46641725
N      71.26155812      96.24948392      77.89093612
H      72.81302343      95.21580362      78.29533755
C      71.17841017      98.67589250      79.26665688
H      69.64206268      99.76059541      78.42383894
H      72.89806111      99.77004405      78.95863148
C      70.64928681      98.46802261      82.14848950
O      70.29968744     100.43711744      83.31067119
N      70.54535186      96.18145377      83.25019993
H      71.23321223      94.72069534      82.23163745
C      69.29813248      95.84886194      85.60290920
H      68.94664339      97.67433757      86.48919084
C      66.64684647      94.76415904      84.90371047
H      65.38072984      94.57140696      86.51564701
H      67.09660134      92.85364574      84.28010078
C      65.05569691      96.14932842      82.96107181
C      64.21854816      94.68290081      80.84457835
H      64.30925502      92.64388612      80.82757081
C      63.01668223      95.92256126      78.83390954
H      62.32315267      94.77171795      77.29567232
C      62.44976433      98.57573702      78.85280681
O      60.97388807      99.69067553      76.94796269
H      60.83593805     101.49914361      76.91205788
C      63.00345413      99.86453035      81.09213249
H      62.61983970     101.86952998      81.05811741
C      64.37350571      98.72124593      83.10091157
H      64.82326058      99.85319200      84.73930428
C      70.83070052      94.46369255      87.58145264
O      72.63349942      93.10119988      86.95028405
N      70.43007855      94.95124194      90.05510440
H      68.70286870      95.65610985      90.46328528
C      71.92674178      94.12543154      92.29631980
H      73.90906470      94.51660490      91.89380809
C      70.96109165      95.57107217      94.78886881
H      71.63572393      94.58463504      96.46694577
H      68.90128997      95.61831534      94.75485373
C      72.03256647      98.26771163      95.02319487
C      70.61338201     100.28782906      95.66003264
H      68.57625703     100.17255574      95.69215799
C      71.71509245     102.70667873      95.91325597
H      70.73054504     104.42443995      96.40836426
C      74.34181201     103.03549111      95.43893465
O      75.44163274     105.45056134      95.57499496
H      74.13583185     106.69589099      95.75451896
C      75.84414444     101.00970451      94.88713458
H      77.87182076     101.22513330      94.84556060
C      74.66306549      98.63053908      94.67737496
H      75.79312183      96.96757992      94.33344476
C      71.63950339      91.20391466      92.57221985
O      69.52489965      90.18157274      92.53064586
N      73.82024756      90.07952751      92.98040073
H      75.27911626      91.24737837      92.59867601
C      74.16228802      87.35643190      92.93126785
H      72.35381993      86.54007012      93.49062683
C      74.85392784      86.70447631      90.11746537
H      76.75877198      87.38477778      89.73763038
C      74.71219838      83.99649851      89.49574541
H      72.83570015      83.26895387      89.93605163
H      76.16161845      82.98927439      90.55588187
H      75.43974300      83.70926010      87.58712182
O      73.35348515      87.94791623      88.36001988
H      73.71253315      89.71858979      88.51308773
C      76.09169858      86.46637080      94.74729482
O      77.74520910      87.89500390      95.66948127
N      75.91784377      84.01539578      95.52964153
H      74.39283463      83.14045248      94.78508935
C      77.59025155      82.73038187      97.33055069
H      79.22486481      83.97949098      97.31165343
C      76.47909247      82.97037712     100.06687439
H      75.76855539      84.87522125     100.40702513
C      74.43251887      80.97104669     100.18025798
H      73.40828722      80.92569325     101.96604935
H      75.09203336      79.03974639      99.89301957
H      73.03412141      81.43969881      98.74595571
C      78.54078388      82.41668732     102.05108703
H      79.37604291      80.55341716     101.78463561
H      77.60725909      82.55085788     103.88223183
C      80.67428489      84.34987732     101.98683634
H      81.78733368      84.05319029     103.69703865
H      80.07335192      86.31519269     101.87345276
H      81.89315837      84.00783687     100.36167171
C      78.64849828      80.12444930      96.49151222
O      77.57891320      78.77518471      94.87957567
N      80.67806434      79.32509506      97.71038569
H      81.96496796      80.53640963      98.43415087
C      81.55489736      76.66436042      97.60645073
H      80.25665538      75.40391297      98.58910843
H      83.39549078      76.48294669      98.51540910
C      82.01410085      75.82343221      94.89469347
O      83.57123533      76.97616525      93.50952410
N      80.80656573      73.80331478      93.93660224
H      79.48564703      72.98695301      95.04776132
C      80.64404927      73.34978046      91.25319088
H      82.16149949      74.46471899      90.41982158
C      80.99364863      70.55298552      90.78453875
H      79.35903537      69.45505452      91.39303063
C      81.29033567      69.76496964      88.04065614
H      81.81567958      67.78264674      87.84979379
H      82.75109410      70.89313626      87.12791834
H      79.64060460      70.20716561      86.88981281
C      83.39549078      69.48906960      92.14325197
H      85.03388349      70.73061979      92.02419921
H      83.96996759      67.78453647      91.13980729
C      83.05722977      68.51775027      94.90792157
H      83.02510442      70.06165667      96.27041424
H      84.68617385      67.30265626      95.23673394
H      81.19962881      67.62579945      94.94382637
C      78.16661808      74.18126003      90.26297428
O      76.36759862      72.80364955      90.41037293
N      78.00977079      76.56798437      89.28409606
H      79.68217857      77.48828108      89.23874263
C      76.00477118      77.39946394      87.61357799
H      76.02366843      76.06909663      86.04321542
H      76.49798974      79.27407245      86.91248954
C      73.33647762      77.84354964      88.70772953
O      71.75099725      78.31031203      87.19783820
N      73.07758512      77.80575511      91.24185252
H      74.54401273      77.35977970      92.37946776
C      70.58881555      78.01551473      92.44749791
H      69.42096470      76.97994470      91.10390249
C      70.66062515      76.54341793      95.02130514
H      71.91918288      77.53363452      96.31765739
H      71.36360335      74.67258888      94.51674822
C      68.05280285      76.27885625      96.30442930
N      66.50133754      74.24173129      95.80932102
H      66.93030541      72.56176459      95.00996679
C      64.09949539      74.80298000      96.52741701
H      62.33071158      73.90724972      96.04175736
N      64.13728993      77.07065157      97.44771372
H      62.49511776      78.04952981      97.46283154
C      66.55424988      78.16291338      97.39291166
H      66.83959856      80.11500066      97.91636586
C      69.65529076      80.75372816      92.71961850
O      70.83825943      82.24661194      94.09155980
N      67.55958427      81.49450087      91.32500047
H      66.66574374      80.10744175      90.36690924
C      66.29535738      83.89634301      91.61034915
H      67.64651169      85.35899118      91.08122579
C      64.05414196      83.96059370      89.79621189
H      62.81070206      82.61321885      90.73351614
H      64.24500432      83.32564566      87.84601434
C      62.49889721      86.38511257      89.88880848
H      61.97166358      86.92746401      91.80499096
C      63.80091865      88.72081429      88.84378983
H      62.51779448      90.33086110      88.78142886
H      64.61539068      88.33908958      86.98996831
H      65.22388256      89.42757194      90.15148043
C      59.88351600      85.90134264      88.62080212
H      60.21232837      85.24182814      86.69895046
H      58.81204117      87.65878810      88.70583980
H      58.90652749      84.42357666      89.67337968
C      65.55647439      84.57853422      94.38446737
O      64.28846803      83.13856277      95.64869427
N      66.33882109      86.83486743      95.25752094
H      67.66918840      87.83075319      94.31832696
C      65.11994760      87.93468814      97.52141305
H      64.46799204      86.49849615      98.84611120
C      67.00022528      89.79984801      98.85555984
H      66.08181830      90.63699678     100.49773200
H      67.68808567      91.30218043      97.62534801
C      69.09971122      88.22003682      99.95349082
H      69.46253867      86.48526806      98.90280299
C      71.52989927      89.90189324     100.06876413
H      71.41462595      91.26816537     101.60700135
H      71.93996988      90.93746325      98.33399537
H      73.11726936      88.75671909     100.70560190
C      68.57058785      87.23170995     102.67091726
H      68.53090360      88.77750608     104.03340993
H      70.18441412      85.97126250     102.89012552
H      66.90195952      86.02984403     102.74083714
C      62.76345889      89.39166714      96.68237457
O      60.69231886      88.99671433      97.66692199
N      63.32281788      91.36643113      95.13846817
H      65.14640378      91.62343390      94.63580098
C      61.58237996      93.53772666      94.64713934
H      59.72288925      92.77994641      94.18982557
C      61.26112647      95.34430502      96.92803900