 %block lattice_cart
   139.252   0.000   0.000
   0.000 142.425   0.000
   0.000   0.000   162.84
 %endblock lattice_cart

 %block positions_abs
N      91.56666736      40.70948273      79.14760411
H      93.39781215      40.49972311      78.64682664
H      90.46495692      39.67391271      77.98353270
H      91.26431115      40.22193334      80.96741055
C      90.94872685      43.40234272      78.91138832
H      92.03720921      44.48515590      80.28710908
C      92.01264277      44.79129156      76.56434824
H      91.45517351      43.65178660      74.94296306
H      94.06866500      44.68546688      76.57001742
C      91.35879746      47.62588102      76.45663384
H      89.39537182      47.87721462      75.88782622
H      92.41515447      48.32507976      74.83146921
S      91.90492837      49.69702107      79.13248630
C      93.20128062      52.48436738      77.47330660
H      93.78520605      54.02449433      78.70729788
H      91.69327902      53.08152089      76.20341052
H      94.84156306      51.92122894      76.35836807
C      88.12358602      43.80107498      79.24586988
O      86.73274745      42.18913842      78.28399919
N      87.32990096      45.75694171      80.70473859
H      88.60735595      47.00605079      81.37559143
C      84.89215402      45.77394924      81.86503055
H      83.67706000      44.52106070      80.77276874
C      84.92049991      44.67979770      84.50497821
H      85.85024526      42.84487345      84.42938916
H      82.99108935      44.25271957      85.09079337
C      86.06756379      46.48448633      86.54966208
O      84.98853006      48.34019758      87.29988343
N      88.33145591      45.86843556      87.26208890
H      89.08356698      46.86432133      88.70772953
H      89.20073001      44.41523602      86.37769698
C      83.67517027      48.44224279      81.74408807
O      84.86380813      50.38110199      81.57590242
N      81.20151853      48.33452840      82.15415868
H      80.33224443      46.69046651      82.57556764
C      79.64816350      50.74770890      82.35824912
H      79.94862999      51.86075770      80.64993653
C      76.81546376      50.08252524      82.46596352
H      76.31090683      48.67656885      81.04866878
C      76.11626502      49.14144153      85.18716941
H      76.14083146      50.62298696      86.61580250
H      77.56568510      47.86587628      85.91093459
H      74.18496473      48.42901471      85.14748516
C      74.98809841      52.32752009      82.06345181
H      75.52856014      53.79961689      83.40137804
H      73.07569538      51.67367479      82.45840461
C      75.03156212      53.45757643      79.50665211
H      76.72097744      54.62353757      79.32334866
H      73.32135981      54.49125672      79.00776436
H      75.04290048      51.97414127      78.07801902
C      80.30200881      52.81317975      84.30844667
O      80.13004371      55.00904173      83.66027055
N      80.98797946      52.30106392      86.67060456
H      81.33757883      50.50960339      87.22240465
C      81.89315836      54.21346696      88.45261648
H      80.47775335      55.64021032      88.90426107
C      82.07079263      52.86609209      91.09256414
H      83.04400169      54.03205324      92.48340270
H      83.15927499      51.14077198      90.79587710
C      79.62359706      52.34074818      92.31521706
C      78.91117024      53.74859428      94.47139478
H      79.98642451      55.23580890      95.36334560
C      76.46775412      53.28939078      95.43515520
H      75.79690128      54.60653002      96.84300131
C      74.88605319      51.34108296      94.47517424
H      73.01333442      51.08408019      95.24618257
C      75.61926700      49.72725669      92.42104173
H      74.24543597      48.50460376      91.53664982
C      77.98142489      50.35653555      91.43649432
H      78.64093938      49.22081003      89.87558039
C      84.60491562      55.22824999      87.60601909
O      85.03388349      57.54883390      87.57767319
N      86.32078711      53.64276960      86.68383265
H      86.02787953      51.76249193      86.82556212
C      88.85302037      54.49125672      85.69172633
H      89.59946227      55.92933844      86.96351214
C      90.64637064      52.21413652      85.37992149
H      89.70717667      50.99148360      84.01175964
H      90.68794462      51.24848637      87.19972793
C      93.21828816      52.87176127      84.52576520
H      93.09356622      53.95457445      82.77776836
H      94.19905611      51.23147884      83.76042604
C      94.84534251      54.34574779      86.49674974
O      97.08655792      54.80495129      85.86180170
O      93.96661978      54.72180334      88.73796515
C      88.56389225      56.12209053      83.23697185
O      89.64292597      58.16866413      83.14059581
N      86.97463242      55.44556852      81.52865927
H      86.48708303      53.62009289      81.80266958
C      86.10913777      56.91010640      79.37815072
H      87.70784623      56.94412148      78.07801902
C      84.09468952      55.39454591      77.90038474
H      82.38637693      55.18289655      79.03044108
H      84.93183827      53.55962166      77.47708605
C      83.31801200      56.47924880      75.25476791
H      84.79955743      56.23736383      73.84314235
H      83.22541541      58.52204294      75.50232205
S      80.29822935      55.06951297      74.42328833
C      80.42862047      55.02982873      70.93863301
H      80.33224443      56.92522422      70.14116850
H      78.97920039      53.86197787      70.05424109
H      82.20496320      54.08874502      70.48509869
C      85.34190888      59.59918694      79.85814120
O      86.11480694      61.35663241      78.52588415
N      84.23830872      59.99413974      81.98030385
H      84.05689499      58.31795250      82.87981358
C      83.18573116      62.35440791      82.87414440
H      82.80589617      63.70556222      81.36992226
C      80.74420476      61.65520917      84.34813092
H      80.46263554      63.26147654      85.60479892
H      81.48875693      60.06972880      85.43661328
C      78.25354548      61.08829128      82.81178343
H      78.80534557      59.56328215      81.53999762
C      76.04256570      60.11886168      84.41616107
H      75.85737252      61.26214610      86.11691475
H      76.44318767      58.15165660      84.87725429
H      74.31535585      60.17177403      83.29177392
C      77.57324401      63.52792795      81.44551131
H      79.07935588      64.29515684      80.27010154
H      77.01388502      64.91120761      82.87036495
H      75.93296157      63.25391763      80.23041729
C      85.12081090      63.63564236      84.56167000
O      85.34946779      65.93543927      84.35946928
N      86.77243170      62.31472367      85.83912499
H      86.51920838      60.42877680      85.99408254
C      88.95884505      63.31060942      87.11280052
H      88.18972644      64.88475145      88.19372397
C      90.26653565      61.26403584      88.70395008
H      91.40604062      59.87319727      87.69861568
H      88.92105052      60.16043566      89.80188106
C      92.04098866      62.50747574      90.55966132
H      90.97140357      63.49013342      92.02419921
H      93.16348609      63.94177801      89.59779062
C      93.79843413      60.60641107      91.76530670
H      92.71940041      59.11541702      92.69127260
H      94.70928222      61.42844202      93.42070695
N      95.64091729      59.60485612      89.86802148
H      95.25730285      57.89276408      89.11402069
C      98.02008272      60.40421036      89.61857761
N      98.86290065      62.65676412      90.47273391
H     100.57877214      63.33706559      89.99085370
H      97.75363131      63.81894580      91.50452447
N      99.69249050      59.30249991      88.10301711
H     101.25907362      60.23413498      87.53231976
H      99.20494111      57.72079899      87.15248477
C      90.76731313      64.53704181      85.12480844
O      92.03342976      66.36629688      85.55566604
N      90.65392955      63.56761221      82.72863547
H      89.62969789      61.98780100      82.41494091
C      92.32822706      64.35373836      80.62725981
H      94.01008348      65.37041111      81.25275922
C      93.21828816      62.07094896      79.25153906
H      91.55154955      60.98435634      78.71107733
C      94.69794386      62.53771137      76.62104003
H      95.91492760      60.96923852      76.06923995
H      96.32688794      63.78304101      76.80623321
H      93.44127586      63.27470462      75.16595077
C      94.89069594      60.42121789      81.01465371
H      95.01730761      58.47479979      80.35135977
H      94.00630403      60.33429048      82.87225467
C      97.52308470      61.41521393      81.60235859
H      97.90858886      60.09807469      83.13870608
H      97.57599703      63.38430876      82.20707101
H      98.77975269      60.97490771      80.03199603
C      91.01864673      66.22645712      78.86981434
O      92.28665308      68.06894028      77.95518681
N      88.48830319      66.05260230      78.55989923
H      87.57934484      64.50302674      79.20618563
C      87.13147970      67.92721081      76.83835856
H      88.31822783      68.28058963      75.19429666
C      84.49531149      66.81227229      76.05790159
H      83.02321470      68.24846428      76.15805708
H      83.86036345      65.41576453      77.43173262
C      84.46129642      65.71245158      73.50677107
O      82.96274345      63.93421912      73.01355250
O      85.76331785      66.77258803      71.84192219
C      86.55889263      70.46700297      78.23486630
O      86.88959473      72.51168684      77.08780243
N      85.85780417      70.27236117      80.52521459
H      85.95040076      68.48468007      81.19039826
C      85.21151777      72.43231834      82.13148196
H      84.94695608      74.02157817      80.85024752
C      82.75487356      72.03547581      83.51665135
H      82.90983112      70.50668723      84.88670292
H      81.31490211      71.29848256      82.24108609
C      81.81756931      74.53180427      84.41805080
H      82.98919962      75.63162499      85.70684414
H      80.12815398      73.85528226      85.37803177
C      80.90672123      76.34027236      82.38848474
O      78.80723529      75.97366546      81.39070924
O      82.42039200      78.09960756      81.70818327
C      87.31289343      73.03325131      84.12703295
O      87.91571612      75.22911328      84.42749943
N      88.38814770      71.10762020      85.37803177
H      87.83256816      69.31426993      85.03221185
C      90.00575342      71.53091889      87.60979854
H      91.50052694      72.63073961      86.71028882
H      90.78810012      69.76024534      88.30899728
C      88.83601284      73.16175270      89.83400641
O      86.59290770      73.98000420      89.94361054
N      90.27031511      73.83638500      91.79176287
H      92.15437224      73.64363291      91.56688544
C      89.37458483      74.66975430      94.29565024
H      87.33934960      74.97022078      94.41659272
C      90.23252058      72.69121085      96.16458956
H      92.21106403      72.25279434      95.79609293
H      89.37836429      70.95833182      95.45216274
C      89.80733216      73.21466504      98.97461259
H      91.13769948      74.68676183      99.53208185
C      87.08801600      73.87984870      99.58310446
H      85.64426509      72.52869439      99.00484821
H      86.65526867      75.52580031      98.42281250
H      86.95951461      74.53558373     101.53141229
C      90.47062610      70.85439686     100.56576214
H      89.81867052      71.20021679     102.49139326
H      92.46806681      70.36117831     100.65646901
H      89.25742180      69.33316719      99.89679903
C      90.44983911      77.34749649      94.75863318
O      92.69861342      77.64229379      94.88335512
N      88.88703545      79.24856116      95.18004215
H      87.04833174      78.74400422      95.21972640
C      89.36513620      81.82992730      96.15514093
H      91.37202555      82.28913078      96.21372244
C      88.08957094      83.63839538      94.21628173
H      87.32612151      85.37127441      95.03642295
H      86.32456657      82.69920140      93.72306316
C      90.04921713      84.27901259      92.39836502
H      91.16604538      82.65384796      91.80310123
H      91.27753923      85.69819706      93.24685213
C      88.85868955      85.40339976      90.00408178
H      90.57267132      85.81913954      88.94205559
H      87.80989145      87.16273494      90.22329003
N      87.36013658      83.66296182      88.61513294
H      86.82912349      81.97354650      89.32755976
C      86.56456181      83.90673652      86.24541614
N      87.15226669      85.85126489      84.96229198
H      86.42850151      85.79457310      83.19917733
H      88.06500450      87.27989799      85.83534553
N      85.42694657      82.17007804      84.92638718
H      85.56489659      82.20031366      83.02343278
H      84.62759234      80.69231206      85.82967635
C      88.00642298      82.06047391      98.69682282
O      85.85213499      81.20064844      98.97461259
N      89.38592319      83.02045487     100.56198269
H      91.07911797      83.75744814     100.07443330
C      88.58845869      83.11494119     103.12823102
H      87.06911873      81.74677933     103.36444681
C      90.74463641      82.26834380     104.86299978
H      90.18527742      82.91085075     106.73949801
H      92.42460310      83.37194396     104.41513464
C      91.11313304      79.35249610     104.78174155
H      91.69327902      78.71376860     102.91091250
C      93.19939089      78.87628507     106.72249047
H      93.53954163      76.84671900     106.64690142
H      92.74207712      79.66052149     108.57064280
H      95.06644049      79.59816052     106.23683081
C      88.78499022      77.96543698     105.61889030
H      87.22596602      77.94842945     104.27340517
H      88.18405726      78.57959804     107.49349881
H      89.26120126      75.96799628     105.79274512
C      87.23541465      85.47142989     103.99183595
O      86.55133372      85.77000666     106.22360272
N      86.91227145      87.40461991     102.41769393
H      87.28454753      87.09848426     100.57143132
C      85.87292198      89.93874290     102.95815566
H      84.81089579      90.11826690     104.71371140
C      87.97807709      91.93996307     102.81075700
H      87.16738450      93.77488732     102.34777406
H      89.17427385      91.45052396     101.20637936
C      89.61458008      92.10058980     105.07275940
H      91.22273717      90.81368619     104.97260390
H      88.29744084      91.74154180     106.61288634
C      90.41204458      94.97864299     105.39212315
H      88.66404774      96.00098492     105.77762731
H      91.47029132      95.60981157     103.74050235
C      92.09012155      95.30178618     107.75806049
H      91.04321317      94.40983537     109.29062853
H      92.09390100      97.33891114     108.07364478
N      94.74329729      94.40038673     107.32342344
H      95.70138853      94.16606067     108.95614697
H      95.88469198      95.69106980     106.50517194
H      95.07021994      92.68451524     106.55052538
C      83.84713537      90.47164573     100.89646425
O      83.86792236      89.33780994      98.83099339
N      82.02543920      92.16295077     101.37645473
H      81.77599533      92.93962828     103.10177485
C      79.94485053      92.81301663      99.56609692
H      78.98297984      91.03667390      99.15224686
C      77.98142489      94.52510867     100.75095532
H      78.79022776      96.38648909     101.09677524
C      76.01799925      95.09391629      98.83666257
H      75.13549707      93.30056602      98.34155427
H      76.89672199      95.59091430      97.04142257
H      74.70652919      96.59813844      99.35066812
C      76.76066170      93.35725781     103.19059199
H      78.18173588      93.15127763     104.66646824
H      75.88004923      91.54501027     102.77107275
C      74.93896553      95.08068821     104.55686412
H      73.05868785      94.98242244     103.71971536
H      75.71375332      96.97986315     104.69670386
H      74.54023328      94.53833675     106.50517194
C      81.19962880      93.83724829      97.29464590
O      82.69818177      95.57201705      97.53275141
N      80.92750822      92.76955292      95.03075377
H      79.86926148      91.18407255      94.94382636
C      81.81190013      93.57457633      92.52497668
H      82.88715440      95.32446289      92.66670615
C      83.83579701      91.76988771      91.53287037
H      85.57245549      91.63382741      92.63080135
H      84.59357726      92.64483098      89.83022696
C      82.82101398      89.16962430      90.82611273
C      81.78544396      88.70853108      88.35435071
H      82.05189537      89.93496346      86.74619362
C      80.72152805      86.37093963      87.81955816
H      80.13949234      86.16873890      85.87314006
C      80.44184855      84.53979483      89.69794612
O      79.76532653      82.01701019      89.08000561
H      79.22675453      81.72410263      87.37169303
C      81.18073154      85.04813121      92.20939239
H      81.24309251      83.52312208      93.56432615
C      82.43928927      87.32147197      92.73662603
H      83.10825238      87.69374805      94.63013179
C      79.78044434      94.06779490      90.61824283
O      77.73953993      92.99254063      90.81099492
N      80.21697112      95.50020745      88.56411033
H      81.77410560      96.60191789      88.51497744
C      78.27622220      95.91216778      86.53643400
H      76.37137807      95.45485402      87.16949231
C      78.18173588      98.66738874      85.71629278
H      76.94207542      98.69384491      84.07223088
H      79.80690051      99.47430188      84.73930427
C      76.98364940     100.52687943      87.60034991
H      78.19874342     100.82923564      89.23496317
H      75.24699092      99.88437249      88.50363909
C      76.32413492     103.01375927      86.39092507
H      74.93707580     102.56022495      84.93961526
H      77.98709407     103.86791556      85.52354069
C      75.24510119     104.86380132      88.20884178
H      76.36192944     105.22662878      89.90203656
H      73.47442764     104.18161013      89.01197547
N      74.60448397     107.26375375      86.83690048
H      76.04823488     108.50719366      86.91626898
H      73.17963033     108.12735867      87.76475610
H      74.20953117     106.86880095      85.01331459
C      78.68251336      94.10936888      84.31411585
O      80.93695685      94.00543393      83.33523762
N      76.69641100      92.59569810      83.64704246
H      75.15628406      92.39160766      84.75631181
C      76.89294254      90.84392181      81.60613804
H      78.49920990      89.55134901      81.63637367
C      74.38716545      89.49465722      81.96518604
H      72.81680288      90.69841289      81.39070924
H      74.10748595      88.93151878      83.92672196
C      74.39472435      86.99454931      80.51576596
O      72.96987071      86.61093487      78.67139308
O      75.87626978      85.24844220      81.15827291
C      77.03656174      92.08547200      78.96996984
O      76.67751374      94.35125385      78.67895199
N      77.19718847      90.42062311      77.11047915
H      77.49765496      88.56113242      77.42795317
C      77.11593024      91.35981709      74.48942875
H      78.31401672      93.03600434      74.41194997
C      78.19874342      89.39450172      72.67340176
H      77.60536936      89.77244699      70.73643229
C      81.06356851      89.18852156      72.40128117
H      81.78733369      88.43830021      74.17762391
H      81.91772480      91.02533553      72.02711536
H      81.36214527      87.82413915      70.88950012
O      77.57324401      86.86226846      73.22520185
H      76.14272119      86.38416771      72.21419827
C      74.50810793      92.25743709      73.67306698
O      74.48165176      93.69929827      71.80790711
N      72.49365968      91.49587739      75.04311856
H      72.94719400      90.37526969      76.52088454
C      69.77245379      92.62971318      74.94296306
H      69.33214756      93.11726257      72.99087578
C      67.84115350      90.56991149      75.89916458
H      65.99489089      91.45430341      76.11648311
H      68.63483855      89.90094837      77.67739704
C      67.65973977      88.35893171      74.24376433
H      66.23488613      87.02856439      74.91272744
H      69.39828798      87.26289044      74.34580955
C      66.97187939      88.92207015      71.46775638
O      68.31358508      87.69563778      69.80290749
O      65.30325106      90.49054299      70.76666791
C      69.37372154      94.92951009      76.68529073
O      67.42919316      96.23342126      76.63426811
N      71.28612457      95.51154580      78.19140260
H      72.94341454      94.71219158      77.67739704
C      71.46375884      97.68284134      80.06034192
H      70.28267989      99.28154980      79.52743910
H      73.44041256      98.20440579      80.30789607
C      70.86282587      96.99498096      82.79666562
O      71.55446570      98.33668664      84.61647206
N      69.30569139      95.08635738      83.23319240
H      68.75200158      94.15283258      81.66282983
C      68.24366520      94.57802100      85.71062360
H      67.14573421      96.27688495      86.09423804
C      66.53535262      92.33491586      85.23819202
H      65.44498053      92.06090556      86.96540187
H      67.82792541      90.74187658      85.05110911
C      64.55680917      92.46152754      83.15382389
C      64.02012689      90.19007651      81.85558192
H      64.66074411      88.34570362      82.45084571
C      62.19465127      90.17684842      79.96396588
H      61.76001422      88.55357351      78.80556365
C      61.22900113      92.44074054      79.12114794
O      59.57738033      92.32357751      77.15961203
H      58.84983570      93.93551405      76.76087978
C      61.75434504      94.69896349      80.43072828
H      60.81893052      96.46963704      80.03955493
C      63.35872268      94.68384568      82.51887585
H      64.01634744      96.38648909      83.43539312
C      70.35448949      94.06779490      87.71184376
O      71.92863151      92.42562274      87.21673547
N      69.79890996      95.00131970      90.00219205
H      68.09815628      95.85736572      90.11368591
C      71.31069101      94.43062235      92.28687117
H      73.26844747      94.64605115      91.68593820
C      70.71731695      96.33168703      94.47139478
H      71.39194924      95.59658348      96.27419369
H      68.72365569      96.61514596      94.91170101
C      72.00233084      98.83557439      94.33911394
C      70.82503135     101.02198773      95.15925516
H      68.85971598     101.08623843      95.70538607
C      72.16862675     103.43705796      95.47672918
H      71.15006427     105.11702465      96.03041899
C      74.77077989     103.58256689      94.81721470
O      76.26366367     105.59323569      95.23106476
H      75.19596831     107.03131741      95.52397234
C      75.90839513     101.26576243      94.01786047
H      77.91150502     101.30544667      93.63235630
C      74.64416822      98.94706824      93.67770973
H      75.82713690      97.35969814      93.18449116
C      70.94030465      91.62626850      92.76686165
O      68.92018722      90.55668341      93.31677201
N      73.13427690      90.41306420      92.69127260
H      74.69519084      91.43918559      92.29820952
C      73.56135505      87.71453503      92.97473154
H      71.85304246      86.71298008      93.54920834
C      74.47031340      86.66951639      90.33856334
H      76.29200957      87.44997335      89.77731462
C      74.36637846      83.86327281      90.28187155
H      75.51533205      82.80691580      91.62546696
H      74.79345660      83.32470081      88.33923290
H      72.44830625      83.21509669      90.67304489
O      72.74688301      87.49721650      88.44883702
H      72.74877273      89.30946404      88.32222536
C      75.63627454      87.19297058      94.98540034
O      77.14994532      88.77278177      95.55987714
N      75.53800877      85.05002094      96.26474505
H      74.09803732      83.82169882      96.02286009
C      77.47119879      84.24499753      98.06376450
H      79.17006274      85.36749495      97.75762884
C      76.46019521      84.65695786     100.69048408
H      75.46052999      86.45786704     100.67536627
C      74.69897029      82.47999315     101.48794858
H      73.20230705      81.79969168     100.24639840
H      73.73143042      82.92407883     103.25295296
H      75.92540266      80.93041756     102.06998429
C      78.60125512      85.07080792     102.51029052
H      80.02043959      86.34259373     101.72794383
H      79.68595803      83.33981861     102.76729330
C      77.73765020      86.19708481     105.00850870
H      77.00065694      88.11893647     104.95559637
H      79.44785251      86.39172662     106.14234449
H      76.65672675      84.72876746     105.96471022
C      78.19118451      81.42363614      97.47228017
O      76.98553913      80.19720376      95.92081487
N      80.26043483      80.56192094      98.50785019
H      81.62859668      81.78457386      99.02752492
C      81.04845070      77.74433901      98.60422623
H      79.31368194      76.89963135      99.32421196
H      82.56023175      77.34371703      99.94404219
C      81.55111790      76.73144570      95.88679979
O      83.09502430      77.68386777      94.43360026
N      80.51932733      74.43542824      95.41814767
H      79.78800325      73.32615888      96.78819924
C      80.68373352      73.27702601      92.94827538
H      82.19173512      74.15196929      91.84845466
C      81.00498699      70.40275227      93.13535828
H      79.44974224      69.52591928      94.16147967
C      81.42072678      69.53158844      90.29320991
H      83.02321470      70.64652698      89.64125433
H      79.72942173      69.84528302      89.15937412
H      82.15205087      67.60784707      90.18549551
C      83.50887436      69.81693713      94.68304413
H      83.18384143      70.65975506      96.53497592
H      84.99419924      70.86762495      93.71928371
C      84.18539638      66.81983120      94.95327499
H      86.00520282      66.43054756      95.83955663
H      84.43106080      66.00346943      93.07677676
H      82.67172560      65.97323381      96.06254434
C      78.15150026      73.76079594      91.70672519
O      76.32602464      72.45877451      92.19616430
N      77.98331462      75.81870790      90.29320991
H      79.56879500      76.83916011      89.99841260
C      75.76099648      76.26468331      88.69261172
H      75.49454507      74.37684671      87.91215475
H      76.14839037      77.56670474      87.14492587
C      73.23443240      76.74467379      89.99652287
O      71.32202937      76.47066348      88.67560418
N      73.25521938      77.44009306      92.41915201
H      74.82747168      78.09015892      93.28275693
C      71.01589370      77.73866983      94.07455226
H      69.36805236      76.86561628      93.19771925
C      71.59792941      76.67664364      96.87890611
H      72.94152482      77.72166230      98.03919806
H      72.18374457      74.75668171      96.41970261
C      69.12805712      76.47255320      98.29431111
N      67.78635143      74.25023506      98.61745431
H      68.16051724      72.58916563      97.75195966
C      65.77757236      74.98344886      99.82498943
H      64.32059338      73.72678087     100.50529090
N      65.71899085      77.44009306     100.40324568
H      64.38106462      78.35094116     101.41424926
C      67.85438158      78.45676583      99.16736467
H      68.15295834      80.46932435      99.00106876
C      70.21464975      80.53357505      94.16336939
O      71.20486633      82.18897530      95.58444358
N      68.07925901      81.12127993      92.91803975
H      67.26667670      79.82303796      91.77664506
C      66.99455611      83.68941799      92.86323769
H      68.43452756      85.06135929      92.32844514
C      64.83270921      83.54957823      90.88847369
H      63.63651245      82.03401774      91.60467997
H      65.49600314      82.99777816      89.01764464
C      63.31714870      86.02322999      90.61257365
H      64.57003725      87.46698088      91.38358199
C      62.96188016      86.85470957      87.89514721
H      64.79680441      86.85093011      86.95217378
H      62.31559376      88.80679685      87.80821980
H      61.67875599      85.73977104      86.73674498
C      60.75279010      85.97031765      91.82199849
H      59.52446799      84.64372977      90.83367163
H      59.61517486      87.66162270      91.52153201
H      60.68664968      85.41473812      93.80432139
C      66.00433952      84.49633112      95.51074426
O      64.87239346      82.89384321      96.68615402
N      66.22732723      86.86793764      96.28553204
H      67.25155889      88.09059056      95.23484421
C      64.87239346      87.81846999      98.41903305
H      64.29035776      86.17251837      99.51318459
C      66.69975880      89.31324350     100.12923536
H      65.58671001      90.22787102     101.59944244
H      67.57848154      90.70219234      98.89146463
C      68.95609202      87.80524190     101.21771772
H      69.64773185      86.86982737      99.51318459
C      71.22187387      89.51166475     102.25706719
H      70.54346213      90.65872863     103.82742976
H      71.81524793      90.66439781     100.65646901
H      72.67507341      88.19452552     102.88445633
C      68.04902339      85.98543546     103.37011599
H      66.31425464      84.99332915     102.86744879
H      67.49155413      86.96242396     105.09732584
H      69.54001745      84.61349415     103.73294344
C      62.35905746      89.38883254      97.85211516
O      60.39752155      89.02600510      99.06154000
N      62.71810546      91.09336569      96.05687516
H      64.43775641      91.30312531      95.25374148
C      60.56759692      92.52955768      95.13657845
H      58.90841722      91.31068421      95.11579146
C      60.05548109      94.78400118      96.86000884