 %block lattice_cart
   139.252   0.000   0.000
   0.000 142.425   0.000
   0.000   0.000   162.84
 %endblock lattice_cart

 %block positions_abs
N      91.12825085      42.50944703      84.46151450
H      92.98585182      42.94219435      84.39159462
H      90.86746862      40.87294404      83.51665134
H      90.69361380      42.26189288      86.30210793
C      89.65993351      44.47287268      83.18405952
H      90.03409932      46.29456884      84.07034115
C      90.51786925      44.63916859      80.34947005
H      89.61080062      43.26911702      79.10980958
H      92.56255312      44.60515351      80.10758508
C      89.75064037      47.21297583      79.25531851
H      87.70595650      47.29045460      79.50098293
H      90.13425481      47.28667515      77.23331135
S      91.13580976      50.03622694      80.52143514
C      89.18939166      52.01477039      78.67517254
H      89.75064037      53.98575494      78.90004996
H      87.28832699      51.73320116      79.41972470
H      89.02309574      51.30045385      76.74954141
C      86.81400568      43.72076159      83.49397464
O      85.99197473      41.55324552      83.42972393
N      85.34001916      45.58592148      84.24230626
H      86.25464669      47.18840938      84.72796591
C      82.56779066      45.31002143      84.78087826
H      81.53033091      44.04957398      83.52421025
C      82.28055226      43.95319794      87.34145740
H      83.36336543      42.19953191      87.38681083
H      80.33980333      43.60359856      87.93483147
C      83.21974623      45.27978581      89.63180569
O      84.55956219      47.21297583      89.59779063
N      82.53755503      44.38405554      91.77475533
H      83.55233806      45.04357002      93.24874185
H      81.80812068      42.63038952      91.95994851
C      81.35458636      47.92162319      84.93583580
O      82.71518931      49.78489334      84.61080288
N      78.89038325      48.29956845      85.02087350
H      77.69229677      46.87093536      85.42905437
C      77.77544473      50.96030310      84.95662280
H      78.40094414      51.60658951      83.10469102
C      74.83692031      50.62582154      85.00764541
H      74.25866406      49.58647208      83.32389926
C      73.75410713      49.37293301      87.42271564
H      71.81524793      48.90239114      86.92004843
H      73.80324002      50.60314483      89.07433643
H      74.85959702      47.68351768      87.83467597
C      73.28923446      53.02577396      84.62781041
H      73.55001669      54.34858239      86.18305517
H      71.28612457      52.54767320      84.52576520
C      74.07158115      54.57345982      82.32045460
H      73.81835783      53.38293223      80.65749544
H      75.97831500      55.34068869      82.43950734
H      72.68074259      56.08335114      82.15226895
C      78.79022776      52.76499173      86.84445938
O      79.30045386      55.01565577      86.40037370
N      79.12470931      51.85792310      89.18394055
H      78.52944552      50.07024202      89.49007622
C      80.24342729      53.39993978      91.03965179
H      79.08880451      55.06667839      91.40436897
C      80.58357803      51.80690049      93.47550902
H      81.65883230      52.88215476      94.86823730
H      81.59269188      50.04000638      93.15425554
C      78.10425710      51.16439354      94.73595647
C      77.24632136      52.71396913      96.76174307
H      78.23842767      54.31267759      97.55353840
C      74.86148675      52.19429439      97.74629049
H      74.10181677      53.52466171      99.09177562
C      73.44986120      50.02677830      97.00740749
H      71.59414996      49.63938441      97.76140829
C      74.60448397      48.32791436      95.30098463
H      73.61426738      46.64605794      94.70572085
C      76.88916308      48.89861169      94.04620637
H      77.52789058      47.45864024      92.74985412
C      82.92872838      54.25976524      90.32722497
O      83.61847849      56.40649434      90.81855382
N      84.57845945      52.64782870      89.17071248
H      84.03799773      50.83936062      88.88914325
C      87.11447216      53.34135826      88.40537331
H      87.89114968      53.91205561      90.22706949
C      88.57334088      50.85636815      87.93861091
H      87.97807709      49.74709882      86.30966684
H      88.17271890      49.77922415      89.64692351
C      91.43060706      51.43651413      87.86680132
H      91.79532424      52.54200402      89.56188583
H      91.92949481      52.47964307      86.16226819
C      93.10679430      49.21419599      88.00097188
O      94.01764239      48.19563351      86.05833323
O      93.60379232      48.25799448      90.17037769
C      87.26565027      55.18951060      86.12258393
O      88.55822307      57.09057526      86.26809285
N      85.67639044      54.86825712      84.14970967
H      84.70129166      53.22797469      84.23474735
C      85.08112665      56.65782794      82.03510592
H      86.70818101      56.92049990      80.79922491
C      82.77755028      55.50131543      80.62914955
H      81.45474186      55.28588663      82.19195321
H      83.16683390      53.55489734      80.07357000
C      81.83268712      57.08868553      78.36336769
H      83.25187158      56.85058002      76.88749144
H      81.58324325      59.02943446      79.00587463
S      78.81857365      55.83957645      76.93284488
C      79.21919563      55.53533051      73.61448547
H      80.91428013      54.43928924      73.20630458
H      79.44218333      57.33057050      72.62615861
H      77.66584060      54.55456256      72.68851958
C      84.65971768      59.44328452      82.98752797
O      86.19228572      61.11569232      82.66060532
N      82.56968038      59.77398663      84.48797067
H      81.57568434      58.25086721      85.07378583
C      81.74953916      62.33456578      85.38748039
H      81.31301238      63.59879269      83.82089729
C      79.17384220      62.05110683      86.71217855
H      79.15494493      63.47407075      88.20128288
H      79.11904013      60.22374149      87.66460061
C      76.82869184      62.01898148      84.83001113
H      77.13860696      60.47318537      83.50153353
C      74.42118052      61.62213897      86.34557163
H      74.45519559      59.99886405      87.61357799
H      72.72420629      61.46340195      85.18905913
H      74.29267913      63.31533373      87.50964305
C      76.64160894      64.20161538      82.97241016
H      76.76255142      66.03276018      83.90593497
H      74.88038401      64.29421197      81.90471480
H      78.22897904      64.39058802      81.67416819
C      83.75831823      63.70839682      86.94083543
O      83.99075457      66.05354716      86.79532649
N      85.58001440      62.41204457      88.12191438
H      85.20962804      60.53932579      88.10679656
C      87.74186130      63.47785020      89.70739475
H      86.96896324      65.11057374      90.69572161
C      88.72073953      61.52387320      91.56121626
H      89.59379309      60.01209214      90.47084417
H      87.08423654      60.56389223      92.36434995
C      90.28165346      62.61046583      93.72117343
H      88.94561696      63.73107352      94.81343524
H      91.64603586      63.86335437      92.81410480
C      91.70839683      60.76798267      95.52208262
H      90.50086172      59.39037219      96.46505604
H      92.27153527      61.99063560      97.08110682
N      93.83244921      59.63981607      94.04998581
H      95.09856584      60.85491008      93.29976446
C      94.31243969      57.16616432      93.76463714
N      92.81766618      55.49753598      94.68304414
H      92.97073401      53.59647132      94.67737496
H      91.05644125      56.07768196      95.13279900
N      96.10201051      56.36492035      92.39458556
H      96.72184074      54.56401118      92.25474581
H      97.17159560      57.76709729      91.66515121
C      89.89236984      64.37547020      88.02742806
O      91.31155431      66.14236431      88.58678704
N      90.15126235      63.12636111      85.91093458
H      89.17805330      61.51442456      85.59724001
C      92.12413662      63.76886805      84.02687746
H      93.73607317      64.59278873      85.00953513
C      92.85168125      61.30466494      82.83634987
H      91.23974471      60.11791682      82.35446966
C      94.52975822      61.58056498      80.45907417
H      93.68127110      62.86746860      79.09091233
H      94.82833497      59.81178116      79.44618087
H      96.32499821      62.24574865      81.21685442
C      94.42960272      59.84390651      84.73174536
H      93.20694980      59.54155029      86.36635863
H      96.01697282      60.90215324      85.50842289
C      95.23084668      57.22474584      83.83979455
H      95.39525287      56.08146142      85.54432768
H      97.08655792      57.19639994      82.94406428
H      93.86079510      56.35547173      82.56989846
C      91.09234605      65.68127109      82.19384292
O      92.51908942      67.07210964      81.16961127
N      88.59223814      65.54710051      81.60235859
H      87.73997157      64.02398111      82.37525666
C      87.26565027      67.10990417      79.76554461
H      88.42027305      67.27997955      78.07046012
C      84.64459987      66.09323142      79.07957396
H      83.06289895      67.29698708      79.62192541
H      84.17027857      64.28854279      79.95451725
C      84.15327103      65.99685537      76.26199203
O      82.78510918      64.29421197      75.52310904
O      85.46096164      67.27620009      74.79367468
C      86.94439680      69.86323541      80.75954065
O      87.96295928      71.70571856      79.69373502
N      85.51198425      70.26385740      82.77398890
H      84.65404850      68.75963524      83.57523287
C      84.74475537      72.65625090      83.86625071
H      84.58412863      74.06220728      82.37147721
C      82.18984539      72.12334809      85.15126460
H      82.51865777      70.96116641      86.82178267
H      80.83491163      71.20494109      83.90026579
C      80.92372876      74.40424774      86.25297504
H      82.00654194      75.43603831      87.66838006
H      79.23053399      73.62379078      87.13169779
C      79.99020396      76.13523704      84.11569458
O      81.27143840      78.06464761      83.73585959
O      77.74898856      75.76485068      83.24453075
C      86.82912349      73.52741473      85.69172633
O      87.31100370      75.77429933      85.94305993
N      87.88737023      71.70193912      87.26208890
H      87.36202631      70.01063406      86.55911072
C      89.56733692      72.14791452      89.49007622
H      90.65203982      73.85055793      89.08756451
H      90.79187957      70.49629373      89.62613651
C      88.28988193      72.92081258      91.88813891
O      86.00331309      73.60678323      91.80877041
N      89.47096088      72.68270707      94.17281802
H      91.27187005      72.05720766      94.12746459
C      88.72451898      73.64268803      96.55954236
H      86.67038648      73.80520450      96.53686564
C      90.10590892      71.88146312      98.58721870
H      92.15437224      72.04020012      98.44170976
H      89.86213422      69.86890460      98.22628097
C      89.13836905      72.49373445     101.28385814
H      89.43316635      74.45527035     101.83943767
C      86.26598505      72.06098712     101.57487599
H      85.64426509      70.11078956     101.79975342
H      85.14348762      73.09088795     100.18781687
H      85.76142812      73.00396054     103.33610092
C      90.28354319      70.80998829     103.33610092
H      92.32444761      71.02352736     103.52129410
H      89.75253010      68.82199621     103.21515843
H      89.55788829      71.31454523     105.19748133
C      89.49741705      76.41491654      97.26252055
O      91.73674273      76.98561388      97.46094181
N      87.71540513      78.12133941      98.03352888
H      85.91071650      77.61489274      97.68392952
C      88.29555111      80.56286579      99.18437221
H      90.27598429      80.88411928      99.64546542
C      87.42060783      82.62266748      97.13212943
H      87.04644202      84.42924584      98.04864670
H      85.56678631      81.96693244      96.51796839
C      89.39726155      82.84187574      94.96839280
H      89.93016437      80.99750284      94.22006118
H      91.05455153      83.73760601      95.79798265
C      88.69428336      84.56341640      92.84811989
H      90.52353843      84.70703561      91.91270535
H      88.04988669      86.38133311      93.56810560
N      86.81589541      83.32942511      91.10957167
H      85.67639044      82.13133863      92.06199374
C      86.41527343      83.49950048      88.64536856
N      87.84957570      85.03206852      87.26397862
H      87.41871810      85.30040967      85.42149548
H      89.13081014      86.15645568      88.12191438
N      84.66349714      81.87244613      87.74018965
H      84.55389301      81.60599473      85.85235307
H      83.92650387      80.63278567      88.99118848
C      86.90093309      80.82931720     101.55219927
O      84.58979781      80.66302129     101.57865544
N      88.23130042      80.98427476     103.58176534
H      90.11913700      80.77262541     103.42113860
C      87.27320917      81.20915220     106.27462533
H      85.66505208      79.94870475     106.52595893
C      89.33868003      80.44759249     108.17191055
H      88.43917031      81.14679123     109.88967177
H      90.83156382      81.87055641     108.16813109
C      89.96228972      77.57142905     108.32119893
H      90.48763363      77.12167419     106.38045001
C      91.98618660      76.91380428     110.21470469
H      91.13392003      76.54530766     112.05340840
H      93.06711005      78.63345523     110.55296571
H      93.25986213      75.44548694     109.53629295
C      87.68327978      75.89146236     108.79929968
H      86.89526391      76.36200420     110.64367257
H      88.21996206      73.90535999     108.89000655
H      86.27732341      76.05019936     107.30263645
C      86.27165423      83.75650326     106.91902201
O      84.84302114      83.84343067     108.75961544
N      86.59857688      85.67079603     105.29763683
H      87.77965583      85.32308638     103.83876811
C      85.81245073      88.28617723     105.80975267
H      84.67294577      88.27483888     107.52751387
C      88.26153604      89.93212886     106.04785818
H      87.43383591      91.79350927     106.35399383
H      89.07222862      89.98126174     104.15624213
C      90.14748290      89.15167189     107.96970984
H      90.72006997      87.26761475     107.37255633
H      89.36324648      89.05907530     109.87266424
C      92.36035241      91.06218519     108.39678799
H      91.54965982      92.67601147     109.39078403
H      92.98585182      91.91256203     106.62989389
C      94.60723700      90.01716654     109.84053889
H      95.21194942      88.21058818     109.05441274
H      94.07433418      89.93212886     111.82664125
N      96.78609143      91.71792023     109.70069913
H      96.43082289      93.22592183     108.58576061
H      98.36779236      90.82974885     109.10732507
H      97.21316958      92.49648747     111.39011446
C      84.05122581      89.15734106     103.74239207
O      84.35736147      88.26539024     101.69581847
N      82.39393583      90.89588928     104.27907434
H      82.15583032      91.08108246     106.16313148
C      80.42295129      92.03350451     102.44981927
H      79.20974700      90.55762826     101.68070067
C      78.30645782      93.69268422     103.74995098
H      79.11526068      95.32918720     104.70048331
C      76.57924797      94.52605352     101.44826434
H      75.97831500      93.08419234     100.10655864
H      77.78489336      95.77516261     100.33899498
H      74.85203812      95.48981394     102.01707195
C      76.72853635      92.23570523     105.71337662
H      77.94929955      91.22092220     107.02862613
H      75.64572317      90.78250569     104.73260867
C      74.76511071      94.03094523     107.06831039
H      73.79568111      92.76671832     108.37411126
H      73.43852284      94.78683575     105.68314100
H      75.40572793      95.58618998     108.25883796
C      81.77977478      93.32607731     100.20482442
O      83.21218733      95.04005908     100.71505052
N      81.20907744      92.33208127      97.96738846
H      79.97886561      90.87699201      98.05242614
C      81.67961929      93.65866914      95.51263398
H      82.72274821      95.38587899      95.92648404
C      83.55422779      92.00704835      94.07833170
H      85.26631983      91.95035655      95.22350585
H      83.96807785      92.78939504      92.21695130
C      82.51109887      89.27072465      93.52653163
C      81.60025078      88.63199715      91.04154152
H      81.76843642      90.04173298      89.57889336
C      80.51554788      86.28684680      90.48407226
H      79.95240944      85.85787892      88.56977950
C      80.69129243      84.36310541      92.23206910
O      80.09980809      81.92724819      91.58767242
H      79.66139159      81.81386461      89.83022696
C      81.70229600      84.87144179      94.65847768
H      81.85914329      83.37855801      96.04175734
C      82.47330434      87.22415105      95.25752092
H      83.26509966      87.47926410      97.12079107
C      79.33446893      94.14432881      93.93471252
O      77.31435151      92.93490397      94.17281802
N      79.57635390      95.81673659      92.12813415
H      81.28088704      96.66144425      91.95427933
C      77.69040704      96.26838118      90.13825234
H      75.86115197      95.73169891      90.91870932
C      77.80379062      99.00470488      89.42771525
H      76.75877197      99.12942682      87.65515197
H      79.81445942      99.35808370      89.16882274
C      76.63027058     100.96435107      91.16815318
H      77.81890843     101.35741414      92.80465618
H      74.74810317     100.33318248      91.71806354
C      76.11437530     103.38698021      89.66582076
H      75.66084098     103.09596235      87.67404923
H      77.90205639     104.39042487      89.84345504
C      74.00355100     104.86474619      91.04532097
H      74.63094014     105.37875173      92.93882675
H      72.16106785     103.95578783      91.18516073
N      73.42151530     107.22123489      89.83778587
H      72.17807539     108.10940626      90.98296000
H      72.51822612     106.93210677      88.18238562
H      74.94652443     108.35507069      89.66204131
C      78.16472835      94.57518640      87.73829992
O      80.35870060      93.98937125      87.09768270
N      76.11437530      93.73803765      86.59312578
H      74.52889492      93.94968699      87.63814444
C      76.19563353      91.89555449      84.49552957
H      78.11748519      91.68201543      83.78121303
C      75.64761290      89.30851918      85.67093934
H      73.71253315      89.08931092      86.34179219
H      76.93640624      88.87010266      87.21673546
C      76.17673626      87.05785513      83.87380961
O      78.32535508      86.04496183      83.74908768
O      74.34181201      86.12622006      82.70217931
C      74.53834355      92.42656759      82.20329155
O      72.40673227      93.12954577      82.64926696
N      75.63249509      92.00137917      80.01120903
H      77.49387550      91.58374965      80.03766520
C      74.28512023      92.02216615      77.50165250
H      75.75721702      92.18657235      76.07301940
C      72.74121383      89.53150687      77.05378735
H      71.01400398      89.72047951      78.15927724
C      72.03823564      89.28395273      74.26833077
H      70.91006903      90.89210982      73.65039026
H      70.76456010      87.68524428      73.99432045
H      73.72576124      88.91356638      73.14583334
O      73.85237290      87.26572502      77.70952238
H      74.10937568      87.04084760      79.49153429
C      72.73365492      94.48447954      77.05189762
O      73.65584136      96.17956404      75.90672349
N      70.37527648      94.66022410      77.90605392
H      70.20331139      93.52638830      79.42917334
C      68.77278857      96.87876278      77.82668542
H      69.03168108      97.63087385      75.92751048
C      65.97221417      96.05106265      78.00620942
H      64.71176672      97.68000675      77.98542242
H      65.89095594      95.26304679      79.90727408
C      64.83648866      94.02716578      76.33947081
H      62.94109317      93.67378695      77.05945653
H      65.85505114      92.25460250      76.56434825
C      64.62105986      94.62620902      73.46708682
O      63.77068302      96.63120863      72.67340176
O      65.34293531      93.00671356      71.86837836
C      69.35293455      99.07273503      79.59735897
O      67.94508845     100.91332846      79.62948432
N      71.22376360      98.70045894      81.25842841
H      72.05713290      96.98458745      81.31323047
C      71.84548356     100.38420509      83.40893694
H      71.26344785     102.31928483      83.01209443
H      73.88638797     100.62609006      83.53932806
C      70.84392861      99.45823920      85.98841336
O      70.83447998     100.97190998      87.67404923
N      70.19386276      96.96946965      86.26053395
H      70.60771282      95.76193453      84.84323921
C      68.75389131      95.83941332      88.31844591
H      67.48777468      97.35497381      88.91181998
C      67.00778419      93.74748628      86.94650461
H      66.14795872      92.87821218      88.60190486
H      68.21720903      92.37932444      85.99219281
C      64.83081948      94.53361243      85.13236734
C      63.53446723      92.65900392      83.83034591
H      63.76123439      90.64077622      84.02309800
C      61.47277582      93.21836292      82.31478542
H      60.49767705      91.64422090      81.46062912
C      60.54114075      95.71469138      82.24108608
O      58.53803086      96.43656682      80.76520983
H      57.90686227      98.13543078      80.68962079
C      61.72410942      97.64221222      83.66971917
H      61.05703603      99.56973306      83.71885206
C      63.88595632      97.07907377      85.03410157
H      64.77412769      98.62109044      86.03565652
C      70.21087029      94.49203845      90.41982156
O      71.87193972      93.01805192      89.88502902
N      69.67607775      95.15344267      92.72528766
H      68.17563506      96.24759419      93.17504254
C      71.14439509      94.29739664      94.87012703
H      73.08703374      94.68668026      94.31076805
C      70.42818882      95.76382426      97.14913696
H      71.09715194      94.85297617      98.87067763
H      68.38917413      95.83185441      97.43259591
C      71.53367871      98.36786711      96.97717187
C      69.98788259     100.48247086      96.83922186
H      67.96209598     100.25570371      96.72772801
C      71.14817455     102.88431300      97.25496164
H      69.95008806     104.53782354      97.19260067
C      73.71631261     103.05816782      97.58377402
O      74.59125589     105.29749350      98.16580973
H      73.54245778     106.67699371      97.62912746
C      75.27155736     100.96057163      97.61211991
H      77.31057205     100.98891751      97.66503225
C      74.17362637      98.63809799      97.07543764
H      75.34903614      96.99781554      96.77308143
C      70.76456010      91.53461678      95.38602232
O      68.67830225      90.68801938      95.63357647
N      72.97176044      90.24204398      95.50696480
H      74.63282987      91.17367905      95.36523533
C      73.31002145      87.53217643      95.11957091
H      71.66595956      86.51928313      95.83388745
C      73.76922494      86.91612566      92.29254034
H      75.43407382      87.98004158      91.70672518
C      74.30968667      84.12311017      91.81632932
H      75.62304646      83.61477379      93.32244119
H      75.14494570      84.03240331      89.93416190
H      72.45019598      83.24060798      91.91648480
O      72.01744865      87.87232717      90.55588187
H      72.37649665      89.64866991      90.48029281
C      75.47186835      86.74982974      96.93559790
O      77.18773984      88.26350052      97.57054593
N      75.36604368      84.56530612      98.21116315
H      73.81268865      83.49572104      97.92770420
C      77.20096793      83.37666828      99.82309971
H      79.03778190      84.03807249      99.16169550
C      76.59058633      84.36877459     102.51595969
H      75.95941774      86.32464133     102.39690694
C      74.30779694      82.91557505     103.45893313
H      72.73176520      83.30107922     102.18714732
H      73.64261328      83.37477855     105.35243889
H      74.84447921      80.93325215     103.61200095
C      78.73164624      84.26294991     104.50962096
H      80.39838485      85.14356238     103.68570028
H      79.32879975      82.32031127     104.85166143
C      78.06835230      85.32119665     107.05697202
H      79.80123133      85.48749256     108.16057220
H      76.57168906      84.32342116     108.06230643
H      77.35025631      87.18824625     106.56564318
C      77.33513849      80.49105619      99.52830239
O      75.74776839      79.26840327      98.20738370
N      79.32879975      79.36855877     100.60166695
H      80.61381365      80.48916647     101.46149241
C      79.89193820      76.73617001     100.82843410
H      78.23275849      75.63445957     101.35755746
H      81.59080215      76.39035010     101.93959317
C      80.71207942      75.82154248      98.17336864
O      82.35425158      77.00829060      96.93370816
N      79.86926148      73.67670311      97.27007946
H      78.80534557      72.62790501      98.45871730
C      80.08846973      72.81876736      94.70383111
H      81.55678708      73.94693397      93.79676249
C      80.53255542      70.03709023      94.54131465
H      78.95085449      68.96561542      95.31043327
C      80.85191916      69.21316957      91.85601356
H      82.66416670      69.69127031      91.00374700
H      79.36659428      70.00874434      90.67304490
H      80.67239516      67.16092679      91.89947727
C      82.82857289      69.32277369      96.24395807
H      82.28811116      69.89725049      98.14691246
H      84.39704573      70.49629373      95.61278947
C      83.65060383      66.67715684      96.51040948
H      82.07268236      65.53576216      97.18315204
H      85.30033490      66.40692599      97.71038568
H      84.19295528      66.03464990      94.63013179
C      77.35403576      73.45749487      93.71928372
O      75.52100123      72.09122274      94.26163517
N      77.03467201      75.44359721      92.15648004
H      78.62015239      76.46971860      91.88435947
C      74.78778742      76.02185346      90.63714009
H      74.08858869      74.32298952      89.70550502
H      75.60225947      77.30686737      89.24819125
C      72.40295282      76.93837072      91.99585332
O      70.57747720      77.31064681      90.58800720
N      72.34248158      77.21427078      94.55832220
H      74.02622772      77.25017558      95.45594219
C      70.06725109      78.03063253      96.02097036
H      68.57625703      76.76451590      95.37279424
C      70.21464975      77.56764959      98.84233174
H      71.22565332      79.05675392      99.84577642
H      71.39383897      75.87823427      98.83099338
C      67.68241649      77.11978446     100.25962648
N      66.31614436      74.88990741     100.51851899
H      66.54480125      73.21938934      99.62278871
C      64.08437759      75.36611843     101.70904656
H      62.53291228      74.08110455     102.05297676
N      64.04469334      77.99661746     102.08699182
H      62.53858146      78.99250324     102.70115288
C      66.28212929      79.01517994     101.28763759
H      66.69597935      80.99183367     100.97961220
C      69.34915510      80.82364802      95.62790728
O      70.62472036      82.45070238      96.84867048
N      67.34226575      81.29230015      94.28431188
H      66.45976356      79.82965198      93.43204531
C      66.10827447      83.75083408      94.12368514
H      67.45375960      85.13222402      93.40180969
C      63.85005153      83.61666351      92.24907663
H      62.49133831      82.41668731      93.22417542
H      64.48310984      82.61132912      90.56533049
C      62.65007532      86.04118237      91.28342650
H      61.80725738      86.94825101      92.92748839
C      64.65696466      87.86665799      90.24029756
H      63.68753506      89.46725618      89.37669264
H      65.94575801      86.89722839      88.95717340
H      65.67174769      88.73215264      91.81066013
C      60.75467982      85.28340212      89.14614604
H      59.73044816      83.54674364      89.56566528
H      61.86772862      84.90356714      87.45484099
H      59.43376113      86.81597016      88.75497268
C      65.02168184      84.61632873      96.59922661
O      63.50801106      83.21793126      97.75762884
N      65.58293055      86.81219071      97.42503702
H      66.95865131      87.83453264      96.58599852
C      64.52090437      87.71925934      99.80042298
H      64.02390635      86.08653581     100.95126631
C      66.53535262      89.14411298     101.40291090
H      65.64718125      90.41400907     102.75973439
H      67.51045139      90.50849539     100.20293469
C      68.53468305      87.37343943     102.70304260
H      69.27923522      85.92590907     101.43881570
C      70.86471560      88.98348624     103.61011124
H      70.29968743      90.74471117     104.51717987
H      71.87382945      89.55796304     101.90746782
H      71.96453631      87.82508402     104.91213267
C      67.19675683      86.08464609     105.03118543
H      66.42007931      87.44902848     106.36722192
H      68.62538992      84.96403838     106.00439447
H      65.79080045      84.68435888     104.47938534
C      62.23622525      89.47670481      99.46594142
O      60.20287974      89.00238351     100.51662925
N      62.25512252      91.21714275      97.68581925
H      63.89918441      91.72547912      96.86000884
C      60.13295987      92.92545533      97.28330753
H      58.41519865      91.81618599      97.52897196
C      59.87784682      94.81707137      99.36578594