 %block lattice_cart
   139.252   0.000   0.000
   0.000 142.425   0.000
   0.000   0.000   162.84
 %endblock lattice_cart

 %block positions_abs
N      91.97390338      44.15350892      81.68361683
H      90.94778199      42.89117175      80.68773106
H      92.22334724      43.82091709      83.54688696
H      93.76914337      44.01933836      81.04866878
C      90.87219294      46.64794765      81.02599206
H      91.67532662      48.03878623      82.31667513
C      91.62619374      47.37360256      78.30289644
H      90.63786688      46.12260374      77.00087501
H      93.64820089      47.12793815      78.00431969
C      90.80605252      50.13071325      77.71708129
H      88.78593509      50.06457283      78.11392381
H      91.27659437      50.60881402      75.77066318
S      91.93232939      52.71774858      79.56712336
C      89.57773042      55.09880373      78.47864100
H      87.86185891      54.41283308      79.38381989
H      89.31127900      55.23864347      76.44151602
H      90.18811201      56.85058002      79.37626099
C      87.99225003      46.66684492      81.37937088
O      86.75258958      44.87160492      80.66127489
N      86.95290057      48.63216028      82.68517177
H      88.11130280      49.96252761      83.42027530
C      84.20901796      48.74176441      83.22185404
H      83.40399455      47.78178345      81.58535105
C      83.80083708      47.18840938      85.73896949
H      84.74381050      45.37616185      85.47818725
H      81.79016827      46.80857440      85.95439828
C      84.81373038      48.35626025      88.21262124
O      84.94790095      50.66739552      88.32789454
N      85.73591682      46.95597305      89.95305917
H      86.22724566      47.86493141      91.55554709
H      85.71324010      45.04923919      89.84156531
C      83.08841025      51.49131619      83.29555336
O      84.30161455      53.25443085      82.47163270
N      80.72247291      51.82012857      84.07790006
H      79.87965498      50.16283860      84.51064738
C      79.27494256      54.12559468      84.11758431
H      79.48092272      54.97975098      82.25431417
C      76.44035308      53.71930353      84.57678781
H      75.73926463      52.67050542      82.94973346
C      75.68824201      52.38515674      87.09579299
H      73.76639035      51.66895048      86.90115117
H      75.71091872      53.60403022      88.75497269
H      76.85042370      50.70707977      87.37547248
C      74.68668707      56.01910044      84.53899329
H      74.94180012      56.94884579      86.35879972
H      72.71003334      55.43517501      84.55411109
C      74.95880766      57.83512743      82.38659501
H      75.41612143      56.90538208      80.60647282
H      76.75215793      58.83290292      82.53966285
H      73.61899170      59.38470300      82.15982786
C      80.42767561      55.88304015      86.15470927
O      81.26671409      57.92205484      85.44984136
N      81.00782159      55.07423729      88.42616030
H      80.52216191      53.29222538      88.91559943
C      82.36653480      56.65404848      90.26675374
H      80.99081405      58.14504255      90.62202228
C      82.88809927      55.17817223      92.63836026
H      83.62320279      56.57845943      93.95738922
H      84.17878234      53.59836103      92.36434994
C      80.69979620      53.96496794      94.09533924
C      78.97825553      55.41249829      95.39547094
H      78.91778428      57.43261572      95.68081962
C      76.92979220      54.32212621      96.65024923
H      75.66745503      55.59580175      97.62723772
C      76.26649827      51.85792310      96.25907588
H      74.54684732      51.10014286      97.05843011
C      77.87654509      50.38582631      94.82288388
H      77.60253477      48.44129794      94.26352489
C      80.04406117      51.41950660      93.67393028
H      81.25726546      50.21386122      92.56466094
C      84.80995093      57.83701715      89.24252208
O      85.17088865      60.11791682      89.47873786
N      86.55416831      56.42161215      87.95939791
H      86.39732102      54.52054748      87.86491159
C      88.92577483      57.38537256      86.86713610
H      90.09551542      58.18094734      88.36379934
C      90.45834287      55.11014208      85.70873386
H      92.00602873      55.66572162      84.46907340
H      89.18277762      54.05189535      84.48419122
C      91.39753685      53.16183426      87.68160814
H      92.47846030      51.72375254      86.67816347
H      89.64576056      52.34736221      88.40159386
C      93.15876178      54.28433169      89.71117420
O      93.18521795      53.37159388      91.93916153
O      94.56660788      56.06256415      89.09134396
C      88.66310288      59.16738448      84.61269261
O      90.11441269      60.94561694      84.14593021
N      86.73747177      58.66093783      82.98185879
H      85.56206200      57.24931228      83.49208491
C      85.77560107      60.40515522      80.99008726
H      87.24391842      60.62058401      79.55767471
C      83.39832537      59.19384066      79.86570011
H      81.80150664      59.25242216      81.16394209
H      83.70824049      57.23608419      79.30823084
C      82.57062525      60.41838330      77.33913602
H      84.05028094      60.08957092      75.94451800
H      82.18512107      62.43283155      77.55078538
S      79.70768987      58.79888785      76.34702971
C      80.09886323      58.86124882      72.99276550
H      80.68089893      60.72829841      72.34458939
H      78.29417460      58.24141858      72.21608800
H      81.50859906      57.51954313      72.32002295
C      85.33340512      63.05833096      81.97463468
O      86.46157172      64.86868877      81.25842840
N      83.61186444      63.06400015      83.83034592
H      82.66511156      61.48796839      84.34624120
C      82.67456019      65.35812789      85.26653791
H      82.41944713      66.71117193      83.73396988
C      80.20657763      64.64948051      86.75564224
H      79.80595564      66.40881572      87.75152801
H      80.59586125      63.19250152      88.15592944
C      77.76316150      63.82178039      85.35724477
H      78.54361847      62.51220006      83.97207539
C      76.00949549      62.42716238      87.21106628
H      75.86587628      63.71595571      88.81166447
H      76.70869422      60.63381210      87.94239038
H      74.13488699      62.09834999      86.42871959
C      76.23437292      65.91937660      84.12136377
H      75.19691316      65.13325045      82.52454503
H      77.50993818      67.38013503      83.42594449
H      75.13266248      66.78865071      85.62936537
C      84.69467762      66.47495613      86.92760735
O      84.61341939      68.67459756      87.15059504
N      86.68077998      65.10301483      87.77987390
H      86.28204772      63.25108305      87.55877592
C      88.89931867      66.08945196      89.01386518
H      88.40421036      67.17226515      90.69761134
C      90.49235795      64.03154001      90.01919958
H      92.43688633      64.70428258      89.98896397
H      90.24480380      62.42716238      88.75119323
C      89.65331947      62.96195491      92.56655065
H      87.93177879      61.85268558      92.34734241
H      89.24702831      64.61357571      93.72495288
C      91.52981770      61.20450944      93.94038169
H      92.97356860      62.37613976      94.83044279
H      92.49168839      60.06878393      92.51741778
N      90.36385655      59.54532974      95.77341621
H      90.35629766      57.66694179      95.43893465
C      89.27159475      60.05933530      97.91636586
N      89.19033651      62.21551302      99.02185575
H      88.54027067      62.17393904     100.81898546
H      90.37897437      63.59879268      98.45871730
N      87.90910208      58.33401517      98.87445709
H      86.76959711      58.75542414     100.34844362
H      87.76170343      56.54066490      98.24139877
C      90.51881411      67.85445634      87.21295602
O      91.86240953      69.50607715      87.94616982
N      90.33740039      67.36879669      84.70528920
H      89.11285774      65.95150194      84.32545420
C      91.75280540      68.51964000      82.64170806
H      93.53670704      69.37190657      83.21618487
C      92.29326712      66.69794384      80.40427210
H      90.68699976      65.54710051      79.81845695
C      93.34962413      68.12090775      78.19707178
H      91.86051980      69.39647301      77.57535182
H      93.91843176      66.86423975      76.66639346
H      94.66865310      69.59867374      78.75832049
C      94.59684350      65.03309495      81.19984688
H      94.40976060      64.81955588      83.24075131
H      96.22767731      66.26519651      80.94662356
C      94.70266817      62.58778910      79.87703846
H      95.73256902      62.82400490      78.11014436
H      92.76947816      61.93583354      79.60680761
H      95.70044367      61.09112587      80.88426259
C      90.12008187      70.59266977      81.75542642
O      90.80038334      72.79042147      81.89526617
N      87.82973358      70.00496488      80.87481396
H      87.17210882      68.21917353      81.01843315
C      86.14220798      71.83610968      79.65783021
H      87.19289581      72.65058172      78.08179846
C      84.14098781      70.08811285      78.45407456
H      82.38921151      71.09155752      78.03644503
H      83.39832537      68.78987087      79.87325902
C      84.82128929      68.62168522      76.08813721
O      86.73558204      69.13758051      74.89383018
O      83.20935274      66.98707197      75.40783573
C      84.98947493      73.88646274      81.42850376
O      84.71735434      75.95760277      80.54600158
N      84.47546937      73.32143457      83.82278701
H      84.73247215      71.59233499      84.58812617
C      83.67800487      75.32832391      85.69361606
H      83.12431505      77.12545363      84.85079813
C      81.17222777      74.35133540      87.16949231
H      80.70735509      75.82721166      88.53009525
H      81.59930592      72.63357418      88.22584932
C      78.89888701      73.50662775      85.45362081
H      77.73481561      72.31232071      86.66304565
H      79.73792549      72.37468169      83.94939867
C      77.26049431      75.70626917      84.57678781
O      75.20069263      75.29052939      83.53365888
O      78.04284100      77.88890306      84.77709880
C      85.83229286      76.36200421      87.46428962
O      85.57717981      78.50117439      88.23718768
N      87.91855071      74.92959165      88.00664106
H      88.12453088      73.09655714      87.51342249
C      90.31094422      75.74028424      89.19338919
H      90.64353605      77.70937907      88.68694253
H      91.94933694      74.72172177      88.47151374
C      90.14842776      75.56642942      92.05632456
O      88.86719332      73.93181616      93.07110758
N      91.51092043      77.21427077      93.45850147
H      92.74302198      78.25362025      92.43804926
C      91.29171218      77.45237628      96.30442931
H      89.37175025      76.83632550      96.72205883
C      93.28159399      75.74217397      97.54786921
H      95.16754085      76.48861586      97.18693150
H      93.33828578      73.85055794      96.73150746
C      93.03215012      75.02785743     100.39757650
H      93.26269672      76.75128782     101.49928693
C      90.52259357      73.88268329     101.05898071
H      90.50936549      73.33466265     103.04508307
H      90.21645790      72.28586455      99.79286408
H      89.14498309      75.40202324     100.87000807
C      95.14486412      73.22505853     101.06087043
H      96.84183836      73.79008669     100.04041822
H      94.53259281      71.32021441     100.57332105
H      95.35462374      73.37434691     103.10366458
C      91.58273003      80.23594314      97.20582875
O      93.75213584      81.24505699      97.48361852
N      89.43600094      81.52851595      98.03163915
H      87.81461576      80.59877059      97.64802471
C      89.10718856      84.05319030      99.09555507
H      90.83061896      85.12277539      99.46216197
C      87.79571850      85.66512685      96.94504653
H      87.13809375      87.47359492      97.68392951
H      85.98347097      84.84498562      96.40836426
C      89.62119412      86.01472621      94.64902905
H      90.03315446      84.11366154      93.96683785
H      91.34651424      86.85754414      95.39547094
C      88.56105765      87.65689837      92.46450544
H      87.80705685      89.44646919      93.15236581
H      86.89053960      86.84620578      91.57444434
N      90.33362093      88.20680874      90.54076406
H      91.28793273      89.85842953      90.50296952
C      91.06116557      86.73282221      88.68883227
N      90.22401681      84.41223830      88.55088224
H      90.80794223      83.10832715      87.28476561
H      89.15254198      83.63178133      89.92471327
N      92.74491172      87.44524903      86.93894570
H      93.26836590      86.33786942      85.47440780
H      93.37608030      89.24237876      87.07122653
C      87.68233491      84.23649375     101.55975818
O      85.35230238      84.65412327     101.74495136
N      89.26214612      84.00027797     103.59499343
H      91.14620325      83.97760124     103.28885776
C      88.29838570      83.81697450     106.14045476
H      86.68644916      82.54140925     106.01951228
C      90.31094422      82.72471271     107.81853173
H      89.89898389      83.38233745     109.72715530
H      92.15153765      83.57886899     107.46137346
C      90.70778675      79.95626365     107.93569476
H      91.29360191      79.24572656     106.09321160
C      92.71656582      79.17391696     109.89345123
H      94.30204620      80.44192331     110.22793277
H      93.53859677      77.40513312     109.22259838
H      91.97768283      78.99061350     111.80585425
C      88.30216515      78.53329973     108.60843733
H      88.79160427      76.74183920     109.49849843
H      87.03415880      78.06653733     107.05319257
H      87.25714650      79.52540605     110.08053412
C      87.22502116      86.35865641     107.15901725
O      85.78504969      86.45125298     109.04685384
N      87.79382878      88.61309990     105.86455473
H      89.38308860      88.59042318     104.81197717
C      86.57873475      91.11698725     106.48627468
H      85.23324962      91.06785437     108.04529888
C      88.57239602      93.12576633     107.06075147
H      89.99535993      92.80829231     105.60566221
H      89.60418657      92.69301900     108.78985106
C      87.70690137      95.92634072     106.92280146
H      85.81906478      96.10775445     107.72593514
H      87.48580338      96.45924354     104.94614774
C      89.27915366      97.87653828     108.44025168
H      91.25013820      97.82929512     107.84876736
H      89.40009613      97.43434232     110.44903075
C      88.14720759     100.52971403     108.33253729
H      88.44767408     101.47835664     110.13533618
H      86.09874427     100.31617495     108.34387564
N      88.90120839     102.13787111     106.26139725
H      88.54593985     103.99547208     106.52406920
H      87.98658085     101.50292308     104.71182168
H      90.76258881     101.97913410     105.87211362
C      84.99703383      91.77839146     104.08632227
O      85.42978116      90.86943311     102.03030004
N      83.30761851      93.61709516     104.54174631
H      83.35108220      94.28227883     106.32942740
C      81.16088941      94.05551167     102.98650155
H      80.30106394      92.23948469     102.53863642
C      79.05195484      95.46335777     104.55686411
H      78.77038563      94.45235419     106.33131712
C      79.88154470      98.29227807     105.21448888
H      79.21069186      99.49792346     103.68381056
H      81.88087513      98.38109521     105.69447935
H      78.92156374      98.73636376     106.98327270
C      76.40255855      95.26304679     103.25862213
H      76.03406193      93.28639306     102.81075700
H      76.65578189      96.28727844     101.48605886
C      74.24260139      96.19657158     104.81953608
H      73.56985882      94.98336729     106.34265547
H      72.54940661      96.44034629     103.67247220
H      74.73581995      98.11842325     105.37511560
C      81.63143127      95.13076595     100.45426829
O      83.28683152      96.84285798     100.21616277
N      80.29161531      94.27283020      98.34911318
H      78.94990963      92.96136014      98.70627144
C      80.66200167      95.00415428      95.69026826
H      81.40844356      96.92222649      95.75640867
C      82.63109649      93.38465884      94.60178590
H      84.32240153      93.79283971      95.70727579
H      83.32840549      94.35219871      92.92370894
C      82.18134163      90.57274607      94.02730909
C      81.98669982      89.78850966      91.47050939
H      81.94323610      90.95636053      89.79810160
C      81.42545109      87.23926886      91.01697509
H      81.59930592      86.58164411      89.09323370
C      81.27994217      85.47615422      92.96150346
O      80.97947568      83.05541480      92.38702665
H      80.29728449      82.94581067      90.70705997
C      81.44056891      86.29629543      95.42948602
H      81.42167165      85.02639934      97.02630476
C      81.88276486      88.83797732      95.96616829
H      82.30795328      89.28017328      97.90880695
C      78.32063077      95.24603925      94.00274265
O      76.10020234      94.69801861      94.85878867
N      78.64566369      95.78839071      91.52909092
H      80.45602150      96.12476198      91.03020316
C      76.54806749      96.31751407      89.76030708
H      74.87188024      96.10019554      90.93760657
C      76.61420791      98.97068981      88.80221585
H      75.00794054      99.27493574      87.54743758
H      78.48125751      99.51871045      88.13325273
C      76.20413730     100.84529832      91.17382237
H      77.53072517     100.41633044      92.68560342
H      74.23126303     100.58640582      91.70483545
C      76.42145582     103.62130626      90.46706473
H      78.09953279     103.83106589      89.29165496
H      76.65578189     104.64742766      92.23773827
C      74.07819520     104.51514682      89.05165971
H      72.28106546     104.01247961      89.91715436
H      74.21236576     103.69500559      87.16760258
N      73.90623009     107.25902942      88.52442608
H      75.62966050     107.69933565      87.83089652
H      73.84575885     108.21145148      90.17793660
H      72.57964223     107.79571169      87.26208890
C      76.61987708      94.51471517      87.58334238
O      78.64188424      94.15755689      86.44005795
N      74.49393498      93.46591707      86.85768746
H      72.95380804      93.88165685      87.90270612
C      74.06874656      92.09964493      84.47285286
H      75.24415633      90.42912688      84.73363510
C      71.38722492      91.34186468      84.13270213
H      70.38944942      93.05584645      83.57334313
H      70.56141453      90.76360844      85.93172158
C      70.96014677      89.25749656      82.22407854
O      70.48204602      89.97370284      80.05467273
O      71.20203174      86.94447156      82.77776836
C      75.19691316      93.64166162      82.22029910
O      74.86999051      95.96791470      82.05400317
N      76.14555578      92.36042718      80.27010154
H      76.37610239      90.46881114      80.38915429
C      76.68412778      93.68323559      77.96652517
H      78.01638483      95.23848034      78.18195396
C      77.95780332      91.75193530      75.97097418
H      76.37421267      90.57841526      75.36815148
C      79.29195008      93.01049302      73.79778892
H      80.77727497      91.86720861      72.94363262
H      79.82296319      94.91722688      74.36659654
H      77.79339712      93.52449857      72.48064967
O      79.90611114      90.34975837      77.08969215
H      79.24659666      89.08553148      78.21029985
C      74.40511785      95.04950772      76.58135577
O      74.85676244      96.91466758      75.14894323
N      72.08831339      94.50715626      77.27488533
H      71.91256884      92.93490396      78.34447042
C      69.78851647      95.76571398      76.68907018
H      69.92268703      96.87876278      74.96186033
C      67.79674492      93.61142599      76.30545574
H      67.28651883      93.00671357      78.20652040
H      68.78318207      92.00893808      75.46830697
C      65.34010072      94.36353707      74.80501305
H      64.56153348      96.15877706      75.44940972
H      63.99839504      92.81018203      74.96186033
C      66.12055768      94.63754737      72.08569687
O      65.13412055      96.38932367      70.85359532
O      67.54919077      93.08986153      71.04634741
C      69.01561840      97.88409719      78.59580403
O      67.36588733      99.24470013      77.63582306
N      70.17402062      98.36030822      80.78410709
H      71.51950577      97.12064775      81.32645855
C      69.52017532     100.20279136      82.71162793
H      67.91768742     101.21379494      81.90660453
H      71.15289886     101.42733402      82.98752798
C      68.63767314      99.48280565      85.38937012
O      69.14789925     101.01348395      87.15059504
N      67.44714556      97.24159023      85.65015235
H      67.52273462      95.99815033      84.20640145
C      66.22260291      96.30617571      87.91782392
H      65.22104796      97.83118484      88.87780489
C      64.60499719      93.95724591      87.18838958
H      63.25951204      93.34686430      88.62269184
H      65.84276791      92.35475799      86.80855458
C      63.19526135      94.17267470      84.69584056
C      63.23116615      92.21491825      82.95729235
H      64.03429983      90.39322208      83.41082668
C      61.65324469      92.18090317      80.85402698
H      61.66080358      90.58219471      79.58413089
C      60.05453623      94.25771238      80.32679333
O      58.16480990      94.03283495      78.42383893
H      57.26530019      95.60697698      78.54856087
C      60.34744380      96.38176476      81.95573741
H      59.15691623      98.02393693      81.73652915
C      61.97827761      96.37609559      84.10435623
H      61.95938034      98.00314994      85.33645778
C      68.16335184      95.31217968      89.80566051
O      69.97937882      94.14054935      89.03654191
N      67.78540657      95.68445575      92.27175335
H      66.09032206      96.40066203      92.77631027
C      69.69780959      95.07596388      94.21817146
H      71.50438795      95.85453112      93.59834123
C      69.14223007      96.20035104      96.88457529
H      70.23071241      94.99092619      98.14880218
H      67.16179689      96.30806544      97.44204454
C      70.12299801      98.93100556      97.01118694
C      68.29752240     100.88309284      96.65591839
H      66.31142005     100.59207499      96.28742177
C      69.08553828     103.45690009      96.80520677
H      67.77784766     105.01781401      96.68615403
C      71.71603730     103.90854466      96.96772325
O      72.71192307     106.24424640      97.21527739
H      71.37966601     107.46689932      97.32677125
C      73.48482112     101.90732450      97.31732260
H      75.41045225     102.58195679      97.36267605
C      72.69680526      99.42989331      97.22094656
H      74.07441574      97.92567117      97.35322741
C      70.06252677      92.12232166      94.56399138
O      68.32964775      90.66534266      94.20116391
N      72.26216821      91.22281194      95.26319011
H      73.70213965      92.44735458      95.51641344
C      72.99538202      88.59798209      95.59011276
H      71.24738518      87.52839699      95.78664430
C      74.34086715      87.73248743      93.21661650
H      75.99626740      88.90411775      92.85756851
C      74.96258710      84.93002330      92.99551854
H      75.57485844      84.56341640      91.06232851
H      73.41112181      83.72437792      93.61156930
H      76.40633801      84.40089994      94.36934956
O      72.62877511      88.05374091      91.13980729
H      71.58564619      89.48426373      91.53853954
C      74.90400559      88.31641286      97.79353363
O      75.75438243      90.16645493      98.84233174
N      75.62777077      86.02606457      98.55887280
H      74.91156450      84.37822322      97.91258640
C      77.48915118      85.47993367     100.55442379
H      79.12376445      86.71959412     100.39190733
C      76.16067358      85.98827005     103.18114335
H      75.29328922      87.84965046     103.37389544
C      73.97803970      84.06641838     103.50617629
H      73.26561288      83.55241283     101.64101641
H      72.44925111      84.82041918     104.66457851
H      74.69802542      82.32598044     104.33576614
C      77.78394850      85.65756794     105.68125127
H      78.65133287      83.79807725     105.49227863
H      76.31563114      85.72559809     107.12500217
C      79.76816111      87.71736961     106.08376298
H      80.86042293      86.94258183     107.64845636
H      78.87998975      89.50316098     106.61099662
H      81.13443324      87.92712925     104.55686411
C      78.36976365      82.81919902     100.46749637
O      77.07152167      81.21293166      99.39791128
N      80.71869346      82.36755443     101.31409376
H      81.90166213      83.76406217     101.84699658
C      81.77505047      79.80886499     101.55219927
H      80.54483864      78.55030727     102.62178436
H      83.41722263      79.76729102     102.79374946
C      82.43456495      78.62967578      98.95193586
O      83.47580414      79.70115060      97.16425477
N      81.83930116      76.17681103      98.78941940
H      81.29883944      75.40580270     100.44859910
C      82.00370735      74.71416286      96.40836426
H      83.57029046      75.50406846      95.32555107
C      82.78416431      71.91736791      96.75607389
H      81.26671409      70.82321638      97.61778910
C      83.25092672      70.80053967      94.19927419
H      81.51993742      71.05943218      93.11079183
H      83.61186444      68.78798115      94.42226189
H      84.99892356      71.52430484      93.38291243
C      84.71735434      71.80965352      98.76863242
H      84.33185017      72.63735364     100.61678475
H      86.49369707      72.73183995      98.28108302
C      85.31828730      68.96183597      99.42058800
H      86.10819290      67.98295773      97.78975418
H      83.57595964      67.96595020      99.88168121
H      86.65054436      68.72939963     100.97205329
C      79.34108298      74.99006291      94.93437772
O      77.64977793      73.34789073      95.08744555
N      79.18423569      77.18025569      93.92715361
H      80.63365578      78.35566546      94.33911394
C      77.11687511      78.13456748      92.46639516
H      77.02238879      77.20104269      90.63336064
H      77.37576761      80.10177258      91.91648481
C      74.37488223      78.03252227      93.43204531
O      72.65145183      78.04386063      91.86546219
N      73.92134791      78.08921405      95.94160185
H      75.37076799      78.43881343      97.13212943
C      71.41557082      78.23283326      97.11890135
H      70.25149941      76.74372892      96.30253957
C      71.63477907      77.91157978     100.02530042
H      72.72515116      79.51028824     100.72638887
H      72.57397305      76.12011924     100.41458403
C      69.18569376      77.78685784     101.42558762
N      67.55108051      75.68926164     101.61456025
H      67.66635381      73.97150042     100.78686011
C      65.47049184      76.42436517     102.80130837
H      63.69981827      75.41903078     102.65768916
N      65.60655212      78.97360596     103.28507831
H      64.17036013      80.04886024     103.93136470
C      67.92902577      79.83154171     102.36856105
H      68.73026972      81.70426049     102.22872130
C      70.34220627      80.85199392      96.34789302
O      71.21148038      82.83053738      97.18504176
N      68.23327170      80.97860558      94.97973115
H      67.43202774      79.27407246      94.66036741
C      66.78952080      83.18958538      94.37123929
H      68.07075525      84.63711573      93.66448164
C      65.08876711      82.69447708      91.97695605
H      63.59966279      81.33954331      92.40970337
H      65.98260767      81.94614545      90.27809210
C      63.82642995      85.17190827      90.92626821
H      63.10455450      86.32842078      92.47017461
C      65.59332405      86.74038111      89.39181046
H      67.45659419      86.94636128      90.24407701
H      64.50295196      88.45247316      89.04221108
H      65.69914872      85.99771867      87.47373824
C      61.67025222      84.52373216      89.18205084
H      60.84066237      86.37755366      88.84190009
H      60.13768418      83.64500942      90.24218730
H      62.19748587      83.62989161      87.40192864
C      65.18325343      84.02673413      96.52174784
O      64.00595395      82.54140925      97.83132817
N      65.31553428      86.51172424      96.95638489
H      66.40968582      87.32997572      95.62790728
C      64.11366834      87.74760524      98.99350985
H      63.48061003      86.40967901     100.42403266
C      65.92969532      89.52772742     100.28797238
H      64.82987461      90.88644064     101.37267528
H      66.79896944      90.59731253      98.75540434
C      68.07075525      88.45625261     101.86400412
H      69.37466640      87.36588052     100.69993271
C      69.63544862      90.68801938     102.98650155
H      70.15134391      91.97681273     101.46905132
H      71.42501945      90.07196860     103.80664276
H      68.50728202      91.68012569     104.39812710
C      67.01628795      86.88400032     104.08821198
H      68.45247996      86.41723791     105.48849918
H      66.40968582      85.12277539     103.21137898
H      65.40624114      87.82697375     104.96315527
C      61.62489878      89.01183214      98.32454674
O      59.69359850      88.08964571      99.28074825
N      61.55497892      90.98092697      96.82410405
H      63.14045929      91.59130856      95.95482993
C      59.32699159      92.49648747      96.48395331
H      57.54497967      91.47792498      96.30253957
C      58.67125656      94.25393293      98.76863242