 %block lattice_cart
   139.252   0.000   0.000
   0.000 142.425   0.000
   0.000   0.000   162.84
 %endblock lattice_cart

 %block positions_abs
N      90.94872686      41.26884171      81.73747403
H      89.99819451      39.87611342      80.84174376
H      90.59156859      41.17057594      83.61019279
H      92.77042301      41.05530263      81.20457121
C      89.73552256      43.57430781      80.84930266
H      90.58211995      45.11632448      81.92266721
C      90.21551304      44.12610789      78.17533993
H      89.38025401      42.78251248      76.85820069
H      92.24696884      43.85587703      77.97691865
C      89.49741704      46.87565968      77.35708843
H      87.44328454      46.96447682      77.24748431
H      90.06622466      47.28573029      75.42011895
S      90.68227545      49.25293538      79.61531138
C      90.53865624      51.83997070      77.55173024
H      92.29421199      51.60753437      76.49726295
H      90.74274669      53.56340110      78.66288932
H      88.78876967      51.77949946      76.46513760
C      86.83290295      43.38344545      81.29149861
O      85.79355347      41.39923282      81.09496707
N      85.69528770      45.57930743      82.04360969
H      86.65337895      47.22714877      81.97180009
C      83.16116471      45.97992941      82.99225230
H      82.07079264      44.78751210      81.71479730
C      82.94951538      45.03506625      85.70211983
H      83.78855386      43.15478857      85.68700201
H      80.98608973      44.91601349      86.31061170
C      84.43861970      46.67345896      87.59184615
O      83.58068395      48.65767159      88.09262362
N      86.64204059      45.95725269      88.56127574
H      87.68327978      47.30840700      89.41354230
H      87.29588589      44.17524078      88.34206749
C      82.22197074      48.73137092      82.86942009
O      83.62225793      50.42834515      82.35541452
N      79.73320118      49.11120591      83.40043317
H      78.67117500      47.52572553      83.33807221
C      78.37259824      51.51115832      83.32295440
H      78.62015238      52.38043243      81.47102262
C      75.60225947      50.88565891      83.82373187
H      75.22620392      49.60442447      82.25525903
C      74.97487033      49.46269500      86.31817061
H      74.80101550      50.74392944      87.92443797
H      76.52822536      48.20791673      86.82461725
H      73.07947483      48.73892982      85.95345342
C      73.69930507      53.00404211      83.42877907
H      74.03189690      54.36275533      84.94056012
H      71.78879176      52.23870295      83.41933045
C      74.06591197      54.68022935      81.13087187
H      72.68641177      56.15988505      80.74914717
H      74.15094965      53.38198737      79.53405315
H      75.85548280      55.68745348      81.25370409
C      79.46674977      53.46135588      85.32228484
O      79.45919088      55.65532813      84.68355734
N      80.34547251      52.71302426      87.55783106
H      80.25854510      50.90077673      88.15120512
C      81.30545347      54.40054986      89.50424917
H      80.25854510      56.15610560      89.74613414
C      81.63993503      53.08530034      92.09884339
H      82.48464269      54.62164784      93.17976684
H      82.82857288      51.42612064      91.82861253
C      79.01132573      52.59019205      93.25157645
C      77.57891319      54.49125672      94.53470061
H      78.66172636      56.13531861      95.07516233
C      75.02778267      54.07362720      95.09594932
H      74.06969143      55.61753360      96.02380494
C      73.91851332      51.78327891      94.65375338
H      71.96831576      51.38832611      95.11295687
C      75.29423407      49.92756767      93.37440865
H      74.35881955      48.17201193      92.91709489
C      77.75654746      50.32252047      92.63363595
H      78.82991200      48.82963669      91.74735430
C      83.91327580      55.47391440      88.58962164
O      84.43106081      57.80772640      88.57639355
N      85.80111238      53.83930114      87.87341536
H      85.56300686      51.95146456      88.00758593
C      88.17460862      54.68589853      86.69044669
H      89.24230400      55.79516788      88.05860853
C      90.03220959      52.52027218      86.03660139
H      89.25553207      51.21447129      84.64765254
H      90.13803427      51.55840148      87.85451810
C      92.68349561      53.27805243      85.12386358
H      92.50964079      54.56684577      83.52704485
H      93.82678002      51.61320355      84.72513133
C      94.21984310      54.82762800      87.05516386
O      96.21917355      55.99547887      86.45801035
O      93.63969712      54.67833963      89.28315119
C      87.52265304      56.30917343      84.23947166
O      88.84357174      58.21590728      83.98624833
N      85.61213974      55.59863634      82.68800635
H      84.77310126      53.89788266      82.92233243
C      85.25498147      57.04805642      80.27104640
H      87.15415642      57.10474821      79.47169217
C      83.22730513      55.53627537      78.77816262
H      81.46985967      55.58729798      79.85341689
H      83.99264429      53.77882990      78.02416182
C      82.43173036      56.94601120      76.42356363
H      83.77910522      56.37531385      74.97036410
H      82.35425159      58.97368753      76.78261162
S      79.33257921      56.04461175      75.44090594
C      79.40249909      57.03671806      72.16223079
H      79.31746139      59.08329166      71.94680199
H      77.78111390      56.35074741      71.09264570
H      81.02577399      56.45090291      71.03784364
C      84.47074505      59.91477124      80.89843554
O      85.58001439      61.67221671      79.86097580
N      82.71329959      60.20011991      82.79383104
H      81.80812067      58.70723612      83.56105991
C      82.11992551      62.73613262      83.62342089
H      81.92717344      64.01547734      82.02093297
C      79.59525116      62.60952096      85.02181835
H      79.37415318      64.38964315      86.03282193
H      79.58202309      60.98624606      86.29171443
C      77.44285290      62.38842298      83.10941532
H      77.75654746      60.94656181      81.67322333
C      75.13927651      61.89142496      84.74213886
H      74.69330111      63.28604298      86.19344867
H      75.36415395      60.20578909      85.90432054
H      73.43285366      61.48135435      83.66499487
C      77.11593025      64.83750828      81.53149386
H      77.05545901      66.41920921      82.85052283
H      75.25266009      64.56349797      80.69812455
H      78.53511470      65.14175422      80.06506623
C      84.10035869      64.13075064      85.13520193
O      84.22886008      66.37574550      84.65143199
N      85.85780417      62.93077443      86.51092268
H      85.56867605      61.04482757      86.48068707
C      88.02720997      63.90020403      87.73924479
H      87.65115443      65.56883237      88.88819839
C      89.05144164      61.89709414      89.55905123
H      89.94339245      60.41176926      88.44789216
H      87.38281330      61.21112349      90.55493699
C      90.87880698      62.97045869      91.51869741
H      89.96984862      63.73201839      93.20622302
H      92.00508387      64.53893153      90.80249115
C      92.70239288      60.84073713      92.39364070
H      91.66304340      59.07951221      92.65442294
H      93.70961700      61.49080298      94.06793821
N      94.52030958      60.28137814      90.33194929
H      94.33322668      58.47479979      89.74424441
C      96.47428659      61.64009136      89.60251493
N      97.12057300      63.66209852      90.89697746
H      98.61345678      64.78648567      90.49824520
H      96.11712832      64.08539721      92.46545030
N      97.93882448      60.89931865      87.76192151
H      99.44304664      61.97646265      87.29326939
H      97.47773127      59.21557250      86.99091318
C      89.85268559      64.79971376      85.73802463
O      91.03376454      66.78203666      86.18211031
N      89.92449519      63.57895056      83.54027293
H      89.17427385      61.82717427      83.63097978
C      91.37958445      64.31405409      81.24803490
H      93.25986213      64.95089186      81.79038636
C      91.86902356      61.91977086      79.40366202
H      89.97740753      61.12419608      79.23358666
C      92.96317510      62.57361616      76.79583971
H      93.45828339      60.80672206      75.85664574
H      94.65070070      63.74146702      76.96969454
H      91.34934884      63.31816833      75.75460051
C      93.68127110      60.00358838      80.72269099
H      93.53009300      58.16488467      79.80806345
H      92.83278398      59.62753284      82.56328443
C      96.48373523      60.59318298      80.96079650
H      96.49507359      62.31472366      82.08896312
H      97.29253809      60.93144399      79.09563664
H      97.52119498      58.99636425      81.74881239
C      90.08890138      66.57983594      79.81184290
O      91.34934884      68.56593830      79.83074017
N      87.65871334      66.45511401      79.22224830
H      86.78754951      64.83561856      79.72869496
C      86.30755903      68.32027388      77.78605630
H      87.27509890      68.51113624      75.97758823
C      83.67328054      67.24879906      77.13221100
H      82.49976050      68.89853013      76.75993492
H      83.00809689      66.20944959      78.78005235
C      83.46163121      65.54237620      74.85887024
O      81.70229600      64.02303624      74.68501542
O      84.90349237      65.96945435      72.98615147
C      86.03732816      70.91864756      79.14854898
O      86.19039600      72.83860949      77.85030700
N      85.80678156      70.92242701      81.67700279
H      85.47796917      69.29726238      82.62186593
C      84.82790332      73.11073008      82.98091393
H      84.77310126      74.63573922      81.59763427
C      82.19551458      72.57215808      83.84451886
H      82.46007626      71.20399623      85.36196910
H      81.23175416      71.68020726      82.25714876
C      80.63838010      74.76046115      84.85930189
H      81.75709806      75.68453732      86.32195006
H      79.15683466      73.92142267      86.02148357
C      79.83335668      76.49522991      82.79005158
O      77.97386599      75.79414145      81.41055138
O      81.24120278      78.41330212      82.34029671
C      86.51920837      74.34094191      84.93489095
O      86.40015562      76.61806212      85.63408968
N      88.29744084      72.82160196      85.93644589
H      88.39192715      70.97533935      85.46023486
C      89.95662053      73.55292604      88.10585170
H      90.92793986      75.32737905      87.72034752
H      91.47973994      72.18098474      88.31939077
C      88.52231826      73.83071581      90.58328289
O      86.20929326      73.36395341      90.76091716
N      89.85079586      75.10628107      92.38797153
H      91.71784546      75.10628107      91.98923927
C      88.76231350      75.64485307      94.81626984
H      86.70818101      75.61272772      94.68209927
C      89.78087600      73.64174318      96.75323930
H      91.83311876      73.80803909      96.79292355
H      89.21206838      71.81437783      95.99167961
C      88.85113064      73.67386852      99.46499657
H      89.95284109      75.17242149     100.34749876
C      86.10346859      74.01401926      99.88451581
H      85.58190412      73.58505139     101.83093390
H      84.93939717      73.01246431      98.51635395
H      85.81811991      76.01523943      99.48011437
C      89.62213898      71.23045240     100.79725361
H      89.24797317      71.12651745     102.81926078
H      91.63091805      70.78258726     100.70276730
H      88.68105527      69.78670150      99.67286645
C      89.40104100      78.41141239      95.66664668
O      91.61957969      79.20698717      95.65152886
N      87.42816673      79.89106809      96.23167484
H      85.69150826      79.12950839      96.45466254
C      87.50186605      82.47054451      97.38062845
H      89.48796841      82.97321171      97.59227778
C      86.32267683      84.48310303      95.65530832
H      85.89748841      86.16118000      96.76835711
H      84.57279028      83.71776388      94.88429999
C      88.25397713      85.19552985      93.60873473
H      89.26687044      83.53446042      92.93032297
H      89.54466020      86.52400745      94.51013417
C      86.92360980      86.49188210      91.34484259
H      88.20484425      87.56902610      90.14297666
H      85.49875617      87.89216930      91.84373035
N      85.64993427      84.65695785      89.82739237
H      85.11892117      83.06013912      90.72501236
C      85.08112665      84.68908320      87.38964542
N      85.19073077      86.61849377      85.99502741
H      84.87892593      86.39172661      84.12419836
H      85.31545271      88.22476113      87.01736934
N      83.87170181      82.80880552      86.23691238
H      83.01376606      82.82770278      84.53237924
H      83.72808261      81.14773609      87.16476800
C      86.25842615      82.29668969      99.89963361
O      84.12492513      81.33481900     100.12451104
N      87.43761536      83.02801377     101.89896405
H      89.22151700      83.65729263     101.65518937
C      86.47574468      83.09982337     104.41041032
H      84.74475537      82.00378211     104.63717748
C      88.61302514      82.06425335     106.20187087
H      87.98941544      82.38550683     108.13695061
H      90.18338769      83.32092135     105.75967492
C      89.37458483      79.28257622     105.56692283
H      89.84701641      78.92730767     103.59215883
C      91.44950432      78.28291100     107.41696488
H      92.08067291      76.45554566     106.69886890
H      90.48196445      78.00701096     109.21409461
H      92.92349085      79.68886738     107.73254919
C      87.14659751      77.31348140     106.07525921
H      86.34913300      77.16986220     107.96687525
H      87.76642775      75.47477770     105.37983992
H      85.47607946      77.86906094     105.00567412
C      85.45718218      85.71898404     105.29291252
O      84.11736623      85.74355048     107.15240321
N      85.76331785      87.83547751     103.86427943
H      86.81211595      87.57658501     102.29202713
C      84.43484025      90.26566555     104.22521714
H      83.41249831      90.20519431     106.01289823
C      86.49275221      92.35003367     104.23655551
H      85.77087676      94.27944424     104.24033496
H      87.51320442      92.31412887     102.44887442
C      88.53932581      91.93618361     106.44186612
H      89.15915603      89.97275797     106.42107913
H      87.68139005      92.09870008     108.30891571
C      90.75408504      93.69740854     105.98644208
H      90.01142260      95.61926020     105.95998590
H      91.34178993      93.19474134     104.07403905
C      92.69861341      93.36859616     107.92719099
H      92.57011203      91.47886984     108.73599386
H      92.14492361      94.52888811     109.53723781
N      95.20816996      93.93551405     107.01256345
H      96.54231674      93.52355372     108.31836434
H      95.59934331      95.75343076     106.58926476
H      95.77130840      93.03600433     105.42897281
C      82.47897351      90.49810189     102.14273876
O      82.61314409      89.56646682     100.03947336
N      80.64026981      92.18184803     102.53580182
H      80.70641023      93.52355372     103.89262532
C      78.73731541      92.66939742     100.60639126
H      78.09669820      90.78345056     100.09805488
C      76.61515276      94.22464218     101.85172089
H      77.39372001      95.77610748     102.96287997
C      74.73865455      95.32068344      99.87884662
H      73.94874894      93.67095237      98.93209375
H      75.55501630      96.75876516      98.65052453
H      73.30435226      96.51688019     100.75567964
C      75.02400321      92.71475085     103.79246983
H      76.17295681      91.65461439     105.13039606
H      73.95063866      91.32013283     102.72477445
C      73.33080843      94.25676752     105.44787007
H      72.02878700      95.20352041     104.16096645
H      74.29456885      95.67973144     106.58359559
H      72.22531854      93.05868104     106.70831753
C      79.69918612      94.05645654      98.27257926
O      80.96908219      96.00287464      98.50501560
N      78.91683941      93.18340298      96.04270221
H      77.87371049      91.58658424      95.95577481
C      79.77666489      94.40416618      93.62763198
H      80.98986919      96.02744108      94.00179779
C      81.48308775      92.52010904      92.31427220
H      83.31612227      92.28011380      93.22512027
H      81.83646658      93.28733793      90.43588425
C      80.36625951      90.05590593      91.59239675
C      79.90516628      89.38883254      89.01669979
H      79.81067996      90.79478892      87.54082353
C      79.05289971      87.00966711      88.44789216
H      78.33291399      86.65250884      86.57139394
C      79.04723053      85.00466750      90.23179379
O      78.33480371      82.67841440      89.77825949
H      77.67528923      82.57636918      88.09262362
C      79.79178271      85.52434223      92.65064348
H      79.73887036      83.80469129      93.75046420
C      80.36814922      88.07169330      93.37818812
H      81.06545823      88.28334265      95.28492196
C      77.61103853      95.43028756      92.07994614
O      75.50399369      94.77266281      92.62796676
N      78.16472835      96.68884529      89.97101156
H      79.91083545      97.44095636      89.80660538
C      76.57546851      96.74175763      87.71656807
H      74.67818329      96.47719594      88.47812778
C      76.27122259      99.44784571      86.46934871
H      75.49265533      99.33257240      84.56261487
H      78.18551533     100.12814718      86.12352879
C      74.95219361     101.33946175      88.25702981
H      75.84603416     101.42449943      90.11085131
H      73.06624675     100.52498970      88.43844352
C      74.71597782     104.02854229      86.98713371
H      73.65962081     103.57122852      85.27693140
H      76.53578427     104.68238759      86.28226581
C      73.55001669     106.16582275      88.49891478
H      74.97298061     106.66282077      89.90298143
H      71.78312259     105.59134595      89.38519641
N      73.19852760     108.34089774      86.86808096
H      74.75755180     108.89080809      85.91754862
H      72.80924398     110.02464388      87.67688383
H      71.87571918     107.90437096      85.56228007
C      76.82302266      94.64416142      85.82873149
O      78.88093462      94.26810588      84.83473545
N      74.76889017      93.27599957      85.20701153
H      73.22120431      93.82590993      86.18022059
C      74.41740106      91.55445890      83.18122493
H      75.99910200      90.24487856      83.00925983
C      71.84926300      90.28645254      83.29082905
H      70.34882031      91.47131094      82.51982072
H      71.76611506      89.89716892      85.30905676
C      71.63761367      87.80713162      81.93211583
O      72.54090283      85.84181625      82.99603175
O      70.65117652      87.67107132      79.72302577
C      74.95408335      92.87537759      80.52615945
O      74.68763193      95.15816698      80.37876081
N      75.35281559      91.59036370      78.48714477
H      75.54745741      89.71386547      78.78383179
C      75.20919639      92.62215426      75.74137243
H      76.48665139      94.23031136      75.59586351
C      75.88382868      90.61904437      73.75527007
H      75.24699091      91.37115544      71.94680199
C      78.66739554      90.12393608      73.48881866
H      79.49320594      89.77244698      75.34264018
H      79.65383268      91.80390277      72.81985556
H      78.97353121      88.44585911      72.33608562
O      74.50054902      88.32302690      73.98770641
H      74.98053950      87.51044459      75.53728198
C      72.51822612      93.68040100      75.16878536
O      72.18941374      95.26777110      73.53039265
N      70.68519159      93.06246049      76.75615547
H      71.11226974      91.72075481      78.04683854
C      68.09815628      94.15094285      76.82229588
H      67.56525346      94.94273818      74.99682026
C      66.21031969      92.07602336      77.34197062
H      64.38295435      93.02277624      77.42322885
H      66.57314715      91.32202256      79.22413803
C      65.94008883      90.01811140      75.30295592
H      64.49444819      88.72553861      75.99648548
H      67.50100276      88.68207490      75.17634427
C      64.83081949      90.74754576      72.84253226
O      65.83426415      89.88205111      70.85076073
O      62.98266715      92.19507612      72.62143428
C      67.84493295      96.37515072      78.62131533
O      65.79457991      97.32190360      78.91044346
N      69.90473463      97.42205910      79.49436889
H      71.51100200      96.60758706      78.86509003
C      70.12016343      99.35524912      81.35763904
H      69.29624275     101.11458431      80.67355811
H      72.11004524      99.79933480      81.64298770
C      69.16396192      98.88848672      83.97490998
O      69.52112019     100.63081438      85.51503693
N      68.25122411      96.57357198      84.44923128
H      67.95453707      95.46052319      82.92800160
C      66.92463623      95.96885956      86.70745422
H      65.96465527      97.73386394      87.15909881
C      64.98388732      93.80890239      86.25958908
H      63.86894879      93.71630580      87.98868867
H      65.86072032      91.96452951      85.98935822
C      63.20754458      94.03000037      84.17144151
C      62.59716297      91.90972744      82.64454266
H      63.33037678      90.05590593      83.07917971
C      60.62995788      92.08736172      80.77938278
H      60.06115026      90.40550530      79.77215865
C      59.27691384      94.40038672      80.46757794
O      57.45332795      94.60258744      78.72714000
H      56.33083052      96.02555135      78.83674414
C      59.77769132      96.27688495      82.25525903
H      58.79314391      98.02677152      81.88865212
C      61.74111696      96.21452398      84.06372712
H      61.97922248      97.81701190      85.30338757
C      68.58381593      95.34336015      88.99213334
O      70.55669022      94.27377506      88.71434357
N      67.83359459      96.01799245      91.34673233
H      66.21409915      97.02143712      91.43743918
C      69.10160095      95.06368066      93.72589776
H      71.09148276      95.53800196      93.49535115
C      68.09248709      96.59813843      95.90664191
H      68.91829749      95.69862870      97.56582163
H      66.04213404      96.41294525      95.86695767
C      68.68586117      99.42516899      95.93498781
C      66.93975405     101.34135147      96.19765976
H      64.98577703     100.97285484      96.64174546
C      67.49911303     103.92460734      96.35828650
H      65.96843472     105.26253357      96.52080297
C      70.10693534     104.78821227      96.09372483
O      70.71920667     107.25619483      95.81215560
H      69.28679413     108.28231622      96.24112347
C      71.83225547     102.76053593      95.55515282
H      73.80324002     103.20462162      95.24901716
C      71.12927729     100.27932528      95.51168911
H      72.72420630      99.02265729      95.31893704
C      69.19041809      92.15161241      94.37785333
O      67.14195476      90.97809237      94.56493624
N      71.35415471      91.04045334      94.92209450
H      72.96042209      92.06657473      94.79170340
C      71.92296233      88.36082143      94.45344238
H      70.08992781      87.47265006      94.75579859
C      72.69208095      88.04712686      91.56216112
H      74.58747643      88.71608997      91.11618572
C      72.68074259      85.26922918      90.67398976
H      73.91851332      84.13539339      91.87018652
H      73.14372554      85.17663259      88.66899014
H      70.88928205      84.25255642      90.58328289
O      71.09904167      89.16584484      89.97101156
H      71.22754305      90.95730538      90.22234517
C      73.99221264      87.37249457      96.04648166
O      75.67784851      88.85592972      96.66253245
N      74.03567635      84.93096817      96.78725438
H      72.64294805      83.67241045      96.45088309
C      76.08413968      83.85382417      98.45588272
H      77.76788582      84.86860720      97.83038330
C      75.57958276      84.72498800     101.27346464
H      75.04667992      86.70164173     101.49267289
C      73.40261804      83.09793365     102.22021753
H      71.69997462      83.47398918     101.12228655
H      72.95475290      83.40028986     104.20820961
H      73.65206192      81.09104430     101.83093390
C      77.90394611      84.27145369     102.90618818
H      79.64438404      84.69286265     101.88573597
H      78.04756531      82.31747668     103.54302595
C      77.65639196      86.03645806     105.25700772
H      77.68851731      87.96964808     104.54647063
H      79.34958674      85.86449297     106.41918939
H      76.01988898      85.63016691     106.43619693
C      76.52822536      80.97010182      98.05148128
O      75.07880527      79.62650641      96.73434205
N      78.54078388      79.88161946      99.24389859
H      79.70674501      81.05702923     100.19065147
C      79.14360657      77.18120056      99.15319172
H      77.50332413      76.07571067      99.72955824
H      80.76499175      76.80514502     100.36828575
C      80.05445466      76.25712439      96.49245708
O      81.58513297      77.59127117      95.27547333
N      79.18518056      74.02724734      95.72711792
H      78.41606194      72.93309581      97.08961059
C      79.32691003      73.01057459      93.22701001
H      80.82357326      74.04047543      92.25380096
C      80.13382316      70.17787484      93.16464903
H      78.53511470      69.04592878      93.80526625
C      80.57412939      69.38230007      90.31305203
H      82.48086324      70.02480701      89.85951772
H      79.16439356      70.32905295      89.14709089
H      80.51743760      67.35840319      89.93510677
C      82.37692829      69.59961859      95.07516233
H      81.57946379      69.81315767      96.96299892
H      83.76020795      71.12273800      95.14319249
C      83.62981684      67.05982643      94.85217464
H      84.75987317      66.91242778      93.13819287
H      82.14449197      65.63119334      94.87485136
H      84.89593347      66.74991131      96.44521392
C      76.89861172      73.66819934      91.77570020
O      75.19974776      72.13185185      91.26547410
N      76.75310280      76.10594629      91.03303776
H      78.20441259      77.29647387      91.37318849
C      74.76511070      76.99033820      89.28315119
H      74.49487984      75.62217635      87.76570097
H      75.27344709      78.72510696      88.29671405
C      71.98343357      77.26812797      90.26013969
O      70.18630385      76.73522515      88.82205796
N      71.71320271      77.95220890      92.66009211
H      73.23065295      78.46243500      93.70133130
C      69.30947084      78.02968767      94.11518137
H      67.89406583      76.94498477      93.08528054
C      69.75544625      76.86750599      96.75890849
H      70.91951767      78.07126165      97.96266414
H      70.82125190      75.12328861      96.50757488
C      67.31580958      76.66908473      98.20454911
N      65.76623401      74.62062141      98.13273951
H      66.29157792      72.85561703      97.62818258
C      63.44376036      75.19887766      99.14563281
H      61.84127245      73.93843021      99.06437458
N      63.46643708      77.64418351      99.67286645
H      61.94331767      78.55503159     100.37584465
C      65.89095595      78.58715694      99.31192874
H      66.49755808      80.51845723      99.56515205
C      68.48366044      80.83215180      94.36651498
O      69.36994208      82.18141638      96.01435631
N      66.64495675      81.70142590      92.71678390
H      65.76434428      80.54869285      91.47523372
C      65.42230381      84.22987971      92.95299969
H      66.72999443      85.81724981      92.86418256
C      63.42297337      84.42830097      90.88374938
H      62.40819034      82.63873015      90.79871170
H      64.44342558      84.55302291      89.09795801
C      61.53135733      86.73376707      91.00280213
H      60.59027363      86.92651916      92.82638802
C      62.75212053      89.28300787      90.41320752
H      63.36628158      90.23542993      92.13285848
H      61.40852512      90.69463342      89.74424441
H      64.32626255      89.16206538      89.09039910
C      59.40730496      86.03645806      88.99213334
H      59.61139540      86.36338072      86.96823646
H      57.86339856      87.18919111      89.71778825
H      58.97644736      84.05413516      89.33795326
C      64.13162074      84.40940371      95.56082201
O      62.74078217      82.78045963      96.36962486
N      64.45098450      86.69597255      96.70032696
H      65.59615863      87.91484602      95.78191999
C      63.23022129      87.46887061      99.06059513
H      62.72566437      85.75488884     100.08860624
C      64.99522568      88.83703246     100.76323855
H      64.05603170      89.44363461     102.49233811
H      65.57726138      90.53967587      99.75790414
C      67.48588495      87.36682539     101.57015168
H      68.47799126      86.69030337      99.89774389
C      69.42663387      89.23765444     102.60761142
H      68.81625227      89.96897852     104.43308705
H      69.89528601      90.69085397     101.22433176
H      71.17652044      88.20775360     102.95910051
C      66.82637046      85.40151002     103.51090060
H      65.87772785      83.78012485     102.66997240
H      65.65851960      86.12149575     105.04913781
H      68.67830226      84.78734897     104.17608427
C      60.73578257      88.91451124      98.55225875
O      58.86117405      88.37215979      99.87506717
N      60.71688529      90.50566079      96.58694339
H      62.44787460      90.95919511      95.91987001
C      58.49645689      92.01744184      96.01057686
H      56.99979364      90.72864850      95.42476171
C      57.60072660      93.79378458      98.10628335