 %block lattice_cart
   139.252   0.000   0.000
   0.000 142.425   0.000
   0.000   0.000   162.84
 %endblock lattice_cart

 %block positions_abs
N      91.09423578      42.13622609      80.39954780
H      90.43661103      40.87199918      79.13154144
H      91.24919334      41.57875682      82.21746450
H      92.93482921      42.44614120      80.01593336
C      89.74119174      44.51161206      80.32584846
H      90.68605490      45.87977391      81.54283222
C      89.87536231      45.38844507      77.53283297
H      88.96640395      44.19035859      76.12309715
H      91.87847220      45.41679097      77.04906304
C      88.59979705      48.01138519      77.11520346
H      86.57590017      47.71847761      77.35708843
H      89.04955191      48.68223803      75.22169770
S      89.75253010      50.40377871      79.21846885
C      93.02742580      50.69101711      78.69501465
H      93.86268483      48.94113054      79.39232366
H      93.70205809      52.27649748      79.81940181
H      93.45072449      51.06329319      76.71269175
C      86.96140434      44.24705038      81.29338834
O      85.61402947      42.30063228      80.77938278
N      85.89937815      46.06496709      82.58785086
H      86.69873238      47.78461804      82.36486315
C      83.21218733      46.13110751      83.24547562
H      82.24275773      45.12199366      81.73558429
C      82.86258796      44.85932170      85.88731300
H      83.70729562      42.98660293      85.74369380
H      80.81601437      44.66090044      86.01392466
C      83.92839360      46.33519795      88.07372635
O      84.49909095      48.57641336      87.90365098
N      84.23074981      45.08986831      90.27336777
H      84.68428413      46.25016027      91.72089813
H      83.92839360      43.22281872      90.52470137
C      82.11803580      48.92979218      83.24736534
O      83.49564628      50.87432056      82.82784610
N      79.68973748      49.13010317      83.91632846
H      78.69952090      47.57674814      84.42277511
C      78.38582633      51.48848161      83.58562636
H      78.79589694      51.97981045      81.62598017
C      75.40761766      50.92534317      83.72924555
H      75.16195324      49.47025391      82.29116383
C      74.74999290      49.86142725      86.32195006
H      75.72320195      50.60408969      87.97735031
H      75.27344709      47.86965572      86.35785485
H      72.70719876      49.70457997      86.53170968
C      73.73332014      53.36309011      83.19256328
H      74.13205240      54.88431979      84.52293060
H      71.82658629      52.59775095      83.34374139
C      73.99032292      54.54416906      80.48458548
H      72.38594528      55.77060143      80.08018404
H      73.93174141      53.09852843      79.02193732
H      75.73454031      55.63832059      80.41466560
C      79.16250384      53.64087988      85.22968824
O      79.07935588      55.86319802      84.62119637
N      80.17728687      53.09285925      87.52381599
H      80.46452527      51.26360418      87.98868866
C      81.21663634      54.80684101      89.48157245
H      79.87115121      56.35452687      89.63653001
C      81.47363912      53.38765655      91.97979064
H      82.29000089      54.70101634      93.33850385
H      82.77377083      51.79272755      91.85506870
C      79.03022300      52.45035230      93.16653876
C      77.27655698      54.28338683      93.90164230
H      77.83402624      56.24681247      93.90542175
C      74.91250936      53.48403260      94.79548284
H      73.52545025      54.80117184      95.49846103
C      74.30590722      51.02360894      95.15642057
H      72.64672751      50.23937252      96.05026111
C      76.19563353      49.16411824      94.72367325
H      75.74965812      47.19691315      95.02036028
C      78.43306949      49.85764780      93.38007783
H      79.82957723      48.43468389      92.94544079
C      83.76587714      55.89910282      88.68599767
O      84.23074981      58.12142097      88.99780252
N      85.46663082      54.42511630      87.57294887
H      85.13214926      52.55050780      87.68066328
C      87.78532501      55.26604451      86.33139870
H      88.71884981      56.69278788      87.48602146
C      89.52387322      53.02482910      85.75125271
H      90.97518302      53.66544632      84.43600319
H      88.43350113      51.68312342      84.63253473
C      90.74085696      51.53761449      87.84506946
H      92.09579073      50.21102662      87.04193578
H      89.20639920      50.48881639      88.72568193
C      92.03531949      53.06829281      89.82928209
O      91.05455153      53.35742093      92.07616669
O      94.08378281      54.14732653      89.13386282
C      87.14659751      56.78916392      83.88231339
O      88.19539562      58.75258956      83.44011743
N      85.25498147      55.84808021      82.29683302
H      84.48397314      54.19645942      82.86375091
C      84.45184779      57.21813179      79.94601348
H      86.07323297      57.30883865      78.67989685
C      82.13693306      55.90288228      78.52682902
H      80.40972321      55.99736859      79.64365727
H      82.66038725      53.94134636      78.16589129
C      81.73253163      56.85341461      75.69979845
H      83.11770101      55.85941857      74.54139622
H      81.89693782      58.90754711      75.66389365
S      78.48031264      56.19956931      74.87020861
C      78.82235311      56.70979541      71.59153344
H      80.04311630      58.34629840      71.32319232
H      76.98553913      56.86664270      70.67312646
H      79.84091559      55.08652051      70.83375319
C      83.61091958      59.96768358      80.39576834
O      84.46507588      61.76859275      79.16933597
N      81.95740906      60.25114252      82.29683302
H      81.29222540      58.61274981      83.01492901
C      80.98420001      62.84384702      82.93556050
H      80.63082119      63.99091090      81.26126299
C      78.34992153      62.43755587      84.19600795
H      77.92851256      64.10429447      85.33362320
H      78.74487433      60.78782480      85.36574855
C      76.13327256      61.53426669      82.43667276
H      76.77955896      59.88264589      81.38787465
C      73.99788183      60.55349873      84.09018328
H      74.68574221      58.93400328      85.15976837
H      72.25744389      60.07917743      83.09240778
H      73.38561050      61.98591128      85.43566841
C      75.13360734      63.66020879      80.78316223
H      73.15884335      63.23313064      80.37876080
H      76.15594928      63.91532184      79.01059895
H      75.16951214      65.39308782      81.89243158
C      82.94762565      64.38019452      84.52293060
O      83.10636266      66.62329965      84.18655932
N      84.86380813      63.29738134      85.69267120
H      84.79010880      61.39253722      85.79093697
C      87.17494341      64.63530757      86.57517338
H      86.52298783      66.33606125      87.53326463
C      88.89270463      63.15943132      88.45167161
H      90.62369393      64.26114176      88.64253397
H      89.28954715      61.34529406      87.55783107
C      87.72863322      62.61141069      91.11429598
H      85.71796442      62.19567090      90.94988980
H      87.82500926      64.42932740      92.07616669
C      89.27820880      60.59129326      92.46167085
H      91.03754399      61.28860227      93.27803262
H      89.93394383      59.21368278      91.08217064
N      87.96106956      59.31194855      94.54036980
H      86.89337419      57.88898463      93.84872997
C      87.57367566      59.83918219      96.90819686
N      88.55444362      61.73457768      98.04014292
H      88.16327027      62.06150033      99.87884662
H      89.80733216      62.92321553      97.22756062
N      86.24519806      58.14787714      98.12329089
H      85.92394459      58.23480455     100.00167883
H      85.67261099      56.55105840      97.25023733
C      88.83034366      65.67087759      84.33017852
O      89.79221435      67.79115051      84.51726143
N      89.20639920      64.18366298      82.33273782
H      88.22941069      62.54527027      82.36108370
C      90.56322269      64.88664117      80.00081554
H      92.35090378      65.65575978      80.68111701
C      91.20006046      62.39787161      78.49092421
H      89.36513621      61.47379545      78.33596665
C      92.55688395      63.07628336      75.95491150
H      92.83278399      61.28860227      74.97225382
H      94.38802875      63.90209376      76.41222527
H      91.54588037      64.41987877      74.76438393
C      93.10301485      60.67066176      79.74381277
H      92.61168601      60.54216037      81.73936374
H      94.97951308      61.51914888      79.71357715
C      93.29765666      57.83985175      78.80839823
H      94.13291569      57.79071886      76.92434110
H      91.40793035      57.02726943      78.92745100
H      94.35023422      56.59641183      80.06884568
C      89.04766219      66.72534487      78.48147558
O      90.20606442      68.21066975      77.13410072
N      86.71007074      67.22612234      79.18256404
H      85.94095213      66.23212630      80.61686631
C      85.13025954      69.18954798      77.76526931
H      86.22252135      69.60339805      76.06829509
C      82.68873314      67.88941628      76.83930342
H      81.36403500      69.36151308      76.27616498
H      81.82701794      66.95022230      78.45690914
C      83.16305445      66.15464752      74.55840376
O      84.60302590      66.68755034      72.78206103
O      81.79867205      64.23468559      74.36187222
C      84.71451975      71.71989152      79.12776198
O      85.15671571      73.72678086      77.98447756
N      83.83390729      71.65375110      81.56361920
H      83.72241344      69.86229055      82.21746450
C      83.38982160      73.92142267      83.07162080
H      83.78855386      75.60894827      81.95857200
C      80.58924721      73.92709185      83.96735107
H      80.24720675      75.53335922      85.21079099
H      80.13571289      72.35672928      85.22023961
C      78.53700443      73.82504663      81.93400555
H      76.88349391      74.32204465      83.05650298
H      78.37826742      71.96555594      81.06473146
C      79.07368671      76.04925450      79.98569774
O      78.74676405      75.55981538      77.71802616
O      79.85792313      78.13551235      80.82473622
C      85.16994379      73.96299665      85.43755814
O      86.09779941      75.84138460      86.32195006
N      85.73497196      71.68776617      86.51659186
H      85.33057053      70.04748373      85.62842050
C      87.83823734      71.57627232      88.34395722
H      89.74497119      72.16964638      87.83562084
H      88.05933532      69.58828024      88.82961687
C      87.38092358      72.98411842      90.89130828
O      85.27765819      73.85906170      91.34862205
N      89.33490058      73.34694587      92.44466331
H      91.06588989      72.71766701      91.95333447
C      89.05711082      74.09149804      95.12618495
H      87.16549478      73.49812398      95.68743367
C      90.90715288      72.46822314      96.59828174
H      92.87057852      73.09750200      96.56237694
H      90.97140357      70.60495299      95.72333846
C      90.22685140      72.18665392      99.33838490
H      89.98496644      73.92331240     100.41930835
C      87.92327503      70.63140916      99.77491168
H      87.92138530      70.11173442     101.76479348
H      87.84579625      68.91931712      98.63162726
H      86.26409533      71.71044288      99.20232461
C      92.48885380      70.91486811     100.82937897
H      94.21417392      71.86351072     100.22088709
H      92.65703944      68.86262533     100.77079744
H      92.28098391      71.42320449     102.81548131
C      89.30277524      76.93553614      95.41909252
O      91.41737898      77.86339176      95.11106714
N      87.20895848      78.30180826      95.97089261
H      85.55355823      77.38718073      95.70633093
C      87.11258244      81.13828746      96.46222145
H      89.04577246      81.84315537      96.51891324
C      85.50442535      82.32692531      94.41375813
H      85.41749794      84.36782973      94.67831981
H      83.59391205      81.59749095      94.67265063
C      86.43983987      81.76756632      91.71900840
H      86.50975975      79.75122835      91.29570972
H      88.28421275      82.63306097      91.40720357
C      84.98097116      83.01667542      89.64597864
H      85.44584383      84.99332914      89.98046020
H      83.05911950      82.43652944      90.10896159
N      86.01465145      82.66329659      87.08162004
H      87.79099419      83.21320695      86.65265216
C      84.82601360      81.70142590      85.01236972
N      82.52999613      80.80191618      85.08606905
H      81.64749394      80.04413592      83.57239827
H      81.89693782      80.60727437      86.87563986
N      86.13748366      81.56158615      82.84107420
H      85.25876093      80.85293879      81.30094725
H      87.89492913      82.29291024      82.69934471
C      86.28110286      81.66930055      99.14752255
O      83.98886485      81.75433824      99.64641029
N      88.13492438      81.69764645     100.78591525
H      89.89048012      81.41607723     100.09049597
C      87.55666812      82.08315062     103.54113623
H      86.11669667      80.72065795     104.10049521
C      90.06433494      81.35560599     105.01134330
H      89.69016913      81.69764645     107.00689429
H      91.52320366      82.69164249     104.43686650
C      90.72573915      78.47944254     104.73355352
H      91.23407553      78.05236439     102.78146625
C      92.99152100      77.98055479     106.36627706
H      94.53542740      79.00667618     105.47054678
H      93.43182723      75.99067298     106.65162573
H      92.68727506      78.80636519     108.22765748
C      88.82656421      76.38751551     105.12094742
H      87.64737499      76.46499429     106.80658329
H      89.92260547      74.64518785     105.15496249
H      87.33368042      76.37428743     103.70176295
C      86.95384543      84.81002569     104.37450553
O      87.07289819      85.46576072     106.64406682
N      86.15071175      86.38983688     102.51123538
H      86.20362408      85.95142038     100.65552415
C      85.36836505      89.02222564     102.97043887
H      84.65026905      89.07702770     104.89984945
C      87.55477840      91.00832799     102.74178199
H      88.86624846      90.59258820     101.21110368
H      88.66215802      90.97053347     104.48033021
C      86.92172008      93.77299759     102.48288949
H      85.49119726      94.22464218     103.89262532
H      86.24708779      93.96763940     100.54592001
C      89.12136151      95.78366639     102.72288473
H      90.00575343      96.02933081     104.56725762
H      88.33712509      97.55433994     102.01801681
C      91.31155431      95.19596150     100.84827622
H      92.07689346      93.33080163     101.27724410
H      92.63247300      96.76254462     101.03535913
N      90.28732265      95.48508963      98.25935117
H      91.61391052      95.20918959      96.91197632
H      89.53521157      97.15938714      97.73400727
H      89.07789781      94.08480243      97.79636824
C      83.33690927      89.76677781     101.04669748
O      83.48241819      88.78412012      98.95288073
N      81.48308775      91.34847873     101.56637222
H      81.61347887      92.02500075     103.34649441
C      79.49887513      92.08736172      99.72766852
H      78.86581681      90.30534980      98.91319649
C      77.28978507      93.67095237     100.90496801
H      77.89449749      95.50776634     101.61739483
C      75.30179298      94.23598054      98.90374785
H      73.74276878      95.45674373      99.47255547
H      74.44763669      92.44451999      98.35572722
H      75.99910199      94.93328955      97.09527977
C      76.18996435      92.31601860     103.25578755
H      77.70552485      92.21775283     104.64662612
H      75.12793816      90.69085397     102.56792717
C      74.15094966      93.86748390     104.44820486
H      72.45397543      93.71063662     103.29358208
H      74.59503534      95.84224790     104.82992957
H      73.44608175      93.06057077     106.20565032
C      80.69507188      93.36859616      97.25590650
O      82.56779066      94.78400117      97.38251816
N      79.63871487      92.66750770      95.04492672
H      78.55023252      91.10281431      94.96933766
C      80.47775336      93.50843591      92.48434756
H      81.57001516      95.24509439      92.66576129
C      81.98953441      91.42784723      91.31649670
H      83.31423255      90.80990673      92.76969623
H      83.14226746      92.10058980      89.74991359
C      80.72908696      88.81435574      90.80627060
C      80.03744712      88.35893170      88.25136063
H      80.32279580      89.97653743      87.03815633
C      78.86581681      86.02322998      87.64475848
H      78.48976127      85.65662307      85.67188420
C      78.42173113      84.22232080      89.58550741
O      77.84914405      81.78646359      88.95433881
H      77.78300363      81.61638822      87.14965018
C      78.96219285      84.76845171      92.15175573
H      78.63338047      83.18675078      93.39708538
C      80.27555264      87.04179246      92.72812226
H      81.01443563      87.25911099      94.61973829
C      78.24031740      94.15094285      90.84595486
O      76.47909248      92.75254538      91.21445148
N      78.20063315      95.92350613      89.05449430
H      79.86359230      96.78144188      88.66710041
C      76.35814999      95.77232803      86.95122892
H      74.61015315      94.86147995      87.55216189
C      75.92162322      98.40471678      85.71723764
H      74.42118052      98.09858112      84.33584770
H      77.62237690      98.98108331      84.70812378
C      74.82558195     100.57412259      87.38586598
H      76.01799926     100.80655893      89.05260458
H      73.06435703      99.91838756      88.22868390
C      74.35315038     103.16493736      86.17266168
H      73.25899884     104.42160536      87.38019680
H      73.35726461     102.99486200      84.37931140
C      76.85325829     104.51420195      85.60763352
H      76.49987947     106.23385290      84.53237925
H      78.04756532     103.31044629      84.43978266
N      78.37070852     105.07167121      87.80916466
H      79.00943601     103.60902305      88.85607305
H      77.62048717     106.37558237      88.98646417
H      79.96752725     105.76709050      87.03059742
C      77.22931382      94.01488256      84.88575806
O      79.45352169      93.96197022      84.03160176
N      75.41706629      92.55790357      83.98813807
H      73.74087905      92.89994403      84.82906628
C      75.75154785      90.48487380      82.14565491
H      77.56001593      89.49654694      82.19289806
C      73.71253316      88.52900707      82.62375567
H      71.82091712      89.33403048      82.52548989
H      73.86371126      87.71831448      84.50970252
C      73.82024756      86.42763141      80.64899166
O      72.04579455      86.14228274      79.06918047
O      75.80634991      85.08970518      80.77371360
C      75.47942726      91.83791784      79.53405315
O      75.01644431      94.09236134      79.29405791
N      75.62871564      90.57558067      77.38921378
H      76.27122258      88.79167903      77.59141449
C      75.52667042      91.72075481      74.82674490
H      76.80034595      93.33458108      74.93256958
C      76.77011033      89.97842715      72.90300351
H      76.07469105      90.46975599      71.02839500
C      79.63493542      89.84236686      73.03150489
H      80.17728687      89.55323873      74.99682026
H      80.30011908      91.72264454      72.51938906
H      80.57601912      88.34381389      71.97703762
O      75.79312183      87.51044459      72.98237201
H      76.61704250      86.46164648      71.75216018
C      72.92829674      92.87348786      73.85164611
O      72.77144945      94.26432643      71.94113282
N      70.77022929      92.06846445      75.00248944
H      70.96298137      90.46219709      76.01349303
C      68.26445219      93.41394959      75.15555727
H      67.70320348      94.28889287      73.37921454
C      66.22732723      91.51099519      75.89066082
H      66.09693611      91.48831848      77.94479331
H      66.75456087      89.61937915      75.26894085
C      63.68375561      92.06090555      74.66611817
H      62.93920344      93.89394007      75.23870523
H      62.40630062      90.75888412      75.62420941
C      63.47966517      91.91728635      71.87499239
O      64.34704955      93.68795990      70.55974288
O      62.22488690      90.12960526      70.93201896
C      68.00366996      95.86303489      76.81095752
O      66.32559300      97.38804403      76.65411024
N      70.12394289      96.30334112      78.21880362
H      71.44297185      94.93139982      78.09030223
C      70.34882032      98.39526815      80.10475048
H      69.60615788      99.99019716      79.03327566
H      72.31791514      98.91116343      80.42978342
C      69.09593177      97.96441055      82.66155020
O      68.99955573      99.74264301      84.17333124
N      68.02634668      95.61926020      83.16232766
H      67.67107813      94.31912849      81.81306308
C      66.93975405      94.88604639      85.65865612
H      66.06481077      96.59246925      86.40887747
C      64.58893452      93.23253586      85.40732252
H      64.04091389      92.50499123      87.25358513
H      65.24844900      91.53934109      84.43789292
C      62.41196980      94.31534904      83.86341613
C      60.89074012      92.59947755      82.41777550
H      61.24033949      90.58880875      82.38565014
C      58.96699873      93.66717292      80.97213487
H      57.87095747      92.46152753      79.74192303
C      58.42653701      96.25420824      80.97024514
O      56.63507646      97.30867552      79.55672986
H      56.81271074      99.06423127      79.96680046
C      59.84761120      97.87370369      82.52737962
H      59.46399676      99.87681358      82.54438715
C      61.74867587      96.91372272      83.96546134
H      62.61039107      98.26865649      85.22779852
C      68.83703927      94.01488256      87.63530984
O      70.67952242      92.66750770      86.94744946
N      68.55169059      94.78967035      90.05226980
H      67.21376436      96.08602260      90.46611986
C      70.25433400      94.25487780      92.25758040
H      72.19886238      94.53833675      91.63586045
C      69.78190242      96.28633359      94.27769783
H      70.64928680      95.52288415      95.98034124
H      67.73343910      96.43562196      94.45155266
C      70.99321699      98.77321341      93.64463953
C      69.36238318     100.88403770      93.18921548
H      67.34037603     100.59679931      93.20433329
C      70.29401825     103.26698259      92.84339556
H      68.98254819     104.82411707      92.67709964
C      72.98309880     103.66382511      93.18354630
O      74.17740583     105.95039395      92.87174145
H      73.47631737     107.36579896      91.98357009
C      74.64038877     101.55300082      93.58794774
H      76.63405004     101.86291593      93.89030394
C      73.69174617      99.08690798      94.10951219
H      74.92384772      97.52977350      94.58005404
C      69.82536613      91.52611300      93.16275932
O      67.76745417      90.73053823      93.64463953
N      71.99855139      90.19763540      93.24590726
H      73.56891396      91.13116020      92.68843800
C      72.04012537      87.46698088      93.56149156
H      70.26189291      86.88305545      94.42320677
C      72.32925349      86.36338072      90.92532336
H      74.29267913      86.75455406      90.43210478
C      72.14406032      83.52690152      90.40375889
H      73.52356052      82.57447946      91.60373510
H      72.66373505      82.96187335      88.49324559
H      70.26756209      82.95053499      91.02547886
O      70.77022929      87.58036446      89.18866488
H      71.66029038      89.02789482      88.54615793
C      74.23787707      86.87171709      95.39641581
O      75.76099648      88.52711734      95.88207547
N      74.35504010      84.67963457      96.59261256
H      72.95664263      83.39273095      96.40930911
C      76.44318768      83.71965360      98.25557172
H      78.00599134      84.91774009      97.64141068
C      76.15216983      84.31491739     101.09205092
H      75.57391357      86.28779166     101.19598586
C      73.87882907      82.88439457     102.16352575
H      73.56702423      83.02045487     104.19687125
H      74.54968191      80.93986620     102.04447298
H      72.03256646      83.25478093     101.32448725
C      78.77888940      83.91996459     102.55658881
H      80.21697112      84.61916333     101.25645712
H      79.04534081      81.99244375     103.22933138
C      78.45007702      85.48654771     104.95087205
H      80.12626426      85.33536960     106.13762017
H      76.77577951      84.85915857     105.97699344
H      78.40283386      87.51422404     104.59560350
C      76.83625075      80.89073331      97.77558124
O      75.23376284      79.58304270      96.76646739
N      78.93951614      79.79469205      98.55792793
H      80.18295605      80.88695386      99.51034999
C      79.41383744      77.09049370      98.92264511
H      77.67150978      76.08137985      99.36484108
H      80.91428013      76.69743062     100.27568915
C      80.23964784      76.00768052      96.27513855
O      81.98953441      76.95632313      95.01091164
N      79.00754628      73.95165829      95.62129325
H      77.84347488      73.09750200      96.86662288
C      78.88849353      72.86317594      93.01536065
H      80.27555264      73.91386377      91.91176049
C      79.72375256      70.01157893      92.80749076
H      78.32724481      68.70010887      93.56527101
C      80.05823411      69.25946786      89.96345266
H      78.52944553      70.10984470      88.87686003
H      80.22264030      67.27336550      89.44944711
H      81.68717820      70.33661186      89.31338682
C      82.07646182      69.33883636      94.35706634
H      81.55111790      69.27836512      96.34694814
H      83.51643327      70.81471261      94.29281564
C      83.22163596      66.81983119      93.73345665
H      81.74386999      65.40442618      93.97534162
H      84.72396838      66.46078319      95.09783905
H      84.19295529      66.93510449      91.92309885
C      76.53389454      73.57560276      91.72278787
O      74.70652920      72.19799227      91.91365022
N      76.49610001      75.81681816      90.54359865
H      78.14583109      76.76735050      90.40375889
C      74.36259901      76.63884911      89.05638403
H      74.08291951      75.37273248      87.45578584
H      74.87093539      78.45487610      88.23057363
C      71.85304246      77.17931083      90.52848083
O      69.89150655      77.54402801      89.29259982
N      71.76422533      77.14151631      93.06827300
H      73.31569063      77.57048418      94.09250465
C      69.23199207      77.52891020      94.23234440
H      67.86005076      76.60105458      93.00591203
C      69.43608251      76.40641277      96.84016671
H      70.75511148      77.56670473      97.91353127
H      70.38094567      74.58282688      96.67576053
C      67.10038079      75.99634216      98.47100052
N      66.06859022      73.63040482      99.03602869
H      66.65062592      71.91453333      98.43320599
C      63.84627207      73.96110692     100.19632065
H      62.50645612      72.51735602     100.72166456
N      63.58926930      76.56514978     100.53080221
H      62.00567865      77.34560675     101.24889821
C      65.67552715      77.75945681      99.58026987
H      65.76623401      79.75689753      99.16453008
C      68.36838714      80.40129420      94.28147728
O      69.77812297      81.89417799      95.36429046
N      66.04402378      81.03435251      93.32716550
H      64.88184209      79.73044136      92.55615717
C      65.22388256      83.73288169      93.17031821
H      66.84526773      84.89884282      92.65631265
C      63.33415624      84.12972421      90.96122816
H      61.70332244      82.86927676      90.95744871
H      64.43775641      83.36438506      89.40031423
C      62.27024033      86.82636366      90.27525750
H      63.78202138      88.16806934      90.67021030
C      61.44820938      86.87927600      87.55027216
H      60.11784206      85.32403124      87.31594610
H      63.11305827      86.45030813      86.41832610
H      60.69798804      88.73309751      87.05705359
C      59.78336050      87.54068021      91.62263237
H      60.21043865      87.79012408      93.62196280
H      58.44921373      85.97409710      91.70389060
H      58.82904871      89.13182976      90.72879183
C      64.12217212      84.59459689      95.76113299
O      62.93731372      83.14139735      97.09905922
N      64.08248786      87.04557191      96.42820638
H      65.19931612      88.13027482      95.32649594
C      63.11116854      88.05846522      98.87729169
H      62.27590951      86.59014787     100.05459117
C      65.33537641      89.34725856     100.31537341
H      64.49444820      90.03889839     102.06337025
H      66.21598887      91.04234307      99.54814452
C      67.45375961      87.35737676     100.95221118
H      68.08681792      86.55991225      99.16264035
C      69.68930583      88.91829069     102.11817231
H      68.84648790      90.22976075     103.46743689
H      70.77211901      89.70819629     100.55347892
H      70.98187863      87.60682063     103.03657929
C      66.56747797      85.29946480     102.84760667
H      65.13884487      86.17629781     104.04569315
H      68.07170011      84.57380990     104.05325206
H      65.87772786      83.70075634     101.74967567
C      61.12317646      90.22031212      98.52202313
O      59.46021730      90.35637242     100.01679664
N      61.32348745      91.85681511      96.42631665
H      62.77101780      91.56957671      95.21122263
C      59.31092892      93.49709755      95.52113775
H      57.53647592      92.52766795      95.92931864
C      59.54147553      95.79311502      97.28803185