 %block lattice_cart
   139.252   0.000   0.000
   0.000 142.425   0.000
   0.000   0.000   162.84
 %endblock lattice_cart

 %block positions_abs
N      90.68133058      40.20587066      82.52265531
H      89.89331471      38.80558346      81.49086475
H      90.11063323      39.97532405      84.33112339
H      92.58617470      40.15106860      82.45084571
C      89.82339483      42.71164775      81.83857438
H      90.65109496      44.02500754      83.19539787
C      90.73991210      43.36171360      79.06634589
H      89.86496881      42.15795794      77.63960252
H      92.77703706      43.09904165      78.91327804
C      90.27692915      46.13583183      78.39927249
H      88.26626035      46.50054901      78.14793890
H      91.16699024      46.60259423      76.60214276
S      91.57139167      48.17484652      80.57245775
C      90.94400254      51.14927574      79.08146369
H      91.98524174      51.48942648      77.33724631
H      91.09140119      52.69507186      80.43261800
H      88.93333374      51.00943599      78.65060610
C      87.06061497      42.75889091      82.23163745
O      85.74347572      40.76333992      82.00298058
N      85.91544082      44.81491314      82.85146768
H      86.91699577      46.42684968      83.05366840
C      83.30761851      44.93585562      83.89270688
H      82.11331148      43.86249108      82.60391354
C      83.21691164      43.60548830      86.48730112
H      84.16555425      41.77623323      86.57800797
H      81.22136066      43.29368346      86.88792309
C      84.22602550      45.12860771      88.67371446
O      84.19767960      47.40572791      88.74930351
N      85.38253800      44.11004522      90.54454351
H      86.16299497      45.15128442      91.94105125
H      85.59985653      42.22409836      90.72406750
C      82.42133687      47.68351768      83.72452125
O      83.91233093      49.42395562      83.08201429
N      79.95902348      48.13705200      84.25175488
H      78.70235548      46.78778741      84.74497346
C      78.84975414      50.78644829      84.03821582
H      79.42612066      51.37415317      82.15037922
C      75.91689890      50.45196673      84.04766445
H      75.51249747      49.25199052      82.42627927
C      74.98526383      49.10837132      86.47596276
H      75.12132412      50.45952564      88.02364861
H      76.02083384      47.34336695      86.69706074
H      73.02561764      48.52822534      86.74052443
C      74.38433086      52.84813969      83.77554385
H      74.70936378      53.99709329      85.45551055
H      72.39066960      52.33224441      83.86436098
C      75.03250698      54.39582555      81.36992226
H      74.52795006      53.35458635      79.66727884
H      76.99593262      54.99108933      81.19039825
H      73.84008968      56.06256415      81.17717017
C      79.88343443      52.69696159      85.97329555
O      80.09319405      54.90038247      85.48385644
N      80.53539001      51.76343679      88.18994452
H      80.62798660      49.85859267      88.18238561
C      81.83930116      53.60780967      89.88880847
H      80.78294415      55.37659350      89.87747011
C      82.14921628      52.37948757      92.42860064
H      83.24336781      53.60780967      93.66826110
H      83.15833013      50.58424757      92.37946776
C      79.68123371      51.94296079      93.89691798
C      78.93668155      53.35269662      95.95294022
H      80.13476803      54.86636740      96.62190333
C      76.68601751      52.75932256      97.24740274
H      76.25893936      53.98386521      98.81965504
C      75.36887827      50.61448319      96.54820401
H      73.70213966      50.09858791      97.60456102
C      76.00949549      49.20852682      94.44115916
H      74.94180012      47.56635465      93.86479263
C      78.33196913      49.83591595      93.20527816
H      78.85731304      48.58869659      91.67837930
C      84.41688785      54.37692828      89.01575492
O      85.20301400      56.56523135      89.38803100
N      85.81150587      52.48909170      88.09356848
H      85.10285850      50.71841814      88.13892190
C      88.41365901      53.01065616      86.98051968
H      89.53804616      54.03299809      88.37135825
C      89.79693867      50.61637292      86.30021820
H      91.52603824      51.41761688      85.52354070
H      88.89364949      49.44852206      84.86402620
C      90.46590178      48.92317814      88.44883702
H      90.65487441      47.05801827      87.59279101
H      88.94089265      48.75688223      89.82455778
C      93.02837066      49.75465772      89.80377079
O      92.68821993      49.92851254      92.10923690
O      94.95211205      50.52188660      88.72284734
C      88.29082679      54.70196121      84.70528920
O      90.00480856      56.21752171      84.52198574
N      86.28204772      54.61503380      83.12547800
H      85.14065303      53.09947329      83.33145816
C      85.87386684      56.07390251      80.86347560
H      87.78249042      56.27232377      80.11703371
C      84.01815560      54.69440230      79.14760412
H      82.39299097      54.35236184      80.36647759
H      84.71735434      52.80467599      78.71674652
C      83.50792950      55.97752647      76.51143591
H      85.16899893      56.11547649      75.30012134
H      83.00904175      57.96173910      76.75143114
S      80.78105443      54.53188584      75.01666239
C      81.44245864      55.44651338      71.68696463
H      83.38131783      54.99108933      71.16162071
H      81.13443325      57.47229998      71.48476392
H      80.21980571      54.50165022      70.32258223
C      85.20301400      58.85935910      81.58157160
O      86.05339084      60.76798267      80.49686869
N      83.65721788      59.16549476      83.64326302
H      83.03360819      57.59135274      84.52954465
C      82.78794377      61.56166772      84.80355496
H      82.42511632      62.91849122      83.29555336
C      80.20468790      61.04010326      86.27943121
H      79.80217620      62.58778911      87.57578347
H      80.61475851      59.33934958      87.36980331
C      77.83497111      60.61302512      84.55789054
H      78.40188900      59.20139956      83.16894171
C      75.53139473      59.85146541      86.10368668
H      75.37265772      61.48796840      87.34523685
H      75.91878862      58.10535830      87.12980806
H      73.99126778      59.53966057      84.77520907
C      77.32285527      62.89770423      82.80422452
H      77.76694096      64.67026751      83.75286714
H      75.39722416      62.86746861      82.07479018
H      78.75337809      62.86935833      81.32078938
C      84.78160503      62.87124806      86.38147643
O      84.95357013      65.19183197      86.40982234
N      86.49558680      61.30655467      87.41893619
H      86.46346145      59.40737973      87.23185327
C      88.69522823      62.36858086      88.76253160
H      88.11319252      63.71595572      90.20817222
C      90.33551067      60.31444836      90.07211193
H      92.35562809      60.59979703      90.35935033
H      90.30149559      58.67416592      88.82678229
C      89.40009614      59.83634760      92.73473631
H      87.49903147      59.05022145      92.61001437
H      89.17899816      61.67505130      93.63424603
C      90.96478953      57.96173910      94.16525913
H      92.72412473      58.84802074      94.77753044
H      91.42966220      56.32523611      93.00307743
N      89.66843728      56.69940192      96.38001837
H      89.33962490      54.82668314      96.22884025
C      88.40610010      57.59135274      98.44359950
N      88.90876730      59.84012705      99.36578593
H      88.92010566      59.89114966     101.27251978
H      90.05772090      60.98341147      98.36045154
N      86.93778275      56.20996281      99.85711478
H      86.12142099      57.01876567     101.38023419
H      86.81495054      54.33535430      99.51885376
C      90.51125521      63.79532423      87.09012380
O      91.70745197      65.64914574      87.96884654
N      90.59629290      63.06966932      84.66182549
H      89.63442220      61.46718141      84.26498297
C      92.02492599      64.27909416      82.68706149
H      93.82016599      64.88191686      83.49397464
C      92.67877129      62.34023497      80.59135502
H      90.92321555      61.34245947      80.18128441
C      93.98268245      63.85012629      78.38037522
H      94.48157020      62.70684187      76.74198251
H      95.86673958      64.50019214      78.90004996
H      92.99813504      65.40159159      77.45062989
C      94.55526952      60.31066890      81.71952162
H      93.84284270      59.65871333      83.53554862
H      96.32594308      61.29143686      82.11636416
C      94.93321479      57.95229047      80.03766520
H      95.19966620      58.24897750      78.01754777
H      93.28915289      56.70885055      79.98664260
H      96.57727668      56.78443960      80.47041254
C      90.47346069      66.57133218      81.79133122
O      91.32761698      68.77286333      81.91227370
N      88.09996444      66.20472528      81.07890441
H      87.55950271      64.37547020      81.16016264
C      86.35385732      68.14547420      79.99798096
H      87.31761774      69.01852776      78.39927249
C      83.96713299      66.84345277      78.91894723
H      82.59897114      68.34767491      78.59958349
H      83.45690689      65.35434843      80.24553510
C      84.34885771      65.66426355      76.32624272
O      86.21023812      66.43716161      75.00343431
O      83.04494655      63.78965505      75.59869810
C      85.87575657      70.32999782      81.92172233
O      85.77749080      72.50507280      81.10725030
N      85.73969627      69.84622788      84.35757956
H      85.68867366      68.05098788      85.00008651
C      84.99892356      71.74918228      86.30021820
H      84.53783034      73.55009145      85.41204684
C      82.57062525      70.77030405      87.75152801
H      82.15110600      71.82477133      89.47117897
H      83.28305207      68.97884350      88.47718291
C      80.22358516      70.22417314      86.19061408
H      78.68345822      69.70260868      87.45484099
H      80.44468314      68.47617630      85.12480845
C      79.01793978      72.31610017      84.46340424
O      80.03083308      74.51196215      84.41427135
O      77.08663949      71.93626518      83.18972870
C      87.07762250      72.42570430      88.20128288
O      87.20990334      74.28897444      89.53353993
N      89.04104814      70.83266502      88.41860141
H      88.95034128      69.09411681      87.63625472
C      91.28604300      71.63012952      90.06455303
H      92.01736708      73.46127432      89.46362006
H      92.73357336      70.18826834      89.79243243
C      90.81739088      71.76241036      92.93882675
O      89.87063799      69.97094982      93.95738922
N      91.56005332      73.81276341      94.26163517
H      92.55404936      75.16580745      93.35078709
C      91.04415803      74.52519023      96.77686088
H      89.10529884      73.92803672      97.12646026
C      92.69199938      73.05120371      98.57399062
H      94.65164556      73.44426678      98.07321314
H      92.55593908      71.01785819      98.26407549
C      92.37641508      73.51985583     101.50495613
H      93.07372409      75.37178762     102.08510209
C      89.71190098      73.14569002     102.41769393
H      88.44578435      74.51763133     101.54653010
H      89.71190098      72.98506329     104.47182643
H      89.19222625      71.25596371     101.78085616
C      94.14897837      71.67926240     103.03185498
H      94.20000098      72.28586455     105.00094981
H      95.94421836      71.77185899     102.02841032
H      93.58017074      69.71772649     102.76729330
C      91.44855946      77.33521326      97.12834998
O      93.39686729      78.24984079      96.30064985
N      89.62308385      78.65235250      98.19415563
H      87.93555825      77.83410101      98.53997553
C      89.85552018      81.31497687      99.12579070
H      91.80004856      81.95937355      99.33744004
C      88.95601046      83.10076824      97.03764312
H      88.64798507      84.85443426      98.07132341
H      87.18344718      82.43558458      96.21750189
C      90.72101483      83.72815738      94.81910443
H      91.74335677      82.03496260      94.24273791
H      92.04004380      85.21726171      95.35578670
C      89.21679269      84.66546163      92.51174860
H      88.62341863      86.60054137      92.88780414
H      87.46690612      83.63556079      92.16025950
N      91.01014296      84.46515064      90.18738523
H      92.02303626      86.07141800      89.98896397
C      91.68666498      82.59243186      88.73796516
N      90.82683951      80.29263494      88.95150423
H      91.67343690      78.93392172      87.91404447
H      89.77804140      80.02051435      90.52375652
N      93.29860152      82.90234698      86.77264978
H      93.78804064      81.31119742      85.84479416
H      93.65198034      84.58609312      85.94117020
C      88.55538848      81.64945843     101.69959793
O      86.40487993      80.83687612     101.87345275
N      89.97079349      82.52251199     103.61389069
H      91.57139167      83.49950049     103.25484268
C      89.06939404      82.40534896     106.29163288
H      87.94311715      80.68947746     106.45603906
C      91.30305054      82.23149414     108.20970508
H      90.34495930      82.67935927     109.97659918
H      92.68444047      83.68091422     107.72593514
C      92.58050553      79.57075949     108.07364478
H      93.73890776      79.38934576     106.37856028
C      94.40220169      79.11155599     110.22226360
H      93.36285222      79.17391696     111.99860634
H      95.78359163      80.63278567     110.09754166
H      95.36596211      77.34655162     109.78384709
C      90.72857374      77.37678724     108.53851746
H      91.84162254      75.64201848     108.57064281
H      89.29616119      77.10277692     107.08720765
H      89.80449757      77.71693797     110.34887527
C      87.15510128      84.48971708     106.83020487
O      85.59607707      84.18358142     108.50828183
N      87.41399379      86.67235097     105.56597797
H      89.01270225      86.75738866     104.52473876
C      85.80394697      89.03450886     105.58487523
H      84.46224128      89.09498010     107.14956861
C      87.81083631      91.12076671     105.74361225
H      88.98246663      90.99226532     104.05419692
H      89.05805568      90.77494680     107.34798989
C      86.88109097      93.92890001     106.10266025
H      85.65465859      93.91378220     107.75428103
H      85.87386684      94.26338157     104.33576614
C      88.88987004      95.84130304     106.52406920
H      89.74591606      95.56729273     108.37789072
H      87.79760823      97.57607180     106.73382882
C      90.53582165      95.98492224     104.24316955
H      89.57206124      96.78805592     102.61233574
H      90.95156144      94.07818839     103.58176534
N      92.76569870      97.55528481     104.56253330
H      93.61985500      97.37765053     106.25950753
H      92.31027466      99.38453988     104.26773600
H      93.85607079      97.16600119     103.04319334
C      84.20901796      89.22348149     103.10744403
O      84.87420162      88.03295392     101.25929171
N      82.05472996      90.53306183     103.30208584
H      81.85819843      91.38721812     104.99906007
C      80.26137969      91.10753863     101.29330677
H      79.19368432      89.40867467     100.82465465
C      78.29795405      93.16356086     102.18525759
H      79.46391519      94.62053984     103.05642142
C      77.11120593      94.50904599      99.87979150
H      76.05862837      93.13332524      98.76485296
H      78.65322260      95.30462077      98.76674270
H      75.76761052      95.97925306     100.40891486
C      76.33263869      92.09397576     104.10144007
H      77.41167241      90.93179408     105.41668959
H      74.95691793      90.86943311     103.17925364
C      75.00983027      94.33330144     105.33732109
H      73.82875132      93.45079926     106.77540280
H      74.06118766      95.71091193     104.13545515
H      76.50649351      95.51249066     106.12533695
C      81.69001278      91.81807572      98.85744955
O      83.44178908      93.36387185      99.10689343
N      80.90955582      90.93368381      96.65213894
H      79.92500841      89.30096027      96.73339719
C      81.61820318      91.92390040      94.10100843
H      82.13409847      93.87787740      94.49029204
C      83.73280693      90.10409396      92.84056097
H      85.49025240      90.21558781      93.91014606
H      84.28838646      90.81085160      90.98484974
C      83.21124247      87.21281270      92.67237533
C      82.89565817      86.24338310      90.24974621
H      83.27360343      87.31863737      88.55466169
C      82.29850466      83.70737039      89.93416190
H      82.14165737      82.91557506      88.06144313
C      82.29472520      82.04630096      91.92026426
O      82.04906078      79.50272934      91.56499572
H      81.58418811      79.15501970      89.84534478
C      82.76148760      82.98360521      94.40903381
H      82.89565817      81.69859132      95.98884502
C      83.12809451      85.62166314      94.85878867
H      83.04494655      86.35676668      96.76174307
C      79.29383982      92.13554974      92.47206435
O      77.11309565      92.07885795      93.31866174
N      79.55084260      92.68734983      89.95683862
H      81.25915518      93.12576633      89.22740426
C      77.28317102      92.75160052      88.23529795
H      75.60698378      92.14121892      89.26708852
C      76.68790723      95.39910708      87.12413887
H      75.05329397      95.04950772      85.91660376
H      78.36976365      96.06429075      86.14337092
C      75.98681877      97.22269298      89.43338443
H      77.31529637      96.91466759      90.97729083
H      74.17457124      96.58396548      90.17226743
C      75.77894888     100.10263588      88.81922338
H      75.76383107     101.32906825      90.47273391
H      74.04418012     100.23113727      87.70995404
C      78.08819443     101.01159423      87.20539712
H      78.14299649     100.12720232      85.34590642
H      79.80595565     100.49569895      88.22206987
N      77.86898618     103.80083027      86.79154704
H      79.33163434     104.56238998      85.83156608
H      77.69702108     104.82128248      88.39403497
H      76.31185170     104.33184337      85.82022772
C      77.66300601      90.99982423      86.06589214
O      79.94957485      90.60298170      85.37992149
N      75.70713928      89.86220899      85.01520432
H      73.97237052      90.15889602      85.75030785
C      75.99059822      88.59987181      82.55856010
H      77.70457999      87.47359493      82.74753273
C      73.60198416      86.82730853      82.26187308
H      72.19791751      88.11988133      81.48897501
H      73.04073545      85.79362824      83.95128841
C      74.17268151      84.98104592      80.08679810
O      72.44736139      84.77128630      78.50509716
O      76.37421267      84.15901498      79.74475763
C      76.32507978      90.46692141      80.36647759
O      76.20791675      92.73648271      80.81245300
N      76.84853397      89.60709594      78.06290121
H      77.17923607      87.75327442      77.74542719
C      77.01671961      91.44202019      75.77255292
H      78.19779856      93.07852317      76.18640299
C      78.24693144      90.19480082      73.40661557
H      78.07496635      91.43446128      71.77200232
C      81.05695447      89.76394322      73.87715743
H      81.96591283      91.46091745      74.61981987
H      81.97158200      89.17812806      72.12916058
H      81.10230790      88.37877383      75.39838711
O      76.95057919      87.95736486      72.94174291
H      77.79150740      87.09187021      71.58680914
C      74.52795006      92.77427724      75.24153982
O      74.51850143      94.98714675      74.32880202
N      72.34342644      91.85775997      76.24309476
H      72.33775726      90.11732204      77.02544147
C      70.07953432      93.22025265      76.26766122
H      69.64489726      93.97614317      74.40061162
C      68.03107099      91.37776949      77.11425859
H      68.11043950      90.80896187      79.09280205
H      68.35610392      89.62032402      76.08246804
C      65.26451167      92.14499837      76.67584210
H      64.95459656      93.98937126      77.53566757
H      64.18358822      90.84864612      77.85881076
C      64.54452595      92.20924907      73.88471634
O      64.42169374      94.25393294      72.73387300
O      63.98705668      90.19291109      72.73765245
C      69.84520825      95.53705711      78.04778340
O      68.11988813      97.27560531      77.88337720
N      71.57619756      95.61642561      79.86192066
H      73.02561764      94.37865488      79.96018642
C      71.38533520      97.28127449      82.11258470
H      70.56897343      99.11619874      81.66094011
H      73.29584850      97.72724990      82.74375328
C      69.98504800      96.16066679      84.43127889
O      70.07953432      97.27560531      86.45895522
N      68.42224434      94.19724115      84.03821582
H      68.45814914      93.34119513      82.33368268
C      67.29218800      92.86120465      86.23785724
H      65.88812135      93.95535618      87.27720672
C      66.06386590      90.46314196      85.15693379
H      65.73694325      89.06096503      86.63092031
H      67.36399760      89.44835893      83.92105277
C      63.79241487      90.71447555      83.56578423
C      62.87589761      88.50160604      82.33557240
H      63.57887580      86.60999000      82.63225944
C      60.71971989      88.58475400      80.80678381
H      59.99406498      86.82919826      80.06223164
C      59.40447037      90.90722764      80.51954542
O      57.25396183      91.13966398      79.16461165
H      56.78908916      92.89144027      79.09091233
C      60.35122326      93.06340536      81.65905039
H      59.40447037      94.85864536      81.45307021
C      62.56031332      93.00293412      83.08390403
H      63.27462986      94.74904123      83.86814044
C      69.30096708      91.98059218      88.20695205
O      71.44580644      91.27194482      87.45106154
N      68.66790876      91.77083256      90.70705997
H      66.80841807      92.02216616      91.06421825
C      70.58409124      91.57619075      92.73473631
H      72.29807301      92.25271277      91.81443959
C      69.95103293      93.22781155      95.07421748
H      71.40612219      92.92356561      96.49907111
H      68.08209360      92.91978616      95.87735116
C      70.35354463      96.04539348      94.68115441
C      68.26728678      97.45890877      94.50352014
H      66.40401664      96.70490797      94.86634758
C      68.50539230     100.13476123      94.31076805
H      66.76117491     101.19111823      94.28809133
C      70.94880842     101.31584017      94.43737971
O      71.24171600     103.76303575      93.82699812
H      69.59576438     104.41688105      93.43582477
C      73.05774299      99.73791870      95.06476885
H      74.97959465     100.34641057      95.38980177
C      72.72893061      97.20190599      95.16870379
H      74.31630071      95.96791470      95.51641344
C      70.92046253      88.79829307      93.48873711
O      69.04207457      87.37154971      94.12368514
N      73.41868071      88.08775598      93.51897272
H      74.80196037      89.31418836      93.04465142
C      74.29740345      85.46103640      93.96116868
H      72.64200320      84.29696500      94.34667285
C      75.80729477      84.48971708      91.65003340
H      77.54962243      85.58197889      91.52720118
C      75.93012698      81.73071666      91.55176764
H      74.00449587      80.99939258      91.58011353
H      77.10742647      80.95592887      93.05032059
H      76.83530589      81.14868096      89.79432216
O      74.49582471      85.12466512      89.35968511
H      75.69391119      85.49127203      88.05010477
C      76.02272357      85.33253502      96.37812863
O      77.06963195      87.24115859      97.31543289
N      76.38555102      83.17446757      97.51952332
H      75.38777553      81.61166391      97.06220956
C      78.26204925      82.59621131      99.45271335
H      80.00059746      83.57131009      98.93492833
C      77.21703060      83.45036761     102.08132265
H      76.39499965      85.33631447     101.99817469
C      75.13833166      81.73827557     103.14712829
H      73.73048555      81.53796458     101.65991368
H      74.14622534      82.51495308     104.77418264
H      75.82052286      79.85043898     103.61389069
C      79.49226108      83.69792175     103.89923936
H      80.95868870      84.84687535     103.02240635
H      80.16500365      81.79307763     104.29797161
C      78.87810003      84.74483013     106.58076099
H      80.42956533      84.57286504     107.92624614
H      77.33608336      83.68469367     107.43680701
H      78.51149313      86.76494756     106.43336235
C      78.97258635      79.77484993      99.31098388
O      77.71024917      78.16480311      98.15258164
N      81.08530036      79.08698955     100.37678952
H      82.05095051      80.58932197     101.04575263
C      82.10197312      76.47160833     100.65646900
H      80.83774622      75.16391773     101.62589861
H      83.87075695      76.66436042     101.69581848
C      82.76337733      75.41147187      98.11100766
O      84.11831110      76.64168370      96.75607389
N      81.81851417      73.14757975      97.68392951
H      80.76404689      72.26507756      99.00484821
C      82.16433409      71.79264598      95.45783191
H      83.57595964      72.72995023      94.28809133
C      82.74448007      69.07710927      96.05876488
H      81.04372638      68.37035163      96.98095133
C      83.17722739      67.48406999      93.67015083
H      81.59174702      67.54643096      92.35301158
H      83.09785889      65.50174709      94.22006118
H      85.05939480      67.88658169      92.93693702
C      84.85719408      69.00718940      97.98250627
H      84.28838646      69.67993196      99.84388670
H      86.28960663      70.31488001      97.28897671
C      86.11575181      66.45794860      98.37367962
H      85.04616672      64.85168124      99.10311398
H      87.73146781      66.63558287      99.63790653
H      87.06439442      65.72473479      96.69938211
C      79.51115834      72.18003988      94.03108855
O      77.90867043      70.42070468      93.98384540
N      78.97258635      74.43826282      93.16370417
H      80.19901872      75.84421920      93.57566451
C      77.10931620      74.91636358      91.29476486
H      76.99026344      73.44804623      89.85479341
H      77.51938681      76.61333781      90.19872359
C      74.40889730      75.37367735      92.22262048
O      72.66279019      75.36233899      90.68627298
N      74.07441574      75.76863015      94.73217701
H      75.55029199      75.88768290      95.93782240
C      71.47982151      75.99539730      95.90758679
H      70.41590560      74.50251352      94.96839281
C      71.29273861      75.44359722      98.70816117
H      72.38877987      76.97805499      99.54342020
H      72.20925587      73.66536476      99.19193111
C      68.74538754      75.56264998     100.10088948
N      67.29029828      73.56520926     100.48639364
H      67.58131613      71.82666106      99.75317982
C      65.16624590      74.11322990     101.70715684
H      63.64879567      72.81876737     102.13045554
N      65.28151921      76.60199945     102.14557335
H      63.86044502      77.75473250     102.68981451
C      67.51517571      77.62056193     101.05898071
H      68.09910114      79.57642867     101.07409853
C      70.41023642      78.52385111      95.06665857
O      71.37588657      80.49105620      95.73940114
N      68.22760253      78.43503397      93.79109332
H      67.24116539      76.80231044      93.73251179
C      66.67802695      80.71593363      93.39425078
H      67.87233398      82.13700782      92.49852051
C      64.65035062      80.00350681      91.40625870
H      63.51840456      78.34054766      91.85223411
H      65.66891310      79.45548618      89.70172558
C      62.60755647      82.09543384      90.79776684
H      61.32821176      82.40345923      92.38135748
C      63.57887580      84.62577737      90.34045306
H      64.61633555      84.65412327      88.56222060
H      64.97538355      85.13789321      91.76719643
H      62.12567627      86.08275636      90.31399690
C      61.19404119      81.12789397      88.47340346
H      62.51118043      81.19970357      86.88981281
H      59.49139778      82.07842630      87.81199925
H      60.80664730      79.11722517      88.70772952
C      65.41380005      81.50583923      95.77530595
O      63.92847517      80.15468492      97.08299654
N      65.66702338      83.95303481      96.50851976
H      66.97849344      85.05285552      95.66381208
C      64.62578418      85.21726171      98.80642694
H      63.88312174      83.75839300     100.05931549
C      66.61755571      86.71770440     100.18403743
H      65.78229668      87.60020659     101.84699658
H      67.50950653      88.12177105      98.97083313
C      68.75672590      85.42324188     101.49172803
H      69.85087743      84.41601775     100.06498468
C      70.70125427      87.30729901     102.51406998
H      69.84709798      88.67924032     103.79341468
H      71.80107499      88.10476352     100.96638412
H      72.04107023      86.32653106     103.73105372
C      67.92146687      83.72815738     103.65546467
H      67.14667908      84.73916095     105.27307039
H      69.53340341      82.62644694     104.30930997
H      66.44748034      82.35621607     103.22271735
C      62.36000233      86.93691266      98.22061178
O      60.24539858      86.49660642      99.00862767
N      62.56220304      89.10253901      96.88457529
H      64.27618481      89.72236924      96.31954712
C      60.42114313      90.63510705      95.91325596
H      58.79597850      89.41623358      95.58066414
C      59.71249576      92.64955530      97.85967407