 %block lattice_cart
   139.252   0.000   0.000
   0.000 142.425   0.000
   0.000   0.000   162.84
 %endblock lattice_cart

 %block positions_abs
N      92.43027228      41.24899958      81.45968425
H      94.30866024      41.49844345      81.67889250
H      92.07311401      39.60871714      80.55261563
H      91.95028180      40.92396666      83.27760097
C      91.13203031      43.52234034      80.35419436
H      91.92760508      45.17207141      81.29338834
C      91.90303864      43.78123284      77.54417134
H      91.45139405      42.11449423      76.41978418
H      93.95906087      43.71320269      77.43456720
C      91.20761936      46.12449347      76.19490674
H      89.21962728      46.16984690      75.65633474
H      92.29610171      46.33236336      74.46013799
S      92.00130441      49.00254664      77.81251246
C      89.91315683      51.02833325      76.06451562
H      90.37802951      51.15872437      74.06140573
H      89.83945751      52.92750820      76.85442122
H      88.00264353      50.36125986      76.44246089
C      88.37680934      43.25021975      80.86253073
O      87.40171056      41.29246329      80.15199365
N      87.18439204      45.09270290      82.00392543
H      88.25775658      46.42307023      82.85619200
C      84.52932657      45.17774059      82.48013647
H      83.67139082      43.90217533      81.10819516
C      84.01721074      43.83792463      85.05772316
H      84.96207389      42.05591272      85.48480129
H      82.01221112      43.41462594      85.27126223
C      84.77499099      45.47253789      87.34240227
O      84.55578274      47.69863549      87.37263789
N      85.80111238      44.19697263      89.10740664
H      86.04299735      45.13049743      90.75335827
H      85.99764391      42.30157714      89.02236896
C      83.35958598      47.90650538      82.17966997
O      84.57656973      49.84158513      81.63731852
N      80.92183904      47.98209443      82.70690362
H      80.13571289      46.40606269      83.44011742
C      79.52344157      50.47842289      82.63131456
H      79.99209369      51.29856411      80.80205949
C      76.60192469      49.97008652      82.73902897
H      76.41862123      49.04034117      80.90788416
C      75.61926700      48.32602462      84.90087587
H      73.56135505      48.26744311      84.86119161
H      76.08791913      48.82113292      86.84540424
H      76.09547803      46.36070926      84.50025390
C      75.29990326      52.55523211      82.81461801
H      76.09547803      53.77599531      84.27159701
H      73.40072831      52.23586837      83.54594210
C      75.21108612      53.92717342      80.18411899
H      76.99687748      54.46574541      79.30917571
H      74.36826818      55.80367164      80.24081078
H      74.27945105      52.72341775      78.79705988
C      80.58168830      52.47586361      84.45112101
O      80.72341777      54.63960024      83.55728046
N      81.23175415      51.88248954      86.73580012
H      80.95963356      50.05890365      87.22712896
C      82.25220636      53.83268710      88.35718529
H      81.01632535      55.47485927      88.46489969
C      82.60180573      52.63838007      91.14264189
H      83.83390729      53.78922339      92.32561055
H      83.49564628      50.80345582      90.86296239
C      80.17350742      52.23019919      92.55804688
C      78.95463395      54.39204609      93.51991759
H      79.88626902      56.19106554      93.28181206
C      76.54334317      54.24464744      94.63485610
H      75.50399370      55.87359152      95.29626031
C      75.40572793      51.86737173      94.80115202
H      73.59914957      51.59336142      95.71011037
C      76.74365416      49.67528921      93.89408339
H      76.21075134      47.72887111      94.19643960
C      79.08313533      49.83591595      92.66009211
H      80.16216906      48.20886159      92.06671805
C      84.93561773      54.72085847      87.52381599
O      85.62158838      56.97908141      87.70900916
N      86.44172960      52.95774382      86.40509801
H      85.72741305      51.18895999      86.32195006
C      88.99474985      53.66261173      85.40921224
H      90.03976850      54.53377556      86.95500837
C      90.55755351      51.32124083      84.66277035
H      89.69961776      50.29511944      83.09618724
H      90.64070146      50.00410159      86.24447127
C      93.25230323      51.85792310      84.05616820
H      93.46773203      53.31301236      82.61430703
H      93.97795813      50.21386121      83.05083380
C      94.88313704      52.42484100      86.40131856
O      97.19427232      53.09380411      86.12919797
O      93.86457455      52.26043481      88.64631343
C      88.72073953      55.27076882      83.00925983
O      90.05110686      57.14915678      82.74847759
N      86.86880774      54.77377080      81.25748353
H      85.61025002      53.42261649      81.73747402
C      86.13748366      56.48208339      79.19579212
H      87.52643250      56.50476011      77.67456244
C      83.89437853      55.53344078      77.85597617
H      82.07646181      55.98886482      78.71013247
H      84.19106556      53.50009527      77.98636729
C      83.66572164      56.22130116      74.92501067
H      85.28521709      55.36525514      73.98014751
H      83.93217305      58.24897749      74.67556679
S      80.57790885      55.22163594      73.58141525
C      80.92561849      55.99831345      70.21203323
H      82.66605642      55.29911472      69.36354612
H      80.97853083      57.99197471      69.69613795
H      79.44974224      55.19329005      69.01961594
C      85.73119250      59.20706873      80.12175802
O      86.55511318      61.02309572      78.85942085
N      84.58601836      59.69839758      82.25714876
H      83.75075933      58.26787476      83.20768109
C      83.74131070      62.28354317      83.07351053
H      83.42950585      63.37580498      81.35574931
C      81.26010005      62.22496166      84.57206349
H      80.95585411      64.10334961      85.36007937
H      81.67961929      60.95128612      86.13486715
C      79.07179698      61.05522107      82.91855297
H      79.74076009      59.51698385      81.72613567
C      77.12348915      59.87792158      84.64765254
H      75.97075610      58.56456179      83.55728046
H      75.93674102      61.22529644      85.66054585
H      78.16094889      58.93116869      86.15376441
C      77.93607146      63.04699260      81.27260134
H      77.66206115      64.74963601      82.39887823
H      76.04634515      62.57456102      80.60363823
H      79.24376207      63.47218102      79.74003330
C      85.78788429      63.64792557      84.57206349
O      86.00898227      65.93260468      84.13553672
N      87.53399141      62.22685138      85.84384929
H      87.06155983      60.37869905      85.86463629
C      89.96984862      62.99030081      86.85296315
H      89.46529170      64.56066338      88.08506470
C      91.12825085      60.81144637      88.51781203
H      93.15214773      61.13458957      88.71623329
H      91.01297755      59.09746461      87.38208651
C      89.79410408      60.50153126      91.10484736
H      87.93461338      59.65493387      90.84784457
H      89.63725679      62.34779387      92.00246735
C      91.27564951      59.04077282      92.99457367
H      90.42149321      59.07289817      94.87107190
H      93.19183199      59.78154553      93.14386204
N      91.41170980      56.30822857      92.05915914
H      92.67593670      55.89626823      90.69288701
C      89.82433970      54.52621666      92.84339556
N      88.17271890      54.97030234      94.65375337
H      87.41304892      53.64749392      95.80081725
H      87.67383115      56.71074027      95.25846579
N      89.82433970      52.29067043      91.82294335
H      88.94750669      50.79400719      92.62040785
H      91.23407553      51.81823885      90.62296715
C      91.70272765      63.79532422      84.73269022
O      93.23907515      65.55654915      85.14465056
N      91.60257216      62.68038570      82.50281318
H      90.99219056      60.89459433      82.21746450
C      92.78743056      63.81611121      80.29183339
H      94.59400891      64.50775104      80.99481157
C      93.09734567      61.59001361      78.34541529
H      91.27187005      60.66215800      78.14510429
C      94.17259994      62.58400966      75.98703685
H      92.84412235      63.60068241      74.78328118
H      94.59400891      61.04577244      74.68501543
H      95.83744883      63.76697833      76.24970880
C      95.10234529      59.58690372      79.37720585
H      94.68660550      59.24108381      81.36519793
H      96.90514419      60.54499496      79.10130582
C      95.14580899      57.03766293      78.06762552
H      95.52753371      56.88459510      76.05128754
H      93.22395733      56.29877994      78.11486867
H      96.33255712      55.74509013      79.14476951
C      91.34367965      66.02520127      79.04461403
O      92.69294424      67.77319811      78.31517967
N      88.90404298      66.02520127      78.87075920
H      87.83634762      64.49830241      79.27894009
C      87.54532976      67.76374948      77.27394046
H      88.77554159      68.20972489      75.68279091
C      85.03388349      66.45605887      76.40844581
H      83.49942573      67.79398510      76.09097180
H      84.48775259      64.98018262      77.73692341
C      85.42316711      65.12947100      73.94424270
O      84.23263954      63.15281728      73.51905428
O      86.73841663      66.01575264      72.22837121
C      86.86313856      70.16559162      78.65344067
O      86.42472206      72.03642067      77.28905828
N      86.77621115      70.39235878      81.22913764
H      86.65904812      68.72373045      82.14754464
C      85.83512745      72.52585979      82.61808648
H      85.99008501      74.23795183      81.48425070
C      83.18951061      72.00240560      83.35130030
H      82.93250783      70.28275465      84.45490046
H      82.14260224      71.66603432      81.60897264
C      81.74764944      74.07165591      84.73080051
H      82.84180097      74.79353136      86.32006033
H      79.99587314      73.55954008      85.68700202
C      81.05978906      76.28452542      82.86753035
O      78.79589693      76.64168370      82.39131932
O      82.77188110      77.71693797      82.09274256
C      87.44706400      72.99829137      84.99347246
O      88.09146067      75.12423347      85.71723764
N      88.14437301      70.94415886      86.21612538
H      87.22596602      69.39647301      85.58873624
C      89.67505132      70.99518147      88.46867914
H      91.38714336      72.11389945      88.24569144
H      90.49897199      69.19616202      89.03559705
C      88.47885456      72.34066661      90.73446099
O      86.39637617      73.24206606      90.45100206
N      89.79221435      72.77341394      92.76780650
H      91.49296803      71.90602956      92.81315994
C      88.90971216      73.82032231      95.08839043
H      86.86124884      74.03764084      95.10728769
C      89.59946227      71.92870627      97.31448801
H      91.65170504      71.77941789      97.39196680
H      88.77365187      70.12212792      96.77402629
C      88.76609296      72.56743377     100.00167883
H      89.61269035      74.38535048     100.46277206
C      85.90693705      72.52208034     100.58371454
H      85.06789857      70.74006842     101.18842697
H      84.93183827      72.80931874      98.79414372
H      85.58190412      74.06976619     101.90463323
C      90.03976850      70.53030880     101.55692360
H      89.31789305      68.65381057     101.10338927
H      89.54088075      70.81187802     103.53546705
H      92.05988593      70.72306089     101.20921395
C      89.98118698      76.57365355      95.57216035
O      92.28854281      76.94403991      95.76302271
N      88.13303465      78.26873805      95.97845152
H      86.36992000      77.57520850      95.74412546
C      88.46184703      80.65546239      97.33527500
H      90.36480142      80.60632950      98.12518060
C      87.96484901      82.96092849      95.65152887
H      87.53021195      84.53318078      96.91008659
H      86.33212547      82.66991064      94.43076566
C      90.37236033      83.57319981      93.92998819
H      91.29832622      81.78551872      93.49535115
H      91.77264753      84.76372739      94.86351299
C      89.50497595      85.12466512      91.69633169
H      91.28698786      85.73693644      90.86296239
H      88.44106004      86.70069686      92.48434756
N      88.02343052      83.40123472      89.88219442
H      87.61147018      81.55497211      90.13163830
C      87.25053246      83.82642314      87.60318449
N      87.67761061      85.92779880      86.44856171
H      86.72329882      86.25472145      84.82717655
H      88.65837856      87.39800587      87.16665771
N      86.12803503      82.02551396      86.30305279
H      85.13781844      82.32975990      84.70056487
H      85.94851103      80.38901098      87.26681321
C      87.01431667      80.78207405      99.79569867
O      84.72963756      80.53640963      99.82782402
N      88.14815246      81.04096655     101.94053804
H      90.03598904      81.30363851     101.86683870
C      86.96518379      81.12978369     104.46899183
H      85.62347810      79.57831839     104.66552337
C      89.06089027      80.60821923     106.36249761
H      88.47885456      81.06931245     108.28434927
H      90.68038572      81.82331325     105.97510372
C      90.11157810      77.84165991     106.17730443
H      90.51975898      77.50906808     104.18553289
C      92.76853329      77.80575511     107.56058409
H      93.46017312      75.90280071     107.95364716
H      92.77798192      78.98305460     109.24999942
H      94.00819375      78.72416209     106.19620169
C      88.45239839      75.81398357     107.26389706
H      88.42783195      75.77051987     109.32369873
H      89.29710606      74.06409701     106.58170585
H      86.67227621      76.11633978     106.27557020
C      85.57245549      83.66201695     105.01323301
O      84.27232379      83.72626765     106.92941550
N      86.41338370      85.72937754     103.86994859
H      87.94217229      85.47426448     102.75312034
C      85.29844518      88.25216216     104.18364316
H      84.15705048      88.17090393     105.89195575
C      87.59068320      90.06818915     104.52001445
H      89.12892041      89.66189799     103.21232385
H      88.54877444      89.73181787     106.31525444
C      86.97085296      92.94624233     104.58993433
H      85.79166375      93.17867866     106.26234211
H      86.06756379      93.60197736     102.86083474
C      89.38214374      94.32574253     105.61227625
H      90.06622467      93.58685955     107.40940598
H      88.82278475      96.29294763     105.83904341
C      91.67249203      94.24637403     103.99467053
H      91.33045157      94.38621378     101.96699420
H      92.35090378      92.35475799     104.44064594
N      93.48284984      96.07940855     104.69008981
H      94.04976773      95.79405988     106.49099899
H      92.46050790      97.68000674     104.82992957
H      95.06266104      96.20035104     103.62239445
C      83.63359630      89.13655408     101.92353049
O      84.36114093      88.73026292      99.78813976
N      81.64182476      90.66345294     102.38084426
H      81.21096716      91.13021534     104.18175344
C      79.89382792      91.48926334     100.42875698
H      78.85636818      89.84709117      99.73711715
C      77.90016666      93.49426296     101.36795096
H      78.87337571      95.00037483     102.37895453
C      76.36948835      94.76226931      99.13807391
H      75.78178347      93.40355609      97.70188192
H      77.39372001      96.32129352      98.26502036
H      74.56102027      95.52949820      99.74845552
C      76.09358831      92.08641685     103.21232385
H      77.05734873      91.66689761     104.98488713
H      75.59470056      90.32141248     102.27690931
C      73.55379614      93.36576157     104.12317192
H      71.95508768      92.93679369     102.89673955
H      73.86371126      95.38965845     103.89451504
H      73.34781597      92.91222725     106.12250237
C      81.22041579      92.60609159      98.17053404
O      82.66983588      94.45046447      98.58816355
N      80.74987394      91.64422090      95.91798028
H      79.42706552      90.27038987      95.81782477
C      81.72497272      92.83663820      93.63141144
H      82.59802628      94.65266519      94.05471012
C      83.81312030      91.12265643      92.30671329
H      85.31545271      90.92612490      93.70322103
H      84.76176290      92.02027643      90.71367401
C      82.66416670      88.62632797      91.63397072
C      81.93473234      88.17090393      89.06583267
H      82.25976527      89.62599319      87.67499410
C      80.81790409      85.80307686      88.50458394
H      79.94862999      85.41001379      86.69989531
C      80.88404451      83.89256356      90.34895683
O      80.04878548      81.65323788      89.59684576
H      79.69351693      81.42647072      87.83373110
C      81.84402548      84.31208280      92.92087435
H      81.41316788      82.70770516      94.10573274
C      82.55456257      86.77061674      93.58983745
H      82.87392632      87.15045172      95.56838090
C      79.50454430      93.47158624      91.76247211
O      77.28600561      93.29773142      92.42387632
N      80.05067521      94.44101584      89.46834436
H      81.86103301      94.59975285      88.88252921
C      78.16472835      94.77549740      87.40287351
H      76.18618490      94.35408843      87.79215713
C      78.32724481      97.67055811      86.46367953
H      77.72442212      97.77827251      84.49647443
H      80.28878072      98.27149108      86.65076244
C      76.57168906      99.32595836      88.10018252
H      77.38616111      99.56217415      89.97479101
H      74.71786755      98.43967672      88.22868390
C      76.20508216     101.80905873      86.58084256
H      75.64194372     101.54827650      84.61741693
H      77.91906393     102.94856370      86.59973983
C      74.01110991     103.33406787      87.72979616
H      74.45141614     103.82350698      89.67999371
H      72.44641652     101.99803137      87.63342011
N      73.46875846     105.78315317      86.31439115
H      73.52545025     105.52426067      84.42466484
H      74.84636894     107.08706433      86.51848159
H      71.76233560     106.39353477      86.91343439
C      78.92817778      93.05584645      85.24102661
O      81.13915756      93.04450809      84.43411346
N      77.19151930      91.49682224      84.48702581
H      75.59659029      91.42123319      85.53015473
C      77.35970494      89.74882540      82.48391591
H      79.25132098      88.94569172      82.63131456
C      75.26399846      87.87232718      83.15098930
H      73.44230229      88.79073416      82.85997145
H      75.32446970      87.44524903      85.16543755
C      75.50210397      85.25316651      82.08329394
O      77.49576523      84.41601775      81.03449584
O      73.62749547      84.03240331      81.67322332
C      76.96853159      90.92612490      79.84963743
O      76.43751850      93.14844304      79.59641410
N      77.04978982      89.35954178      77.96180084
H      77.41828645      87.49627164      78.15266320
C      77.00632612      90.31574330      75.24815386
H      78.56157087      91.66122843      75.13854973
C      77.73953993      88.25594162      73.33197139
H      76.53200481      86.59487219      73.52472346
C      77.89260776      89.14789244      70.48037437
H      77.69040704      91.16612014      70.11565719
H      76.81168431      88.00838747      69.14433788
H      79.74642927      88.53373139      69.81897016
O      80.14327180      87.39233669      73.88188173
H      81.31490211      88.54695947      73.12032204
C      74.35504010      91.64989008      74.65855926
O      74.46086477      93.45835816      73.17890354
N      72.06658153      90.92990435      75.69412927
H      72.00800002      89.28773218      76.66922804
C      69.64017295      92.49648746      75.46736212
H      69.80268941      93.56607256      73.71747554
C      67.26478697      90.78061597      75.74704160
H      65.51112095      91.86531888      75.76026969
H      67.39139864      90.02094599      77.65755491
C      67.15896230      88.54695947      73.79117487
H      65.61883535      87.32052709      74.40155647
H      68.94664339      87.53595589      73.93101463
C      66.71298689      89.66945690      71.14555803
O      64.81192222      91.08486191      70.81485593
O      67.93186036      88.98726570      69.24827281
C      69.53434827      94.76793849      77.37598569
O      67.73154937      96.11720308      77.59330422
N      71.56202461      95.24414952      78.84052358
H      73.14561526      94.18023361      78.74981673
C      71.92674179      97.29450257      80.52804919
H      70.71542722      98.83462952      79.89877031
H      73.86371126      97.99370131      80.46001904
C      70.87038478      97.05450733      83.18689410
O      71.09337248      98.63431853      84.76103613
N      69.51356129      94.97769811      83.70467912
H      69.30380166      93.72480957      82.27982547
C      68.30980562      94.70179807      86.08951371
H      67.55769455      96.53294287      86.65832133
C      65.97221417      92.97269849      85.64542803
H      64.77601742      92.74782106      87.31027692
H      66.56180878      91.00549340      85.49802938
C      64.11272348      93.84197260      83.50625784
C      63.78391110      92.36420662      81.31984450
H      64.64373658      90.55384881      80.95134787
C      62.05670125      93.12576633      79.54728122
H      62.03402454      92.03728397      77.82007137
C      60.57137637      95.28950295      79.89121142
O      58.70999595      95.84697222      78.27927487
H      58.29614589      97.59496906      78.51927011
C      60.90207848      96.73892304      82.05305832
H      59.59060842      98.25826299      82.41777550
C      62.73511300      96.05106266      83.87286475
H      63.12817607      97.16789091      85.53582391
C      70.04268465      93.68134586      88.07183663
O      71.96831577      92.44735458      87.60507422
N      69.18852836      94.28227883      90.35462601
H      67.64273224      95.39154818      90.51147330
C      70.80424436      93.73425820      92.53537017
H      72.71097821      94.26527129      91.96467282
C      69.89150655      95.26493651      94.87485134
H      70.52834432      94.21802814      96.53025159
H      67.84871240      95.00037483      94.82382873
C      70.91006903      98.04472392      94.89185889
C      69.28679413     100.11397423      95.08650069
H      67.31580958      99.70390362      95.42098225
C      70.23732646     102.61030269      95.16964866
H      69.08837286     104.29404884      95.25279661
C      72.88672275     102.88620273      94.99957328
O      73.92418250     105.09151334      94.96744793
H      72.89050221     106.41432176      95.65719805
C      74.50243875     100.85663667      94.67076090
H      76.49798974     101.24781002      94.50824445
C      73.49899408      98.38487466      94.53848007
H      74.63471959      96.70868742      94.27391839
C      70.77400874      90.90911736      93.22323056
O      68.78601665      89.67890553      93.34984221
N      73.03034195      89.76394322      93.03992709
H      74.55157164      90.92234545      93.03236820
C      73.35159543      86.92368457      92.99835312
H      71.71320271      85.89378373      93.70700048
C      73.76544549      85.98260086      90.28281640
H      75.45486081      86.66857151      89.32850462
C      73.82402701      83.16312920      89.88786360
H      71.99855139      82.36755443      90.40942807
H      75.25077037      82.40723868      91.17098778
H      74.38338599      82.70392571      87.96034276
O      71.76233560      86.90289758      88.79371208
H      72.00422057      88.66790195      88.45545106
C      75.50210397      86.19236048      94.88429998
O      77.16317340      87.69280318      95.65719805
N      75.33202860      83.88311493      95.77058162
H      73.99032292      82.76439695      95.00713219
C      77.05167955      82.90423670      97.75857371
H      78.87337571      83.81886423      97.45243804
C      76.24665614      83.74138546     100.26435079
H      75.64950262      85.70292137     100.09049597
C      74.03945580      82.05574958     101.39440713
H      74.86337648      80.25673013     101.97077366
H      72.45397543      82.02929342     100.08293706
H      73.41584612      82.96281821     103.13484506
C      78.59936540      83.68658339     102.12006204
H      80.06012384      84.98104592     101.46054754
H      79.17762165      81.74772420     102.49989702
C      78.01355024      84.66357190     104.78079668
H      79.83524641      84.90545686     105.71243175
H      76.71719799      83.39934499     105.76345437
H      77.07435626      86.46826053     104.45576375
C      77.81134953      80.04886024      97.39007707
O      76.57546852      78.77140525      95.94821590
N      79.68973748      79.00195186      98.72989302
H      80.84624998      80.26617877      99.56326234
C      80.38893622      76.43192408      98.67698069
H      78.77888940      75.28863966      99.25901640
H      81.82323849      76.02374319     100.09805488
C      81.32813019      75.42281023      96.04081249
O      82.92872838      76.58310218      94.74823969
N      80.37759786      73.34978046      95.23767881
H      79.90327655      72.17815015      96.66631189
C      80.48531226      72.41436594      92.56749552
H      82.07079264      73.43103869      91.72845703
C      81.13726784      69.58733537      92.52403182
H      79.38927100      68.61979550      93.01158120
C      81.59647133      68.85412156      89.70644988
H      83.26320994      69.78575663      88.93922099
H      79.92217382      69.29442779      88.59151135
H      81.75331861      66.84345276      89.28126147
C      83.51832299      69.08466817      94.17754233
H      82.98730990      69.13569078      96.16742414
H      85.04144240      70.45283002      93.97912107
C      84.70129166      66.30488077      94.05093068
H      85.00364787      65.60190258      92.14041737
H      83.43517503      65.00663879      95.03358835
H      86.42661179      66.12346704      95.15831029
C      77.98898380      73.43103869      91.40909329
O      75.95374856      72.24995975      91.67365497
N      78.03055778      75.81776303      90.41698698
H      79.68973748      76.76451591      90.41509725
C      75.77989374      76.85333304      89.07717102
H      75.99532254      75.70626917      87.38019680
H      76.32791437      78.71471346      88.38175173
C      73.14561526      77.11978446      90.12029994
O      71.38816979      77.51851671      88.71245384
N      72.70341930      76.68325768      92.65442293
H      74.17929555      76.02185347      93.66920597
C      70.26945181      76.90435566      93.92620874
H      68.98254819      75.75729178      92.79615241
C      70.44519636      75.77429932      96.51324406
H      71.81713766      76.83632551      97.62251340
H      71.16707181      73.84677848      96.55103859
C      67.95264735      75.60800340      97.76046342
N      66.23488613      73.59544488      97.75857371
H      66.63928756      71.78508707      97.30692912
C      64.14106938      74.33243814      99.10216911
H      62.65196504      73.03419617      99.61239521
N      64.50578656      76.70593439     100.06781926
H      63.29825144      77.78307839     101.07693310
C      66.82259102      77.50150917      99.11539719
H      67.74288773      79.27785190      99.52357808
C      69.30191194      79.48194235      93.61251418
O      70.35826895      81.43591935      94.61784857
N      67.24211026      79.82020336      92.16120437
H      66.48621973      78.25173052      91.39019602
C      66.27079093      82.47715855      91.77381046
H      67.78257198      83.76217245      91.21634120
C      64.32437283      82.33731881      89.64786836
H      63.06581511      80.74050007      89.99179856
H      65.28057434      81.83087215      87.89420234
C      62.58015544      84.56341640      89.29448955
H      61.70710189      85.10198840      91.08217063
C      63.93130976      86.91801539      88.22868390
H      65.13128597      87.41501341      89.82928209
H      62.63306778      88.49215741      87.96412222
H      64.92530580      86.71770440      86.43533363
C      60.72066475      83.73193682      87.22334951
H      61.46332719      83.67524503      85.30149785
H      59.28636248      85.15301101      86.80572000
H      59.69643309      82.00472697      87.68066328
C      64.89695990      83.38989636      94.20399851
O      63.25289801      81.99905780      95.06004452
N      65.30892024      85.65378848      95.12996440
H      66.67708209      86.75360920      94.37974305
C      63.96532483      86.57219547      97.45054831
H      63.41541447      84.92624385      98.55603820
C      65.70954222      88.16712448      99.23067050
H      64.47366121      89.05340612     100.62150906
H      66.72054579      89.57686031      98.11951142
C      67.59926853      86.39267147     100.53458165
H      68.00933914      84.92246440      99.14941226
C      70.01055931      87.75705387     101.19976531
H      71.59981913      86.68179960     101.94620722
H      69.55891472      89.21970204     102.57926552
H      71.02345261      88.39956082      99.52546780
C      66.32937245      85.04907606     102.78713543
H      64.67397220      83.91146082     102.32793193
H      65.60749700      86.30763379     104.24789386
H      67.73154937      83.87555602     103.73388830
C      61.58237995      87.75516414      96.95732974
O      59.57171115      87.01061198      97.84172166
N      61.69387380      89.72047951      95.44176925
H      63.39084803      90.16267547      94.69343763
C      59.55092416      91.30029071      94.55926705
H      58.01079722      90.14566793      93.82038406
C      58.45677263      92.98025740      96.62662764