 %block lattice_cart
   139.252   0.000   0.000
   0.000 142.425   0.000
   0.000   0.000   162.84
 %endblock lattice_cart

 %block positions_abs
N      86.09968914      41.79324076      83.64042842
H      85.47229999      41.21309478      85.34496155
H      88.00075380      41.72143116      83.78404762
H      85.52521233      40.30413643      82.59352004
C      85.13781844      44.26122333      82.83918446
H      85.73875140      45.42529474      84.42844429
C      86.26787477      44.89995082      80.13876556
H      85.75575894      43.50155335      78.71769137
H      88.31255864      44.84136930      80.37498135
C      85.59891167      47.54178821      79.04272430
H      83.54666889      47.70808412      79.11831335
H      86.71385018      47.77233482      77.32685281
S      86.42094260      50.10614681      81.01181912
C      89.65804378      50.26299410      80.07073541
H      90.78810011      51.52722100      81.24047600
H      89.84134724      50.90739077      78.12431731
H      90.47062610      48.38271642      80.30317175
C      82.09913853      44.41240143      82.85997145
O      80.79333765      42.51511621      82.22502341
N      81.09191440      46.46842366      83.97868943
H      82.21819128      47.78745263      84.77048475
C      78.31590646      46.83881002      84.19978741
H      77.45797071      46.04701469      82.50281318
C      77.26143916      45.75221739      86.73391039
H      77.68662758      43.73965886      86.85296315
H      75.26966763      46.26055377      86.59029119
C      78.46897429      46.92762715      89.15276007
O      79.66895049      48.98931856      89.20567241
N      78.24031740      45.64828244      91.18988504
H      78.99431820      46.45897503      92.74324007
H      77.48064743      43.90217533      91.30326862
C      77.68095841      49.76221662      83.94467435
O      79.37037373      51.28722576      83.65932568
N      75.35848477      50.54834277      84.37553195
H      74.05835307      49.24821107      84.88764778
C      74.57046890      53.11459110      84.07128602
H      75.24321147      54.01032138      82.34407617
C      71.59226022      53.08624521      83.85018804
H      71.25777867      52.23208892      82.00770488
C      70.20898056      51.68784774      86.00258631
H      70.77967792      52.57412938      87.77137014
H      70.26756208      49.62804606      85.96479178
H      68.16618643      51.92028407      85.87030547
C      70.36393813      55.84902508      83.81050379
H      70.77211901      56.87703619      85.54716227
H      68.31358507      55.68461889      83.71790720
C      71.16896153      57.26254036      81.36897739
H      73.21931459      57.43072600      81.34441095
H      70.22976755      59.09179543      81.22535819
H      70.58125666      56.01721072      79.83640935
C      75.48509644      54.88526466      86.29549389
O      75.92162321      57.09435472      85.80983423
N      75.96697664      53.95173986      88.69733603
H      75.77611429      52.08091081      89.02047923
C      77.19340902      55.40304967      90.63808496
H      76.36570889      57.27387872      90.89508773
C      77.35403575      53.92339397      93.14764150
H      78.29511946      55.13092908      94.52336225
H      78.49354073      52.23586837      92.81882912
C      74.84258948      52.93317738      94.20588823
C      73.33647762      54.41283308      95.88396520
H      74.11504486      56.18350664      96.52836187
C      71.01022452      53.58513296      96.82126945
H      70.08614836      54.63204133      98.31037379
C      69.95764696      51.26643877      96.14096798
H      68.23799603      50.55590168      96.98189619
C      71.43730267      49.79623170      94.52903143
H      70.72865530      47.94052046      94.05659986
C      73.81646810      50.53322496      93.63708061
H      74.57613807      49.22175490      92.27080849
C      79.99398342      55.90193741      89.79337729
O      80.87459587      58.04110760      90.08250542
N      81.32246101      54.05378508      88.69922576
H      80.74231503      52.24342727      88.87119085
C      83.93406278      54.43739952      87.89987153
H      84.97152252      55.34635788      89.42866011
C      85.25120202      51.88626900      87.38397624
H      86.92172009      52.42295127      86.30494252
H      84.09657924      50.74676403      86.11219044
C      85.96551856      50.39716467      89.66865536
H      86.85180020      48.62838084      89.09606828
H      84.31389777      49.93985090      90.81193978
C      87.98752572      51.85225393      91.18421586
O      87.35068795      52.55334239      93.37440866
O      90.12669590      52.21508138      90.31305203
C      84.12303542      56.06256415      85.49613966
O      85.96173912      57.44206436      85.12764303
N      82.35992076      55.81312028      83.68200240
H      81.20907743      54.29189060      83.77459899
C      82.28055226      57.34190887      81.33307259
H      84.13626349      57.00931703      80.50159301
C      80.10358754      56.21185253      79.62098055
H      78.29889891      56.43861969      80.58852042
H      80.55901159      54.27866251      79.08051882
C      79.83902585      57.54977876      77.06229112
H      81.30545348      56.79766769      75.82641011
H      80.05067521      59.58690373      77.28338910
S      76.86270691      56.68995329      75.58263542
C      77.93985091      57.45907190      72.35120342
H      79.68406830      56.40460461      72.05451639
H      78.23464821      59.46974069      72.03372940
H      76.48287192      56.81656495      71.04729227
C      81.94229125      60.17460861      81.87542404
O      83.29344556      61.75819926      80.68300674
N      79.97697589      60.67727581      83.50058867
H      78.83936064      59.24486326      84.04671958
C      79.24943124      63.26809058      84.12797781
H      79.24943124      64.25641744      82.32139945
C      76.79089731      63.40604060      85.60007460
H      76.60570413      65.12191210      86.72446176
H      76.79278704      61.88859037      86.99280290
C      74.43818805      63.16604536      83.94845381
H      74.48732094      61.39915126      82.89587625
C      72.04012536      62.95061656      85.44889650
H      71.99477193      61.07033888      86.28415553
H      70.26378263      63.27375976      84.45867991
H      72.09870688      64.36224212      86.94933919
C      74.05079416      65.50552654      82.18533916
H      72.44074735      65.34489980      80.91355335
H      75.78745265      65.72851424      81.09874653
H      74.02433799      67.36690696      83.06595162
C      81.47552884      64.54176612      85.54149309
O      82.00276249      66.72628974      85.06339233
N      83.08368594      63.04510288      86.79627136
H      82.81534480      61.23663480      87.34240227
C      85.38159314      63.92760507      88.04915991
H      84.98097115      65.59434367      89.19055460
C      86.50409056      61.80166296      89.68944235
H      87.73619213      60.58278949      88.57639355
H      84.97341225      60.49586208      90.12974858
C      87.67005170      62.78432065      92.13474820
H      86.21685217      63.74241189      93.23645864
H      89.25742181      64.00886330      91.66042689
C      88.88325599      60.42972166      93.53692512
H      90.26842539      60.88136625      94.99201438
H      89.79221435      59.32612149      92.05726942
N      86.79321870      58.65337893      94.53281089
H      86.77054197      56.86758756      93.85628887
C      85.26631983      59.17683312      96.47167008
N      85.51576370      61.33490056      97.65652848
H      84.32901557      61.81300132      99.07004376
H      87.09746462      62.38747812      97.45999695
N      83.58824286      57.62725754      97.24834760
H      82.62259271      58.02787952      98.84327661
H      83.44840311      56.06445388      96.15986524
C      87.40171057      64.94238810      86.14053633
O      88.57334087      66.83400414      86.86808096
N      87.69083869      63.80288313      83.84262913
H      86.53621591      62.34968359      83.39098454
C      89.35568757      64.68916477      81.82629116
H      91.16226592      65.44127584      82.46690838
C      89.78654517      62.60101719      79.85719634
H      87.92327502      61.86024448      79.37342640
C      90.66904736      63.35879745      77.13221100
H      89.28009851      64.64381134      76.32340813
H      91.01675700      61.72040473      75.93412451
H      92.50208188      64.29043252      77.29850691
C      91.34178993      60.44861892      80.93434034
H      91.11124331      60.31822781      82.97713448
H      93.32789228      60.84735118      80.55450535
C      90.51220007      57.95040074      79.76837920
H      90.92605013      58.08457131      77.75582068
H      88.58089978      57.45718217      80.28994367
H      91.53454201      56.27988268      80.39576834
C      88.26342576      67.07210965      80.60741769
O      89.67883077      68.77853251      79.95735183
N      85.79544319      67.14769870      80.10852994
H      84.79577797      65.55843887      80.45057040
C      84.51987793      69.10167571      78.76682426
H      85.69528770      69.60245318      77.15299799
C      81.84969466      68.28909340      77.79361521
H      80.89160341      70.01441352      77.20780005
H      80.64593899      67.39903230      79.21090994
C      82.20496320      66.79998906      75.35019908
O      84.07957171      67.21572885      73.88188174
O      80.46263554      65.41292995      74.76438393
C      84.55389301      71.69626994      80.28427449
O      84.93372799      73.77685861      79.28460927
N      83.94162169      71.57910691      82.75981596
H      83.37281407      69.86323542      83.36830783
C      83.30667364      73.67292366      84.39253949
H      82.67928450      75.23572732      83.20957082
C      81.13348838      73.00396055      86.38998020
H      80.78388901      74.64424299      87.58428723
H      81.72497272      71.34667057      87.46712420
C      78.54078388      72.33310771      85.42621978
H      77.38049193      71.93437545      87.07973031
H      78.67117500      70.61723621      84.29049427
C      77.18207066      74.55542585      84.06372711
O      74.85014839      74.82376699      84.44356210
O      78.35937015      76.00862539      82.58974059
C      85.50064589      74.57054366      86.05171919
O      85.88426033      76.83632551      86.42777473
N      86.87825638      72.75262695      87.21012142
H      86.64393032      70.93093078      86.69044669
C      88.79254914      73.30631676      89.28126146
H      90.11913700      74.70849368      88.56127574
H      89.55599856      71.48273087      89.86329717
C      87.52076332      74.25306964      91.61318373
O      85.23230476      74.14346551      91.87585569
N      88.97774230      75.28108075      93.32338605
H      90.86368916      75.23761705      93.02669901
C      88.08012231      75.87634454      95.79325834
H      86.07701241      75.50028901      96.09750427
C      89.41426909      74.07921482      97.65652848
H      91.40604063      74.02630248      97.13307429
H      88.75475460      72.18192960      97.19732499
C      88.96451422      74.70282450     100.52513302
H      89.71851502      76.58121246     100.89173993
C      86.34346382      74.74817793     101.63818182
H      85.60836029      72.82443655     101.61550511
H      85.22663557      76.04830964     100.49867686
H      86.68928374      75.32454446     103.58648965
C      90.58211994      72.96805575     102.07659833
H      90.69172407      73.84110930     103.93797875
H      92.51342024      72.90002560     101.36606123
H      89.64670542      71.13502122     102.00856818
C      88.29177165      78.73927991      96.54347968
O      90.36102197      79.72382732      96.63040709
N      86.23763915      80.01106572      97.17275855
H      84.52365739      79.17202723      97.17842772
C      86.20929326      82.79274285      97.89841345
H      88.11224766      83.57131009      97.78125042
C      84.84491087      84.36688487      95.85750903
H      85.15860543      86.33975914      96.36395568
H      82.83046261      83.97760125      96.00112823
C      85.92961376      83.86799712      93.14764150
H      85.70284660      81.97071190      92.37852289
H      87.93461339      84.34798760      93.13819287
C      84.52554711      85.81252550      91.38452685
H      84.79766770      87.69091345      92.18388108
H      82.54133448      85.27017405      91.30893780
N      85.22285612      85.69158301      88.71623329
H      86.52487755      87.02950924      88.31183186
C      84.28744160      84.07397729      87.11941456
N      82.80022700      82.21259687      87.77325986
H      81.93473234      81.14679123      86.44856172
H      82.13882279      82.06708794      89.55716150
N      84.72207865      84.27428828      84.68355734
H      84.00587237      82.85132436      83.63097979
H      85.72174387      85.75016453      84.00703532
C      85.20962804      83.28218196     100.53836111
O      82.91739003      83.05163535     100.98433652
N      86.80833650      83.86988685     102.34116001
H      88.62247376      83.91335055     101.74967568
C      86.08079187      84.10610264     105.07559399
H      84.78066017      82.57731405     105.53479748
C      88.52231826      83.68847312     106.60249285
H      88.10657847      84.05696975     108.58670548
H      89.87536230      85.07742196     105.90140439
C      89.84890613      81.08443026     106.57603668
H      90.17393906      80.73483089     104.57481651
C      92.14681333      81.12789397     108.23710611
H      93.18994226      79.36666904     108.01789786
H      91.62902833      81.08820971     110.23076737
H      93.40726079      82.63589556     107.61538615
C      88.10468875      78.96415734     107.58704026
H      86.67227621      78.45015178     106.19809142
H      87.43005645      79.69359170     109.39361861
H      89.19695056      77.26151393     107.97821360
C      84.68995330      86.61754891     105.91463247
O      83.52021271      86.67990987     107.93097045
N      84.90727183      88.48081905     104.23466578
H      85.91827541      88.13877859     102.65107513
C      83.84524565      90.89777901     104.42552813
H      82.81534480      91.16234069     106.18864278
C      85.92016513      92.92167589     104.39907197
H      86.81589540      92.83852793     102.54525045
H      87.26942972      92.75726970     105.94675782
C      84.89404375      95.74492700     104.59938296
H      83.53155107      95.82429550     106.14139963
H      84.07957171      96.14365925     102.74745117
C      86.95762489      97.77827251     105.06047618
H      87.46218181      97.68000674     107.05602716
H      86.06000488      99.60185840     104.72221517
C      89.38214375      97.38520944     103.35216359
H      90.28354319      95.63910232     103.97199382
H      90.65770900      98.89132131     103.92853011
N      88.80010803      97.59496906     100.66875222
H      88.11602711      99.29761247     100.14529804
H      87.61902910      96.21546885     100.08860625
H      90.42905211      97.33418683      99.70688153
C      81.65505285      91.33808524     102.39785180
O      81.80434123      90.24582343     100.36072684
N      79.90327655      92.93868342     102.84571694
H      80.07335192      93.91189247     104.48033020
C      77.79245226      93.30718005     101.07315366
H      77.13104806      91.42501265     100.55914810
C      75.62493618      94.71502616     102.42808742
H      76.36570889      96.38932367     103.37295058
C      73.62182628      95.45579887     100.37962410
H      74.42118052      96.96380047      99.22878077
H      72.02689728      96.57829630     101.04669749
H      72.97931934      93.82496506      99.29870065
C      74.44196751      92.74026216     104.27246030
H      75.84414444      91.95791547     105.56125365
H      73.64072355      91.15289206     103.22744165
C      72.21398018      93.93267946     105.71810093
H      70.57747720      93.64544106     104.50111719
H      72.56924874      95.89988456     106.21698868
H      71.97776439      93.05584645     107.56625327
C      78.58613732      94.60731176      98.43698545
O      79.54233883      96.72380523      98.69398823
N      77.81512897      93.59630818      96.23734402
H      76.60381441      92.12043193      96.25057210
C      78.70330035      94.30684527      93.70133131
H      79.52155183      96.18145378      93.93187792
C      80.58735748      92.37176553      92.48056811
H      82.06134400      92.13932919      93.89975257
H      81.36592472      93.27505471      90.79871169
C      79.63871488      89.76016376      91.52625632
C      79.72942173      89.20458423      88.82205797
H      80.39271566      90.50849538      87.39720433
C      78.55401197      86.97281745      88.18522020
H      78.50487908      86.64211535      86.17266168
C      77.67339950      85.06041442      89.75747249
O      76.66617539      82.91935451      88.96000799
H      76.21075133      83.10454769      87.21390088
C      77.84158514      85.51961792      92.36151535
H      77.33513849      84.12877935      93.76747173
C      78.79967638      87.87799636      93.17976685
H      79.00754628      88.45058343      95.12807467
C      76.33169383      94.62809875      91.86073788
O      74.44763668      93.32796704      92.08183586
N      76.56224044      96.36475723      90.01447527
H      78.18362561      97.29072312      89.62519165
C      74.47598258      96.63498809      88.17577157
H      72.58247682      96.59719357      88.98457443
C      74.98431896      99.15777272      86.88508850
H      73.61237765      99.41099605      85.36952799
H      76.81357403      99.09919120      85.93833561
C      74.59881479     101.34985524      88.88441894
H      76.04256570     101.46701827      90.34706710
H      72.69208094     101.19867714      89.64786837
C      74.73109564     103.97090564      87.61830231
H      73.25143994     103.98035427      86.18588976
H      76.56224044     104.26192349      86.71501313
C      74.41929079     106.17054707      89.48535190
H      75.48887588     105.74724837      91.19555422
H      72.47098296     106.13464227      90.15620475
N      75.07502582     108.68199334      88.17010239
H      74.44952642     108.62719127      86.36730349
H      76.94396514     109.06371805      88.21356610
H      74.12827294     110.14086205      88.95433881
C      74.69708056      94.52416380      86.07061646
O      76.63782948      93.59819791      85.37708690
N      72.48232132      94.18590279      84.73646968
H      70.93463547      94.97013921      85.53582391
C      72.11382470      92.44924431      82.62375566
H      73.92607222      91.47414553      82.55005634
C      70.20520111      90.44424469      83.67444349
H      68.32303371      91.19257631      84.04294012
H      70.85715669      89.45213838      85.35818964
C      69.93308053      88.22192655      81.76015074
O      68.60082347      88.58097455      79.86853470
O      71.14628482      86.20180912      82.17211107
C      71.53178898      93.89488494      80.21057516
O      70.15984768      95.81862632      80.21057516
N      72.19697264      92.93301424      78.03738990
H      72.97742962      91.19635576      77.92022687
C      71.92863152      94.44101584      75.63365803
H      73.01333442      96.15877706      75.96247041
C      73.37994133      93.19001702      73.47748031
H      73.64828245      94.62809875      72.02806022
C      75.72698141      91.93901820      74.28817290
H      75.47186835      90.44424469      75.68279091
H      77.01766448      93.25426772      75.20657988
H      76.68696236      91.21336330      72.61576511
O      71.91540342      91.13777425      72.52505825
H      71.47131774      91.37776949      70.78462031
C      69.11860848      95.10808923      74.76816338
O      68.57814676      96.86175525      73.36787618
N      67.41218562      93.63599243      75.97191904
H      68.02823641      92.62309913      77.46669255
C      64.75145097      93.92134111      75.69601900
H      64.32437282      94.82463028      73.89322010
C      63.50801106      91.26627564      75.69790872
H      63.24155965      90.57463581      77.61976038
H      64.70798727      89.86598844      74.77572228
C      61.02680041      91.10942835      74.23148111
H      59.53202690      92.40956006      74.79461955
H      60.21799755      89.24237876      74.55462431
C      61.51057034      91.17178932      71.39878136
O      61.65985872      93.24481909      70.21392296
O      61.53891624      89.16112052      70.22715105
C      63.57226175      95.91878182      77.56306860
O      61.34805388      96.61042165      77.43834666
N      65.29002297      96.96757992      78.99359141
H      67.04179926      96.22869693      78.83863386
C      65.03302019      98.94990283      80.87008964
H      63.69509396     100.31806468      80.10852994
H      66.84904718      99.90232489      81.07229036
C      64.30169611      98.11086434      83.54027292
O      64.00500908      99.76815432      85.22212934
N      64.09193649      95.68634548      84.04671958
H      64.21854815      94.59786313      82.48391591
C      63.45131927      94.42400831      86.45045145
H      61.78458066      95.29706186      87.28948993
C      62.90707809      91.55918321      85.78715751
H      62.30425540      90.60676115      87.51247763
H      64.70042836      90.67101185      85.30527730
C      60.93798327      90.99604477      83.81617297
C      61.01357232      88.63199716      82.54627688
H      62.49511775      87.34320381      83.09807697
C      59.07849258      88.12177105      80.80016977
H      59.18620698      86.41345846      79.68523125
C      57.25490669      89.98882065      80.18222927
O      55.72422837      89.47859454      78.19234746
H      54.83416728      90.96391943      77.65188573
C      57.53269646      92.41144978      81.21590956
H      56.35350724      93.94401782      80.56017453
C      59.21455287      92.82907930      83.12264341
H      59.29014193      94.70746725      83.91821819
C      65.51301068      94.77171795      88.54993738
O      67.54635619      95.88476675      87.99246812
N      65.10482980      93.83630342      90.78926306
H      63.36061241      93.28261361      91.33161451
C      67.02857119      93.56796229      92.84528529
H      68.90884886      93.86842877      92.06482832
C      66.48055055      95.48603449      94.88429998
H      66.92274652      94.66022409      96.71922423
H      64.47177148      95.85453112      95.15453084
C      68.12461244      97.87653828      94.95988903
C      66.88306225     100.21979891      94.95421985
H      64.87617291     100.24247562      94.59517185
C      68.36460768     102.45345541      95.19988427
H      67.35549384     104.22790842      95.19232537
C      71.02912179     102.16054783      95.55326310
O      72.46531379     104.12397347      96.10506318
H      71.64706229     105.73402029      95.91609055
C      72.22909799      99.74358788      95.42287198
H      74.22842843      99.52437962      95.78003025
C      70.81180326      97.57040262      95.16208975
H      71.66218011      95.71469138      95.16397947
C      67.13817531      90.96013997      93.87329640
O      65.20876474      89.66189800      94.30604373
N      69.44931059      90.09086587      94.32305127
H      70.90062040      91.30218044      94.59139240
C      70.41496073      87.55863261      94.33627935
H      69.09782150      86.28873653      95.28303223
C      71.16707181      87.01061198      91.66231662
H      72.67129395      85.60276588      91.70578032
C      69.02412218      86.16968377      89.84251018
H      68.75200158      84.16468415      90.23368352
H      69.81402776      86.19613994      87.94144551
H      67.35549384      87.36588053      89.68566289
O      72.57302818      88.94002255      90.28848559
H      73.56513451      89.92834941      91.44310836
C      72.78467753      87.42257232      96.06159947
O      74.02811744      89.35576233      96.55670777
N      73.27222692      85.19269527      97.03669825
H      72.23665690      83.65445805      96.58505366
C      75.06557720      84.53318078      99.00768280
H      76.78900759      85.64433986      98.79981290
C      73.71064343      84.99049455     101.64385100
H      72.64105833      86.75171947     101.64574073
C      71.65651092      82.94770041     102.31092439
H      70.34315113      82.47337910     100.79536389
H      70.72676558      83.66201695     104.00411917
H      72.52389530      81.11277616     102.66052376
C      75.33013887      85.17946718     104.02679588
H      75.95752801      83.34832238     104.73733298
H      74.42873943      85.99582895     105.68786531
C      77.78867281      86.77250646     103.42586292
H      77.04601037      88.46003206     102.50745593
H      79.31935112      85.87110701     102.38462372
H      78.72597706      87.41879286     105.14362413
C      75.92918212      81.69670159      99.04925677
O      74.89550182      80.11500066      97.74723534
N      77.80190089      80.94459051     100.58938372
H      79.04723053      82.24094277     101.22811121
C      78.51054826      78.27440723     100.83693787
H      77.18773984      76.95348854     101.70432224
H      80.16783824      78.24606134     102.06148052
C      79.30045386      77.14435090      98.35572722
O      80.81790408      78.09866269      97.03291880
N      78.54834278      74.80486972      97.73778671
H      77.14427613      73.95638261      98.71288549
C      79.30045386      73.55198118      95.40586444
H      80.73853558      74.58188202      94.35139716
C      80.07524165      70.72873007      95.94443644
H      78.39905440      69.87079432      96.77969547
C      80.49854034      69.55143057      93.37818811
H      78.73731541      69.51174632      92.31238247
H      81.18451099      67.65792481      93.80337653
H      82.03677756      70.62668485      92.52970099
C      82.25409608      70.51897045      97.85494974
H      81.51332337      71.47895141      99.52168835
H      84.03421828      71.39958291      97.30314966
C      82.59991600      67.68249125      98.68642932
H      80.85380889      66.90581374      99.45932738
H      84.03610800      67.60879192     100.16041585
H      83.18195170      66.74707673      96.94788111
C      76.98175968      73.82977095      93.74101556
O      75.12793816      72.40491731      94.14541699
N      76.82113293      75.85555755      92.37663316
H      78.38015714      76.95726799      92.36907426
C      74.78589769      76.27507680      90.58895207
H      74.64227849      74.56865393      89.44377793
H      75.13927652      78.11378050      89.72723687
C      72.25555417      76.78152345      91.73601594
O      70.34315113      76.77585427      90.42454588
N      72.03445618      77.35033107      94.19266015
H      73.53300916      77.32765435      95.37373910
C      69.56080445      77.65646673      95.50413021
H      68.29279808      76.26562816      94.66887118
C      69.50789210      77.03096732      98.34627859
H      70.47543197      78.44448260      99.48956301
H      70.64172790      75.33210337      98.61650945
C      66.82448074      76.53963848      99.08138212
N      65.31647914      74.53652859      98.33494023
H      65.71332166      73.34789074      96.89685850
C      63.06959455      74.69526560      99.63318221
H      61.68631489      73.21560989      99.88073635
N      63.17919868      76.78908235     101.05614612
H      61.66363818      77.28985983     102.10494422
C      65.46576752      77.99283801     100.68198031
H      66.17630461      79.71059923     101.52857770
C      68.34004124      80.23972260      95.00902192
O      69.03923998      81.94614546      96.35261733
N      66.40874095      80.35499591      93.51235868
H      66.21409914      78.85833267      92.34261809
C      64.54736053      82.29574483      93.44621826
H      65.44120108      83.99649851      92.69977636
C      62.48944857      81.58898719      91.55082276
H      61.51434980      79.92791776      92.27836739
H      63.46076790      80.98805422      89.83495127
C      60.45799279      83.67335531      90.92343363
H      61.17041961      85.45914668      91.66231662
C      59.94209751      84.00783687      88.03215237
H      58.73267266      82.42991540      87.49924955
H      61.62962310      83.99082933      86.85107342
H      58.80070281      85.66512684      87.59562559
C      58.01268694      83.33131485      92.37474344
H      56.82026964      84.89411851      91.76436184
H      58.27346917      83.33887375      94.41564785
H      57.17931764      81.53229540      91.81349472
C      63.30958979      82.91557506      95.98978987
O      62.33827047      81.19214466      97.22189143
N      63.33982542      85.26261514      96.84394617
H      64.42263859      86.43046600      95.79703779
C      61.82426491      86.19802966      98.98878553
H      61.44820938      84.82041918     100.47411041
C      63.56281312      88.16901421     100.23222545
H      62.48944857      89.31040890     101.56826195
H      64.24500432      89.56363223      98.87918141
C      65.84182305      87.12210583     101.85550035
H      67.07014516      86.14511733     100.52135357
C      67.46887741      89.36143151     102.77579706
H      66.34449025      90.71069610     103.84727188
H      68.64050772      90.00393846     101.20543450
H      68.76333994      88.65089442     104.21198906
C      65.18419830      85.44591859     104.10616439
H      64.39807215      86.37188449     105.76723382
H      66.69975880      84.24783211     104.82048093
H      64.03335497      83.97949097     103.22744165
C      59.53580635      87.36588053      97.95132579
O      57.51568892      86.70258659      98.82437934
N      59.65107965      88.86821295      95.95010562
H      61.31592853      89.57875004      95.34350347
C      57.45521768      90.44991387      95.02980891
H      55.69399275      89.43135139      95.35106238
C      57.15664092      92.68546010      96.95544002