 %block lattice_cart
   139.252   0.000   0.000
   0.000 142.425   0.000
   0.000   0.000   162.84
 %endblock lattice_cart

 %block positions_abs
N      93.41198510      43.73398968      80.27482586
H      92.94144325      42.35637920      79.03894485
H      92.94522269      43.22187385      82.05305832
H      95.29604224      43.97209519      80.45434986
C      92.14208902      46.17740580      79.54917095
H      92.73924254      47.72887110      80.76615470
C      92.76758842      46.75755178      76.73914792
H      91.72823896      45.44608172      75.53917172
H      94.78581613      46.78211822      76.32907732
C      91.82083555      49.33702820      75.89821972
H      89.78371058      49.49765493      75.65444502
H      92.49357810      49.69985566      73.98392696
S      92.73924254      51.71808335      77.93345495
C      90.72479429      54.37314883      76.96780481
H      90.84951622      54.82479341      74.96091546
H      91.36919096      56.00587236      78.04683853
H      88.77648646      54.01410082      77.52905352
C      89.24702831      46.10748593      79.85152716
O      88.08484663      44.21586989      79.02382704
N      87.99036031      47.99532252      80.86631019
H      88.72735357      49.74709882      81.04205474
C      85.31828730      48.26366365      81.38976438
H      84.36964470      47.16573267      79.92711621
C      84.79861256      46.97487031      83.98624834
H      85.75292436      45.14939469      84.03160177
H      82.80873075      46.57046888      84.32450935
C      85.60363598      48.64538837      86.26714800
O      85.23891880      50.89794214      86.49580488
N      86.80172246      47.44919161      87.98490921
H      87.21368280      48.66428563      89.39842450
H      86.81684027      45.54623721      88.12285923
C      84.19201041      50.91305995      81.32740341
O      85.53938528      52.84624996      81.13276160
N      81.69946141      51.14360655      81.80361444
H      80.87176129      49.46175013      82.15699326
C      80.06295843      53.39049114      81.45590480
H      80.49570575      54.08213097      79.56617849
C      77.20758197      52.71774857      81.71290758
H      76.98270454      51.13415792      80.41277588
C      76.32885923      51.73887034      84.28860455
H      76.67845860      53.14860617      85.74936299
H      77.33041418      50.07024201      84.96701629
H      74.30307262      51.37226344      84.24514084
C      75.61265296      55.12148044      81.23480682
H      75.76194134      56.75420398      82.48391592
H      73.70591911      54.41661253      81.56928838
C      75.60509406      56.06256415      78.60052834
H      77.40600323      56.94506633      78.13565567
H      74.35976442      57.70284659      78.67422767
H      75.01549945      54.69440229      77.17567470
C      80.86231266      55.54855859      83.12453314
O      80.95490925      57.75575892      82.37242206
N      81.88465459      54.90794138      85.32417456
H      82.15110600      53.04467122      85.64542804
C      82.74448007      56.67294574      87.24413650
H      81.39710520      58.23196995      87.27248239
C      82.71802390      55.51643324      89.87652525
H      83.83674187      56.73530672      91.10295763
H      83.61375417      53.66072200      89.89542252
C      80.17256255      54.98353042      90.89508774
C      78.81573906      56.90349235      91.89475296
H      79.64532890      58.76487278      92.00435708
C      76.29106471      56.51420873      92.67520992
H      75.04762479      57.91827539      93.47834361
C      75.21203098      54.07646180      92.41253796
H      73.35443002      53.74198023      93.18543603
C      76.77861410      51.96752723      91.71900841
H      75.99815713      50.08347009      91.83428171
C      79.28250146      52.54956293      90.85162403
H      80.22925434      50.96030310      89.98990883
C      85.09718933      58.02787951      86.38998021
O      85.41655307      60.31066890      86.37675212
N      87.02659989      56.50098065      85.75314244
H      86.47102036      54.68117421      85.58306707
C      89.41143450      57.42505682      84.47757718
H      90.44889424      58.83479266      85.56416981
C      91.26714573      55.22730512      84.08262438
H      92.91498707      56.22508061      83.35319002
H      90.90809773      53.86859190      82.58029196
C      91.69044443      53.71930353      86.48635625
H      93.34584468      52.56468074      86.07061646
H      89.97457293      52.58168828      86.54871722
C      92.07216915      55.29344554      88.86741140
O      93.68599542      57.02632456      88.76158673
O      90.87597239      54.59046735      90.75335826
C      89.04671732      58.67605564      81.91888775
O      90.37708464      60.48452372      81.22157874
N      87.00014372      58.01465143      80.71324236
H      85.92299972      56.53499572      81.25370409
C      86.34818814      59.13525913      78.28116460
H      87.91666097      59.13525913      76.94134864
C      84.21090768      57.59513219      77.06229112
H      82.49125674      57.53466094      78.19801664
H      84.67011118      55.59013257      77.02827605
C      83.58918773      58.34535354      74.20691467
H      84.89876806      57.66127261      72.77450212
H      83.64210006      60.39570658      74.01227286
S      80.48625712      57.18128212      73.52283374
C      80.91711472      55.73564149      70.43124149
H      79.21825077      56.15894019      69.35031804
H      81.35364150      53.72497270      70.58619905
H      82.46858002      56.71451972      69.49393724
C      85.61119488      61.96606915      78.60619752
O      86.39543130      63.73863243      77.39866241
N      83.79138844      62.24574864      80.31451011
H      82.95423969      60.68105525      81.01370884
C      82.86731228      64.61357571      81.11386434
H      82.55361771      66.03087045      79.65499563
C      80.23681325      64.31877841      82.49903373
H      79.88721388      66.09512114      83.47980168
H      80.33696873      62.66337816      83.71979693
C      78.11087115      63.82933929      80.50348274
H      78.50015477      62.38369866      79.08807773
C      75.53328446      63.06777959      81.82818089
H      75.80729477      61.42182797      83.03760573
H      74.31630071      62.14181369      80.45057040
H      74.58653157      64.71940040      82.60863785
C      77.56096079      66.05732661      78.73280919
H      78.85164386      66.13669513      77.12843155
H      77.61009367      67.80910291      79.80995318
H      75.64666803      65.91181769      77.98447757
C      84.83829682      66.12157731      82.62564539
O      84.81373038      68.42326397      82.69934472
N      86.73747177      64.87813740      83.67255377
H      86.59574229      63.00163918      83.99569697
C      89.01837142      66.08567251      84.74780804
H      88.54593985      67.69005015      85.95156370
C      90.45456342      64.22429209      86.49013570
H      92.21011917      63.49485773      85.69645065
H      89.20167488      62.64448090      86.92099330
C      91.06305529      65.15025798      89.03181759
H      89.46812629      65.90803825      90.09384378
H      92.31594383      66.75652535      88.73135111
C      92.47279113      63.39659197      90.80627060
H      93.25513781      64.15437223      92.55426744
H      94.19433180      62.75219529      89.87841498
N      91.28037382      61.10246422      91.47901317
H      91.51092043      59.63981606      90.27903696
C      89.62308385      60.79443884      93.34984222
N      88.99758444      62.46873635      94.96555821
H      87.92610962      61.83756776      96.41308857
H      90.02370581      64.05799619      95.21878154
N      88.64798507      58.57212069      93.80904571
H      87.27226431      58.34535354      95.10917741
H      89.32261736      57.06222937      92.85662365
C      90.80605252      67.37446585      82.76926459
O      92.09862532      69.26419217      83.38342564
N      90.95345117      66.21039445      80.53938754
H      89.96323458      64.61168599      80.21246489
C      92.28570821      67.32533297      78.36053310
H      94.08472767      68.13602556      78.95201744
C      92.98868641      65.21450868      76.45190953
H      91.29549163      64.29421196      75.72436489
C      94.35495853      66.39936708      74.16534069
H      95.93099027      67.41226038      75.02138671
H      93.06805491      67.76752894      73.32441248
H      94.89542026      64.97829289      72.77639185
C      94.80849285      63.29454675      77.67267272
H      94.57227706      62.68038569      79.62476000
H      96.59995339      64.31310923      77.65377546
C      95.53036830      60.84546144      76.22892182
H      96.84372809      61.53143211      74.80028873
H      93.83717352      60.02154077      75.38799361
H      96.48468009      59.46218178      77.41944940
C      90.86274431      69.45883398      77.21913841
O      91.98902118      71.38635482      76.52560885
N      88.34562886      69.29442780      77.04150414
H      87.46312667      67.82988991      77.89377070
C      86.73369231      71.24462535      75.82263066
H      87.72012944      72.24618030      74.31462907
C      84.41877758      69.96906008      74.71903050
H      83.11297670      71.42603907      74.07463382
H      83.34919249      68.82010648      76.04939782
C      84.81750983      68.18137900      72.45702810
O      86.46724090      68.63302359      70.86776827
O      83.43989935      66.24818897      72.29451164
C      86.07606756      73.49906884      77.54606106
O      85.91544082      75.71949725      76.72403011
N      85.64143050      73.07199069      79.99136691
H      85.54316474      71.22005891      80.44301150
C      84.60775021      75.01840879      81.73747402
H      84.02571451      76.73428028      80.76048552
C      82.28527657      73.82788121      83.06595162
H      81.67489497      75.28863965      84.38120113
H      82.79739240      72.16303233      84.16766206
C      80.09886323      73.04175507      81.40299247
H      78.74959863      71.98728778      82.55194606
H      80.61664823      71.62823979      79.99703609
C      78.59653081      75.32076500      80.17656009
O      79.19935350      77.58087767      80.61119714
O      76.67089970      74.80864917      78.94445853
C      86.72613340      75.96138222      83.56105991
O      87.06628414      78.20070791      83.83318050
N      88.12264115      74.14535523      84.58907103
H      87.16643964      72.49751389      84.71001351
C      90.25992161      74.97494509      86.23880210
H      91.40320603      76.46971860      85.39787389
H      91.63186291      73.51796610      86.72446176
C      89.07128376      75.81020412      88.78615317
O      86.84707589      76.02752265      89.14331144
N      90.78337579      76.45838025      90.63430550
H      92.61263086      76.15224458      90.18644037
C      90.07850789      77.08576938      93.22889973
H      88.04516237      76.85522278      93.46511552
C      91.53170741      75.07132113      94.88807943
H      93.55749403      75.26029377      94.56493624
H      91.11029844      73.14757975      94.28147729
C      91.09518064      75.32076500      97.78314015
H      91.80193827      77.10655637      98.52202313
C      88.45334326      75.45115612      98.59950191
H      87.64265067      77.32387490      98.32549160
H      88.31728296      74.81998753     100.55725837
H      87.50848010      74.08677373      97.38251817
C      92.58617470      73.41214143      99.33649518
H      94.33606126      73.05498316      98.31037379
H      91.50525125      71.67170350      99.13429446
H      92.68066101      73.81087369     101.35472288
C      90.74936073      79.79752664      94.02069506
O      92.92632544      80.47215893      93.58416828
N      88.99191526      81.31497687      95.09028015
H      87.23069032      80.58932196      95.22823017
C      89.29049201      83.82642314      96.18632141
H      91.18021832      84.27428828      96.87607152
C      88.45712271      85.90890153      94.45344238
H      88.79538371      87.76272305      95.28870141
H      86.45212309      85.63300150      94.06604849
C      89.66465781      85.85032003      91.81538445
H      90.42243808      84.06074920      91.12941380
H      91.36730123      86.97848663      92.09506394
C      87.89398427      87.06541404      89.99179856
H      87.62564313      89.01750132      90.59084180
H      86.17811278      85.92401934      89.95022458
N      89.31505845      87.12777501      87.65042766
H      91.01770185      87.99515938      87.64097902
C      89.08829130      85.64622959      85.61519242
N      87.15321155      84.24405266      85.35629991
H      86.83762726      83.43524980      83.65554623
H      85.94000725      84.16279443      86.82650698
N      90.87219294      85.52528709      83.94656408
H      90.58117508      84.53884996      82.34029672
H      92.51058565      86.43424545      84.31506071
C      87.67477602      83.75650326      98.56926629
O      85.68489421      82.55085787      98.77335673
N      88.68388986      84.87522124     100.64796524
H      90.38086410      85.71992891     100.43820562
C      87.92044044      84.74294040     103.34082523
H      86.52204297      83.26895387     103.67341706
C      90.31661340      84.29885472     105.00000494
H      89.66843728      84.61821846     106.92941550
H      91.71312115      85.65000903     104.31214456
C      91.70745197      81.81764408     104.69575900
H      92.91498707      81.79118791     106.36438733
C      90.23157572      79.32131562     104.52946308
H      89.01270224      79.20037312     106.18486333
H      91.47501562      77.68103317     104.48599938
H      89.32450709      79.43658892     102.68509020
C      93.44600018      81.64378924     102.39596208
H      95.01447302      82.97604630     102.29391686
H      92.42743769      81.45103717     100.61772962
H      94.54960034      79.91279995     102.57170662
C      86.71668478      87.23170995     104.13828974
O      85.19356536      87.00683252     105.84849205
N      87.37808899      89.38032877     103.11783753
H      88.59507273      89.23670957     101.65518936
C      86.02315522      91.77272229     103.22555193
H      85.33718457      92.02972506     105.15118304
C      87.69934246      93.90244384     102.49800730
H      87.94689661      94.04417331     100.45710288
H      89.57962013      93.66811777     103.30869989
C      86.85085534      96.53294286     103.40318620
H      86.69400805      96.47814080     105.45542898
H      85.08018179      96.94490321     102.43564633
C      88.71979467      98.68723087     102.97610805
H      87.84296166     100.54483183     103.12350671
H      89.34151462      98.15243831     101.08449202
C      90.81361142      98.51148631     104.66363365
H      91.92477049      96.82018127     104.27623976
H      90.41487917      98.54361167     106.68564081
N      92.47090139     100.61853115     104.13640001
H      94.10551466     100.30294686     105.06803508
H      91.97579311     102.33251293     104.81292203
H      93.01703230     100.61664143     102.30903467
C      83.87264667      91.72358940     101.29425164
O      84.15232617      90.57085636      99.34216435
N      81.79772718      92.96324986     101.89140515
H      81.66166689      93.49804242     103.71877050
C      79.81918373      93.54528557     100.00923774
H      78.95368907      91.86720861      99.18531707
C      77.64977793      95.17422965     101.01835159
H      78.56062601      96.69356960     102.07470860
C      75.94902424      96.24759419      98.82059989
H      74.32008015      97.33418683      99.45365821
H      75.27817140      94.57329669      97.82471413
H      77.12065456      97.24914915      97.45810722
C      75.89044272      93.71347121     102.80981214
H      77.07908058      93.20702456     104.41607951
H      75.39344471      91.96547437     101.83849281
C      73.62466088      95.00226455     104.10994384
H      72.78373267      93.75126574     105.51212077
H      72.20925587      95.30840021     102.64540595
H      74.04418012      96.84285798     104.93008506
C      81.19490449      94.69423916      97.68676410
O      82.87109172      96.34208051      97.97778196
N      80.33696873      94.04039386      95.42665143
H      79.01793978      92.66845256      95.31515758
C      81.34608259      95.12131731      92.98134559
H      82.10008339      96.99970527      93.36684975
C      83.50792949      93.36576156      92.10262285
H      85.05750507      93.47914515      93.45188744
H      84.39043168      94.05362195      90.37352327
C      82.65566293      90.75038036      91.57727893
C      81.75804292      90.21180836      89.19055460
H      81.68623333      91.74437640      87.84317974
C      80.90010718      87.70225181      88.44978189
H      80.22169544      87.45469766      86.53926858
C      80.96624761      85.75205426      90.26013969
O      80.33507902      83.30107922      89.70078071
H      80.34452764      83.01006137      87.90932016
C      81.68434360      86.33597968      92.80371131
H      81.44623809      84.83364726      94.16809371
C      82.43267522      88.82852870      93.41598264
H      83.15077122      89.18946641      95.29437059
C      79.20880213      95.53138793      91.11429599
O      77.10175729      94.68668026      91.46389536
N      79.71902824      96.81073263      88.99213334
H      81.55395249      97.30395121      88.81449907
C      77.78016904      97.88787663      87.28382075
H      75.88099410      97.46079848      87.95845305
C      78.17701157     100.68467157      87.44444749
H      80.15366529     100.90576955      86.90965494
H      78.41133763     101.37820113      89.36818887
C      76.26271881     102.30983620      85.95723288
H      74.38244112     102.06984096      86.76792547
H      76.34019758     101.90543478      83.94089490
C      77.23781759     105.08395443      86.10274181
H      76.48003734     106.30282791      84.62497583
H      79.25037611     105.22946337      85.69456092
C      76.63688461     106.46723409      88.67654904
H      77.75938205     105.58662164      90.16187393
H      74.75282749     105.86063196      89.24157721
N      76.59909010     109.18466053      88.27025789
H      76.64066408     110.20700247      89.88219443
H      75.08163986     109.64953320      87.20823170
H      78.02016427     109.52859073      87.04571524
C      78.05606908      96.71246686      84.60229911
O      80.14799611      96.60664219      83.54594210
N      75.90933999      95.67311739      83.65932568
H      74.31819044      95.72791946      84.71190324
C      75.75438243      94.79061520      81.01748830
H      77.37009843      93.60953627      80.52804918
C      73.32419440      93.17489921      80.68678619
H      71.78595718      94.54306107      80.56017453
H      72.95191831      92.15633673      82.43856248
C      73.12199367      91.64989008      78.32840775
O      71.93902501      92.51538473      76.36876157
O      74.24638084      89.51827880      78.50604203
C      75.73737490      96.82396072      78.97280443
O      74.70936377      98.96502064      79.35263942
N      76.50649351      96.17011541      76.66544860
H      77.22836896      94.40700076      76.56151365
C      76.19657839      97.82740539      74.43935100
H      77.47403338      99.40343714      74.79272982
C      77.43812858      96.69167987      72.15089244
H      76.71436340      94.77171794      71.96947871
C      77.11309565      97.74614716      69.54495985
H      75.20069262      97.47402657      68.82686385
H      78.47936778      96.78427646      68.34120419
H      77.48915119      99.76626459      69.42212764
O      80.08752487      96.35341886      72.61765484
H      80.23870297      95.68634549      74.29573180
C      73.59253553      98.82707061      73.79684406
O      73.25805397     100.79805516      72.51183016
N      71.64611742      97.54961563      74.53383732
H      71.90500993      95.80728797      75.26705113
C      69.06853073      98.29983697      74.08975163
H      68.80963823      99.49036454      72.42679248
C      67.46793254      95.78083179      73.82896940
H      65.49316855      96.32318324      73.63054814
H      67.67202298      94.65077546      75.53917172
C      68.11799840      94.11220346      71.55751837
H      67.17124551      92.29806620      71.78806498
H      70.15134391      93.80606780      71.64444579
C      67.41879966      95.35942282      68.97804196
O      68.74160808      96.95624156      67.93680276
O      65.35521852      94.84163781      67.87444179
C      68.07831415     100.04783382      76.14010468
O      66.02418164     101.13442645      75.98136767
N      69.44836573     100.25570371      78.30384131
H      71.05841255      99.22958232      78.29250295
C      68.96459579     101.86008134      80.33718682
H      67.63611819     103.35863432      79.85341689
H      70.74849743     102.76526024      80.82473621
C      67.86099562     100.56750854      82.75414678
O      67.08809756     101.81094846      84.46245937
N      67.70603807      98.01637802      82.87697899
H      68.19925663      96.92978539      81.38976438
C      66.79896944      96.67278262      85.21268071
H      65.56497814      97.88598690      86.32761924
C      65.23805549      94.42967748      84.34718606
H      63.90957789      94.05740139      85.87597465
H      66.23394126      92.63821694      84.13742644
C      63.55808880      94.67723163      82.00203571
C      63.04408324      92.52294364      80.54127727
H      63.58454498      90.73148308      81.35008013
C      61.31498368      92.76482860      78.52304956
H      61.09199596      91.11320781      77.34575007
C      60.24350886      95.18745773      77.93912413
O      58.59944696      95.27249541      75.89444026
H      58.17047908      96.99592581      75.52594363
C      60.86522881      97.30017175      79.40555175
H      59.95627045      99.06895558      78.94823798
C      62.32031808      97.01104362      81.45968425
H      62.47527562      98.70801785      82.58407141
C      68.89467592      95.87342838      87.02303852
O      70.90345499      95.21391390      86.03471166
N      68.60554778      95.78272152      89.56283068
H      66.80085915      95.97547361      90.15431502
C      70.50472274      95.14021458      91.48657207
H      72.32830863      95.52571874      90.61351851
C      70.17591035      96.61042165      94.00557725
H      71.41935027      95.73925782      95.40019527
H      68.39767790      96.01137841      94.85973354
C      70.84676320      99.36375288      93.90353203
C      68.93436017     101.21568467      94.00746697
H      66.98038315     100.67711268      94.24557249
C      69.54663149     103.69311586      93.55960184
H      67.98571756     105.00458593      93.46511552
C      72.04673941     104.41877077      93.31771687
O      72.84609364     106.79037729      93.25346617
H      71.39478383     107.86374184      93.45188744
C      73.85142803     102.56872871      93.37818811
H      75.82997149     103.06383700      93.39141620
C      73.37521701     100.07617971      93.70889022
H      75.02116862      98.87242405      93.81093544
C      70.56519397      92.34152991      91.93065776
O      68.65279095      91.13399479      92.09695367
N      72.83475528      91.27194481      92.29726466
H      74.31063153      92.45302376      92.54292908
C      73.48860058      88.58286427      92.35395645
H      71.84264897      87.52272781      92.99268394
C      74.46747882      87.66823673      89.75369304
H      76.16445304      88.74538073      89.30582791
C      74.74148913      84.83742671      89.48724163
H      76.00760576      83.88878410      90.80627060
H      75.76194134      84.41790747      87.74680370
H      72.94624913      83.82831287      89.48724163
O      72.76861486      88.49026768      87.87719481
H      73.10498614      90.26850015      87.74869342
C      75.49548993      88.15200667      94.37407388
O      76.79751135      89.86220898      95.22256099
N      75.55407145      85.86543783      95.28681169
H      74.31063153      84.59932120      94.58383350
C      77.18490525      84.87711097      97.35039282
H      78.89132810      86.02795430      97.42220242
C      75.82241258      84.87711097      99.97522267
H      75.16289810      86.82730852     100.08482680
C      73.41112181      83.28218196     100.25868162
H      72.05618804      83.54296419      98.72989303
H      72.53806825      83.44658816     102.11817231
H      73.89489174      81.28285152     100.13584941
C      77.34742172      84.35176705     102.38462372
H      77.95024441      82.38645169     102.47533058
H      76.15122496      84.72971232     104.01923698
C      79.52060698      86.20558856     102.87595256
H      80.63176605      85.66512685     104.52568363
H      78.72881165      88.06696899     103.26145673
H      80.67522975      86.26228036     101.17330915
C      78.15055539      82.11811056      96.90252768
O      76.90333603      80.52507128      95.81404533
N      80.45791123      81.60599473      97.97022305
H      81.60497510      83.04029699      98.49745669
C      81.37064903      78.97360597      97.93620798
H      79.86453716      77.71315852      98.55225876
H      82.97880613      78.79219224      99.20799379
C      82.08685531      78.01551473      95.29248087
O      83.80650625      79.03785666      94.14352727
N      80.62420714      76.02941237      94.48367800
H      79.29572954      75.44170750      95.72333847
C      80.87176129      74.81998753      91.88719405
H      82.25315122      75.81398357      90.73068155
C      81.67678470      71.97216997      92.07805641
H      80.09319405      71.09722670      93.05882436
C      82.28149712      70.86668008      89.39086559
H      82.79550268      68.88246745      89.59684576
H      83.81406516      72.05720766      88.69922576
H      80.62231741      71.04431435      88.18333048
C      84.02571451      71.71327747      93.81849434
H      83.47391442      72.25184948      95.73089737
H      85.46757568      72.95104820      93.02291956
C      85.02726945      69.08088872      94.22100605
H      85.42411198      67.98862691      92.52214209
H      83.72146857      68.00941391      95.39830554
H      86.68077998      69.28119970      95.43232061
C      78.40755818      75.35666980      90.52470138
O      76.74081957      73.69560037      90.42076643
N      78.13354786      77.56575987      89.37007860
H      79.60375493      78.77329497      89.54015397
C      75.97548040      78.17992091      87.65042766
H      75.99059822      76.94592963      86.00258631
H      76.15122496      80.07720613      86.86619124
C      73.41679099      78.11944967      89.00536142
O      71.54407221      77.80575511      87.52948517
N      73.22214917      78.69392647      91.46200563
H      74.85865216      78.72416209      92.44844276
C      70.74471798      78.82242786      92.73190171
H      69.39734311      77.55820096      91.81916390
C      71.06030227      77.98716883      95.49657131
H      72.12799763      79.38556630      96.56237695
H      71.93146610      76.12200896      95.41531308
C      68.61310669      77.59221603      96.90063796
N      67.18636333      75.43036913      96.89874823
H      67.51706544      74.01874358      95.65719804
C      65.18136370      75.97083086      98.22344638
H      63.59021415      74.74250876      98.57115602
N      65.32498290      78.34621683      99.25901640
H      63.95871079      79.10966627     100.35127821
C      67.50383735      79.32887451      98.45966217
H      68.21815390      81.15435014      99.03035951
C      69.59387464      81.35655085      92.61095923
O      70.73526935      83.10265796      93.62196281
N      67.44336610      81.69859132      91.49791043
H      66.42102417      80.13011848      91.12374462
C      66.03740973      84.16846360      91.33350424
H      67.48682980      85.51772820      90.77036580
C      64.04941765      83.85476904      89.32094572
H      62.82676473      82.31653182      89.93510677
H      65.12278219      83.31808677      87.64475848
C      62.32598725      86.14511733      88.52348121
H      61.17136448      86.76305783      90.11463077
C      63.90579845      88.42034780      87.68633246
H      62.76818320      90.06629942      87.19878307
H      65.04530342      87.87421690      86.05927810
H      65.13412055      88.97970679      89.24535666
C      60.46649656      85.41568297      86.42966446
H      59.18526212      87.01439143      86.21234593
H      59.43092653      83.75461354      87.07217140
H      61.57387617      84.92624385      84.76292585
C      64.87900749      85.13978292      93.84117106
O      63.49005865      83.73571628      94.97878630
N      65.42702813      87.39989560      94.72367325
H      66.92558109      88.34853820      94.01313615
C      64.26673618      88.35042793      97.11417703
H      63.49194839      86.77250646      98.18754158
C      66.23961044      89.93968777      98.47477998
H      65.18892261      91.10942835      99.80703703
H      67.18447360      91.06785437      97.03291880
C      68.23705116      88.50349576      99.94309732
H      69.13278143      87.15423117      98.66942179
C      70.32708846      90.27416933     100.81615088
H      69.54852122      91.70847159     102.07092915
H      71.27762080      91.22659138      99.25334722
H      71.87666404      89.26127601     101.72132978
C      67.26951129      87.15990035     102.37517509
H      68.93247043      86.15456595     103.06114574
H      65.94103369      85.68402410     101.82715446
H      66.34732485      88.38444300     103.75278557
C      62.09544064      90.08708642      96.46033173
O      59.91469647      89.58819866      97.17086882
N      62.55653385      92.10720385      95.02602946
H      64.21193410      92.50404638      94.16053480
C      60.50618080      93.74748628      94.16809371
H      58.91881070      92.53050253      93.67487514
C      59.44604435      95.42745297      96.41308857