 %block lattice_cart
   139.252   0.000   0.000
   0.000 142.425   0.000
   0.000   0.000   162.84
 %endblock lattice_cart

 %block positions_abs
N      90.89014533      40.09815626      82.57273306
H      92.76286411      39.77501306      82.75036732
H      90.25141785      38.97376910      81.16677667
H      89.95284109      39.57848152      84.15065452
C      90.22496168      42.63038952      81.91510829
H      90.92038097      43.84548354      83.42877907
C      91.28698787      43.37683141      79.38854421
H      90.71062133      42.02378737      77.94479331
H      93.33545118      43.39005950      79.59263465
C      90.60668639      46.00166126      78.58541053
H      88.57901005      46.26433322      78.33029749
H      91.31344404      46.54590244      76.72780957
S      91.69705848      48.36192942      80.78883142
C      90.78054121      51.31179220      79.08240856
H      91.52887284      52.94451573      80.08963268
H      88.73018817      51.29289494      79.26004282
H      91.34367966      51.39682988      77.10197537
C      87.37714413      42.81558270      82.08329394
O      86.02976926      40.95987146      81.53149385
N      86.44550906      44.98876796      83.13587150
H      87.69083869      46.41173187      83.40988181
C      83.84902510      45.31380088      84.02026340
H      82.60747491      44.33303293      82.70123444
C      83.53344080      44.22909798      86.66776997
H      83.92650387      42.22031891      86.44100282
H      81.64749395      44.43696787      87.46712421
C      85.51387397      45.30246252      88.38742091
O      85.22096640      47.35848475      89.51936698
N      87.60769074      44.07603015      88.72379220
H      88.92860943      44.75255217      89.92754786
H      87.88925995      42.28834905      88.11719005
C      82.95896400      48.09925747      83.83318051
O      84.33657448      49.80945978      83.08106944
N      80.59491639      48.70019043      84.59096075
H      79.55556691      47.16006349      85.02937726
C      79.48375732      51.24376205      84.26781755
H      79.97319642      51.87115119      82.36864261
C      76.56601989      50.96030310      84.27726619
H      76.15216983      49.50899330      82.87319953
C      75.56824440      50.02677831      86.82083780
H      76.47342330      48.25043557      87.33295363
H      73.51789134      49.82646732      86.86808097
H      76.14083147      51.38549153      88.25891952
C      75.26588818      53.45852129      83.79349625
H      75.60603891      54.64148996      85.44511705
H      73.21742486      53.23364386      83.77837845
C      76.02744789      54.74542491      81.36141849
H      74.77266961      56.32901556      80.96646569
H      75.89138759      53.65883228      79.61720110
H      77.87937967      55.56934558      81.73936374
C      80.43428965      53.27899729      86.18777950
O      80.57979857      55.55044832      85.58306708
N      81.14671646      52.40594373      88.43088463
H      81.04467125      50.51999687      88.70678467
C      82.10669744      53.88748916      90.53603974
H      81.17317264      55.71485451      90.72123292
C      81.84591520      52.48909169      93.07205244
H      82.40527420      53.73442133      94.61784857
H      83.17250307      50.91494967      93.06827300
C      79.30423332      51.69918609      93.91298065
C      77.33702822      53.43017540      94.64619446
H      77.68473787      55.39360104      95.06382398
C      75.04290047      52.44373826      95.30192949
H      73.55946533      53.66450146      95.98223097
C      74.29456885      49.90205637      94.90697669
H      72.36704801      49.29167477      95.18854591
C      76.14839038      48.26933284      94.10384301
H      75.71375332      46.30401747      93.74668474
C      78.67495446      49.18207064      93.59550663
H      79.96941698      47.75910673      92.91520517
C      84.83546223      54.52432693      89.93699650
O      85.51387397      56.81467522      90.15431503
N      86.36047136      52.64404925      89.09417855
H      85.71985414      50.86014761      89.32283544
C      88.86057928      53.36025552      87.96790167
H      90.03031986      54.30322895      89.37574779
C      90.29299183      50.86014761      87.10240702
H      89.43694581      50.22708930      85.33929237
H      90.04165823      49.41450698      88.55371684
C      93.21639844      51.14360656      86.64131380
H      93.81733139      52.39649510      85.11630467
H      93.60757177      49.24443161      85.94589452
C      94.69227469      51.51966209      89.26047447
O      93.53387245      52.10736698      91.17665695
O      97.07899902      51.20407780      89.43999847
C      88.68672446      55.10069346      85.53582391
O      90.16826989      56.85813893      85.38842526
N      86.84991048      54.61125434      83.94656408
H      86.11102750      52.86703695      84.18277987
C      86.22630080      56.28744158      81.84896787
H      87.81745036      56.27232377      80.54127726
C      83.85280454      55.50698461      80.29183339
H      82.04811593      56.21752171      80.98914240
H      83.83957647      53.45474184      80.10664021
C      83.95296004      56.24964706      77.46669255
H      85.82378909      55.73186205      76.78072190
H      84.01343128      58.28866175      77.17756443
S      81.36970417      54.84935986      75.55806897
C      82.65282835      55.54099969      72.27372465
H      84.68806358      55.22541539      72.33419588
H      82.30322897      57.50631505      71.76916773
H      81.53600008      54.50731939      70.88477581
C      85.96362885      58.96896322      82.76926459
O      87.36580577      60.52609770      81.82629117
N      84.12492513      59.49430713      84.46056964
H      83.21218733      57.92205484      85.04449508
C      83.44462366      61.99252532      85.40543279
H      83.24431268      63.13769947      83.70278939
C      80.82546299      62.02087121      86.84729397
H      80.36814922      63.68572010      87.96979140
H      80.87270616      60.59412785      88.33072912
C      78.72975652      61.45962250      84.92922176
H      79.30612305      59.83634760      83.80105516
C      76.40161369      60.63570183      86.32006033
H      76.51310754      58.73463716      87.10051730
H      74.78967716      60.70184225      85.03882590
H      75.93863076      61.94339244      87.84317975
C      78.10992629      63.60824132      83.18500437
H      76.76633087      62.86179942      81.81495281
H      79.79556215      63.97673795      82.06439667
H      77.26143916      65.21450868      84.15821343
C      85.40615958      63.33234128      86.85296315
O      85.82378909      65.57355668      86.53170968
N      87.03888312      61.90748764      88.06616744
H      86.64770977      60.04610722      88.20411746
C      89.34245949      62.75597475      89.45133683
H      88.77365187      64.21295374      90.79304251
C      90.47251583      60.50342099      91.19933367
H      92.45294901      60.84546145      91.65097826
H      90.30621991      58.77432141      90.09762324
C      89.14970741      60.26342574      93.79203818
H      87.14470778      59.81367088      93.63519089
H      89.23852455      62.07945273      94.75768831
C      90.54432542      58.39448642      95.64396996
H      89.61835953      58.43983985      97.48645312
H      92.52475859      58.94817623      95.72522819
N      90.54810488      55.72241341      94.45722183
H      91.82555987      55.25376129      93.11740588
C      89.06655944      53.87237135      95.17720757
N      87.24864274      54.19929401      96.67953998
H      86.42283233      52.65916706      97.44298941
H      86.73652691      55.96618811      97.18976609
N      89.44261499      51.53855936      94.50068554
H      88.20295452      50.24031738      95.15075140
H      90.96573439      50.97542092      93.49346141
C      91.56288790      63.67816119      87.82617220
O      93.03498470      65.13702991      89.00914087
N      91.87280302      62.76542338      85.54527255
H      90.40826512      61.64481568      85.05016425
C      93.81922112      63.29265702      83.69712021
H      95.31399464      64.29799142      84.69678543
C      94.97006445      60.82089501      82.70312416
H      93.42048888      60.02532023      81.60519319
C      97.10545518      61.68449993      80.87386910
H      96.36468247      62.10212945      78.99737086
H      98.50763210      60.21240313      80.53749781
H      98.12590739      63.33423100      81.56361920
C      96.06421599      58.93116869      84.83473546
H      94.66581851      58.40771450      86.25391991
H      97.55143059      60.00075379      85.77581915
C      97.32655317      56.49720120      84.09774219
H      96.14547422      55.32557089      82.88642762
H      97.64402718      55.59391202      85.92132808
H      99.06888083      56.77877042      83.03193654
C      92.80254837      65.06333058      81.56928838
O      94.04220883      66.95305689      80.94945816
N      90.61235557      64.44539007      80.47891629
H      89.78276571      62.79943846      80.97591431
C      89.21395809      65.76819849      78.56462355
H      90.57456104      66.14992321      77.06607057
C      87.26942972      63.96728932      77.45724393
H      85.73119250      63.87847218      78.81973659
H      88.14815246      62.12102671      77.20402060
C      86.08646106      64.68916477      74.94957711
O      83.83768674      65.27875938      75.03839424
O      87.48107907      64.70428258      73.04095353
C      88.15760110      68.36279272      79.34508051
O      88.17460863      69.97283954      77.73125423
N      87.50753524      68.95805651      81.60141373
H      87.63414690      67.68627070      83.02059818
C      86.95573515      71.57154800      82.48769536
H      87.11825162      72.86034135      80.88898690
C      84.16460939      71.88713230      83.36641810
H      83.86225319      70.41314577      84.77426420
H      82.95896400      71.26730206      81.81684252
C      83.45596203      74.40424774      84.52859978
H      85.09813419      75.16202800      85.51692664
H      81.95362961      74.09433263      85.90432055
C      82.78699891      76.20893637      82.41777550
O      84.35358202      76.56987410      80.73780881
O      80.52688624      76.96293717      82.40265768
C      89.10246425      72.41058648      84.24136139
O      90.34590417      74.34188678      83.71790719
N      89.56166774      70.92526160      86.25580963
H      88.48263402      69.35300931      86.38053157
C      91.31344404      71.31076577      88.40253872
H      92.90270387      72.30287208      87.54460298
H      91.74619136      69.39458329      89.01858950
C      90.14181371      72.80742901      90.71367401
O      88.03287916      73.82410177      90.47367877
N      91.37958445      72.79231120      92.81882912
H      92.92538058      71.67548295      92.89630791
C      90.65959872      74.05653810      95.24523770
H      88.62058404      73.81087368      95.41153363
C      91.86902357      72.48995499      97.45810722
H      93.87969236      72.18003987      97.14252292
H      91.34178993      70.57188278      96.92142494
C      91.42682762      73.14569002     100.28702751
H      92.36980105      74.97305536     100.39096245
C      88.66971693      73.77496888     100.78780498
H      88.48452375      74.87289987     102.51690457
H      87.67383116      71.97216998     100.79158444
H      88.09335040      75.00707044      99.24200887
C      92.56255312      71.40903154     102.15785657
H      92.45672846      72.22539331     104.04758288
H      94.54487603      70.92526160     101.87061816
H      91.50052693      69.64591689     102.19943054
C      91.35123855      76.93459128      95.34917266
O      93.40348133      77.65268728      94.78792395
N      89.68827941      78.46149014      96.33560979
H      87.91760584      77.81331401      96.64174545
C      90.07945276      81.01451039      97.18220718
H      92.10145990      81.35277140      97.39385653
C      88.97963203      82.83053737      95.01091164
H      88.38814770      84.58042394      95.92175973
H      87.39226194      81.94803519      94.04148204
C      90.97707275      83.37666828      92.97000723
H      91.44950433      81.53229540      92.18955026
H      92.48885381      84.35176706      93.97345191
C      89.93772327      85.04907607      90.85918293
H      91.50241666      85.77095152      89.72912661
H      89.11380261      86.72526330      91.72845704
N      88.45050867      83.30485868      89.30960735
H      88.10657849      81.48316251      89.75180332
C      87.24675301      83.98327042      87.28382075
N      87.30533453      86.29440571      86.51659186
H      86.16960900      86.83864688      85.08039987
H      88.36358125      87.59264768      87.43121940
N      85.94662131      82.44125375      85.88920273
H      85.24364311      83.03651754      84.21679495
H      85.89937815      80.62522677      86.47879735
C      89.09112588      81.44536799      99.93742814
O      86.81778513      81.61733308     100.26435079
N      90.73518779      81.64189952     101.85739007
H      92.56633258      81.11277616     101.73266814
C      90.05299659      82.00283725     104.52379390
H      88.40515523      80.81230967     104.84693710
C      92.34712432      81.24505700     106.19242223
H      91.98996605      81.79685708     108.14261980
H      93.97417868      82.22960441     105.39873719
C      92.73451823      78.28196614     105.98077290
H      92.91971140      77.96449212     103.95498629
C      95.33478163      77.80386538     107.08059361
H      95.78075704      75.81020412     106.81981138
H      95.26297202      78.20070791     109.09882131
H      96.78798117      78.98305460     106.22076814
C      90.64070147      76.72294193     107.44531079
H      90.76353368      77.17458652     109.45220013
H      91.32667211      74.78219301     107.42452379
H      88.85491011      76.85900222     106.42674831
C      89.11569234      84.63333628     105.26078716
O      88.30688946      84.86577261     107.41696489
N      89.63725679      86.55329821     103.76412392
H      90.66526791      86.24905227     102.18431273
C      88.71129090      89.07419311     103.99845000
H      88.01020243      89.36332124     105.91463247
C      90.87124807      91.06974410     103.56570267
H      91.61391052      90.66534267     101.68542498
H      92.31688870      90.66534267     104.97732822
C      90.29677127      93.86653904     103.48633415
H      89.70906640      94.64321656     105.30425087
H      88.83223338      94.00448906     102.04258325
C      92.21295376      95.73547837     102.57170663
H      91.20761936      97.51182110     102.28257849
H      92.94616756      95.26304679     100.70465703
C      94.23118147      95.81106742     104.49922747
H      95.37635561      94.11031374     104.32159319
H      93.65481494      96.06240102     106.46076337
N      95.79587485      98.10708489     103.96065547
H      94.85479115      99.62264539     104.63717748
H      96.02453173      98.31117533     102.07470860
H      97.53064360      98.08062872     104.75623024
C      86.46440632      89.48615345     102.14273875
O      86.41149397      88.21625737     100.12451104
N      84.60302590      90.86943311     103.09138137
H      84.70885057      91.57808048     104.86205492
C      82.24653718      91.56296267     101.70432225
H      81.01443563      89.94724667     101.36606124
C      80.73475613      93.45268898     103.28602317
H      82.09346935      94.67534190     104.23277606
C      79.04534080      95.27816460     101.69109416
H      80.15649989      96.71057714     100.71221594
H      77.94363037      96.38176476     103.03279984
H      77.86048242      93.97425344     100.62339879
C      79.16628329      92.00326890     105.41385499
H      80.33791360      90.95636052     106.74611205
H      77.95874817      90.71258583     104.35560827
C      77.57513373      93.79472944     107.05035798
H      76.97042131      93.10119988     108.89662060
H      75.92918212      94.55439942     106.07336949
H      78.71463870      95.45012969     107.49822312
C      83.03644279      92.87632245      99.25334721
O      84.56901083      94.57896586      99.17019926
N      82.03677756      91.84831134      97.20866334
H      80.72530751      90.47259058      97.38440789
C      82.41094338      92.76482860      94.55926705
H      83.40304968      94.56762750      94.64619446
C      84.15516075      90.89399955      93.18543603
H      85.73875141      90.72581391      94.49312663
H      84.65026905      91.69146406      91.35240151
C      83.17817226      88.27861833      92.57505443
C      82.41661256      87.77028196      90.07872597
H      82.42417146      89.25371711      88.67843878
C      81.65694258      85.33820419      89.40031423
H      81.16561373      84.93569249      87.45956530
C      81.58891243      83.39556554      91.29759945
O      80.90105205      80.95592887      90.72501236
H      80.01666013      81.00695148      89.14142171
C      82.28433170      83.93980672      93.83550187
H      81.99709332      82.48471746      95.23767881
C      83.05722977      86.37566394      94.52525198
H      83.64115521      86.58353383      96.46978035
C      79.90516629      93.37143075      93.25724562
O      77.82268789      92.84797656      94.13218892
N      80.16594851      94.67345218      91.07272201
H      81.88182000      95.02872072      90.31494175
C      78.03055778      95.39154818      89.51369780
H      76.18240545      94.94557277      90.30171368
C      77.73009129      98.30172670      89.31338682
H      79.16439356      99.02549188      88.02459346
H      77.88126940      99.17100080      91.17476724
C      75.02211349      99.17100080      88.48568669
H      73.58403177      98.39432329      89.73857523
H      74.67818331      98.72691512      86.50336378
C      74.77266961     102.06039233      88.48946614
H      75.07313609     102.72746572      90.41698698
H      72.86215632     102.37975608      87.79026740
C      76.73420553     103.48335625      86.89264740
H      76.27878148     103.04682947      84.93300122
H      78.60314485     102.63486913      87.06650222
N      76.95530351     106.12519363      87.23846733
H      77.69040705     106.55605123      88.94677990
H      75.46997862     107.15509447      86.62619600
H      78.41417223     106.83195128      86.23124320
C      78.35559070      94.02716578      86.99658236
O      80.49098143      93.78528081      86.24447127
N      76.15972873      93.05962591      86.19344866
H      74.61015316      93.41111500      87.24980568
C      75.79501156      91.64989008      83.85207777
H      77.43718372      90.59164334      83.19634274
C      73.74087904      89.70347197      84.32639907
H      71.90595479      90.60487143      84.07317575
H      73.80135030      89.00805269      86.26336854
C      73.77111466      87.49249219      82.49147482
O      72.03445618      85.90134263      82.50848235
O      75.50210397      87.12210583      81.01748829
C      75.07880528      93.60575681      81.80361444
O      74.31157640      95.72980919      82.31762000
N      75.11282035      92.80451285      79.44523600
H      75.74965812      91.03383930      79.12587226
C      74.50054902      94.26716102      77.05851167
H      75.99910200      95.66555849      76.85442124
C      74.47220314      92.71380599      74.62832364
H      73.98654346      93.91756165      73.02772545
C      77.29923369      91.68768460      74.26549619
H      77.35403575      90.48581867      72.59686784
H      78.03811669      90.58597416      75.84341765
H      78.58802705      93.27127525      73.99904478
O      72.97931935      90.41778852      74.67367706
H      71.24266087      90.78061597      74.30140099
C      71.99288221      95.74492700      77.23614595
O      71.76611506      97.95401706      76.58608009
N      70.15417851      94.47125146      78.46824750
H      70.50755733      92.84419711      79.39988257
C      67.42541371      95.48603449      78.69312494
H      66.89251090      96.15310788      76.81851643
C      65.67741688      93.24292936      79.08240856
H      63.74233712      93.92701028      78.91611264
H      65.90607375      92.55695871      81.01181911
C      65.81914635      91.02817012      77.22291786
H      64.10705430      89.89055488      77.35708843
H      67.49911303      90.04740216      77.89755016
C      66.32748273      91.65744898      74.34675441
O      64.72688454      93.00482384      73.30173577
O      68.06225147      90.57274608      73.20158027
C      66.90762871      97.63654304      80.64332248
O      64.86861400      98.81951171      80.45434986
N      68.93719477      98.23180682      82.10219120
H      70.57180802      97.40221697      81.56928838
C      69.01467354      99.81728720      84.28104564
H      67.53123838     101.24592029      84.19222851
H      70.90628958     100.61475171      84.44167237
C      68.64995636      98.42077946      86.86619124
O      68.96743039      99.46768783      88.88819840
N      67.96965488      96.00381950      86.64320353
H      67.51801031      95.28005432      84.93489094
C      67.49911303      94.41644940      88.89008811
H      65.92686074      95.24792898      89.92943759
C      66.53535261      91.78028119      88.14742567
H      65.81725661      90.78439543      89.80282592
H      68.11516382      90.63510705      87.48791119
C      64.61539068      91.73114831      85.98179932
C      64.24122488      89.39166713      84.86497107
H      65.53190795      87.81563539      85.00481081
C      62.19843073      89.04395749      83.21146054
H      61.93764849      87.15801063      82.47068783
C      60.82270998      91.23226056      82.30628164
O      58.96132955      90.74282145      80.53749781
H      58.12418080      92.19980043      79.85152716
C      61.12128673      93.53772666      83.50247839
H      59.81737557      95.01360291      82.98091394
C      62.94865207      93.77394245      85.42055061
H      63.12817607      95.63532287      86.24069182
C      69.93119080      94.28038910      90.58328289
O      71.93241097      93.21836292      89.78581839
N      69.84048393      94.84730700      93.09661889
H      68.15295835      95.62020506      93.54637376
C      71.68296709      93.88543630      94.95799931
H      73.61237766      94.37298569      94.43832457
C      71.07258549      95.23092144      97.49212230
H      71.91351370      94.13110073      99.01902116
H      69.02790162      95.11753786      97.71322027
C      71.97776439      97.89543554      97.47322503
C      70.41307101     100.08751806      97.45243804
H      68.41374058      99.70579335      97.59983669
C      71.23699169     102.51959583      97.61684424
H      70.07292028     104.19389334      97.59227778
C      73.83347563     102.91265890      97.84739084
O      74.74999290     105.25780926      98.22155666
H      73.44041257     106.49369027      98.45210326
C      75.52478068     100.87364421      97.64141068
H      77.53544949     101.22324358      97.66975657
C      74.60070452      98.42077946      97.51668874
H      75.81768827      96.80128401      97.27291404
C      71.56580406      90.95258107      95.30948840
O      69.45309004      89.87543707      95.39830554
N      73.75221740      89.68835416      95.54192473
H      75.23943202      90.79762351      95.09028016
C      74.17929555      86.90100785      95.46066650
H      72.52200557      85.80307686      95.99545905
C      75.11848953      86.20558857      92.77914488
H      77.09703298      86.74038112      92.57694415
C      74.55535108      83.51839775      91.94010638
H      75.40761765      83.29352032      90.07872597
H      72.52011586      83.24060798      92.08750503
H      75.82146771      82.23527359      92.93788188
O      73.76355577      87.44524903      90.85351375
H      73.84859345      89.19513560      91.32783507
C      76.30523765      86.35676667      97.25212706
O      77.80379063      87.94602650      97.86061892
N      76.80979459      83.98138070      97.95888469
H      75.66651017      82.61888803      97.26346541
C      79.06990726      83.28029224      99.54436508
H      80.72530751      84.37066432      98.98122662
C      78.79778667      83.90768137     102.36005728
H      78.35559070      85.91835017     102.45832305
C      76.68318292      82.10866192     103.47877526
H      75.09770255      82.26928866     102.17486410
H      76.00855062      82.69636681     105.33259676
H      77.23876245      80.13578765     103.27657453
C      81.14860619      83.63367106     103.85861024
H      82.66227697      84.51806297     102.77201761
H      81.35836581      81.59654609     104.07403904
C      81.01254590      84.75616849     106.58548531
H      80.61570337      86.77817564     106.55713941
H      82.90038248      84.90923632     107.39617791
H      79.75965736      83.76406217     107.88372729
C      79.53666965      80.47971784      99.18153761
O      77.94929955      79.11722517      98.23478473
N      81.70607546      79.50083961      99.90908224
H      83.03833250      80.75750761     100.44198506
C      82.53566530      76.78719262      99.94498704
H      81.24309252      75.59477532     101.01268242
H      84.39704572      76.85333305     100.82937897
C      82.81912426      75.86878564      97.28047294
O      83.82445866      77.21238105      95.73467682
N      81.82701794      73.61056269      96.73812150
H      81.06734796      72.64491255      98.19699020
C      81.63048640      72.55987486      94.26258002
H      83.08935512      73.55765036      93.20622301
C      82.18795567      69.71583676      94.28714646
H      80.83302190      68.80309895      95.54570419
C      82.05378509      68.57822152      91.62452210
H      82.08213099      66.52030957      91.75113375
H      83.67894972      69.29253807      90.58139316
H      80.21697113      69.04498392      90.81949868
C      84.72585811      69.30765588      95.73278709
H      84.18539639      69.16592640      97.71699972
H      86.17149874      70.77219377      95.66664667
C      85.94473158      66.75652536      95.16208975
H      84.75231428      65.20883950      95.81404532
H      87.75697912      66.57133218      96.12018099
H      86.32834601      66.69605411      93.13819286
C      78.95841339      73.16458728      93.14575177
O      77.14616587      71.84366859      93.65408815
N      78.83936064      75.18848416      91.71144951
H      80.42673075      76.25051035      91.75113375
C      76.55846098      76.18248020      90.25636024
H      76.43184931      75.47383284      88.32883940
H      76.97798022      78.17614146      89.94833485
C      74.02055855      76.00862538      91.66231661
O      72.00422056      75.46249448      90.68343839
N      73.88260852      76.57743300      94.14730672
H      75.48131699      77.25584475      94.94099178
C      71.54690679      76.92892210      95.73278709
H      69.95008807      76.02374319      94.79548284
C      71.95886714      75.77240959      98.29336625
H      73.23254268      76.95537827      99.39696641
H      72.81680289      73.90347027      98.18943130
C      69.38128045      75.64390821      99.69554317
N      68.04902340      73.35733937     100.17364394
H      68.51200635      71.58099663      99.64452056
C      66.12906145      73.97339014     101.79124966
H      64.70042836      72.66569954     102.43564632
N      66.36527725      76.32420968     102.46210249
H      65.00278457      77.32954408     103.34460468
C      68.43830702      77.33710298     101.35283315
H      69.14506465      79.25139574     101.30747972
C      70.70597860      79.65768689      96.06537893
O      72.09114797      81.23371864      97.13307430
N      68.43452756      80.35121645      95.14697195
H      67.19864656      79.00573132      94.59706158
C      67.53123838      83.02706891      95.05626507
H      69.02790162      84.32720061      94.48934718
C      65.59237918      83.10643742      92.99646339
H      64.04658306      81.74772420      93.04370655
H      66.54102180      82.93069287      91.17854669
C      64.23744543      85.67079602      92.56371608
H      65.54513603      87.24115859      92.79804214
C      63.19242677      85.72559809      89.85195882
H      62.20221018      87.42257231      89.23401830
H      61.73922724      84.26861910      89.73290606
H      64.66641329      85.47426449      88.43655381
C      62.02646564      86.12622006      94.21344715
H      62.23244580      85.42324188      96.14096799
H      60.39185237      85.40812406      93.18543603
H      61.80725738      88.17468339      94.22100604
C      66.52401425      83.81319506      97.73778671
O      65.37506067      82.24661194      99.06248487
N      67.07770407      86.22826528      98.34816831
H      68.03012614      87.26950448      97.06126469
C      65.96276554      87.32997572     100.59883235
H      65.33537641      85.72559809     101.72699896
C      68.07925902      88.57908482     101.97455310
H      67.27612534      89.59575757     103.57515129
H      68.91640777      90.06251997     100.81804060
C      70.34693060      86.98982499     103.02713067
H      71.20108688      85.76906179     101.60416675
C      72.56546929      88.58475400     103.98900135
H      71.82469656      89.85465008     105.43086254
H      73.24577075      89.68835416     102.39029290
H      74.05268390      87.45658739     104.85827546
C      69.60804760      85.08498087     104.98110768
H      68.82570091      86.12055088     106.57981614
H      71.15006428      84.01350605     105.82392560
H      68.24933438      83.63367106     104.43119731
C      63.82926454      89.03072941     100.12262132
O      61.68631490      88.41845808     100.96732898
N      64.03902415      91.20202494      98.73178275
H      65.56970247      91.62154418      97.67164630
C      61.91497178      92.92734506      98.15541624
H      60.11028315      91.95035656      98.02502511
C      61.40285595      94.97580839     100.20387956