 %block lattice_cart
   139.252   0.000   0.000
   0.000 142.425   0.000
   0.000   0.000   162.84
 %endblock lattice_cart

 %block positions_abs
N      91.13864435      41.12333279      81.21496469
H      90.41109972      40.12177784      79.76365488
H      90.34117984      40.39956761      82.79288616
H      93.02081176      40.87955809      81.41716541
C      90.62085934      43.87477430      80.68962078
H      91.53359715      45.11065531      82.05967236
C      91.82461500      44.69113606      78.12337245
H      91.32572726      43.31919476      76.67017291
H      93.88063723      44.58531139      78.12904162
C      91.29927109      47.39344469      76.94985241
H      89.25836667      47.42368031      76.69284963
H      92.04004381      47.43123922      75.02989048
S      91.87563762      50.28661568      78.66572390
C      90.96101007      52.38043243      75.99176116
H      90.98746625      54.30228409      76.73442360
H      88.95601046      52.25193104      75.53444740
H      92.20822945      51.97603100      74.40061162
C      87.90910207      44.26783737      80.71418722
O      86.44078473      42.96203649      79.35358428
N      87.07951223      46.15378423      82.17116621
H      88.38342339      47.10620629      83.19350815
C      84.36019606      46.52228086      82.91004919
H      83.23580890      45.37899644      81.61747640
C      83.92933847      45.30907657      85.49519480
H      84.45279265      43.32108449      85.61991674
H      81.93945666      45.53395400      85.97518528
C      85.06884343      46.78873227      87.74963829
O      86.11764153      48.90711547      87.44539235
N      84.79105366      46.06118764      90.12313453
H      85.34096403      47.22336932      91.53476009
H      83.68934323      44.54940659      90.49163117
C      83.54761375      49.30962717      82.61147245
O      85.01215165      50.99526304      81.91227370
N      81.17033804      49.75560258      83.36169378
H      80.10642214      48.18712974      83.59035067
C      79.84186045      52.14988582      82.83634987
H      80.29161532      52.73948043      80.91449822
C      77.01482989      51.63588026      83.08957319
H      76.26082909      50.24504170      81.77054423
C      76.09453318      50.67023012      85.60290919
H      77.40033406      49.33608334      86.47596276
H      74.20291714      49.87465534      85.43283382
H      76.33452841      52.26326940      86.88603337
C      75.24415634      53.92055938      82.69273068
H      75.48037211      55.31328767      84.19128363
H      73.26183342      53.37631820      82.84390877
C      75.61454269      55.09974860      80.15293851
H      75.62399132      53.75615319      78.59202458
H      77.25860457      56.32996043      79.96963505
H      73.99126778      56.28271727      79.69562475
C      80.73570100      54.31740190      84.54844192
O      80.69979620      56.53027141      83.89270688
N      81.70702033      53.53127576      86.76131143
H      81.84308061      51.63965972      86.97485049
C      82.92022461      55.06951298      88.62269184
H      81.88465460      56.70412624      89.33322893
C      83.17155822      53.51048877      91.09256414
H      83.97847135      54.76526704      92.51174860
H      84.52838171      52.00248717      90.74107505
C      80.60530988      52.65255302      92.12057524
C      79.26927338      54.26259984      93.79109331
H      79.56029123      56.27515836      93.95172005
C      76.98837371      53.58796755      94.79831744
H      75.95469343      54.93345268      95.93404294
C      75.90556054      51.11431580      94.31265777
H      74.17646096      50.54928763      95.23673393
C      77.23403813      49.52694570      92.61757327
H      76.38366129      47.71091871      92.24151774
C      79.56973987      50.32441020      91.56310598
H      80.62231741      49.13577235      90.27998181
C      85.51859830      56.11453163      87.88002940
O      86.14787716      58.31417305      88.63780966
N      86.97935674      54.72558279      86.47218330
H      86.33684978      53.02671883      85.88258869
C      89.32639682      55.54005483      85.48574616
H      90.40354082      56.69278788      86.81044431
C      90.96667926      53.20435310      85.22307420
H      90.50936549      52.08563513      83.55444587
H      90.79093471      51.92878784      86.83123130
C      93.70300296      53.88087512      85.05299884
H      93.85418107      55.57218017      83.88703771
H      94.63652776      52.45980094      83.88892742
C      95.00502439      54.12464982      87.52476086
O      96.78514657      52.69034755      88.04632531
O      94.66298392      56.05595011      88.83245146
C      88.86908304      57.14632219      83.01965333
O      90.21078873      58.98880535      82.60580326
N      87.19100608      56.36586523      81.29433320
H      86.31228334      54.68022935      81.49275446
C      86.62030874      57.61119487      78.89816024
H      88.14531787      57.60363596      77.51110113
C      84.65499336      56.07484737      77.28244423
H      83.09785888      55.72713773      78.58446567
H      85.46568595      54.20023887      77.01221337
C      83.95012546      57.25214687      74.74454181
H      85.67544557      57.12175575      73.62960327
H      83.43423018      59.24391840      74.87115346
S      81.23458874      55.49470140      73.50488133
C      81.11175654      56.70412624      70.29045688
H      79.39210558      55.98036106      69.41551359
H      82.83140747      55.87453638      69.51566909
H      80.92467362      58.75636901      70.27155962
C      85.76615245      60.30783431      79.38570963
O      86.93211358      62.12386130      78.35013961
N      83.95768435      60.56105764      80.99575645
H      83.04683628      59.01715124      81.65905039
C      83.18478630      63.07628336      81.89715589
H      82.85030474      64.45767330      80.40427210
C      80.74514963      63.00258404      83.66593972
H      80.57696398      64.91876652      84.40104326
H      81.24025793      61.74969549      85.22307420
C      78.26771844      62.07661814      82.40549228
H      78.59464109      60.28893705      81.43606267
C      76.38177158      61.54371532      84.47096314
H      75.84886876      63.44289027      85.06811665
H      77.42679022      60.50814530      85.91093459
H      74.82652681      60.54971928      83.55444587
C      77.53450463      64.17988353      80.57812692
H      75.50304884      64.00980816      80.27577071
H      78.50204450      64.10996366      78.76209994
H      77.83875055      66.08472765      81.29811266
C      85.28994141      64.56916715      83.46562873
O      85.38442772      66.96345039      83.38437050
N      87.07573278      63.29549162      84.73552481
H      86.97368755      61.42844202      85.11535980
C      89.04293786      64.61641031      86.10557639
H      88.42121791      66.30015645      87.11657998
C      90.46590178      62.90809772      87.76475609
H      91.76414375      61.67032699      86.75186279
H      89.16010089      61.75158522      88.85323845
C      92.27436987      64.29137738      89.58267281
H      91.26336629      65.53859675      90.87335588
H      93.59717829      65.69544403      88.85890764
C      93.55560431      62.62274905      91.51775255
H      92.01736709      61.67032699      92.50041024
H      94.64408665      63.87752732      92.73662602
N      95.29793197      60.83506796      90.22895920
H      94.77825723      58.99825398      90.20439276
C      97.20088637      61.35474269      88.66048636
N      98.13819062      63.62430399      88.45639593
H      99.75012716      63.86996841      87.46239988
H      97.67331794      65.03215010      89.65259269
N      98.09094745      59.76359314      86.99563749
H      99.24934968      60.37397474      85.60857838
H      97.08372332      58.14220796      87.00508612
C      90.71156620      66.00346942      84.20640145
O      91.85296089      67.93099026      84.93772553
N      91.05738612      64.97545831      81.97274494
H      89.97835240      63.42777246      81.68172709
C      92.63341787      65.82583515      79.94317889
H      94.08283794      66.80660311      81.02977151
C      93.77670228      63.45422863      78.58635539
H      92.25358288      62.11063322      78.25943274
C      94.94266341      64.07216913      76.04089405
H      96.56404860      65.34017549      76.05223241
H      93.52725840      64.58806441      74.63493768
H      95.62107517      62.29015722      75.25665764
C      95.69477449      62.09740513      80.30033717
H      95.01447301      62.08039760      82.24486554
H      97.38796927      63.27092517      80.30789606
C      96.30326637      59.35352253      79.54822609
H      97.73756864      58.67700051      80.85969614
H      97.07805415      59.41210404      77.63960252
H      94.55904897      58.26126072      79.66916857
C      91.25391766      67.86673957      78.21029985
O      92.43121715      69.73756862      77.50543194
N      88.85585496      67.46800731      77.54889564
H      88.02626512      65.80504816      77.98731216
C      87.25714651      69.41064596      76.25443312
H      88.27570898      70.10795497      74.60470205
C      84.85908381      68.22200811      75.25476790
H      83.55517266      69.68465628      74.62359932
H      83.99358915      67.20722508      76.82513048
C      85.43734007      66.33606125      73.06457510
O      84.07295766      64.46523220      73.21575322
O      87.20234444      66.71589624      71.52066871
C      86.40676967      71.89563607      77.66038951
O      85.92677918      73.92898158      76.69095990
N      86.16866415      71.62351548      80.20963030
H      86.27448882      69.89630563      81.02032288
C      85.07829206      73.69654524      81.67416819
H      84.49247690      75.14218587      80.32679333
C      82.83707666      72.70065948      83.17272116
H      83.53249594      71.33627708      84.55033163
H      81.60497510      71.66131000      81.89337645
C      81.30639834      74.66408511      84.65804603
H      82.43645467      75.52957977      86.14526065
H      79.80595565      73.56615413      85.54432768
C      79.99492829      76.32515454      82.72674574
O      77.92000878      75.49934414      81.89337645
O      80.85664347      78.27724182      81.71385244
C      86.95101084      75.03258175      83.46373901
O      87.08518141      77.29269442      83.40137805
N      88.66310287      73.70221442      84.86780566
H      88.57617547      71.80870866      84.65993577
C      90.39220246      74.56770907      86.87091556
H      91.25391766      76.28547029      86.13014283
H      91.85296089      73.20332667      87.37169302
C      89.15632145      75.01179476      89.38236183
O      86.84140672      75.26501808      89.53731938
N      90.74747100      75.32548932      91.36657444
H      92.53326237      74.86061665      90.88469424
C      89.93299896      75.58816128      94.11612623
H      87.88264592      75.55225648      94.31643722
C      91.08762173      73.44521164      95.56365659
H      93.12096726      73.47166781      95.23673393
H      90.48290932      71.58383122      94.91925991
C      90.85329567      73.82693636      98.43793031
H      91.71879033      75.60138937      99.02374547
C      88.13020006      73.64552263      99.35633731
H      87.08707114      74.83038103      98.03163915
H      87.84485138      74.23322752     101.30842459
H      87.30438965      71.78225249      99.06909891
C      92.14019930      71.54792642      99.72294421
H      94.12441193      71.53280861      99.16358522
H      91.26714574      69.73189944      99.29208661
H      92.06083079      71.83705455     101.76195889
C      90.61330044      78.20921168      95.18760105
O      92.78270625      79.14084675      95.18760105
N      88.65554398      79.38840090      96.28742177
H      86.92266495      78.59660557      96.37812863
C      88.98624607      82.12283487      97.34944795
H      90.90053883      82.37227875      98.06943369
C      88.21334802      83.86705226      95.07421748
H      87.69367329      85.70764569      95.83199773
H      86.64298546      83.04313159      94.02541937
C      90.29582641      84.38294754      93.03331306
H      90.85518541      82.54046439      92.29820953
H      91.89075543      85.23332438      94.01786046
C      89.57584069      86.20086426      90.96217301
H      91.35218342      86.28779167      89.92093382
H      88.97112827      88.07169331      91.58389297
N      88.03004456      84.95931407      89.04976999
H      87.58784861      83.10927201      89.22551454
C      87.22313142      85.90795668      86.98807859
N      87.62186368      88.25877621      86.39470453
H      87.27793350      88.88238589      84.62214123
H      88.93333374      89.26222088      87.35279576
N      85.81339560      84.58892771      85.43283382
H      84.94223177      85.40717920      83.94372949
H      85.27671333      82.85415896      86.02242843
C      87.04738689      82.80691580      99.51696404
O      84.74758995      82.70298085      99.30720442
N      88.20011994      83.10738228     101.75817944
H      90.08228733      83.41162822     101.72227464
C      86.95668002      82.56503083     104.21293392
H      85.75859354      80.89262304     104.08632227
C      88.98435636      81.80158140     106.04785817
H      87.98469113      81.51056355     107.82798037
H      90.34873874      83.31714190     106.33320685
C      90.30905449      79.24478170     105.17291489
H      91.27281491      79.25423033     103.35121872
C      92.44444524      78.77423985     107.09665627
H      91.83217390      78.38117677     109.02417711
H      93.89197559      80.23688801     107.15523780
H      93.34395496      77.04514027     106.42580344
C      88.58373438      76.97144094     105.49605809
H      89.68922427      75.40674756     104.73827784
H      86.87164233      77.04136082     104.34899422
H      88.31350352      76.53113471     107.48971936
C      85.69056338      85.01978531     105.30330600
O      83.96524326      84.65695786     106.73004937
N      86.48991761      87.22509592     104.36411204
H      87.78060070      87.42729663     102.97327347
C      85.12742495      89.65339423     104.91213267
H      83.72713774      89.63827642     106.42013425
C      87.33462529      91.43540614     105.48283001
H      88.44956380      91.74910071     103.77640715
H      88.56294739      90.63794164     106.93036036
C      86.47857927      94.12070723     106.37478082
H      85.10096878      93.96574968     107.89601050
H      85.42600171      95.10714437     104.90457376
C      88.65176453      95.83657873     107.07397957
H      89.71379071      96.22208289     105.35243890
H      89.74591606      94.92006146     108.56119417
C      87.46312667      98.38581952     108.17757973
H      86.38409294      98.15149346     109.91612793
H      86.41999775      99.14171005     106.56942263
N      89.55694343     100.18105952     108.61788596
H      90.76069908      99.46296352     109.91612793
H      88.72735357     101.70228920     109.41535046
H      90.33929012     100.92750141     107.04374394
C      83.59296718      90.30157035     102.43659120
O      84.03516314      89.20174964     100.49017309
N      81.73725595      91.92484526     102.72193986
H      81.37253877      92.43885081     104.52284904
C      79.91178032      92.55790357     100.76040395
H      79.20502269      90.75321494     100.06876413
C      77.85197865      94.27944424     101.80164315
H      78.57952328      95.85925544     102.90524332
C      76.43657364      95.21674849      99.46594143
H      77.58930668      96.25987742      98.11478711
H      74.97959464      96.46585759     100.21616277
H      75.24037688      93.78433595      98.59288788
C      76.11154071      92.70530222     103.41357970
H      77.07908059      91.23698488     104.48505452
H      74.92290285      91.50154656     102.24005966
C      74.55062678      94.35125384     105.13134092
H      75.59564543      95.82524037     106.11966778
H      73.45647523      93.22119751     106.45981851
H      73.02372791      95.24320466     104.07687363
C      81.47647371      93.66339347      98.59477760
O      83.18856575      95.12793136      98.80642694
N      80.77349553      92.93962829      96.42726151
H      79.21636105      91.85870484      96.19860464
C      81.72213813      93.91850652      93.99329403
H      82.56684580      95.79311502      94.10667760
C      83.69879185      92.00421376      92.75930274
H      85.23702908      91.84547675      94.11801597
H      84.66255227      92.78278100      91.11524085
C      82.84085611      89.27544897      92.22073074
C      82.24181287      88.76522286      89.68093857
H      82.50448482      90.13338471      88.18805479
C      81.35175177      86.35204236      88.84190009
H      80.71113456      86.30668893      86.90682036
C      81.20624284      84.37349891      90.61824283
O      80.64121468      82.05102527      89.66015158
H      80.34641738      81.92252388      87.87624995
C      81.87520596      84.85915857      93.18638089
H      81.50292988      83.37950287      94.54131466
C      82.66322184      87.32147196      94.02352964
H      83.27927261      87.61248981      95.94727103
C      79.55840151      94.15472231      92.15459032
O      77.46836421      93.27222012      92.68560342
N      79.90044196      95.28288892      89.96439753
H      81.66355662      95.95941094      89.68093857
C      77.98803893      95.60981157      87.91593420
H      76.47247843      94.22086273      88.03876641
C      76.76160656      98.25353868      88.09356848
H      75.49171047      98.10614003      89.71117419
H      75.88099410      98.73352916      86.29643875
C      78.46047051     100.51743080      88.55466169
H      79.97792075     100.34924516      87.17138203
H      79.19179460     100.66860891      90.47273390
C      76.99026345     103.05155379      88.14648081
H      75.43312897     103.08745859      89.49763512
H      76.15122497     103.07800996      86.26620314
C      78.48314723     105.46284456      88.47718291
H      79.02738841     105.47229320      90.46517499
H      77.28695047     107.09745782      88.10301710
N      80.75270854     105.39859387      86.77831897
H      81.75993266     106.95005917      87.24508137
H      80.10264269     105.26253357      84.98685842
H      81.85819843     103.95673269      87.36224440
C      79.29950899      95.05234231      85.53487904
O      81.48781207      95.95185203      85.13614680
N      78.26771844      93.47064138      83.88514797
H      76.55373667      92.90183376      84.50875766
C      79.39966449      92.31223915      81.62692503
H      81.42545109      92.68640496      81.64771203
C      79.18612541      89.34347911      81.85558191
H      77.50615873      88.64239065      80.89560094
H      79.02549869      88.79923794      83.83601509
C      81.35742096      87.80146244      80.78221737
O      82.30039439      85.96842792      82.03888536
O      81.96780255      88.30790909      78.58257595
C      78.21858554      93.54056126      79.24209042
O      77.43623885      95.74398214      79.33090756
N      78.12787869      92.17617886      77.17472983
H      78.59275135      90.32613680      77.17284011
C      77.54773271      93.39883178      74.83146921
H      79.07841102      94.75943473      74.61604041
C      77.43245941      91.42028833      72.63182778
H      76.77861409      92.39727684      70.94052274
C      80.02705363      90.17873814      72.09136606
H      81.26293463      91.67918084      71.40917486
H      79.75682277      88.69719271      70.68729941
H      80.50704412      89.51355448      73.97731291
O      75.63532968      89.44741406      73.10425936
H      76.24004210      87.99043507      74.00187935
C      74.99093301      94.74053746      74.95052197
O      74.62810555      96.77955216      74.05857115
N      73.14656013      93.50276673      76.28277901
H      73.55474101      91.65839385      76.56056878
C      70.44992068      94.34747439      76.49442837
H      69.77528839      95.05612176      74.68218083
C      68.62444505      92.15161242      77.25787779
H      66.63267353      92.67128715      77.21630382
H      69.08553828      91.41083970      79.12303766
C      68.77184371      90.01055250      75.28689325
H      67.62855928      88.51766872      76.12404201
H      70.67479811      89.27166951      75.03744937
C      67.68714081      90.96297456      72.69607848
O      69.10443553      90.86281907      70.72698365
O      65.36466717      91.32580202      72.44285515
C      70.07386514      96.68506584      78.22730739
O      68.04429907      97.93606466      78.56556840
N      72.07319557      97.38993375      79.49342402
H      73.77016980      96.60191788      79.10791986
C      72.04107022      99.46485325      81.37748115
H      71.30974614     101.19962200      80.54222212
H      73.98559861      99.94862318      81.85747165
C      70.83353512      99.21729910      83.89459661
O      71.06408172     101.01631855      85.42527492
N      69.57308767      97.04978302      84.36135900
H      69.69780961      95.67595199      83.04233004
C      68.44492106      96.44696032      86.95217378
H      68.10099086      98.28566403      87.81766844
C      66.15835222      94.91250256      86.44950658
H      65.19837126      94.84258268      88.27120275
H      66.78385163      93.15883654      85.56700439
C      64.33665606      96.00098491      84.56355973
C      63.52029429      94.63093334      82.38659502
H      64.06264574      92.68829469      82.07479016
C      62.11244819      95.76476913      80.58946528
H      61.46805151      94.64605115      79.00776436
C      61.29797615      98.30456129      80.76898929
O      59.74084166      99.21729910      79.00020545
H      59.14746760     100.84246373      79.55200554
C      62.13890435      99.72185602      82.85902659
H      61.58332482     101.67961249      83.01209442
C      63.64312650      98.56912297      84.73174536
H      64.39334784      99.61603135      86.31533601
C      70.05496788      94.92384092      88.76442131
O      71.78784691      93.60481195      87.95183901
N      69.50694724      95.09769574      91.24185252
H      67.94603331      96.07279451      91.75018890
C      70.91479334      94.39282782      93.39991997
H      72.79129158      95.04289367      92.85567879
C      70.38000081      96.02177190      95.67326071
H      71.70091949      95.76098967      97.23228492
H      68.58098136      95.19407178      96.23261970
C      70.67668783      98.93384015      95.40869904
C      68.44492106     100.42672394      95.84711554
H      66.70070367      99.85791632      96.74473553
C      68.80018961     102.98163391      95.47672919
H      67.07486948     104.01531421      95.81876965
C      71.12266325     104.15326423      94.68304413
O      71.08675845     106.74218928      94.32021668
H      69.42190956     107.41493185      94.05565499
C      73.21459026     102.75864621      94.41659272
H      74.94935903     103.62036141      93.77597550
C      72.95758750     100.01287388      94.41092355
H      74.56763431      98.88659699      93.85912346
C      70.81274813      91.58280479      93.70605563
O      68.81719714      90.61715465      93.95360977
N      73.08041970      90.46975600      93.83266728
H      74.61487747      91.57524589      94.10478787
C      73.69458076      87.72776312      93.61912821
H      72.00894489      86.62605268      94.05376527
C      74.81140901      87.08903562      91.01319563
H      76.80318053      87.60304118      91.01130591
C      74.53550896      84.29979958      90.30643799
H      75.83753040      83.06580830      91.31744156
H      74.77361448      84.08626051      88.27309247
H      72.67034910      83.56847550      90.77697984
O      73.60954306      88.36649061      89.01953436
H      73.50749785      90.13905389      89.39370017
C      75.57674816      86.98132122      95.64869427
O      77.06207305      88.64239065      96.38568753
N      75.68635228      84.60404552      96.45749714
H      74.24449112      83.37383369      96.21561217
C      77.53261489      83.84815500      98.25651658
H      79.34675215      84.78923870      97.99384463
C      76.47058871      84.54168455     100.90969233
H      75.54840226      86.36716017     100.65079983
C      74.52417060      82.58014864     101.91124727
H      75.51627691      80.93041757     102.64446108
H      73.41112180      81.54268889     100.52418816
H      73.28451015      83.30013436     103.39279271
C      78.74770892      84.94797571     102.70493232
H      80.21224681      86.20086426     101.97738770
H      79.85697827      83.21698641     102.80697754
C      77.95402387      85.99299436     105.33165191
H      77.48348201      84.32814548     106.45036988
H      76.43468391      87.37438430     105.19937107
H      79.64532891      86.86037874     106.12911640
C      78.04851017      81.01923471      98.06187478
O      76.75026820      79.77768452      96.60867525
N      79.99303855      80.03279757      99.41302909
H      81.10608735      81.23277378     100.39757650
C      80.60530988      77.29269442      99.43948525
H      78.81195960      76.33082372      99.76262845
H      82.09252449      77.17931084     100.85866972
C      81.66544634      76.28924974      96.94693625
O      83.39832538      77.33804785      95.90758679
N      80.25382079      74.50723783      95.90191760
H      79.15400007      73.57560276      97.15669587
C      80.31618176      73.97433501      93.10512266
H      81.78827856      75.16864204      92.30198898
C      81.00404213      71.13407636      92.65725753
H      79.59241658      69.98512276      93.61912821
C      81.12120516      70.68054205      89.73196118
H      82.34763754      72.07704979      88.84001037
H      79.16911788      70.91675784      89.11968986
H      81.77505046      68.77947738      89.28031660
C      83.63454115      70.68054205      93.96494813
H      83.48903223      71.13974554      95.96616829
H      85.03104891      71.82760592      92.97284182
C      84.62097830      67.94043889      93.92715361
H      86.58251420      67.80059915      94.54131466
H      84.30728372      67.24124016      92.01475057
H      83.50603978      66.76313940      95.19893941
C      77.74237451      74.75101252      92.09978825
O      76.03217220      73.20521640      92.39458556
N      77.74804370      77.02435328      90.83367162
H      79.37320833      78.01079041      91.01130591
C      75.69013173      77.88228903      89.18394055
H      75.68257284      76.45743539      87.69672596
H      76.18712977      79.61138860      88.18427533
C      73.07852998      78.20921168      90.30265854
O      71.30785643      78.53046515      88.90804052
N      72.77995322      78.16007879      92.82733289
H      74.36921305      78.37928705      93.85912346
C      70.26850695      78.42275075      94.16525911
H      68.92869100      77.09427315      93.33755899
C      70.61621659      77.32859922      96.81654513
H      71.92012775      78.58904667      97.79353364
H      71.44580645      75.44265236      96.86378830
C      68.26161760      77.20576701      98.33399536
N      66.96904481      75.06092764      99.01240712
H      67.55297024      73.28836436      98.61556458
C      64.95459655      75.69209623     100.48450392
H      63.62800869      74.40708234     101.35188829
N      64.59743829      78.31503635     100.24072921
H      63.13479012      79.25612006     101.02685536
C      66.71960094      79.28257622      98.95193588
H      67.30730582      81.21576624      98.64768993
C      69.36521777      81.12127993      94.13880295
O      70.21181516      82.61983289      95.61467920
N      67.63422847      81.91685470      92.44371845
H      67.36021816      80.66585588      91.02831344
C      66.59109955      84.46420577      92.25285609
H      67.93091549      85.96842792      91.82955739
C      64.79208010      84.33192493      90.13069344
H      63.65635458      82.68786304      90.62769146
H      65.86922410      83.65918236      88.50930826
C      63.00817846      86.55424308      89.71684337
H      61.72883374      86.59581705      91.32689020
C      64.32909715      89.14505785      89.32000085
H      65.18892261      89.75921890      91.08689495
H      62.73038869      90.39416694      88.95906313
H      65.74639189      89.05813044      87.83089652
C      61.35844739      85.95331011      87.36791357
H      60.61767467      84.03145845      87.43027453
H      62.56220305      86.24054851      85.72385167
H      59.84099716      87.34225895      87.38492110
C      64.98105273      85.01033668      94.66981605
O      63.51273538      83.49099672      95.67326071
N      65.11144384      87.32336169      95.59389222
H      66.37945020      88.51766872      94.81721469
C      63.81131214      88.03011933      97.99573435
H      62.92692023      86.35204236      98.79697831
C      65.52340417      89.25466198      99.77018736
H      64.49917251      90.03889840     101.37645473
H      66.60243791      90.78156084      98.90469272
C      67.22982703      87.19297057     100.98528139
H      68.06319634      86.00622245      99.52263321
C      69.28584926      88.70853107     102.39879666
H      68.74727727      89.34347911     104.28096407
H      70.03040144      90.28078337     101.29708622
H      70.86566046      87.41217882     102.67280698
C      65.89379053      85.49032716     102.95626592
H      65.06042122      86.70920063     104.39245793
H      67.24683458      84.21854135     103.84821675
H      64.40090675      84.34893247     102.10777881
C      61.34143985      89.73087301      97.71605486
O      59.29108680      89.16773457      98.61745432
N      61.42458781      91.54123082      95.96427857
H      62.97794284      91.88894046      94.91548047
C      59.18337240      93.11159338      95.23673393
H      57.52608242      91.89271991      95.09500446
C      58.63346204      94.97297380      97.44204454