 %block lattice_cart
   135.996   0.000   0.000
   0.000 142.663   0.000
   0.000   0.000   160.158
 %endblock lattice_cart

 %block positions_abs
N      89.38970187      40.93808685      81.33944745
H      89.72418342      39.74377982      79.89002738
H      88.11224688      40.04046685      82.43737844
H      90.98652060      41.35760609      82.29564897
C      88.26909416      43.36827489      80.50040897
H      88.73963601      44.98966006      81.67959819
C      89.56166696      44.01645101      77.96817572
H      88.90215248      43.00922689      76.29576792
H      91.61013028      43.78023522      77.94927845
C      89.25364157      46.79434869      77.11401942
H      87.27131867      47.25544191      77.43527289
H      89.76008822      47.25922136      75.17327049
S      90.95250553      48.84659147      79.28720467
C      90.04165744      51.95330153      78.24785520
H      87.98563522      51.92495563      78.36690796
H      90.72762810      52.14038443      76.31466518
H      90.83912195      53.44996477      79.41948552
C      85.35702591      43.19064061      80.32655415
O      84.29688945      41.72421299      78.89603134
N      84.02854832      44.87627648      81.75707698
H      85.19261972      45.78712457      82.96839153
C      81.30545270      45.38650259      81.76841532
H      80.38704571      44.37171956      80.22828838
C      80.45885531      44.26589489      84.35167119
H      80.66105603      45.78334511      85.72928169
H      81.60591918      42.61994327      84.82221305
C      77.70552407      43.42307695      84.44804724
O      76.15594850      44.60793535      83.34444708
N      77.18395961      41.39162116      85.84077553
H      75.33391755      40.92296904      85.89935705
H      78.43684816      40.58281830      87.03508256
C      80.84435948      48.27400439      81.49251528
O      82.50164945      49.91428683      81.39991869
N      78.49542967      49.19430111      81.59267078
H      77.07435548      47.93952284      81.80809958
C      77.75843641      51.92306591      81.96116741
H      78.27433169      52.76210439      80.15269933
C      74.77644829      52.17250978      82.13691196
H      73.82024677      50.90072397      80.82733162
C      73.80323924      51.24276443      84.75796236
H      74.70841814      52.22920157      86.32265574
H      74.16984614      49.21886755      84.85811786
H      71.78690126      51.65661450      84.81087469
C      73.75977553      54.89371567      81.80432013
H      74.22842766      56.06912544      83.42759503
H      71.70753275      54.71041222      81.86101191
C      74.37393658      56.13715558      79.28531496
H      76.37137730      56.62848442      79.17004164
H      73.16451174      57.78877638      79.06043752
H      73.95252761      54.72930948      77.84345378
C      79.10392154      53.31390447      84.19860336
O      79.69162643      55.54567125      83.95671839
N      79.75209767      51.95897071      86.16769818
H      79.41005721      50.08247248      86.23572834
C      80.74609371      53.34225037      88.49206155
H      79.70863396      55.09780611      88.77174104
C      80.38515598      51.54701037      90.73705641
H      80.57790807      52.65250026      92.46615599
H      81.92906238      50.19018688      90.88445506
C      78.00410083      50.03522932      90.99216947
C      75.69674500      51.17851374      91.75561889
H      75.54745662      52.91328249      92.81953481
C      73.50466248      49.56657719      91.71971410
H      71.64895124      50.08058275      92.39623611
C      73.54623646      47.10804326      90.77485094
H      71.86060059      45.98932528      90.49706117
C      75.81390803      46.11215749      90.07754192
H      75.90272517      44.15062158      89.52385211
C      78.10992550      47.43307619      90.23627894
H      79.89949632      46.73387745      89.54652884
C      83.59013181      54.21341420      88.26907384
O      84.31767644      55.93306514      89.64290487
N      84.84491008      53.24776405      86.23950779
H      84.07201202      51.73220355      85.37401313
C      87.30344402      54.15294295      85.52330151
H      88.17649757      55.11103420      87.12200997
C      88.97207235      51.95330153      84.83922058
H      90.48196367      52.17439950      83.45783065
H      87.89492835      50.70419243      83.60522930
C      89.86024372      50.43396157      87.17303259
H      88.84546069      50.71931024      88.94181641
H      91.64603508      51.22008772      87.83254706
C      89.82244919      47.55779812      86.55698180
O      87.79288313      46.32191711      86.19604408
O      91.80099264      46.23309998      86.66847565
C      87.13525837      55.92739596      83.26696829
O      88.60735517      57.76232021      83.03831141
N      85.63670541      55.17339516      81.32432964
H      84.62948128      53.57279698      81.59267078
C      84.96207311      56.84202350      79.16626220
H      86.47574389      57.01965777      77.77920308
C      82.53566453      55.66661373      77.93982981
H      80.90105127      56.07857407      79.12657794
H      82.65660701      53.62192986      77.71306266
C      82.16149872      56.65494059      75.21295475
H      83.62036743      56.10880969      73.86557989
H      82.14449118      58.71096282      75.06933555
S      79.38738049      55.39638287      74.03187580
C      79.59714011      56.23164190      70.74753148
H      81.30923215      55.42472876      69.92927998
H      79.85414289      58.25931823      70.49997733
H      77.94929877      55.48520001      69.76298406
C      84.47263400      59.64448762      80.01474932
O      85.77087598      61.29988787      78.96217175
N      82.70007072      59.94306438      81.98951331
H      81.53033013      58.54844636      82.56021065
C      81.82512743      62.51687162      82.76808055
H      81.85725278      63.65637658      81.05220905
C      79.23998184      62.46395928      84.20238281
H      78.95085371      64.34423696      84.99228842
H      79.61036820      61.36791802      85.90691596
C      76.94207464      61.54366256      82.79642644
H      77.46930828      59.65393625      82.16714758
C      74.59692429      61.40949200      84.58221780
H      74.27756054      63.25953406      85.43070493
H      74.87471406      60.09991166      86.14691120
H      72.99632610      60.64037339      83.53530944
C      76.39783346      63.28976968      80.60812337
H      77.86048163      63.02898745      79.18138000
H      76.41295127      65.26453368      81.18637963
H      74.70274896      62.46584901      79.77475406
C      83.74508937      63.74519372      84.50284930
O      83.88303939      66.03176256      84.53875410
N      85.47229922      62.36758324      85.66314125
H      85.60835951      60.46273911      85.71038441
C      87.77398587      63.49386012      86.86311747
H      87.26753922      65.04910488      88.11789574
C      89.14214772      61.61547216      88.65457801
H      90.89203428      62.51876134      89.25362125
H      89.25742102      59.71062804      87.87790049
C      87.51131391      61.23563718      91.05075097
H      85.68772802      60.54399735      90.38745705
H      87.27509812      63.05733334      91.97860660
C      88.62058326      59.36669785      92.84788070
H      89.90370742      60.42683431      94.06486444
H      89.53332107      57.88893188      91.74428054
N      86.64959871      58.10625040      94.36344121
H      85.83134722      56.60391798      93.51684382
C      85.75575817      58.66182994      96.61788470
N      86.56645075      60.59501996      97.88022188
H      86.00898149      60.94650905      99.67168241
H      87.72674271      61.72318656      96.86732856
N      84.36680933      57.09902628      97.97470818
H      84.14004217      57.60358320      99.80018381
H      83.79989143      55.38126506      97.36054714
C      89.34434843      64.81288909      84.86378702
O      90.27598351      66.77442500      85.42881519
N      89.63725601      63.88692319      82.54131340
H      88.67538532      62.25797911      82.28053115
C      91.03943294      64.99808226      80.45883500
H      92.70995100      65.79932622      81.35456527
C      91.96350910      62.91560387      78.50674772
H      90.30999858      61.98018934      77.71684211
C      93.32978123      64.00219650      76.23907614
H      92.04098788      65.10579666      75.06933555
H      93.86646350      62.50931271      74.92571634
H      94.86801845      65.16437818      76.96095159
C      93.72662375      60.96351659      79.91270409
H      92.99152022      60.31911991      81.72684134
H      95.51619457      61.96129208      80.12624316
C      94.19149643      58.64104295      78.37257714
H      95.28186851      57.21429958      79.38169099
H      94.96061504      59.18717385      76.54332207
H      92.37546944      57.69051061      78.16470725
C      89.58623340      67.28087165      79.17949027
O      90.66715685      68.91737464      77.94927845
N      87.13525837      67.31299700      79.38358073
H      86.06567328      65.80310567      79.85034312
C      85.52710128      69.35579114      78.32533399
H      86.54755349      70.11357139      76.70583853
C      83.00431665      68.16337384      77.48062633
H      81.77788428      69.77153093      77.08756325
H      82.17850626      67.27898192      79.14736493
C      83.42383590      66.26230917      75.39436847
O      84.75231349      66.96906681      73.58023121
O      82.05189459      64.28943490      75.37358149
C      85.20395808      71.61779354      80.21883976
O      84.87703543      73.83822196      79.48940539
N      85.01498545      71.08111127      82.65091752
H      85.02065463      69.23295893      83.13090800
C      84.38192714      72.82910811      84.80142607
H      84.32712507      74.72261387      83.99451292
C      81.67205960      72.18471143      85.64235428
H      81.09002390      73.65491850      86.96327297
H      81.62103699      70.27041868      86.40202424
C      79.60091956      72.21683678      83.63168547
H      77.92095287      71.75196411      84.72394728
H      80.23964706      70.67859956      82.41848119
C      79.01132495      74.81143101      82.30887705
O      76.83624997      75.20260436      81.36023445
O      80.50231902      76.62367854      82.28620034
C      86.17905686      73.02186019      87.16169423
O      85.76709652      74.67348099      88.73016707
N      88.18405648      71.53464558      87.19570930
H      88.31633732      70.46695021      85.61967755
C      90.44416915      71.74629493      88.77552049
H      91.81044127      73.19949446      88.26151495
H      91.64603508      70.11735085      88.38623687
C      89.85268481      71.97495181      91.57420516
O      88.24830717      70.49340638      92.43403063
N      90.92038018      73.74940482      92.99716908
H      91.95028102      75.11189749      92.14679223
C      90.08512115      74.37301450      95.51239480
H      88.04988591      74.04420213      95.50672563
C      91.28509736      72.53431080      97.40401085
H      93.33167095      72.67604027      97.19992041
H      90.53865546      70.62946668      97.15645670
C      90.89392401      73.28642187     100.15923181
H      91.41926793      75.27819341     100.21970305
C      88.22752018      72.77808550     100.96236548
H      87.91571534      73.88735484     102.67067807
H      87.74375025      70.79954205     101.25905253
H      86.77054120      73.63224179      99.78506599
C      92.55310371      71.99951825     102.06785539
H      92.66837702      72.94438141     103.89522073
H      94.44283003      71.78219973     101.27794979
H      92.09390022      70.00585699     102.30596089
C      90.65581850      77.10555875      96.19836546
O      92.80632704      77.78963968      96.15490175
N      88.70373121      78.55875829      96.80874705
H      87.00297753      77.81042667      96.36844082
C      88.81333534      81.30264089      97.74794103
H      90.79187879      81.58609984      98.24682877
C      87.98374549      83.26417681      95.85254554
H      88.04799618      85.06319626      96.85032103
H      86.06189383      83.06764527      95.14011871
C      89.98307593      83.45125971      93.64912465
H      90.08134170      81.55775395      92.84788070
H      91.83689744      83.79518990      94.47871450
C      89.16671416      85.55263537      91.76695725
H      88.97207235      87.41590552      92.62111355
H      87.40170978      85.08776270      90.81075574
N      90.97896169      85.71515183      89.67314049
H      90.38558763      85.09532160      87.96860736
C      93.32600178      86.59576430      89.62211788
N      94.68849445      87.57842198      91.39657089
H      96.29098236      88.52517486      90.97705165
H      94.14992245      87.41779524      93.22015679
N      94.37668961      86.55796977      87.36956412
H      96.23429057      86.98126846      87.29964424
H      93.26364081      86.30663617      85.83888581
C      87.21651661      81.63334300     100.06663522
O      84.88270461      81.32531761     100.06096603
N      88.39192637      82.08876704     102.17745951
H      90.28165269      81.82798481     102.17934924
C      87.29210566      82.31364447     104.71725167
H      85.84835476      80.87556275     105.02338733
C      89.35001761      81.57854094     106.71658211
H      88.74341547      81.94325811     108.65166186
H      91.14336788      82.56875752     106.49737387
C      90.09079033      78.70615694     106.62776498
H      90.84101167      78.59088363     104.71347223
C      92.18649681      78.13168014     108.38710018
H      91.64225563      78.30931441     110.36564363
H      93.72095457      79.43370157     107.93923503
H      92.80254759      76.17959286     108.16789192
C      87.88547972      76.82587926     107.09641711
H      86.40204456      76.77674637     105.66589428
H      87.14848646      76.73517240     109.01637903
H      88.68672368      74.93615295     106.93012119
C      86.23007947      85.03674009     105.29739765
O      84.82223337      85.48460522     106.99059243
N      86.99163917      86.86788489     103.67601247
H      88.44294898      86.30852590     102.56863286
C      86.28110208      89.49082501     103.71947619
H      85.43072524      89.99727166     105.52794427
C      88.61869353      91.20669650     103.38310490
H      87.88170027      93.11720980     103.18468363
H      89.74874987      90.77205945     101.71825601
C      90.18716637      90.94213482     105.72447580
H      91.15659597      89.12799756     105.81707239
H      88.99852852      91.34653625     107.35719934
C      92.20539407      93.09831254     105.69046072
H      91.31722270      94.95402378     105.79628539
H      93.33167095      92.83753031     103.98592759
C      93.75874910      92.79595633     108.06395697
H      94.17448889      90.81930261     108.45890977
H      92.58333933      93.58019275     109.56250995
N      96.10956863      94.23592778     108.19434809
H      95.69382885      95.87809995     109.07496056
H      96.75585503      94.55907098     106.42745398
H      97.35111882      93.14177624     109.14677015
C      84.22130040      89.77995313     101.51227585
O      84.53688469      88.51572623      99.51294540
N      82.38070697      91.39944858     101.99415606
H      82.68117345      92.56540972     103.47570149
C      80.28877994      91.90778496     100.18568797
H      79.35525514      90.16545730      99.60743172
C      78.28189060      93.80884963     101.30818541
H      79.41194693      95.53039030     101.25149362
C      75.96319641      94.39277506      99.56396802
H      74.79156610      95.95368900     100.22537223
H      74.95975174      92.59942479      99.42790772
H      76.50554786      94.93323679      97.64967526
C      77.45041102      92.97925978     104.09553171
H      79.06423729      92.77705907     105.35786889
H      76.45074580      91.17835061     104.10120090
C      75.61926622      94.83497102     105.42211959
H      75.40383742      94.21514079     107.37420687
H      73.81457759      94.69135182     104.44135164
H      76.32791359      96.76627131     105.35597916
C      81.50576369      92.98492896      97.79518418
O      83.18762011      94.59686551      97.96525956
N      80.56845944      92.08541924      95.54829960
H      79.18895923      90.77772863      95.72971332
C      81.46796916      92.72981591      93.03496361
H      82.59235632      94.45135658      93.15023691
C      83.36525438      90.67190395      92.20159431
H      84.75798267      90.43190871      93.70203700
H      84.31389699      91.56574450      90.60666529
C      82.25220558      88.16990631      91.48916748
C      81.72497194      87.66912884      88.90780134
H      81.77977400      89.23949141      87.60577990
C      81.34702668      85.05941680      88.24828686
H      81.15616432      84.51517563      86.29053040
C      81.37915202      83.07142472      89.99439397
O      80.92561771      80.67525176      89.31409249
H      80.48342175      80.61855997      87.55664703
C      81.90827539      83.59487891      92.54174503
H      82.01976924      82.06609032      93.88911991
C      82.58479741      86.12333272      93.27117940
H      83.05722899      86.50127798      95.21948722
C      79.32312980      93.00193650      91.14901674
O      77.42962403      91.87188016      91.70081683
N      79.70485451      94.14333119      88.91536025
H      81.41316710      94.94457515      88.62434239
C      77.64127338      94.70835936      87.10122298
H      75.82524639      94.35875999      88.01018134
C      77.69796517      97.51082348      86.20171326
H      76.54145266      97.88309956      84.53686437
H      79.64816272      98.02104958      85.77085565
C      76.42051018      99.33062992      88.10844710
H      77.28789456      99.08685523      89.96037890
H      74.51566606      98.58040857      88.33521427
C      76.23153755     102.06128444      86.88201473
H      75.27155658     102.03671800      85.06220830
H      78.15149948     102.79071880      86.71382909
C      74.53267359     103.72991278      88.61300404
H      75.26777713     105.62719799      88.30308892
H      75.11659902     103.39921067      90.55942213
N      71.77556290     103.60897029      87.91380530
H      70.59259423     104.29683067      89.24417263
H      71.10471006     101.83640701      87.69081759
H      71.56958273     104.55005400      86.26596396
C      77.62426584      92.69769056      84.95827334
O      79.57446340      91.89455688      83.99640265
N      75.48320593      91.78873220      84.06065334
H      73.88260774      92.00416100      85.07921582
C      75.09203258      90.27695115      81.74384888
H      76.42995881      88.72359612      81.93093179
C      72.18752324      89.38500033      81.68526737
H      71.13116623      91.11976909      81.33755772
H      71.73965810      88.71414749      83.57877313
C      71.48265532      87.47826648      79.70861364
O      70.58881478      88.28140017      77.65259142
O      71.88894648      85.25972779      80.35301032
C      75.65517102      91.93613086      79.36657318
O      75.48509565      94.20191271      79.54798691
N      75.92729161      90.68324231      77.20472628
H      76.35059031      88.82753107      77.31999959
C      76.14083069      92.07408088      74.80288413
H      77.69040626      93.39122012      75.12224788
C      77.13104727      90.30340732      72.65615504
H      75.82902584      88.73682421      72.35757829
C      77.40883704      91.63188492      70.15037795
H      75.49832374      92.03817608      69.49842238
H      78.53133447      90.36954774      68.97496818
H      78.34614129      93.44980163      70.37903484
O      79.68784697      89.57964214      73.20606541
H      79.73320041      88.28895907      74.48163066
C      73.69930429      93.63310509      74.23596625
O      73.69741456      95.36976357      72.65237559
N      71.51667040      93.08130500      75.37925067
H      71.46753751      91.39188968      76.26553230
C      69.08648236      94.26238395      75.16193214
H      69.11482825      95.29606424      73.38180995
C      67.01723205      92.30840694      75.31311025
H      67.00589369      91.85298290      77.31999959
H      67.73532804      90.65300669      74.31911420
C      64.34326931      92.78461797      74.34934983
H      63.75556443      94.67434428      74.92193690
H      62.94865129      91.45803010      75.07689446
C      64.45665289      92.68446248      71.47318637
O      63.40785479      90.93079646      70.36202730
O      65.55647361      94.46458466      70.35257868
C      68.77278779      96.46769456      76.90425980
O      66.95865053      97.77916462      76.70961798
N      70.62849903      96.79083775      78.69949979
H      72.11193419      95.59086155      78.67493335
C      70.63983739      98.87331615      80.59678501
H      69.52867832     100.34352322      79.67837803
H      72.54279179      99.47802857      81.09945221
C      69.57781120      98.13443316      83.18571006
O      70.20520034      99.47046967      85.00362678
N      68.23610552      96.10675683      83.42948476
H      67.87327807      95.01638475      81.90825507
C      67.39139786      95.05039982      85.93715158
H      66.66952240      96.61320348      87.07098736
C      65.37128043      93.09642281      85.43637410
H      64.47177070      92.59186589      87.22027574
H      66.28779769      91.35409515      84.82788222
C      63.11494721      93.64633317      83.80931974
C      62.26646010      91.84542399      82.00274140
H      63.04880679      89.96136686      81.92148316
C      60.48633791      92.41801107      80.14891988
H      59.98745016      90.86654576      78.92059778
C      59.24289799      94.67434428      80.26041374
O      57.45710663      95.07496626      78.59178540
H      56.92609353      96.80406584      78.43115866
C      59.94965564      96.48659182      82.12179414
H      59.18620620      98.38009758      82.03864619
C      61.85638949      95.99904243      83.83766565
H      62.35527723      97.52783102      85.09433363
C      69.32836733      94.03939624      87.81931898
O      71.09337170      92.62021178      87.05586956
N      68.92018644      94.62143195      90.29863991
H      67.58603967      95.89132803      90.79185847
C      70.43574695      93.66334071      92.44158954
H      72.36893696      94.35309081      92.25639637
C      69.48521461      95.05795873      94.91335156
H      70.38283461      94.26238395      96.58575934
H      67.51989925      94.45135658      95.01917624
C      70.00866880      97.86420230      94.84910086
C      68.13595002      99.81817931      94.77162209
H      66.16118603      99.30228402      94.78107072
C      69.01656249     102.43356053      94.87555703
H      67.70320270     103.99447446      94.76595290
C      71.57336219     103.09874419      95.01539678
O      72.22342804     105.62908772      94.92468992
H      70.77778741     106.72323926      95.00405842
C      73.35159465     101.13342882      95.12878036
H      75.33202782     101.56239670      95.38200369
C      72.55790960      98.53694487      94.99649951
H      73.97331460      97.07240698      95.14011871
C      70.33559145      90.78339781      92.92535949
O      68.27767950      89.49082501      92.77418137
N      72.62971920      89.69113600      93.08409649
H      74.06402147      90.95158345      93.05953005
C      73.20041654      86.89812051      92.99338962
H      71.47698614      85.87577857      93.47338011
C      73.90717418      86.14600943      90.20982276
H      75.88760736      86.63166910      89.91880491
C      73.98087351      83.28496380      89.89234874
H      73.99977077      82.77095824      87.89490804
H      72.15728762      82.54797053      90.50462007
H      75.50588264      82.47994039      91.01862563
O      72.44263629      87.14756438      88.28041221
H      72.56924795      88.95225301      88.38056769
C      75.36226344      86.38033550      94.83209333
O      76.88349313      87.99983095      95.37255505
N      75.42084496      84.05975158      95.81853046
H      74.08858791      82.79741441      95.29885572
C      77.25954866      83.20748502      97.71392595
H      78.99053797      84.09187693      97.03929367
C      76.33925195      84.01061870     100.40678596
H      75.68540664      85.95136762     100.17812906
C      74.14150025      82.33065201     101.57085736
H      72.67885208      82.17191500     100.13088591
H      73.28356450      83.39078847     103.11476376
H      74.94085448      80.53541201     102.19257731
C      78.59180571      84.19770161     102.25493828
H      79.88248878      85.59798880     101.46881215
H      79.51777161      82.36844653     102.46469790
C      77.68851654      84.94225377     104.81740716
H      76.45641498      86.58820539     104.92134212
H      79.42895447      85.01784282     105.91533816
H      76.72475612      83.19803639     105.33708191
C      77.83969464      80.36533664      97.63077800
O      76.36192866      78.70993639      96.75961417
N      80.06390251      79.63590229      98.57375143
H      81.40749792      80.99083605      98.61154595
C      80.88782318      77.03185943      99.14444878
H      79.45919009      75.86967774     100.06474549
H      82.36747889      77.00918271     100.58064077
C      81.66450070      75.66747703      96.75583471
O      83.85847295      76.17581341      95.81286128
N      80.02421826      74.11790145      95.78073593
H      78.37070773      74.15191653      96.73315800
C      80.24909569      72.56832587      93.56219724
H      82.05378432      73.06721362      92.70237178
C      80.57790807      69.74507476      94.20659392
H      78.78077834      68.97217670      94.84532142
C      81.33001914      68.12179986      91.93514289
H      81.03711156      66.09601325      92.16191005
H      83.35013657      68.44494306      91.70459628
H      80.28877994      68.80210133      90.29297073
C      82.56778988      69.37468841      96.34576411
H      81.70796440      70.13246866      98.05596642
H      84.28933055      70.32900019      95.74294142
C      83.52588112      66.71584348      96.92591008
H      84.47830318      65.97885022      95.25539202
H      82.05945350      65.43649877      97.60054238
H      85.07923615      67.08622984      98.22793151
C      77.95118849      73.18437665      91.80853122
O      76.24098618      71.61779354      91.45893186
N      77.93229123      75.65991812      90.95248521
H      79.54989695      76.67470115      91.00728727
C      75.98020395      76.59155320      89.26306988
H      76.14083069      75.36134137      87.61900800
H      76.41484100      78.55686856      88.83221228
C      73.37049191      76.67848061      90.37044950
O      71.45619916      76.56509703      88.91724998
N      73.12860694      76.89012995      92.89890331
H      74.73865376      76.95438065      93.92124524
C      70.66818328      77.26051631      94.18580694
H      69.37372076      76.09455517      93.08787594
C      70.81747166      76.29675589      96.97882243
H      72.31980408      77.27185467      97.99738491
H      71.39194846      74.31821244      96.94480735
C      68.39673225      76.23250520      98.61154595
N      66.55613883      74.27852819      98.52461854
H      66.42385798      72.89902798      97.21503821
C      64.65318443      74.98528583     100.18568797
H      62.91841567      74.03475349     100.69024491
N      65.13884409      77.41736359     100.92079152
H      64.23933437      78.22805618     102.39477804
C      67.32903689      78.22427673      99.74727148
H      68.03768425      80.13667976      99.69435913
C      69.64962080      79.99872974      93.93636306
O      70.72298535      81.70137315      95.10421392
N      67.47076636      80.52785311      92.60788546
H      66.77156763      79.00662342      91.69136819
C      66.22165727      83.05063773      92.37355940
H      67.62005474      84.45848384      91.81797986
C      64.10705352      82.75395070      90.26084538
H      62.94487184      81.24027993      91.03563316
H      65.11049820      82.20781980      88.54686361
C      62.58393412      85.16713120      89.78652408
H      61.72977782      85.95703680      91.48538803
C      63.93130898      87.23449179      88.31064783
H      62.72755332      88.89745095      88.48450264
H      64.18453230      86.69403006      86.33966327
H      65.77568186      87.55574526      89.16480411
C      60.47310982      84.61911057      87.92325393
H      59.01802056      83.60621727      88.97016231
H      61.06459416      83.18858775      86.56265099
H      59.76446246      86.35198960      87.06342845
C      65.11805710      83.79518990      95.06830911
O      64.02390557      82.11522321      96.24560861
N      65.22766123      86.21214985      95.74105169
H      66.11394287      87.38000072      94.52028848
C      64.27523917      87.26094796      98.09754039
H      63.66296784      85.73971828      99.34287004
C      66.22732645      88.90689958      99.49026869
H      65.46765647      89.64578257     101.25905253
H      66.91518683      90.28262033      98.12399656
C      68.30791512      87.39322880     100.42946267
H      69.18096867      86.45970400      98.81563639
C      70.48299010      89.16957153     101.54629092
H      71.14628404      90.19569292      99.88711122
H      71.94752800      87.94691861     102.31729925
H      69.64206189      90.13522168     103.15822746
C      67.56903213      85.60365798     102.47225681
H      69.23955019      84.69469963     103.26594187
H      66.40118127      84.02384678     101.85620603
H      66.54857992      86.45781428     104.04450911
C      61.79780797      88.87099478      97.80463282
O      59.99500907      88.71792695      99.26539127
N      61.61828397      90.46592379      95.80152293
H      62.86928279      90.63221970      94.37100012
C      59.32226650      92.04384526      95.16657489
H      57.65741762      90.83442042      95.22704613
C      58.79881231      94.12821338      97.19236150