 %block lattice_cart
   135.996   0.000   0.000
   0.000 142.663   0.000
   0.000   0.000   160.158
 %endblock lattice_cart

 %block positions_abs
N      89.82150432      42.87789091      79.45255573
H      91.54493473      43.16512931      80.21789489
H      90.12386053      41.88389487      77.85006782
H      88.89742816      41.79885719      80.73001072
C      88.48357809      45.29296114      78.75524672
H      88.93333296      46.80474219      80.08183459
C      89.16387957      46.31719280      75.98679767
H      88.33428972      45.19280564      74.47312689
H      91.19911482      46.06396947      75.81672230
C      88.34751780      49.07052404      75.40098251
H      86.28771613      49.07241376      75.41610032
H      88.62341784      49.29729120      73.37141645
S      89.44733851      51.63866210      77.48346091
C      92.52192322      52.32463275      76.20222647
H      93.69733299      50.68624004      76.62741489
H      93.26647540      54.00081999      77.13575127
H      92.43310609      52.64021704      74.16699123
C      85.62631192      44.88100080      79.01035977
O      84.63420559      43.31063824      77.54204243
N      84.38098227      46.05641057      80.89630663
H      85.35419133      47.11087785      82.15297463
C      81.64843803      45.78240025      81.39141493
H      81.00026189      44.89044943      79.64908727
C      81.45001677      44.02873423      83.77435981
H      82.87298067      42.55663744      83.54192347
H      79.52438564      43.31630741      83.93498654
C      81.71646818      45.57642008      86.12517934
O      79.87587475      46.62521819      87.05870414
N      84.00870618      45.92035027      87.16452881
H      84.00681646      46.57608530      88.95787908
H      85.51481807      44.90367752      86.58060338
C      80.66767006      48.56407739      81.69566086
O      82.10386207      50.39144273      81.75991156
N      78.20535668      48.90989730      82.02069379
H      77.03183664      47.40567516      81.97156090
C      77.04506473      51.51394016      82.13029791
H      77.39844354      52.27361014      80.24813051
C      74.11031976      51.41945384      82.22667396
H      73.64544709      49.95302623      80.85662238
C      73.20892032      50.24026463      84.72867160
H      73.45269500      51.81440664      86.03636220
H      74.34842527      48.62265890      85.29558949
H      71.19258233      49.81696593      84.70410515
C      72.78373190      53.90066449      81.65786634
H      73.18624359      55.38598938      83.02602819
H      70.75794528      53.53027814      81.63329989
C      73.72481559      54.96269068      79.07838992
H      72.41334554      56.26093266      78.16187266
H      73.97236974      53.44524045      77.71022807
H      75.46903298      56.02660660      79.35240023
C      78.18267996      53.44335073      83.86695640
O      78.42267521      55.60330790      83.24901589
N      78.87998898      52.67990130      86.26312936
H      78.78928211      50.79206471      86.52580132
C      79.80217541      54.33152209      88.32104132
H      78.58330195      55.98881207      88.44009407
C      79.53383428      53.19390685      90.93642253
H      80.41444674      54.45246458      92.30836384
H      80.30295288      51.29662163      91.17263832
C      76.78428249      53.04083902      91.69609251
C      75.72414604      55.08363317      92.98110640
H      76.95624758      56.55006078      93.68030514
C      73.31285526      54.84930710      93.86738804
H      72.63822296      56.49525872      94.87083272
C      71.80674339      52.74037254      93.18708657
H      69.86032529      52.80273351      93.79368872
C      72.92735109      50.69001949      91.93986721
H      71.92579614      48.95336101      91.54680413
C      75.40856173      50.93946336      91.03468830
H      76.39121943      49.32185764      90.27501832
C      82.51771213      55.01938247      87.92797824
O      83.61564311      56.72958478      88.95598936
N      83.80839520      53.82507544      86.11951016
H      83.02982796      52.36998618      85.15574974
C      86.17244281      54.69245982      85.14063193
H      87.10218817      55.98125316      86.45210199
C      87.80516635      52.51738483      84.25624002
H      89.43977961      53.18067877      83.19421383
H      86.79038332      51.60086757      82.71611307
C      88.50436509      50.73348319      86.43698418
H      86.76770661      50.26105161      87.44231858
H      89.40198508      51.85409090      87.91286043
C      89.98213107      48.51494450      85.32960456
O      88.88042062      46.57230585      84.46599964
O      92.32728142      48.58864383      85.47133404
C      85.73024686      56.37620596      82.84650419
O      86.81117031      58.47569190      82.83894528
N      84.33940829      55.52960858      80.89819636
H      83.46446502      53.83641380      80.98701350
C      83.64965820      57.03949990      78.70989329
H      85.19545431      57.23036226      77.36062870
C      81.52749554      55.50504213      77.25669375
H      79.70768911      55.43134281      78.21856445
H      82.05661890      53.54539595      76.91276356
C      81.03238724      56.70690807      74.64131254
H      82.74258955      56.31195527      73.56038909
H      81.12120438      58.75726112      74.81894681
S      78.45669028      55.28772361      72.90654378
C      78.88376842      57.04516908      70.00392416
H      77.03183664      57.55728491      69.26126172
H      79.68312265      55.82062643      68.55639381
H      80.01949394      58.71001796      70.43667149
C      82.83896560      59.77204415      79.30893653
O      83.70634997      61.59751977      78.18076992
N      80.99837218      60.06495173      81.05315392
H      80.13098779      58.56072958      81.84305952
C      80.04406038      62.47057332      81.72778621
H      79.91744872      63.51748170      79.95900238
C      77.40222300      62.30238768      82.89941652
H      77.16033803      63.96156738      84.09561328
H      77.42300998      60.57139838      84.01435505
C      75.19691239      62.07562052      81.14197105
H      75.54840148      60.35974903      80.05726815
C      72.77617299      61.46901838      82.57249387
H      71.25494330      61.28193547      81.19488339
H      72.38310991      62.83906995      84.05781875
H      73.02561685      59.79472086      83.74601391
C      74.74715752      64.38108663      79.34862078
H      72.92924081      64.41132225      78.38108091
H      76.30051255      64.51525719      78.00313565
H      74.71881163      66.15553963      80.39363943
C      81.82418257      63.98613383      83.35106111
O      81.90733052      66.33695336      83.39263509
N      83.58162805      62.64253842      84.67197981
H      83.90288152      60.79249636      84.32615989
C      85.35419133      63.92944204      86.43509446
H      84.15799456      65.16343332      87.57270970
C      86.55038808      62.08884861      88.31915159
H      87.78626909      60.73013539      87.38373707
H      85.01215086      61.13453682      89.30369900
C      87.99224926      63.30394263      90.52824165
H      86.56550590      64.47557294      91.44286919
H      89.53993510      64.47557294      89.84227100
C      89.08829051      61.38587042      92.47654948
H      89.92543928      62.36852810      94.08281684
H      90.52826196      60.15376886      91.66774662
N      87.10218817      59.68322701      93.43275099
H      86.53338054      58.26215282      92.29324603
C      85.78504892      59.97802432      95.52278830
N      85.89087360      61.95467804      96.93630358
H      85.09529881      61.98869311      98.66918261
H      86.92644361      63.42677484      96.30135554
N      84.31295212      58.03160621      96.15395688
H      83.60052530      57.81806714      97.91140235
H      84.37531309      56.48014091      95.04468754
C      87.34596285      65.39586966      84.82126818
O      88.04327186      67.41787681      85.69432174
N      87.96957254      64.38297635      82.51013290
H      87.13242379      62.79938570      81.85250815
C      89.71378993      65.73791012      80.82638676
H      90.94967094      67.01158565      81.87140541
C      91.43344088      63.83117627      79.42232011
H      92.26303072      62.89954120      81.06071282
C      90.25425166      61.83562528      77.71022807
H      89.16576930      62.74269391      76.21545456
H      89.02026037      60.44667644      78.60784807
H      91.75847380      60.59974427      77.03937523
C      93.62363367      65.01225521      78.05793771
H      93.22679114      66.05538414      76.32694841
H      94.84817632      63.46645909      77.46078420
C      95.31304900      66.63741984      79.68688179
H      96.54704028      67.73535083      78.46044942
H      96.36184710      65.50358406      81.05126419
H      94.27936870      68.06983239      80.74701825
C      88.40609932      67.47645833      78.94421935
O      89.52859675      69.36429491      78.36596310
N      85.94756539      67.20622746      78.33383775
H      84.95545907      65.71145395      78.98390360
C      84.48491723      68.98445992      76.85985123
H      85.63387081      69.87641074      75.40098251
C      82.27015798      67.45000216      75.72412571
H      80.62987555      68.69344207      75.62774967
H      81.60875377      65.89853685      76.90709439
C      82.67833887      66.31049719      73.03504517
O      84.13153841      67.62763643      71.63475797
O      81.83363121      64.16565783      72.47946563
C      83.59296640      71.35984590      78.35651447
O      83.81406438      73.53303116      77.58550613
N      82.98447452      71.12174038      80.74512853
H      82.37031348      69.51547302      81.57282865
C      82.65566214      73.39130169      82.37029316
H      82.16622304      75.04481221      81.24590600
C      80.66200088      72.83950160      84.43765374
H      80.09886244      74.58560872      85.37306827
H      81.50481883      71.59417196      85.84738957
C      78.26204848      71.60740005      83.65530705
H      76.92601197      71.61873840      85.22566962
H      78.70235471      69.67232030      83.09972751
C      76.96569623      73.08327630      81.53881358
O      75.34620077      71.96077887      80.20088735
O      77.44946615      75.42086775      81.35173067
C      85.06695292      74.27758333      83.86506667
O      85.42789065      76.57360080      83.94821463
N      86.66377165      72.62785226      84.85717298
H      86.35007710      70.79481773      84.43765374
C      88.68766854      73.35350716      86.54469858
H      89.60040634      75.02213549      85.75101353
H      89.90654201      71.72834253      86.88673904
C      87.69178277      73.91286615      89.16952843
O      85.52426669      73.76357777      89.56826068
N      89.50214058      74.49490185      90.92508418
H      91.28226276      74.59883680      90.25045188
C      88.81805965      74.86339848      93.67274623
H      86.86975182      74.33994430      94.08470657
C      90.43377565      73.00201807      95.36594101
H      92.42743692      73.19665988      94.88406080
H      89.85551940      71.04426161      95.08815124
C      90.31850234      73.40830922      98.23832501
H      89.96701325      75.37740404      98.73154357
C      88.09051503      71.90030763      99.30224092
H      87.91854994      72.08739053     101.34692479
H      88.07539721      69.93877171      98.67296206
H      86.33495928      72.61462417      98.49910724
C      92.71656504      72.53336594      99.37027107
H      94.30393514      73.74468051      98.86571414
H      93.20600416      70.57560948      98.96209018
H      92.40853965      72.41809263     101.40361658
C      89.38497755      77.57515574      94.43241621
O      91.57894979      78.19309625      94.60438131
N      87.45556699      78.98489157      95.03145945
H      85.79449755      78.09860993      95.34515402
C      87.66343688      81.71365637      95.69097394
H      89.61363443      82.34860441      95.87994657
C      86.26692913      83.26323195      93.64440034
H      85.29938927      84.84304314      94.54957924
H      85.05750430      81.89318037      92.69764746
C      88.07539721      84.41785472      91.73388704
H      89.28860151      82.86449969      91.13295407
H      89.25458643      85.83892891      92.65040430
C      86.73747099      85.55735969      89.38684696
H      88.33051027      86.45497969      88.44009407
H      85.36930913      87.00300032      89.92163950
N      85.67166534      83.59393405      87.65396793
H      85.74347495      81.74200226      88.09994334
C      84.69278712      84.14384441      85.49401075
N      84.92900291      86.24710979      84.17687151
H      84.74758918      86.15829266      82.27958629
H      85.72646740      87.83825935      84.86473189
N      83.89721233      82.27868454      84.03325231
H      83.24903622      82.61316609      82.27013766
H      83.88020480      80.48722399      84.68520789
C      86.43511478      82.29758180      98.20053048
O      84.15988429      82.57726129      98.36871612
N      87.90721157      82.21254412     100.22442736
H      89.78748925      82.30892016      99.91262252
C      87.01337102      82.52434896     102.83035995
H      85.33718378      81.36594673     103.12704698
C      89.10718778      81.71554609     104.73142462
H      88.29082601      81.94987216     106.60981257
H      90.81361064      82.86260997     104.58024651
C      89.91599064      78.82615456     104.49709856
H      89.89520366      78.36695107     102.49020921
C      92.76191848      78.54836479     105.06779590
H      93.49324255      76.84383166     104.17017590
H      93.09828975      78.63907166     107.09736196
H      93.78237069      80.01857187     104.04734369
C      88.42310686      76.72477890     105.96730563
H      88.59507195      74.86528821     105.09803152
H      86.50881410      77.48066943     105.98242344
H      88.78215486      76.55470353     107.98931278
C      86.03449279      85.01311851     103.80545872
O      84.83451659      84.96587535     105.75187683
N      86.43322505      87.14284007     102.33336193
H      87.87697595      87.09370718     101.08614256
C      85.33718378      89.67129387     102.80390378
H      84.22602471      89.58247674     104.53678281
C      87.30249915      91.62716061     103.26877645
H      88.52137262      92.02400313     101.65683991
H      88.34751780      90.98654339     104.92606643
C      86.17244281      94.16884250     104.22497797
H      85.12742416      93.80601505     105.96163645
H      84.88931865      94.89071795     102.78311679
C      88.01303624      96.30234350     104.71630681
H      87.04360664      98.08813487     104.38749443
H      89.62875225      96.06234826     103.46152854
C      88.78215486      96.22486473     107.52632984
H      89.41710289      94.38805075     108.21041076
H      86.98502514      96.58391273     108.46552381
N      90.55282841      98.28466641     108.36158887
H      92.33295059      98.26009997     107.67561821
H      90.94778121      98.37159382     110.22674874
H      89.75347419      99.92305912     107.79278125
C      83.43422940      90.40639741     100.73654319
O      83.80650547      89.71286785      98.57847574
N      81.35364071      91.69330103     101.44519056
H      81.04750506      92.15817370     103.27255590
C      79.04628489      92.06368738      99.76144442
H      78.57196358      90.11726928      99.28523338
C      76.96380650      93.33547319     101.29968163
H      76.33452764      92.11471000     102.83413940
C      77.88977239      95.79778658     102.62815923
H      76.65389138      96.23053390     104.21741906
H      78.39621904      97.48720190     101.56613304
H      79.67934320      95.30645774     103.51822033
C      74.50527256      93.89861163      99.82758484
H      73.49426898      92.30368263      99.00366416
H      75.04762401      95.08535976      98.23454555
C      72.48704485      95.43684885     101.25432820
H      72.41145581      94.68095833     103.16862096
H      70.77117336      95.59747559     100.12805132
H      73.17679496      97.37003887     101.43385220
C      79.69257129      93.61893214      97.28212349
O      81.24781604      95.44818721      97.29913103
N      78.71747251      92.83091627      95.13728413
H      77.56851891      91.30590713      95.12594577
C      79.49792949      93.59625542      92.51812346
H      80.38043167      95.44629749      92.72032417
C      81.46324484      91.69519075      91.64506990
H      83.16021908      91.77077981      92.80914131
H      82.24559154      92.35659496      89.85738881
C      80.59019129      89.06280200      91.14051298
C      79.94012543      88.30502175      88.58938245
H      79.51871647      89.68263223      87.14185210
C      79.33163357      85.69530971      88.08671525
H      78.73448005      85.14917881      86.21399648
C      79.50737811      83.77723750      90.00667719
O      79.34297193      81.29791658      89.41330313
H      79.17478628      80.93886858      87.64262957
C      80.34263714      84.46698761      92.42741659
H      80.90955503      83.07047986      93.80502708
C      80.79806118      87.06914074      92.91685571
H      81.50292909      87.58881548      94.75933886
C      77.07907979      93.81357395      90.89295883
O      74.97203496      93.48665130      91.84916034
N      77.34931067      94.38427130      88.47599887
H      79.13888148      94.63938435      87.86372755
C      75.26494254      94.77355492      86.68264860
H      73.40734158      94.72253231      87.57081997
C      75.32163432      97.54011424      85.51101829
H      74.37866089      97.48909163      83.68176322
H      77.33608257      97.93317731      85.33338402
C      73.98370809      99.32212615      87.27791239
H      74.77550342      99.33157478      89.17897706
H      71.95792149      99.09346927      87.57648915
C      74.34842527     102.05089095      86.26879854
H      74.40322735     101.85435941      84.21844549
H      76.28728447     102.60080131      86.69209723
C      72.38310991     103.81211587      87.51601791
H      72.78562161     105.82089494      87.71821862
H      72.12610713     103.18094728      89.46243601
N      69.97559859     103.66660695      86.13462797
H      70.24582945     103.89337410      84.26001947
H      68.84743199     104.98185646      86.93965138
H      69.02128681     102.03577314      86.41619719
C      75.36698777      92.89138751      84.48111745
O      77.38332573      92.08825383      83.57971800
N      73.19569223      91.94463463      83.78002899
H      71.68580090      92.49265526      84.80804010
C      72.77995243      90.03034187      81.65786634
H      73.99882591      88.40139779      81.98856844
C      70.19102738      88.85682183      82.05092941
H      68.93813884      90.47253783      81.79581636
H      69.94914242      88.09148267      83.94821463
C      69.52395400      86.89717565      80.01191472
O      70.83920351      84.92808083      79.73412495
O      67.81186196      87.50377779      78.52281038
C      73.12388262      91.25866398      79.02169813
O      73.35631896      93.50932801      78.80248988
N      73.04451412      89.71853703      77.00347043
H      73.31663471      87.84770798      77.25858348
C      72.97270452      90.59914949      74.28604399
H      74.57519243      91.83314077      73.89298092
C      72.91979218      88.17463063      72.56072387
H      71.22092822      87.09559691      73.00103010
C      73.00482986      89.04390474      69.69211932
H      71.28706865      90.14372545      69.41432955
H      73.18246414      87.48488053      68.35797255
H      74.59219997      90.31002137      69.34629941
O      75.06463155      86.66473931      73.07661915
H      74.68668628      85.76333986      74.60351801
C      70.77495281      92.29423399      73.91565763
O      71.23226658      94.32002060      72.97268420
N      68.41468466      91.82369214      74.70556323
H      67.83453868      90.24955012      75.61641131
C      66.56275286      93.94585479      74.71690159
H      66.71960015      95.17228717      73.06906024
C      64.04185796      92.81579846      74.73957830
H      62.72471872      94.38616102      74.94177902
H      63.83398808      91.74243391      76.48379569
C      63.14045851      90.98843311      72.70812252
H      61.76851721      89.77144937      73.64353704
H      64.70137245      89.68452196      72.38686905
C      62.02929944      92.29234427      70.30061120
O      59.89957788      91.72920583      69.48613915
O      63.42769691      93.74365408      69.06850964
C      66.81408647      95.90361125      76.81260807
O      64.89979372      97.18862515      77.25858348
N      68.83609363      96.16439348      78.34328638
H      70.21937329      94.85103370      78.40753708
C      69.09498612      98.16939310      80.18199009
H      68.56208331      99.99297899      79.38830503
H      71.04329395      98.66639112      80.63174495
C      68.00083460      97.49665053      82.73123088
O      68.70570250      98.79111306      84.56804486
N      66.50417135      95.55968106      82.98067476
H      65.62544861      94.92284330      81.41031219
C      65.37600474      94.73009121      85.36172991
H      64.28374293      96.32502022      86.07415673
C      63.67336133      92.40383812      85.04425589
H      62.67936529      92.08069492      86.81870890
H      65.04152318      90.99788174      84.42064621
C      61.75339940      92.53422924      82.99579257
C      61.16191506      90.43096385      81.55960057
H      62.07465287      88.71887181      82.19265888
C      59.60478059      90.62560566      79.44310710
H      59.19659970      89.00044103      78.27714596
C      58.32165641      92.93674094      78.95933716
O      57.00073773      93.10870604      76.74457792
H      56.52452669      94.83591589      76.45922925
C      58.89991266      95.04189605      80.39741889
H      57.99095431      96.84091550      80.06671678
C      60.72538829      94.90772549      82.37974179
H      61.33765961      96.71997302      83.09027888
C      67.26384133      94.02144385      87.47066448
O      68.92680049      92.42840456      87.04547605
N      67.00494882      95.00977071      89.83471209
H      65.47993969      96.00943593      90.40162999
C      68.67357716      94.17451168      91.89451377
H      70.63511307      94.54678776      91.39373630
C      68.19169695      95.55401188      94.40784977
H      69.27073067      94.62237681      95.89506438
H      66.16213088      95.40094405      94.72154434
C      68.89467513      98.26576914      94.15840590
C      66.99550020     100.18195163      93.92974901
H      65.00183893      99.75109403      93.81636543
C      67.62288933     102.73308215      93.46487634
H      66.18480761     104.17872278      93.51400922
C      70.09465135     103.42094253      93.74077638
O      70.80707816     105.81333604      93.57825992
H      69.25561287     106.75630947      93.52156813
C      72.07319479     101.55578265      93.86738804
H      74.01205400     102.11136219      94.18108261
C      71.53840225      98.93284253      94.05447095
H      73.04262440      97.58168822      94.32848127
C      68.60176755      91.41551126      92.27623849
O      66.46448709      90.49710427      92.03813297
N      70.67479733      90.18718916      92.88095091
H      72.26594688      91.24165644      92.88850981
C      71.12644192      87.38094558      93.13417424
H      69.46726221      86.54379682      94.02045588
C      71.52328443      86.47954613      90.34682792
H      72.68168667      87.98376827      89.54180451
C      72.85365176      83.94731287      89.58904767
H      71.76894886      82.30136125      90.19187037
H      74.68857601      84.14384441      90.50178548
H      73.09364700      83.93597451      87.54247408
O      69.25939231      86.64962150      89.00701197
H      68.92113131      88.43352314      88.97866607
C      73.51316624      86.94441880      94.76689777
O      75.20069184      88.55257590      94.94831150
N      73.69835942      84.63706297      95.87427739
H      72.36988182      83.34826963      95.40184581
C      75.94524402      83.81314230      97.16496046
H      77.55907029      84.71454175      96.25600210
C      75.90933922      84.58037119      99.98443212
H      75.05329319      86.45308996      99.93529924
C      73.90433959      83.06292096     101.62282483
H      72.10909960      83.49377856     100.71008702
H      73.98937727      83.58637514     103.61459637
H      74.47314721      81.08815696     101.46975700
C      78.41511630      84.65218079     101.33369671
H      79.84941858      85.54980078     100.16017667
H      78.94801913      82.75678529     101.94218858
C      78.37354233      86.43797215     103.62782445
H      77.30773668      88.18785872     103.40861620
H      80.25759946      86.90662428     104.31190538
H      77.75371209      85.34571034     105.26054799
C      76.58775096      81.02768572      96.79268438
O      75.10053636      79.55747865      96.14261853
N      78.93668076      80.35116370      97.46164749
H      80.05350902      81.77979679      98.05691128
C      79.83430076      77.74334138      97.73943726
H      78.52283071      76.71722000      98.94886210
H      81.59741542      77.78869482      98.80524290
C      80.53916867      76.46777612      95.22610126
O      82.22291483      77.49578724      93.84660106
N      79.56595962      74.25490661      94.91996560
H      78.20346695      73.72389352      96.14639798
C      79.59052606      72.98878998      92.48977756
H      81.14577082      73.65964282      91.31625752
C      80.24248164      70.19388476      92.96598859
H      78.67211908      69.23201407      93.88817503
C      80.59775020      68.63108110      90.43375533
H      80.10831108      66.69600136      90.94398144
H      82.47424842      69.05815925      89.69676207
H      79.24092670      69.44177369      89.10905719
C      82.63865461      69.82538813      94.55335870
H      82.68589778      71.14441710      96.13505962
H      84.33184938      70.11073681      93.41763318
C      82.56684501      67.24969117      95.93663836
H      82.74069984      65.67743888      94.61382994
H      80.85097353      67.41787681      97.05913579
H      84.20145827      67.07016717      97.17818855
C      77.10742570      73.58216404      91.02901912
O      75.35186995      71.92298434      90.69642729
N      76.70302426      75.95755002      90.10872241
H      78.08063474      77.27279953      89.99911828
C      74.38244035      76.40163570      88.50245504
H      74.09331222      74.81426560      87.22311033
H      74.73392945      78.07971267      87.36106035
C      71.92768587      76.90241318      89.81959428
O      69.94158351      76.65296930      88.76134755
N      71.79162557      77.43531600      92.22521588
H      73.39222376      77.40319065      93.26456535
C      69.34631973      77.41452901      93.55936266
H      68.28996272      75.73834177      92.98866531
C      69.68458073      76.89107482      96.41473911
H      70.74660692      78.34238463      97.41629406
H      70.70125350      75.11284236      96.63394737
C      67.15612694      76.91942071      97.82636467
N      65.52529312      74.90497246      97.95297633
H      65.76717809      73.22500577      97.07803305
C      63.32187224      75.73078286      98.96775936
H      61.64568500      74.59127789      99.19452652
N      63.70737640      78.08916130      99.86348964
H      62.39023716      79.26079161     100.59292399
C      66.10165964      78.87339772      99.26444639
H      66.99172074      80.61761511      99.83703347
C      67.96870924      79.91841637      93.14173314
O      68.83798334      81.78168652      94.22076687
N      65.78040617      80.05447667      91.95876447
H      64.99994921      78.35750244      91.56759112
C      64.31208882      82.39773729      91.49956097
H      65.61977943      83.87928272      90.92697390
C      62.21260289      81.97443860      89.47944355
H      60.87656639      80.55714386      90.14462721
H      63.13667906      81.37917481      87.73711589
C      60.63657115      84.22132319      88.74245028
H      59.64635456      84.62005544      90.50556493
C      62.15780083      86.55702491      87.98089058
H      63.44848390      86.13183649      86.43320473
H      63.20470921      87.48488053      89.49267163
H      60.85955885      88.01022444      87.31192747
C      58.73172702      83.53535253      86.76201711
H      57.41080833      82.21254412      87.62562203
H      59.59911140      82.56025376      85.17086755
H      57.65647275      85.18886306      86.16486359
C      62.91936053      83.40874087      93.83715242
O      61.48316853      81.91018791      94.95209095
N      63.42391746      85.78223712      94.67241145
H      64.81097657      86.95197771      94.08092712
C      62.25795632      86.77434343      97.01945153
H      61.72316378      85.18319388      98.21186884
C      63.89823876      88.78501223      98.30446543
H      62.82676394      89.71286785      99.79923894
H      64.22138197      90.44608166      97.13094539
C      66.35677269      87.82503126      99.49121355
H      67.13722967      86.24899952      98.41595928
C      68.14634351      90.11726928      99.84648210
H      68.25783737      90.75221732      97.89061537
H      69.96426023      89.70530895     100.71953566
H      67.31675366      91.62338115     100.98031789
C      66.09788019      86.69119548     102.17840437
H      64.30641965      85.67641245     102.24832424
H      66.27173501      88.15951282     103.61081691
H      67.58509480      85.32870281     102.59981334
C      59.67847990      87.78534701      96.11616236
O      57.73017208      86.84993249      96.83047890
N      59.80131212      89.90939939      94.73855188
H      61.53419115      90.57269332      94.29068674
C      57.52797136      91.33803248      93.85793941
H      56.00107250      89.98876789      93.57070101
C      56.57365958      92.98209437      96.19553086