 %block lattice_cart
   135.996   0.000   0.000
   0.000 142.663   0.000
   0.000   0.000   160.158
 %endblock lattice_cart

 %block positions_abs
N      91.43249601      42.22121102      80.53820350
H      91.59123303      41.37839308      82.24273662
H      93.19561067      42.29113089      79.81065886
H      90.18716636      41.44642323      79.31555058
C      90.51408903      44.75722373      80.97473027
H      91.39659122      45.74744032      82.55076202
C      90.69550274      46.28979177      78.60312375
H      89.50497517      45.70019716      77.02709200
H      92.57767015      45.99499446      77.82266678
C      90.46873559      49.10359425      79.25507932
H      88.72073875      49.53634157      80.25285482
H      90.58967807      50.08814166      77.45039069
S      93.01419694      50.00688343      81.42259540
C      92.85168047      53.43484696      81.04842959
H      94.17448889      54.14538405      82.45816543
H      90.92415963      54.15672241      81.16181317
H      93.65292443      54.00176485      79.23807179
C      87.74941942      44.42085244      81.70983380
O      86.59668637      42.37805830      81.10512138
N      86.57967884      46.31813766      82.99484770
H      87.52076254      47.83180844      83.67136973
C      83.89059829      46.30679930      83.56365532
H      82.99675774      45.33547998      81.98384412
C      83.32745986      44.67029632      85.95226938
H      84.77499020      43.25489131      86.33021464
H      81.45474107      43.82936811      85.78786319
C      83.33123930      46.21231299      88.34844234
O      81.33379859      47.06646928      89.28007741
N      85.56867526      46.80001787      89.44637334
H      85.71985337      48.08692149      90.84855025
H      87.25242141      46.20853354      88.76796158
C      82.83991047      49.01855656      83.57310395
O      84.33279426      50.83836300      83.15925390
N      80.34358201      49.38705320      84.10978622
H      79.40249830      47.79212419      84.56710000
C      78.97353043      51.73976245      84.19293418
H      79.39493939      52.86981879      82.52430585
C      76.13894096      51.28244869      84.22316980
H      75.91406352      49.99932452      82.63013052
C      75.16762163      50.10514919      86.57209961
H      73.13049667      50.11648755      86.24895641
H      75.73076008      51.10670414      88.28041219
H      75.97264505      48.21164343      86.67036538
C      74.35314959      53.55956889      83.52964024
H      74.32480369      54.87103896      85.11701035
H      72.42373903      52.91328250      83.22161485
C      75.46808812      55.06946022      81.14669536
H      77.07624522      56.25809807      81.63991393
H      73.97142487      56.38848918      80.63080009
H      75.88760736      53.92428607      79.48940540
C      79.79934083      53.55767917      86.42848041
O      80.21319088      55.85558636      86.12234474
N      80.35114092      52.45596873      88.59032731
H      80.01854908      50.57569105      88.67347527
C      81.33946778      53.73531344      90.84099135
H      80.16783746      55.39449314      91.18492155
C      80.68751220      51.97786797      93.03685332
H      81.84213497      52.59958793      94.62422344
H      81.35647531      50.03144987      93.02173551
C      77.86237135      51.83991795      93.81164111
C      76.96097191      53.46886203      95.65412427
H      78.35558993      54.70096359      96.49127302
C      74.46464345      53.37815517      96.53851618
H      73.92229199      54.86725950      97.82353008
C      72.75822059      51.65094532      95.46515164
H      70.78156687      51.68685012      95.97159830
C      73.64261250      49.82924915      93.77384659
H      72.52578425      48.32880646      92.95748482
C      76.24854508      49.91617656      92.93291838
H      76.89672121      48.22298179      91.99372440
C      84.19484424      54.30412106      90.62178310
O      85.42694578      55.35669862      92.34332377
N      85.37592317      53.70129837      88.48450264
H      84.56145113      52.60147765      87.15035586
C      87.77398586      54.74064784      87.61711826
H      88.70940039      55.81968156      89.10244314
C      89.56922586      52.61470574      86.91791953
H      91.39092203      53.38949353      86.35100163
H      88.69995177      51.51110557      85.41180765
C      90.19283555      50.93284932      89.24417261
H      88.38436746      50.54923488      90.15124124
H      91.43249601      51.92117618      90.56131185
C      91.45517273      48.44219004      88.27852247
O      90.08701088      46.67340621      87.29964424
O      93.75874910      48.06235505      88.26718411
C      87.57178515      56.58502072      85.27763708
O      88.80199698      58.51443129      85.31354189
N      86.17149796      55.92361651      83.31988062
H      85.12269986      54.33246696      83.40869776
C      85.75953761      57.59035512      81.16559263
H      87.53021118      57.80956337      80.13569179
C      83.72052293      56.32045904      79.50830265
H      82.02354869      56.58124127      80.64780762
H      84.02287914      54.31356969      79.13980602
C      83.15927422      57.69240034      77.08189407
H      84.77499020      57.62059074      75.80443908
H      82.58479741      59.65015680      77.37291192
S      80.42295051      56.24298026      75.58901029
C      80.54011354      56.29400287      72.13837004
H      82.40527342      55.70062881      71.49775281
H      80.06201279      58.21207508      71.56011378
H      79.22297431      54.99009171      71.24263977
C      85.01876491      60.31345074      81.93660096
O      86.01843013      61.92538728      80.64969734
N      83.57879346      60.75564669      84.01718963
H      82.84557964      59.19095331      84.82788222
C      82.91738925      63.25575461      84.73906508
H      82.39960423      64.40659793      83.11201073
C      80.39271489      63.03465663      86.00896117
H      79.88626823      64.84879389      86.84233047
H      80.31145666      61.62870025      87.51318331
C      78.20441181      62.39781886      84.12112458
H      78.86392631      60.92572206      82.84177987
C      75.83469503      61.67405368      85.68770770
H      76.27500126      60.28321512      87.14090723
H      74.21708929      60.96540631      84.62757124
H      74.94841339      63.35968955      86.47572357
C      77.56568433      64.52565069      82.20872155
H      75.74587788      63.93227663      81.44527213
H      79.04911949      64.55021713      80.78008847
H      77.51466171      66.23207355      83.36334433
C      85.08868477      64.64092399      86.23194888
O      85.23797315      66.88213940      86.12612420
N      86.95762411      63.34079229      87.19192985
H      86.93494738      61.43783789      87.03319283
C      89.30655390      64.51053288      88.37678825
H      88.77743054      66.05065982      89.63534596
C      90.61613424      62.28632501      89.77329599
H      92.46806602      62.91560387      90.41958238
H      90.91660072      60.62525558      88.59410676
C      89.09301483      61.50775777      91.98049632
H      87.33934881      60.74808779      91.21704689
H      88.64514969      63.19528336      93.07086840
C      90.44983833      59.52543486      93.74172125
H      91.84067690      60.44195213      94.95303581
H      91.62902754      58.30089221      92.57764983
N      88.69995177      58.11947849      95.42924684
H      87.90437698      56.59446935      94.60532617
C      88.25586608      58.65238131      97.82164035
N      89.04199223      60.69517545      99.11988233
H      88.12736469      61.06178236     100.75449560
H      90.58778835      61.71373793      98.64745075
N      86.54566377      57.42405920      99.14822822
H      86.36613976      57.84168872     101.00016002
H      85.91260544      55.67417264      98.72492954
C      90.98841032      65.60657414      86.36989890
O      92.22618106      67.52653607      87.04453119
N      91.24919256      64.51431233      84.12679377
H      90.23251981      62.94772922      83.73184097
C      92.38869752      65.64247894      81.75896669
H      94.21606286      66.47584824      82.22005992
C      92.61546469      63.59590534      79.67270884
H      91.16982405      62.13136745      79.75018762
C      92.64570030      64.71651305      76.97040021
H      90.98463087      65.92782761      76.85701664
H      92.73829689      63.18772446      75.59278973
H      94.23684986      66.00530639      76.75686114
C      94.96439448      62.04632977      79.83522530
H      96.67648653      63.19339364      79.87301984
H      94.97006366      60.93517069      78.10234628
C      95.13635959      60.17361099      82.09155852
H      93.73040320      58.66938884      82.00274139
H      94.79431912      61.19973238      83.84333481
H      96.98451191      59.27410126      81.96116740
C      90.83345277      67.90070188      81.01063507
O      92.00130363      69.90570150      80.80087545
N      88.40515446      67.65881692      80.76308092
H      87.56800570      65.99585776      81.17126181
C      86.86691723      69.65247818      79.72751091
H      87.73430161      70.31010293      77.97951406
C      84.15327025      68.56021637      79.19649781
H      82.65660701      69.97184192      79.10390122
H      83.69784621      67.20717233      80.68182269
C      84.13626271      67.26386412      76.60757276
O      85.56678554      67.91770942      74.94650333
O      82.58101795      65.44972686      76.24474531
C      86.77621038      72.02597442      81.52464063
O      87.47729883      74.13301926      80.86134670
N      86.17716713      71.64047026      83.87546016
H      85.84457531      69.89625287      84.57465889
C      85.51009375      73.63224179      85.64235426
H      84.59168676      75.07599269      84.49529039
C      83.18950983      72.90847661      87.18626066
H      82.67739400      74.52230288      88.35789098
H      83.97941543      71.41937228      88.36733960
C      80.84624920      71.85022988      85.87668032
H      79.62170656      71.30787843      87.44137371
H      81.28655543      70.15136592      84.79953633
C      79.30234280      73.61712398      84.02474854
O      80.36436900      75.51062975      82.99295797
O      77.01955342      73.12390541      83.60522930
C      87.77398586      74.63568646      87.33554904
O      87.65682283      76.89201968      88.22183068
N      89.65048409      73.13146432      87.70593540
H      89.69394780      71.48551270      86.73839552
C      91.58178438      73.66247741      89.50873430
H      92.44160987      75.46149686      88.99472875
H      93.01986611      72.18660116      89.48794731
C      90.75030481      73.92892882      92.33765460
O      88.71317984      72.91225607      92.93291838
N      92.11468720      75.11756667      94.05352608
H      93.82866897      75.81298596      93.58109450
C      91.29076653      75.39157699      96.63489222
H      89.23663404      75.41236398      96.78040115
C      92.31499819      73.09555952      98.26194659
H      94.29543137      72.78942386      97.79140473
H      91.29265627      71.43637982      97.59676293
C      91.96350910      73.33933421     101.13244085
H      93.28253807      74.78497484     101.77494780
C      89.19506005      73.98562061     101.64455668
H      88.68105449      73.71727947     103.62121040
H      88.01020166      72.71761426     100.53528733
H      88.62247299      75.91881063     101.23259634
C      92.64381058      70.69182765     102.24548966
H      94.65825882      70.30821321     102.04895812
H      91.40037066      69.36712950     101.27228060
H      92.38302834      70.56521598     104.28450434
C      92.25830640      77.97294313      97.57408620
O      94.55621361      78.46805143      97.84809652
N      90.46684587      79.56409269      98.37533017
H      88.64325998      79.08788166      98.08242258
C      90.67471575      82.15112801      99.22192756
H      92.60412633      82.77284797      99.58853446
C      89.82622864      83.81597689      96.99582996
H      88.99285933      85.59042990      97.62888827
H      88.14248249      83.04496856      96.09443050
C      91.82177963      84.48305028      94.92468991
H      92.11657694      82.73127399      93.88534044
H      93.30332505      85.40145727      96.02262090
C      90.87124729      86.43702729      92.97827181
H      92.38680780      87.82975558      93.01795606
H      89.10435319      87.15512329      93.75872878
N      90.34968284      85.53373811      90.48194335
H      89.98496565      83.68558578      90.17580770
C      89.98496565      87.00205546      88.51095881
N      90.72006920      89.25271949      88.42781085
H      89.98118621      90.29962787      87.01429556
H      91.64036591      90.07664017      89.88290011
N      89.08167647      86.13845053      86.29430984
H      88.74152574      87.27984522      84.80142606
H      88.33523458      84.38667424      86.40013451
C      89.11191210      82.51584519     101.68235121
O      86.82345353      82.03963416     101.90911836
N      90.57078082      83.53629740     103.49081929
H      92.39058725      84.07486940     103.30373639
C      89.65426354      83.72149058     106.08730324
H      88.38625719      82.14545883     106.47847659
C      91.86335360      83.67046797     108.02805217
H      91.18305213      83.91802211     109.95557300
H      93.22773600      85.09721133     107.44034729
C      93.26742026      80.88879083     108.23214261
H      94.30488001      80.79052506     106.45391015
C      95.01541710      80.58643462     110.40343814
H      96.53475706      81.95648620     110.17856072
H      95.99240560      78.78741517     110.61508749
H      93.87024296      80.89068056     112.08907401
C      91.52698233      78.63056789     108.31529056
H      92.33389547      76.82398953     108.88598791
H      90.48952257      78.28852743     106.56918346
H      89.88103071      79.00095425     109.49636951
C      88.07067290      86.19514232     106.25170943
O      86.54188432      86.45592455     108.00348572
N      88.79443807      88.39856320     105.07252021
H      90.35913146      88.29462825     103.98403787
C      87.32234127      90.79284644     104.98559280
H      86.27921235      90.92701701     106.75626636
C      89.09868402      93.14177625     104.66433933
H      88.04232701      94.89922172     104.49237423
H      90.33645474      93.03217212     103.02216716
C      90.62180342      93.44980164     107.10208628
H      91.71406523      91.73015069     107.41011166
H      89.20450869      93.67278934     108.57985225
C      92.49263247      95.53039031     106.97169516
H      91.43060629      97.28594605     106.78272252
H      93.75119019      95.40566837     105.34653053
C      94.13858409      95.49070605     109.35652977
H      95.09856505      93.67089961     109.47747225
H      92.82900376      95.85920268     110.90043617
N      95.90169875      97.86987148     109.31684551
H      96.66892763      98.16655851     111.04027591
H      94.88313626      99.43456487     108.92378245
H      97.36056745      97.74892900     108.09041314
C      85.14726630      90.67379368     103.03539525
O      85.27009850      89.08264413     101.33275184
N      83.44840233      92.52005629     103.06563087
H      83.86414213      93.95057911     104.25804817
C      81.79111237      92.92256799     100.94913740
H      80.86703619      91.13299718     100.51261063
C      79.53855859      94.76127170     101.71825602
H      80.36814845      96.51682744     102.40044721
C      77.87748916      95.32818959      99.41090019
H      77.67150900      93.55373658      98.38477879
H      78.70140983      96.77760967      98.19958561
H      76.09169780      96.10108765     100.09120165
C      77.97575493      93.68223797     103.83097002
H      79.25887911      93.17957077     105.36353807
H      76.97608972      91.98148429     103.23759596
C      76.05390328      95.27149780     105.13110173
H      75.33013809      94.48159220     106.88854720
H      74.47031262      95.70046567     103.88577209
H      76.79656571      97.08941451     105.76416004
C      83.25565026      93.77861401      98.54351580
O      84.79199775      95.48314715      98.62666376
N      82.70573989      92.41990079      96.41001479
H      81.42450546      91.01961360      96.59709770
C      83.12336941      93.26838791      93.76817741
H      83.90571611      95.16567313      93.95526032
C      85.18695055      91.60353903      92.47938407
H      86.73463639      91.41078694      93.82297947
H      85.77276571      92.45202614      90.69926188
C      84.11547573      88.91634821      91.93136344
C      83.93784146      87.84487339      89.39535072
H      84.31578672      88.99949617      87.75695801
C      83.05533926      85.23138190      89.05519999
H      82.47708302      84.38856396      87.28641615
C      82.81912347      83.62700426      91.08476604
O      82.16338845      81.14957306      90.69926188
H      81.97063636      80.79619424      88.93047806
C      83.30289341      84.52840371      93.58298423
H      83.20273792      83.23772064      95.16090571
C      83.87170104      87.06441642      93.93447332
H      84.50664907      87.80329941      95.72782359
C      80.70263001      93.64255372      92.27907307
O      78.59936461      93.48003726      93.21826705
N      80.93884579      93.92601267      89.70337611
H      82.55456179      94.60064496      88.94181640
C      78.64660778      94.33041410      88.18592588
H      77.12726782      93.21169612      89.01551574
C      77.88882753      97.18579056      88.59410676
H      79.57068394      98.35742087      88.79441775
H      76.54145267      97.24626180      90.14935152
C      76.29200879      98.36309005      86.47005440
H      74.95408256      96.95524395      85.78030428
H      77.45419047      98.79583737      84.82599250
C      74.70274896     100.55895202      87.31098260
H      73.50655220     100.13565333      88.93236777
H      73.49899329     100.80650617      85.65558236
C      76.31468550     102.89654347      87.78719363
H      77.43718294     103.25559147      86.09777830
H      77.54678706     102.52237766      89.39346099
N      74.66495443     105.01114722      88.38056769
H      72.96798021     104.84296158      87.52641141
H      75.61737650     106.60418650      87.93270255
H      74.49109961     105.45334318      90.22872003
C      78.89794137      93.37799204      85.42314601
O      80.74042453      94.11687502      84.18537527
N      77.00443562      91.93046168      84.65213768
H      75.61359705      91.64511301      85.92770293
C      76.76444036      90.79851562      82.18415511
H      78.33858238      89.55696543      81.70794409
C      74.38905439      88.96359137      82.33155376
H      72.70152880      90.14467031      82.27864142
H      74.37015713      87.95258779      84.12490403
C      74.19252285      87.13244657      80.06955136
O      72.42940820      87.49338430      78.55399087
O      75.74398816      85.36744219      79.95805752
C      76.39783346      92.69391111      80.09978699
O      75.55879498      94.82363266      80.30954661
N      76.91939792      91.75660686      77.76597499
H      77.69796516      90.02372783      77.58645100
C      76.33358276      93.08508446      75.44350135
H      77.25765893      94.89733199      75.75341647
C      77.68284736      91.88321852      73.18716814
H      77.25198976      93.16445296      71.63192338
C      80.51932655      91.98148429      73.56133395
H      81.27143763      90.70780876      74.99752595
H      81.30923215      93.86176197      73.84479289
H      81.41694656      91.27094720      71.84924190
O      76.98364863      89.34909554      72.74875163
H      77.52033090      89.01272425      71.04988768
C      73.58970017      93.59153111      74.92949580
O      73.21742407      95.32063069      73.52542915
N      71.60548754      92.48037204      76.22017887
H      71.86626976      90.87788412      77.22551326
C      69.01467275      93.54617768      76.10112611
H      68.58192543      94.10175721      74.16604636
C      67.24966839      91.46369928      76.75686114
H      67.35171361      90.90623002      78.73729431
H      67.76934311      89.98782303      75.41704519
C      64.38106383      91.94180004      76.28065011
H      63.63840139      93.51405233      77.38425027
H      63.41541369      90.21647991      76.86079609
C      63.89162472      92.42368025      73.49708326
O      63.26234587      90.59820463      72.19128237
O      64.17697340      94.57040934      72.41804952
C      68.82192068      95.78928281      77.84912295
O      66.84904640      96.99114875      77.87179966
N      70.74566207      96.46391510      79.38736017
H      72.39161369      95.53605948      79.11146013
C      70.64739629      98.25159620      81.40180842
H      69.49655297      99.88998891      80.92370766
H      72.64672673      98.61631338      81.75329751
C      69.40206665      97.25948988      83.76585603
O      68.54224118      98.88276479      85.21527611
N      69.13561524      94.79339704      84.31765612
H      69.80646809      93.54617768      83.03831141
C      68.00555891      93.78806265      86.73083662
H      66.78101625      95.33574850      87.32043124
C      66.58826418      91.25016021      86.34911191
H      65.96843395      90.40545255      88.12356492
H      68.12461167      90.12955250      85.56109603
C      64.49255769      91.47881709      84.38379654
C      63.87272746      89.23571196      83.00996552
H      64.94420228      87.55574527      83.44649229
C      61.89796346      89.27539621      81.29220430
H      61.30836885      87.57464253      80.33411305
C      60.64129546      91.59598012      80.76497065
O      58.62495749      91.77361440      79.13791629
H      57.53836486      93.16445296      79.56310472
C      61.29136131      93.83719553      82.13502223
H      60.42397694      95.60219991      81.59078106
C      63.15841091      93.70491469      83.97750539
H      63.08282186      95.24504163      85.31354189
C      70.20331060      93.44602218      88.65646774
O      72.28389928      92.52194602      87.97616626
N      69.80835781      94.11309557      91.07342769
H      68.22665688      95.01449502      91.64790448
C      71.83981360      93.75593730      92.94047728
H      73.65395086      94.48537165      92.29041143
C      71.49777313      95.44724235      95.25539202
H      72.67318291      94.87276555      96.84465184
H      69.63261327      95.16945258      96.08120242
C      72.08547802      98.18167632      94.91902074
C      70.13150100      99.89943754      94.69414330
H      68.20586990      99.23236415      94.60532617
C      70.53023326     102.47702423      94.43336107
H      69.15073305     103.97935665      94.38233847
C      73.11159940     103.37464423      94.34832339
O      73.65206113     105.78593501      94.00250347
H      72.25555338     106.79882831      94.56375220
C      75.10526067     101.61152958      94.41446382
H      76.98364863     102.35986120      94.12911514
C      74.61582155      98.97536137      94.71870974
H      76.04445465      97.53350020      94.93035910
C      72.15161843      90.97426017      93.78707467
O      70.17685445      89.62121613      94.04029800
N      74.52889415      90.12766278      94.10643842
H      75.99343203      91.31063145      93.78707467
C      75.31502029      87.52173019      94.45036862
H      73.82591595      86.23293685      95.05886048
C      76.40350265      86.58820539      91.89734836
H      77.51466171      84.87611335      92.17135867
C      74.33047287      85.78318198      90.11344672
H      72.83758909      87.17024110      89.82242887
H      73.44608096      84.04841323      90.78618929
H      75.31691001      85.25594834      88.38434714
O      77.78867203      88.35509950      90.66902626
H      79.53288941      87.96959533      90.98083110
C      77.24632057      87.04551916      96.51394974
O      78.55779064      88.89934067      96.94858679
N      77.48442610      84.81564211      97.68746978
H      76.03311629      83.59865837      97.46637180
C      79.47241818      84.04463378      99.49971731
H      81.25443008      84.89123116      98.91012271
C      78.77321943      84.97815857     102.20013622
H      78.00221110      86.86977461     101.92234645
C      76.87215477      83.46826725     103.46625285
H      77.52600007      81.54830532     103.82341113
H      75.25265931      83.48149533     102.19257731
H      75.88004846      84.40557150     105.01015924
C      81.02388347      85.16146203     104.01994267
H      82.66416591      86.06664093     103.16389664
H      81.79111237      83.28685352     104.39599820
C      80.28689021      86.66946362     106.43879234
H      80.07524086      85.55263537     108.15655355
H      78.59558516      87.80140969     106.12320804
H      81.87237060      87.87888846     106.94901845
C      79.99020318      81.07398401      99.49971731
O      78.52188584      79.71527079      98.37533017
N      82.07268158      80.11778250     100.65245038
H      83.43139480      81.31775871     101.24204499
C      82.60936385      77.52507800     100.76961341
H      80.88782319      76.58966347     101.40834089
H      84.15704970      77.00162381     102.02628140
C      83.27454751      76.31187370      98.18257807
O      84.46696482      77.50240128      96.58575934
N      82.47708302      74.02908432      97.79896364
H      81.55867603      73.17114857      99.23326590
C      82.65471729      72.51352381      95.46137218
H      84.39326550      73.14847185      94.55619329
C      82.85502827      69.67326517      95.89600924
H      81.03333210      69.03075822      96.61032578
C      83.66572086      68.30132386      93.41857805
H      85.46285058      68.95894862      92.65512861
H      82.22196996      68.68115885      91.99939359
H      83.90193665      66.30199342      93.84943564
C      84.96207312      69.12146508      97.88022186
H      84.38192713      69.78664874      99.74160228
H      86.67416515      70.16648373      97.40212111
C      85.91260544      66.40214892      98.49060346
H      86.85746861      65.48752138      96.90512309
H      84.12492435      65.56688989      99.08019807
H      87.20139879      66.21506601     100.08931193
C      80.33413337      73.18815611      93.83809729
O      78.65605640      71.66503670      93.58676368
N      80.12815320      75.55031400      92.95181564
H      81.60213973      76.75784911      93.08220676
C      78.05323372      76.54619977      91.45893186
H      77.94740905      75.28575231      89.83376723
H      78.62015160      78.41513909      90.79941737
C      75.53800799      76.77485665      92.74961493
O      73.61237687      76.76540802      91.37200444
N      75.11470930      76.78241555      95.26295092
H      76.62082116      77.20382452      96.35899219
C      72.55035069      77.26996494      96.20592436
H      71.28990323      75.87345720      95.36499614
C      72.63160892      76.58210457      99.11988233
H      73.77678306      77.98239176     100.10065029
H      73.44608096      74.75851867      99.62254953
C      70.01055852      76.87879160     100.10442973
N      68.15673702      74.92670432      99.97025917
H      68.27956922      73.23161981      99.09909534
C      66.02701545      76.04542229     101.04740317
H      64.21287820      75.12512558     100.91134288
N      66.56180800      78.33577058     102.06029648
H      65.33726535      79.60188721     102.79351028
C      68.99010631      78.92158574     101.27606005
H      70.08614757      80.61667024     101.57463681
C      71.63194370      80.02896536      95.62199892
O      72.88294253      81.86011016      96.42135315
N      69.50600160      80.41446953      94.29352133
H      68.55546926      78.77985627      94.04974663
C      68.23988497      82.81253222      93.55274861
H      69.69686395      84.19581188      93.09543484
C      66.81503134      82.28907803      91.10366332
H      65.63017293      80.64312641      91.46838048
H      68.20586990      81.86577934      89.64479460
C      65.18230779      84.53974207      89.92636382
H      66.25378262      86.28395946      90.16257960
C      64.77223718      84.02762624      87.10500243
H      66.63361760      84.09565639      86.22438998
H      63.38517807      85.29752232      86.26785367
H      63.90863226      82.17569445      86.84422020
C      62.47621971      84.46982220      91.14334756
H      61.38395790      86.09687655      90.50839952
H      62.53102177      84.71737634      93.18614170
H      61.66552712      82.63111849      90.69548242
C      66.65629433      83.68369605      95.76183868
O      65.27868383      82.34199037      96.86732857
N      66.86983340      86.12900190      96.39300726
H      68.24555414      87.18535891      95.59743248
C      65.46576674      87.25338905      98.52650826
H      65.06514476      85.83798405      99.96836945
C      67.21943276      89.29996265      99.77561736
H      66.05536136      90.18435457     101.22881689
H      67.68241570      90.92890673      98.60209732
C      69.72898930      88.09242754     100.76394422
H      70.68897028      87.20425617      99.17090494
C      71.53556767      90.27317170     101.44046624
H      72.00610951      91.36165406      99.75672009
H      73.31002066      89.55885516     102.20580539
H      70.52834354      91.36354379     102.87098907
C      69.59670847      86.04018476     102.79351028
H      69.56269338      86.84898762     104.68890577
H      71.14061487      84.71170716     102.49493352
H      67.86760888      84.94981268     102.54595613
C      62.89195950      88.04140493      97.58542456
O      61.00412291      86.79796501      98.18635753
N      62.56503685      90.08419907      96.17757846
H      64.00878776      91.23504240      95.69191879
C      60.09327483      91.00449579      95.35932697
H      58.71188490      89.47948665      95.24972285
C      58.85550410      92.75249263      97.27550944