 %block lattice_cart
   135.996   0.000   0.000
   0.000 142.663   0.000
   0.000   0.000   160.158
 %endblock lattice_cart

 %block positions_abs
N      89.54560428      41.69397737      82.24084690
H      89.45489742      40.13306344      81.14858509
H      88.65554320      41.36516500      83.89624715
H      91.39375662      41.97365687      82.63202025
C      88.41932740      43.84259619      80.98417891
H      88.71979389      45.33170053      82.37690720
C      89.50214059      44.42652162      78.34801070
H      88.90876653      42.87883577      77.12346805
H      91.56005253      44.34526339      78.39147440
C      88.63664593      47.01922612      77.25385916
H      86.63542577      46.75466444      76.84378855
H      89.83095296      47.34047960      75.60601782
S      88.87853089      49.64405597      79.45728004
C      88.24547258      52.36148241      77.47117769
H      86.34629763      52.36526186      76.67371319
H      89.75347418      52.30857007      76.07089049
H      88.47790893      54.07546418      78.59178539
C      85.58473793      43.55157834      80.88024396
O      84.80428097      42.08893017      79.37602181
N      84.13531785      45.17674297      82.05565372
H      84.89120837      46.46364659      83.24618130
C      81.42167086      45.31280326      81.83455575
H      80.81695844      44.74777510      79.94860889
C      80.27271726      43.30780365      83.71861288
H      81.04372560      41.45398213      83.25751966
H      78.23937176      43.25111186      83.40302859
C      80.85097353      43.73110234      86.42659069
O      81.88087436      45.62082865      87.19948875
N      79.90800010      42.13428361      88.11600601
H      80.25759945      42.28168226      89.98494533
H      79.01038009      40.52612651      87.60955936
C      80.31240152      48.03967833      82.14636059
O      81.62765103      49.97286835      81.93093179
N      77.81229361      48.32880646      82.46383461
H      76.81829756      46.70553156      82.61123326
C      76.44413176      50.80812738      82.46761406
H      77.03939554      51.86259466      80.79898573
C      73.64166764      50.53033761      81.65692147
H      73.34498060      49.47587033      79.91081436
C      72.01272356      48.92595997      83.45216147
H      70.17968903      48.89572435      82.51674695
H      71.94280369      49.86704368      85.28330627
H      72.57208255      46.94363707      83.44460256
C      72.38499963      53.17973391      81.46794884
H      72.62121543      54.27955462      83.19326897
H      70.43480209      52.89627496      80.86701587
C      73.33742170      54.85025197      79.32688893
H      73.77016903      53.78822578      77.61479689
H      75.04762401      55.83101992      79.91648354
H      71.97114957      56.34313575      78.94705394
C      77.10742569      52.36904132      84.78819797
O      77.31151614      54.68206632      84.61812261
N      77.88977238      51.30701513      86.98028050
H      77.98047926      49.40217101      87.07665654
C      79.03494653      52.66761807      89.11756096
H      77.79528608      54.20963475      89.68825830
C      79.16722737      50.81568629      91.47404967
H      80.46357962      51.59236380      92.87622659
H      79.90988981      49.04879218      90.71626942
C      76.61042767      50.19963551      92.72504849
C      74.95124798      52.17439951      93.23338487
H      75.32919323      54.16428131      92.99338962
C      72.67790722      51.65283504      94.36533093
H      71.37210633      53.13627020      94.87366731
C      72.09209207      49.20186002      95.15334680
H      70.29496234      48.77856132      96.02262090
C      73.74182314      47.23276520      94.72815838
H      73.22403812      45.39406150      95.44247493
C      76.04917896      47.65606389      93.35810680
H      77.22269900      46.05357598      92.89323413
C      81.75615242      53.89971963      88.57520950
O      82.72558202      55.35480889      90.10966727
N      82.86542177      53.37626544      86.42470096
H      81.74859352      52.62604410      85.07165692
C      85.45434682      54.24364982      85.59133166
H      86.28582639      55.33591163      87.12767915
C      87.12486488      51.95141180      85.34188778
H      88.92199460      52.72430986      84.69560138
H      86.16299419      50.76655340      83.95860812
C      87.87508622      50.55868351      87.81176007
H      86.24425242      50.28656292      89.04008218
H      88.99191447      51.88716111      88.92291915
C      89.40576454      48.18329753      87.15791477
O      88.53460071      46.33703493      85.95604883
O      91.64131076      48.03211943      87.78152445
C      85.47702354      55.74976169      83.09311347
O      86.86030320      57.66405445      82.84555932
N      83.65910682      55.06190131      81.50574337
H      82.64810324      53.52744355      82.01596947
C      82.94668000      56.51510085      79.20972590
H      84.67388985      56.71541184      78.10801546
C      80.74514884      55.24142531      77.85668186
H      79.03494653      55.58346578      78.95083339
H      81.10608658      53.23264624      77.59023045
C      80.22736384      56.20896518      75.18838830
H      81.68623256      55.47197192      73.93549976
H      80.30106316      58.26309769      75.07500472
S      77.21514009      55.43228767      73.63881273
C      78.05039912      55.62126030      70.49052869
H      79.87209530      54.66127933      70.39793210
H      78.14866489      57.57334758      69.83479366
H      76.63310440      54.65938961      69.34913400
C      82.06039836      59.24764510      79.89380682
O      82.99392316      61.16760703      78.95650257
N      80.21035631      59.38748484      81.73062080
H      79.49415002      57.75287158      82.41092227
C      79.23525753      61.90271057      82.47328324
H      78.74770813      63.22362926      80.97284055
C      76.60475849      61.33579267      83.86601153
H      76.29295365      62.93639086      85.12645898
H      76.61987630      59.57834720      84.93937608
C      74.39377871      61.37736665      82.01219002
H      74.75471644      59.94873356      80.57221857
C      71.98437766      60.84635356      83.46161010
H      70.29496234      61.16949676      82.32777431
H      71.83508928      62.16727225      85.03575212
H      72.09776124      58.89615600      84.11734513
C      73.92890603      64.06833692      80.93126657
H      75.65233643      64.73918976      80.02608766
H      73.43568747      65.24752614      82.55076202
H      72.32641813      63.86235675      79.65570131
C      81.34419209      63.22740871      84.19482391
O      81.65221747      65.56688989      84.24962597
N      82.94668000      61.75342219      85.50629397
H      82.68211831      59.86369587      85.39857957
C      85.04427621      62.66427027      87.15035586
H      84.29027541      63.95684307      88.56387115
C      86.01370581      60.40415760      88.45804647
H      87.10785734      59.23819646      87.15980450
H      84.49625557      59.32323415      89.33487948
C      87.55005331      61.11091524      90.81642491
H      86.24614214      62.00664551      92.13734360
H      89.17143848      62.32411953      90.44603855
C      88.46657056      58.68072720      92.24505800
H      89.82339405      59.40827183      93.61321986
H      89.38119810      57.69617979      90.68414407
N      86.38598189      57.38815440      93.54896916
H      85.72268795      55.85936582      92.61922381
C      85.11797553      57.85491680      95.66546263
N      85.38442695      59.85613697      96.89945391
H      84.12775894      60.21896442      98.28840275
H      86.86786211      61.05044400      96.78040116
N      83.45501638      56.29589260      96.53284701
H      82.40810801      56.73430910      98.06541505
H      83.21691086      54.64427180      95.60499139
C      87.05872446      64.30833216      85.98817418
O      88.20767806      65.87680500      87.23917300
N      87.32517587      64.06455747      83.51074299
H      86.46346067      62.58301204      82.66792505
C      88.96167886      65.63869949      81.80243040
H      89.87063721      66.88024967      83.17437170
C      90.99313464      63.95117389      80.43993773
H      91.94744643      63.08378951      82.04431537
C      89.72701801      61.87814412      78.89036215
H      88.83506719      60.50998227      80.15080960
H      91.14242302      60.88603781      77.76975445
H      88.34373835      62.95339840      77.80943870
C      92.78081574      65.53476454      78.86579571
H      91.49391212      66.28498589      77.44472152
H      94.11118305      64.19683831      78.03998531
C      94.38330364      67.47362374      80.31143634
H      95.46233738      66.41537700      81.70794408
H      93.11151785      68.82855750      81.20149743
H      95.51713943      68.73974037      79.14925466
C      87.57839920      67.43204976      80.05254383
O      88.48546783      69.40681375      79.57822253
N      85.24458720      66.96717708      79.51019238
H      84.70790493      65.14737065      79.70672392
C      83.63076093      68.65092323      78.05888257
H      84.67955903      69.34823224      76.42993849
C      81.34041264      67.18449561      77.13669613
H      79.72658637      68.46573005      77.20850573
H      80.74136939      65.81444403      78.55210114
C      81.33852291      65.91837898      74.55910944
O      83.22446977      66.37191330      73.10779963
O      79.80595487      64.22707393      74.06400115
C      82.76148682      70.98851468      79.55365609
O      82.45346144      73.01241156      78.51241689
N      82.36653402      70.70883518      82.03675646
H      82.14921549      68.96650752      82.78886753
C      81.53883389      72.86501291      83.54475806
H      80.71302350      74.50718507      82.61690244
C      79.35431028      72.04865114      85.28141654
H      78.72881087      73.75318427      86.25651532
H      80.08185492      70.81843931      86.76485170
C      77.05262364      70.78820369      84.04931499
H      75.79217618      69.87735561      85.39857957
H      77.71591756      69.13469317      83.01752442
C      75.57863710      72.49651628      82.25029554
O      76.27972557      74.52797206      81.28275566
O      73.43190802      71.81243535      81.56999406
C      83.80461575      73.98184116      85.14157679
O      83.44178829      75.94715652      86.31131738
N      85.91732977      72.67415055      85.30031380
H      86.01559553      70.86001329      84.71260892
C      88.22279586      73.65680823      86.80075650
H      88.49302674      75.58621880      86.12990366
H      89.97457216      72.64391493      86.41336260
C      87.77493073      73.51696849      89.58432336
O      86.24425242      72.01463607      90.44225910
N      89.19600492      75.00985227      90.99594891
H      90.13330917      76.44793400      90.15691043
C      88.88986926      75.03252899      93.74928015
H      86.98313540      74.44482411      94.25761653
C      90.53204142      73.02563964      94.95870499
H      92.55026912      73.19760474      94.59776726
H      90.03504340      71.17748731      94.19525556
C      90.06149957      72.62879712      97.88589105
H      90.61329965      74.18026242      99.12177206
C      87.47257452      71.72739767      98.83453366
H      86.83006757      70.16270428      97.65912389
H      86.24425242      73.37334929      98.68713501
H      87.76170264      71.01497085     100.74504696
C      92.07783754      70.73151190      98.47170621
H      91.63753131      68.88713902      97.66857252
H      92.29137662      70.56899544     100.51450035
H      93.92976934      71.49685106      98.00305408
C      89.34718302      77.61767458      94.94547691
O      91.63753131      78.41891854      95.19303105
N      87.27793271      78.89890902      95.57286604
H      85.51670778      78.19404111      95.34420916
C      87.28738135      81.42358338      96.73882718
H      89.25080698      81.86577934      97.16968478
C      86.09118459      83.30197133      94.91902074
H      85.63954000      85.04807845      95.91301678
H      84.38098228      82.42891778      94.17446857
C      87.93366775      84.16935571      92.76851219
H      89.16765903      82.53852190      92.51339914
H      89.07884189      85.80207925      93.28629720
C      86.55794699      84.76650923      90.33265498
H      85.59229684      86.58253621      90.42714129
H      85.19734404      83.26984599      89.93959190
N      88.38153288      85.06508598      88.20671287
H      89.32828577      86.72237596      88.15757999
C      88.88608980      83.18102885      86.62690168
N      87.90154240      80.90957782      86.71949827
H      88.57050552      79.68314544      85.42125629
H      86.40298942      80.46360241      87.81364980
N      90.52070306      83.47015698      84.91103018
H      91.16132028      82.03585470      83.82632728
H      91.07439288      85.28807369      84.73717536
C      85.62631192      81.24783883      99.16901522
O      83.33974308      81.10232991      98.83831311
N      86.76581688      81.26484637     101.40267172
H      88.66688156      81.11744772     101.52739365
C      85.11419609      81.05130730     103.74593235
H      83.37186843      80.03085509     103.34153091
C      86.45779149      79.81920574     105.91344843
H      85.02159950      79.68314544     107.37987605
H      88.05272050      81.04752784     106.34997520
C      87.39320602      77.08099231     105.30117710
H      88.63286647      77.23972932     103.66467411
C      88.81616994      76.03030448     107.72380623
H      87.51036905      75.55220372     109.24125646
H      90.30905372      77.31342865     108.32284948
H      90.01236668      74.39380149     107.35153015
C      85.38820639      75.07599269     104.64355234
H      86.31417229      73.32610613     104.08041390
H      84.33940829      75.61645442     102.95413702
H      84.12586923      74.60356112     106.20068683
C      84.23925281      83.63834262     104.62654481
O      82.88998821      83.80463853     106.55028619
N      84.91577482      85.67357786     103.21869870
H      86.23291406      85.54507647     101.84297795
C      83.83485136      88.17935495     103.39822270
H      82.90699575      88.54218240     105.20291133
C      86.04205171      90.05963263     103.64199740
H      86.94912034      90.25805389     101.80329370
H      87.35541149      89.25271949     105.00826952
C      85.28994063      92.56163027     104.78150237
H      85.31828652      92.43123915     106.83563487
H      83.42100131      93.06429747     104.07285500
C      87.15510051      94.48915111     103.84797757
H      87.08896008      94.77638951     101.80896287
H      88.96356858      93.88065923     104.62276535
C      86.50125519      97.04028163     105.01204898
H      86.67322029      96.99681792     107.06429175
H      84.60963915      97.59397144     104.41678519
N      88.25492121      99.03583262     104.29395298
H      89.99346943      98.78260929     105.03661542
H      87.73335675     100.84619042     104.58686055
H      88.54215962      98.76371203     102.42690338
C      81.96402231      88.61777145     101.16078675
O      82.58574228      87.87699874      99.00838848
N      79.92122817      90.03884564     101.36298746
H      79.73603499      91.11787936     102.92768085
C      78.08441419      90.37899638      99.25972208
H      77.44946615      88.58186665      98.48304456
C      75.91311866      92.23092816      99.99671534
H      76.82396675      93.92790239     100.72803942
C      74.09142249      92.93579608      97.75927939
H      72.50783184      94.14900037      98.26950549
H      73.41490047      91.12543827      97.04874229
H      75.14022060      93.90900513      96.27584423
C      74.21425471      91.22748349     102.12832662
H      75.11943361      90.66434505     103.89144127
H      73.13900043      89.66467983     101.31952376
C      72.28484414      93.31185161     103.20358089
H      70.59353909      93.34964614     102.03006085
H      73.19569222      95.15811422     103.17334527
H      71.70847761      92.72036728     105.09141748
C      79.34108219      91.56952395      96.89189501
O      80.99270300      93.18901940      97.19425122
N      78.57385332      90.86276631      94.51461931
H      77.20191202      89.54373735      94.36911038
C      79.33919248      91.77928357      91.95970933
H      80.42956455      93.50838315      92.20915320
C      81.08529959      89.71759217      90.68414407
H      82.77093546      89.80451958      91.86333329
H      81.67300446      90.36765802      88.82087393
C      80.02138367      87.13622602      90.36289060
C      79.33163357      86.28773891      87.98561490
H      79.12754312      87.66723912      86.49462083
C      78.59464030      83.77629264      87.73617102
H      77.98803815      83.24716927      85.85967279
C      78.62676565      82.21159925      89.82242887
O      77.90677992      79.69259408      89.48983704
H      77.41167164      79.31275909      87.78719363
C      79.52627537      82.93725416      92.12222579
H      79.81918296      81.58421012      93.62266849
C      80.33507823      85.47893605      92.35466213
H      81.36875853      86.18758341      93.96470895
C      76.99593185      92.59942479      90.36100087
O      74.83786439      92.30840694      91.14901674
N      77.47970177      93.81073936      88.19915397
H      79.22769862      94.43434904      87.75884774
C      75.61454190      94.09986749      86.19415435
H      73.73993340      93.81640854      86.99350858
C      75.50682750      96.94390559      85.29464463
H      74.22937253      97.11965013      83.68837726
H      77.46458397      97.28027687      84.75607263
C      74.59597942      98.63332091      87.41113810
H      75.85453714      98.67300516      89.04008218
H      72.70814283      98.00404205      87.94593064
C      74.49582394     101.39799051      86.51351810
H      73.50560734     102.59607699      87.86656214
H      73.47348199     101.22980487      84.73339591
C      77.17167639     102.28238242      86.28864067
H      78.38110123     101.04461169      85.17370214
H      77.95969227     102.43356053      88.18592588
N      77.39466409     104.69745265      85.11890008
H      76.34019681     105.03571366      83.56554505
H      79.26927259     104.65398894      84.75796235
H      77.13199213     106.23568987      86.21494134
C      75.87910360      92.21203090      84.08710951
O      77.84630868      91.94368976      82.85878741
N      73.92323685      90.74938273      83.66381082
H      72.47570651      90.99693688      84.88268429
C      73.29584772      89.61743667      81.19960771
H      74.55251573      88.03951520      80.78953710
C      70.61243635      88.78973655      81.53975844
H      69.46159303      90.49615941      81.50574337
H      70.25716782      87.62755486      83.20271760
C      69.73938280      87.17780000      79.31744030
O      68.65845935      88.31730497      77.52409003
O      70.16079176      84.94981268      79.10957040
C      73.49615872      91.35976433      78.84311899
O      73.31474499      93.65011262      79.12657794
N      73.83819917      90.28451006      76.49040973
H      73.76827930      88.39289402      76.24852477
C      73.98370811      91.90211578      74.11880321
H      75.59186519      93.15689406      74.38714435
C      74.57897188      90.26939225      71.76420422
H      75.00793977      91.54306779      70.20329029
C      77.12065377      88.80107491      72.21584881
H      76.98837294      86.87166434      72.92260645
H      78.50015398      89.76483532      73.40448666
H      77.94268472      88.63477899      70.33368141
O      72.81396752      88.46092417      71.32389799
H      73.30907580      87.94124943      69.65715939
C      71.75950022      93.55184686      73.79188056
O      72.09020233      95.63621498      72.87536330
N      69.43135742      92.91122964      74.62336014
H      69.19703134      91.27661638      75.58145138
C      67.17880364      94.66489565      74.47785121
H      66.99927965      95.48692660      72.59946325
C      64.73538752      93.06240774      74.99941567
H      63.26707017      94.35120109      75.65704043
H      65.35332802      91.67156917      76.38647479
C      63.78107573      91.78495275      72.64103723
H      62.29197140      90.48293132      73.21929349
H      65.36088693      90.77205945      71.78877067
C      62.94014752      93.57074412      70.54722048
O      63.76595792      93.69924551      68.30222562
O      61.27529864      95.02016420      71.13114591
C      67.27140023      96.74737405      76.53954262
O      65.61411025      98.39143594      76.39970287
N      69.02884570      96.71902816      78.37257714
H      70.26283699      95.26771835      78.26297301
C      69.44269576      98.42356129      80.50796787
H      68.46948671     100.13754306      79.91270409
H      71.48548991      98.67111544      80.60623364
C      68.54129631      97.43334470      83.13279772
O      68.52239905      98.78638874      84.95638362
N      67.42635780      95.15055532      83.20838678
H      67.59832288      93.97136610      81.71739271
C      65.98071716      94.21892024      85.43448437
H      64.65790874      95.52472113      86.31887629
C      64.21004360      92.12510349      84.31576640
H      63.14612769      91.43346366      85.94093102
H      65.26829034      90.57552791      83.46538955
C      62.38834744      92.81674332      82.11045579
C      61.15435616      90.82119233      80.94071520
H      61.56820622      88.88422286      81.43582349
C      59.31943191      91.36543351      79.11146013
H      58.45771671      89.77617368      78.16470725
C      58.64668934      93.89577704      78.62391074
O      56.77963974      94.33986273      76.88725226
H      56.04831566      95.99715270      76.78142759
C      59.88823953      95.82896706      79.83900476
H      59.71816416      97.77727489      79.25507933
C      61.76851721      95.32629986      81.67203928
H      62.71338036      96.81729392      82.69816067
C      67.63422768      92.93957553      87.43381481
O      69.74694170      92.11376513      86.72516744
N      66.93880841      92.96603170      89.80164188
H      65.05097181      93.19468858      89.94904053
C      68.50539151      92.10620623      91.87089219
H      70.39889729      92.61832206      91.23783388
C      67.86477429      93.61420782      94.09510007
H      68.52806823      93.00004677      95.94514213
H      65.82764933      93.43846328      94.35588230
C      68.66979770      96.36375961      93.90801716
C      66.74038714      98.19112495      94.12155623
H      64.79396904      97.63932487      94.38422819
C      67.34698928     100.77060137      93.84565619
H      65.85788496     102.16710912      93.79841303
C      69.86977391     101.62097821      93.47526983
O      70.47637606     103.96801829      92.97638209
H      69.00427927     105.00358831      92.75717384
C      71.83886874      99.74825944      93.43558558
H      73.73426423     100.26037527      92.87433687
C      71.09242685      97.20090837      93.43747531
H      72.54751610      95.77416500      93.33920954
C      68.54885522      89.34342636      92.11655662
O      66.66290836      88.13400152      92.52284777
N      70.78062199      88.27573099      92.44725872
H      72.33775648      89.34720581      92.17324840
C      71.08486794      85.51484085      92.65512861
H      69.35198890      84.56808796      93.23905405
C      71.84642765      84.56808796      90.01518096
H      73.69646970      85.18413874      89.35377675
C      71.70847761      81.72216014      89.47093978
H      73.40356213      80.94548262      90.34777279
H      72.14122495      81.53507723      87.46782989
H      69.84142802      80.96626961      89.90179738
O      70.23827055      85.50350249      88.16513889
H      69.92079652      87.17591028      88.79441776
C      73.32986279      85.11421887      94.42958162
O      74.68668629      86.83198009      94.90957211
N      73.54718132      82.76150961      95.31964272
H      72.29807222      81.43681146      94.74327619
C      75.60131383      82.09065677      97.18102313
H      77.30395723      83.17158022      96.75961417
C      74.75093698      82.79741441     100.00994342
H      74.25015952      84.79485512      99.97025917
C      72.37177155      81.45759845     100.59575858
H      70.97904327      82.35332873      99.37121593
H      71.90878860      81.96215538     102.53839723
H      72.85743121      79.45826801     100.53339761
C      76.74837769      82.45348422     102.07352456
H      78.69290607      82.95048224     101.60676216
H      76.65389139      80.42769761     102.43446228
C      76.27972557      83.76306455     104.63032426
H      75.75060221      85.75105664     104.50560232
H      77.97481007      83.61566590     105.78872649
H      74.67345821      82.85788565     105.54873125
C      76.53105917      79.34110498      96.88811556
O      75.24604528      77.84822119      95.68435989
N      78.79306156      78.74017201      97.92746503
H      79.88721311      80.23305580      98.39800688
C      80.02705284      76.25329219      98.22415206
H      78.77605403      74.87757143      99.11421315
H      81.81662367      76.45171345      99.22381728
C      80.31051179      75.13646394      95.60499139
O      81.97725041      76.12101134      94.16313021
N      78.83463554      73.20327392      95.09854474
H      77.71213811      72.52864162      96.48938330
C      78.82518691      71.76141274      92.81008617
H      79.95335352      72.91981497      91.53263118
C      79.69257129      69.05721439      93.54707943
H      78.14488544      68.33533894      94.69792276
C      80.05917819      67.58133814      90.91658041
H      78.30362245      67.31488673      89.87534121
H      80.76782556      65.69917073      91.36822500
H      81.52560582      68.33533894      89.68069940
C      82.06984700      68.86635203      95.05319131
H      82.01315521      70.23640361      96.58764907
H      83.73847532      69.30476853      93.92880415
C      82.46668951      66.38703111      96.45347850
H      84.50759393      66.12246942      96.44780932
H      81.41222224      64.92060349      95.45948246
H      81.80528530      66.43238454      98.40367606
C      76.21547487      71.95794428      91.58554352
O      74.76227535      70.13813784      91.18870100
N      75.65800562      74.23884394      90.93925712
H      77.16978667      75.37267972      91.20381881
C      73.40545184      74.96827829      89.52952129
H      73.11254426      73.65680823      87.96671763
H      73.76827930      76.73517240      88.52985607
C      70.85621105      75.39913589      90.83910163
O      68.98916145      75.65046949      89.48227814
N      70.72581994      75.39346671      93.35621708
H      72.30185169      75.04575707      94.37288983
C      68.32208807      75.98117160      94.51650903
H      66.95014676      74.76040840      93.57920478
C      68.18980722      75.12701530      97.38700330
H      69.28962793      76.40824974      98.56430280
H      68.94947720      73.24484790      97.72904376
C      65.59521299      75.17236874      98.47548566
N      64.03051960      73.03508828      98.59075896
H      64.27618403      71.29276062      97.84809652
C      61.77229666      73.91381101      99.48459951
H      60.11689641      72.77619577      99.83986806
N      61.81953982      76.43092646      99.56207829
H      60.18681628      77.32854646      99.97592835
C      64.21760251      77.26807522      98.99138094
H      64.83743275      79.21260359      99.02161656
C      67.52462356      78.78552545      94.19903501
O      68.65090044      80.51462502      95.34231943
N      65.52529312      79.19748578      92.76473274
H      64.67113682      77.56287252      92.27340390
C      64.24783813      81.58609984      92.21671211
H      65.62544861      83.09221171      91.93136344
C      62.56787144      81.29508199      89.77518571
H      61.21482740      79.77574203      90.08510083
H      63.71304558      80.50706612      88.25395603
C      61.47371990      83.66290906      88.57331978
H      60.42114235      84.60021331      90.07376247
C      63.39179211      85.43547234      87.54152921
H      64.75995396      84.34321053      86.45304686
H      64.36311144      86.44269647      89.05142054
H      62.52629746      86.88300270      86.35856054
C      59.19848942      82.93158498      86.99917776
H      57.54119945      82.40813079      88.10088820
H      59.56131687      81.17791896      85.98439473
H      58.77708045      84.48305028      85.71227414
C      62.66802693      82.62922877      94.28974188
O      61.65135418      81.18736759      95.78640512
N      62.65479885      85.13500586      94.44658916
H      63.54485994      86.10065600      93.06141977
C      61.61355965      86.61844101      96.60843606
H      60.60066635      85.21437436      97.72904376
C      63.68658942      88.03006657      98.02006162
H      62.94959615      89.01839343      99.66790296
H      64.50295119      89.49460446      96.82386486
C      65.75583973      86.21403958      98.81374667
H      66.68747480      85.37878055      97.18102313
C      67.74761126      88.03573575     100.05907631
H      68.44114082      89.37933116      98.66067884
H      69.37655534      86.96804038     100.72425997
H      66.76873303      89.29429347     101.36298746
C      64.98105194      84.24305504     100.82252574
H      66.57598095      83.10732952     101.45747378
H      63.63934626      82.94481306      99.95136191
H      64.11555730      84.98382775     102.54028696
C      59.44604357      88.40234265      95.84687636
O      57.30687338      88.09053781      96.60654634
N      60.15280121      90.29773814      94.33887476
H      61.91969531      90.42057036      93.63211712
C      58.32732559      91.88888770      93.08598621
H      56.76074248      90.83819987      92.25828609
C      57.46372067      93.80129073      95.21381804