 %block lattice_cart
   135.996   0.000   0.000
   0.000 142.663   0.000
   0.000   0.000   160.158
 %endblock lattice_cart

 %block positions_abs
N      92.03059439      42.70120150      79.83805989
H      93.77481178      43.06024950      79.15208925
H      91.44855869      41.15351565      78.88374812
H      92.33484033      42.34215350      81.68810196
C      90.32795098      44.81013606      79.55649067
H      90.93077368      46.17640819      80.97567513
C      90.56794622      46.24632806      77.11307455
H      89.81016597      44.89895320      75.74869215
H      92.54271022      46.65072949      76.69166559
C      89.27159397      48.84281201      77.07716975
H      87.27037381      48.95241614      77.54771160
H      89.60229608      49.94830191      75.37074689
S      90.74935995      51.05001235      79.42420983
C      93.78803986      51.84558713      78.19966719
H      94.38708310      53.49909765      79.27114201
H      93.67654601      52.07235428      76.15498332
H      95.11651746      50.39049786      78.80248987
C      87.59162728      44.26022571      79.98545856
O      86.83384703      42.20420348      79.08216938
N      86.16677364      45.85137526      81.12118406
H      87.03415802      47.45953235      81.67109443
C      83.50792872      45.42807657      81.87707460
H      82.62731626      44.40195518      80.32182983
C      83.33596362      43.72165371      84.23734276
H      84.99136387      42.49711106      84.20143795
H      81.65221748      42.56892066      83.95199408
C      83.04116632      45.27689846      86.66942052
O      81.05695369      46.14050339      87.44042885
N      85.04994539      45.85137526      88.08671526
H      84.73814055      46.78678979      89.72321824
H      86.80928059      45.17296351      87.79380768
C      82.12842851      47.95842010      82.36084453
O      83.40399377      49.78389572      82.92020351
N      79.60564388      48.03022970      82.36840344
H      78.55873551      46.43908014      82.24935067
C      78.17890052      50.53222734      82.69532609
H      78.28472519      51.57157681      80.92087308
C      75.21014048      50.03711904      82.87296036
H      74.43157324      48.98643121      81.28181080
C      74.60542806      48.38549825      85.27669223
H      72.81207779      47.40473029      85.02535862
H      74.31441021      49.69507858      86.83949588
H      76.08886321      47.01733640      85.69054230
C      73.81363273      52.55801395      82.75201788
H      74.60920751      54.02444156      83.96144272
H      71.90878861      51.98542687      83.27925151
C      73.82119164      53.79200523      80.06671679
H      72.70625311      52.68273588      78.73634946
H      75.80162481      54.01877239      79.54704205
H      72.71948120      55.51732535      80.29348394
C      79.30895685      52.30668035      84.82315791
O      79.76060144      54.53277794      84.18820988
N      79.80217542      51.27111033      87.00768153
H      79.94012544      49.38327374      87.24767678
C      80.67522898      52.75265576      89.12417501
H      79.42045070      54.33057723      89.55314287
C      80.78294338      50.99521028      91.46743563
H      81.68812228      51.95141180      93.04913655
H      81.88276409      49.38327374      90.80414169
C      78.24126148      50.29223210      92.69008855
C      77.58741618      51.55456927      94.92374506
H      78.82896637      52.87170851      95.86482875
C      75.06841100      51.16717538      95.88561574
H      74.51850065      52.13282553      97.59770779
C      73.44891555      49.19052166      94.91618615
H      71.60832213      48.89005517      95.74388627
C      74.32952802      47.84881597      92.77890569
H      73.09931619      46.44285960      91.95498502
C      76.61420713      48.59525787      91.59782674
H      76.97892431      47.51622414      89.90463196
C      83.37375815      53.96019087      88.82181880
O      83.95201440      56.00487474      89.57015042
N      85.02726867      52.60147765      87.48200284
H      84.49436585      50.78923012      87.21177198
C      87.68989305      53.40272161      86.86784178
H      88.67821991      54.42506354      88.35883584
C      89.19978437      50.92718014      86.74878903
H      90.93833258      51.23142607      85.68676283
H      88.06027941      49.35870730      86.05148002
C      90.09362492      49.74232174      89.28291201
H      88.55160825      49.42295799      90.60949988
H      91.47123540      50.95741576      90.22210599
C      91.44288951      47.15528642      88.93331265
O      90.31283317      45.05202103      89.28102229
O      93.67843574      47.14205833      88.23222419
C      87.87886568      54.92962047      84.34127771
O      89.55505292      56.56423373      83.88018449
N      86.08929486      54.44962998      82.63485485
H      84.69089739      53.18540308      82.93532132
C      85.60363520      55.87637335      80.33316820
H      87.24769709      55.71574661      79.10295637
C      83.39076569      54.95418691      78.69666520
H      81.58985651      54.83702388      79.69066125
H      84.03894181      53.12115239      78.01825346
C      83.12998346      56.51699057      76.19088812
H      84.76459672      56.45840906      74.93988930
H      82.80117108      58.47663676      76.73512930
S      80.24815083      55.28299929      74.54115705
C      80.94168039      56.10691996      71.23791544
H      82.64054434      55.05623213      70.73524825
H      81.16844754      58.11947848      70.85997019
H      79.52249592      55.29622737      69.98502691
C      85.19734404      58.65238131      81.17787585
O      86.41243806      60.38526033      80.34450656
N      83.59296640      59.21174029      83.04492545
H      83.15266017      57.63759827      84.03325231
C      82.88998821      61.74208383      83.95388381
H      82.78794299      62.86647098      82.23045341
C      80.24248165      61.62681052      85.23700798
H      80.01004531      63.22740871      86.51068352
H      80.13665698      59.97141027      86.45966090
C      78.02205323      61.71940711      83.34161249
H      78.38677041      60.66305010      81.61251290
C      75.73170494      60.57801242      84.59828049
H      75.35564940      61.46618379      86.41619719
H      76.10776048      58.57868198      84.91953395
H      74.05740743      60.85769191      83.43231934
C      77.66111551      64.45195136      82.61973704
H      76.22492351      64.48596643      81.14197105
H      79.35997946      65.17760626      81.70888895
H      76.93168115      65.78798786      84.00868587
C      84.81372960      62.93072168      85.80203614
O      84.89498783      65.25319532      86.15352523
N      86.60707987      61.51909612      86.94154110
H      86.38031271      59.63125954      86.77902464
C      88.95789941      62.40915722      88.09616389
H      88.48735755      64.11558008      89.15063116
C      89.93488791      60.44384185      89.93108814
H      91.80760669      60.77832341      90.72099374
H      90.17110370      58.70529364      88.84827495
C      88.24169313      59.99408699      92.13450901
H      86.36519490      59.60480337      91.37861850
H      88.28704656      61.68539204      93.30802905
C      89.01837065      57.84735790      93.78801954
H      90.97234766      58.06467642      94.40218060
H      89.38875700      56.08613297      92.78646460
N      87.42344164      57.42027975      96.02734523
H      86.35385655      55.84991718      96.19742060
C      87.36486012      58.77899297      98.13061060
N      88.83128774      60.79344122      98.24021473
H      88.76892677      61.67216395      99.93340951
H      90.33928934      61.05422345      97.09693032
N      85.96079347      58.21774425     100.03356501
H      86.23858324      58.99064232     101.75510568
H      84.70223575      56.78533171     100.12805133
C      91.02903944      63.19339364      86.15352523
O      92.88097123      64.43872328      86.94721029
N      90.60763048      62.98930319      83.67798376
H      89.18466656      61.94428454      82.95421859
C      92.26303073      64.16660269      81.78069855
H      93.62174395      65.44972685      82.64430347
C      93.99024058      62.19372842      80.57883262
H      94.87274277      61.30933650      82.21533561
C      92.44444445      60.21140551      79.10484608
H      91.48257376      61.12036387      77.52692462
H      90.79471338      59.78054791      80.26324831
H      93.60284668      58.59946897      78.55871519
C      95.89508470      63.22740871      78.68721658
H      95.08061266      64.50108424      77.28692937
H      96.71900537      61.60224408      77.72534588
C      98.12685148      64.75619730      79.87018524
H      97.61095619      66.27175780      81.16842722
H      99.45721880      65.56877961      78.52470012
H      99.44399072      63.44472723      80.75646689
C      90.81739010      65.75397279      79.78136811
O      91.67721557      67.72306761      78.93288100
N      88.39854042      65.15681927      79.27870092
H      87.81272526      63.45984505      79.92876677
C      86.53716000      66.64403388      77.64030819
H      87.70501086      67.18071616      76.02837166
C      84.43389461      64.88658841      76.84851288
H      83.22446977      64.90548567      78.51525148
H      85.29372008      63.03465662      76.56316420
C      82.93345192      66.09223380      74.64509200
O      84.11831032      67.03331750      72.85174172
O      80.59019129      65.94672487      74.82650571
C      85.66410644      69.16303906      78.93666045
O      85.11419608      71.01119139      77.76880959
N      85.27671255      69.07611165      81.42354027
H      85.20301322      67.35079152      82.23612260
C      84.63987478      71.36268049      83.12240424
H      84.78349398      73.06532389      81.96778145
C      82.05094973      70.92048453      84.30915236
H      81.93567643      72.24140322      85.88707382
H      81.94701478      68.96272807      84.94410039
C      79.94768435      71.50252023      82.51580208
H      78.21669504      70.62190777      83.19988301
H      80.28405563      70.91859480      80.56938399
C      79.55651100      74.41836793      82.17754107
O      77.57418810      75.34622355      82.91075488
O      81.14955028      75.72983800      80.97189568
C      86.72235318      71.92392920      85.27858195
O      86.94156143      74.16514461      85.82849232
N      88.15854518      70.11546112      86.35194649
H      87.94311638      68.27486769      85.89085328
C      89.73835637      70.81843931      88.42686600
H      91.01014218      72.30565392      87.78624877
H      90.92699422      69.28587127      89.11850582
C      88.46090139      71.75385383      90.84571568
O      86.18000173      72.17337307      90.90618692
N      89.88197557      72.20549842      92.79969267
H      91.75658408      72.16581417      92.43308577
C      89.16198985      72.95194032      95.33003622
H      87.15132105      72.70816562      95.71176092
C      90.18244206      70.90347699      97.21598307
H      92.20633894      70.76363725      96.84937616
H      89.19411519      69.12335481      96.89661932
C      89.98591052      71.60834491     100.03167527
H      90.47723936      73.56988082     100.41906918
C      87.20612311      71.30976815     101.02756104
H      85.71890850      72.50407518     100.24899380
H      87.24013819      71.51952777     103.07791410
H      86.26692914      69.52586651     100.60804180
C      91.95689506      70.10412276     101.54156661
H      91.99468959      70.56710571     103.54656622
H      93.83528302      70.58978242     100.85181650
H      91.88886492      68.05187999     101.37338096
C      89.90465229      75.60700579      95.98199179
O      92.17043414      76.16447505      95.85726985
N      88.06405886      77.13390465      96.77567684
H      86.28771613      76.46116208      96.59426311
C      88.41554795      79.87022835      97.51078037
H      90.36763523      79.98361193      98.15895650
C      87.92799856      81.77318274      95.26767524
H      88.11697120      83.65157070      96.08970619
H      85.96079347      81.37445049      94.81225120
C      89.65331869      81.37822995      92.96598859
H      88.94845077      79.63779201      92.11939120
H      91.66209776      81.32720733      93.42708182
C      89.32450631      83.50417205      90.99122460
H      87.33462450      83.52117958      90.46210124
H      90.39031195      83.09599116      89.27535310
N      90.31283317      86.01561832      91.86049870
H      90.87408189      86.09876628      93.68219487
C      90.53015170      88.04140492      90.43753478
N      89.52481730      87.98093368      88.13206869
H      89.34151385      89.54940652      87.05870415
H      89.56450155      86.41813002      87.03791716
N      91.19533536      90.26561280      91.28035273
H      91.35974155      91.84731372      90.22399572
H      91.90587245      90.40923200      93.04535710
C      86.92833335      80.52974283      99.85593073
O      84.64365423      81.36311213      99.79168004
N      88.06594859      80.31242430     101.98376257
H      89.91788037      79.84377218     101.97242421
C      86.70912509      80.65446477     104.35536909
H      85.06884265      79.44315020     104.06813068
C      88.62341785      79.87400780     106.42461940
H      87.64264989      80.00250919     108.23119776
H      90.17677288      81.21571348     106.58335640
C      89.59095772      77.17547863     106.33958172
H      90.49613662      76.77107719     104.53111363
C      91.78492997      77.06587450     108.14049088
H      92.46145199      75.11945640     108.10269637
H      91.08384151      77.48350401     110.03021721
H      93.26269595      78.39813155     107.61136752
C      87.62753208      75.32543656     106.79500576
H      88.23980341      73.38090819     106.48698036
H      86.08362568      75.77519143     105.50810214
H      86.84707511      75.38590781     108.69984988
C      85.87008661      83.30008161     105.05645755
O      84.23925280      83.78574127     106.65327629
N      87.02470939      85.23705108     103.84892243
H      88.35507671      84.65123592     102.61115169
C      86.17811200      87.85810147     104.24765468
H      85.00837141      87.97148505     105.93895973
C      88.57428496      89.51917090     104.87315409
H      89.84607077      89.34531608     103.26310728
H      89.45300770      88.62344063     106.50587763
C      88.08295612      92.29706858     105.50432269
H      86.48424766      92.11376513     106.79122631
H      87.28360189      93.14933515     103.80923817
C      90.23157494      93.76538593     106.86492563
H      91.83784231      93.78428319     105.57235282
H      90.42054757      93.03028239     108.77921839
C      89.39820564      96.59241649     107.00287564
H      87.68611360      96.66044664     108.14427034
H      89.14498231      97.25571043     105.06779590
N      91.29927031      98.11931535     108.25765392
H      91.14809220     100.01849030     108.35402996
H      93.06805414      97.55428718     107.81167852
H      91.41643334      97.67145022     110.10958571
C      84.44712270      88.71603722     102.17840438
O      84.56806518      88.01683848      99.94096841
N      82.60463954      90.29584842     102.68863047
H      82.19645866      90.56796901     104.53300336
C      80.67522898      91.12165882     100.68741031
H      79.69635075      89.43602294     100.02789583
C      78.66078073      93.03028239     101.74565705
H      79.53950346      94.50804837     102.88138255
C      77.18301475      94.29639902      99.60648686
H      78.46046974      95.38110192      98.40840038
H      75.83752961      95.63621498     100.40395137
H      76.27405639      92.72981591      98.62760862
C      76.84475374      91.61298766     103.57680185
H      78.07874502      90.44702652     104.74276298
H      75.72414604      90.15222922     102.65461540
C      75.43501791      93.36854340     105.47219734
H      74.16134237      94.45702576     104.27222112
H      76.57452288      94.70269018     106.55312079
H      74.43157324      92.30840694     106.92539687
C      82.03583192      92.23659734      98.41029011
O      83.43422939      93.99215308      98.51800450
N      81.62954076      91.17457115      96.11994182
H      80.20468712      89.91034425      96.24088430
C      82.51015323      92.12321376      93.64062089
H      83.27171293      94.01105035      93.95809490
C      84.58129326      90.46970324      92.56914607
H      85.96079347      90.11821414      94.05636068
H      85.59418657      91.30874172      90.98555541
C      83.71012943      87.91479326      91.73766650
C      83.41911158      87.50661238      89.15063116
H      84.04083154      88.89934067      87.79380768
C      82.50826350      85.17846956      88.18876048
H      82.33251895      84.68147154      86.21588621
C      81.89788190      83.12244733      89.84794017
O      81.25537495      80.81509150      88.95032019
H      81.23836742      80.43525651      87.17586718
C      82.23803264      83.55708438      92.37261453
H      81.86953601      81.95459647      93.58203937
C      83.01659988      85.91924228      93.37605920
H      83.32840472      86.09309710      95.38672801
C      80.37098304      92.45391587      91.77735075
O      78.13165736      92.20825144      92.71276527
N      80.90010641      93.02461321      89.45487711
H      82.75581765      93.20602694      89.05047568
C      79.08596915      93.89577704      87.55948162
H      77.24348599      93.52161123      88.39852010
C      79.42800961      96.80406584      87.25145622
H      78.23937176      97.36342483      85.66597584
H      81.42356060      97.25382070      87.00579181
C      78.75715677      98.24592702      89.68542372
H      80.11964944      97.79995161      91.16129997
H      76.79373113      97.78294407      90.08982514
C      78.90266569     101.12775964      89.30180928
H      77.36064902     101.56428642      88.00734675
H      80.60341938     101.53971998      88.21332692
C      79.23336780     102.37686874      91.81325555
H      81.24214687     102.26537488      92.25356178
H      78.25259984     101.32996036      93.29102152
N      78.41889576     105.13586915      91.74900485
H      76.55373589     105.31350343      91.37672876
H      79.49792948     106.23002069      90.61705879
H      78.63243483     105.81995008      93.51778867
C      79.30517740      92.27817132      85.18598536
O      81.27616194      91.22748349      84.53591951
N      77.06207227      92.11376513      83.98978861
H      75.61265218      93.04162075      84.80804011
C      76.48759547      90.66434505      81.60117454
H      77.63276961      88.95414273      81.56904920
C      73.71158751      89.89711616      81.63896908
H      72.65900996      91.66778972      81.66164579
H      73.45458473      88.81430299      83.37184810
C      72.94246890      88.16801659      79.34484134
O      74.03662044      86.08742792      78.98579334
O      71.29462756      89.16201263      77.87463425
C      77.22647845      92.10809595      79.14642007
O      77.72158675      94.30773738      79.29759817
N      77.10931542      90.95725263      76.93733001
H      76.51216191      89.14500509      76.97323481
C      77.16033803      92.20069254      74.41643511
H      78.76849513      93.48192698      74.52603924
C      77.68757167      90.51694639      72.13742518
H      77.92945664      91.65267191      70.43478176
C      80.11020081      88.88800231      72.46812728
H      80.25382001      87.48015621      70.96957431
H      80.16878232      87.84676311      74.24447001
H      81.70324009      90.18813402      72.37553069
O      75.62776999      88.95792219      71.74436210
H      76.25704886      87.44047196      70.97335377
C      74.93990962      94.01671953      73.96290079
O      75.30084734      95.75337801      72.55127523
N      72.76672436      93.68979687      75.27248113
H      72.26594688      92.16856719      76.31372032
C      70.80518844      95.73448075      75.40665169
H      71.38344469      97.10831177      73.98746723
C      68.13500516      94.60064496      74.85296189
H      66.43992066      95.76660609      74.77548311
H      67.60966125      93.18712968      76.25891827
C      68.28618327      93.55184685      72.23569094
H      69.54663072      91.92290277      72.16766079
H      69.01372790      95.05606900      71.03193529
C      65.69914795      92.55407136      71.42688807
O      64.09854976      94.13388256      70.88831609
O      65.27206980      90.29773814      71.00547912
C      70.97148436      97.40877826      77.91242879
O      69.05152242      98.38198731      78.80060016
N      73.26750183      97.51649266      78.94610908
H      74.62054587      96.71524870      77.86140618
C      73.77205875      98.78638874      81.35173067
H      73.39600322     100.74414520      80.83016621
H      75.80918372      98.72402777      81.65975607
C      72.48137568      98.03427767      83.88774338
O      73.08230865      99.17378263      85.65652722
N      70.93935901      96.04817531      83.98978861
H      70.58598019      95.03717174      82.40997742
C      69.47860057      95.20346765      86.18565058
H      68.46381754      96.88154462      86.81492944
C      67.53974137      93.25327010      85.23889770
H      66.57220150      92.71847755      86.97555618
H      68.56964221      91.63755410      84.48111746
C      65.42135818      94.23025860      83.48523169
C      65.04152319      93.01705431      81.12874297
H      66.24338912      91.40511776      80.77725388
C      63.22927565      93.94302020      79.47901190
H      62.80786669      92.94146525      77.75180205
C      61.67970008      96.15211026      80.03648116
O      59.77107650      96.90989051      78.54170765
H      58.75251402      98.21569139      79.28625981
C      62.12756521      97.34452756      82.40619796
H      60.97483216      98.93756685      82.95232886
C      63.96815864      96.41478222      84.05403931
H      64.35555254      97.44468306      85.77369025
C      71.01683779      94.01294007      88.40040982
O      72.70814284      92.52383574      87.89585289
N      70.34976440      94.55151207      90.75122935
H      69.04207379      95.92723283      90.93831227
C      71.55540979      93.48381671      93.03590847
H      73.59064503      93.78239346      92.91874544
C      70.54440621      94.74048470      95.55491364
H      71.11699328      93.71625304      97.24810842
H      68.49594289      94.57229906      95.43019170
C      71.20392069      97.58452281      95.66640749
C      69.45781358      99.52905118      95.26011633
H      67.49816740      99.00559699      95.05413617
C      70.12299724     102.10285842      95.58703900
H      68.77940184     103.62786755      95.40373554
C      72.62310516     102.70001193      96.19364114
O      73.33364225     105.16799450      96.11049318
H      72.14122495     106.17899808      95.18830673
C      74.42968351     100.72902739      96.46009255
H      76.31185092     101.37720352      96.91173714
C      73.73804368      98.14199207      96.25222265
H      75.19880212      96.71713843      96.32214253
C      71.50060773      90.59820463      93.04346738
O      69.42379851      89.64200311      92.96787832
N      73.66623408      89.56452433      93.36094139
H      75.15155896      90.76450054      93.34204414
C      74.17457046      86.84520817      93.25700645
H      72.34342566      85.97593406      93.61416472
C      75.07974936      86.02317722      90.64351496
H      77.01104965      86.72615541      90.52446220
C      75.20258157      83.06197609      90.24289297
H      73.30151690      82.33821091      90.56414646
H      76.61231740      82.21537870      91.48255343
H      75.48604052      82.59899314      88.25490089
O      73.60954229      86.93024585      88.77835508
H      73.74938204      88.73115503      88.60827972
C      75.83186044      86.08931764      95.45475814
O      77.40789218      87.57086307      96.23899457
N      75.40478229      83.81408716      96.46765146
H      74.13677593      82.66135411      95.62294379
C      77.12254351      82.65757466      98.36115721
H      78.94612940      83.60054809      98.18730239
C      76.26082831      83.09788089     101.01244324
H      75.11187471      84.80808320     101.01055350
C      74.40133762      80.99272578     101.91573242
H      73.71914642      81.32531761     103.83191490
H      75.36509804      79.17291934     101.84581255
H      72.80640861      80.68092094     100.64961579
C      78.46046974      84.04274405     102.76610926
H      78.95368830      85.91357310     102.05935161
H      80.06862683      82.75961988     102.64327704
C      77.69891003      84.67202291     105.48542542
H      79.30139795      85.46948741     106.50587763
H      77.01104965      82.95615142     106.39627351
H      76.20791597      86.08931764     105.38904938
C      77.95780254      79.87967698      98.07769827
O      76.53861808      78.46049252      96.87583234
N      79.93634599      78.80064325      99.38538888
H      81.13254274      79.94581740     100.33403148
C      80.27838645      75.99628941      99.56491289
H      78.53227934      75.01552145     100.04679309
H      81.62198186      75.58810852     101.07102475
C      81.27238249      74.95316048      97.17062964
O      82.85030396      76.17770313      95.92341028
N      80.47113853      72.68170945      96.51300488
H      79.26927260      71.68771341      97.61282560
C      80.70546460      71.50629969      93.96376409
H      82.43456417      72.08455594      93.00189339
C      81.06640232      68.55454719      94.12817028
H      79.29950822      67.64558883      94.66863201
C      81.86197710      67.42827030      91.54869386
H      82.24559154      65.40437342      91.60727538
H      83.53249516      68.37313346      90.80414169
H      80.35208578      67.68338335      90.17297311
C      83.20557251      67.98573956      96.08403702
H      82.38921074      68.16337384      97.96620441
H      84.64932341      69.45216718      96.16907470
C      84.54727819      65.34201245      95.95553563
H      83.11675537      63.90204100      95.60593625
H      85.42978038      64.69761578      97.69975300
H      85.95701402      65.19461380      94.46265184
C      78.43968275      72.40580941      92.23277479
O      76.55562561      70.97906604      91.99655899
N      78.36220397      74.77552621      91.35594177
H      79.81729323      75.93959762      91.77357130
C      76.60853795      75.81676541      89.29425037
H      76.27783585      74.32577135      87.91097071
H      77.58363673      77.36823071      88.35505639
C      73.95347248      76.92792448      90.26179025
O      72.34531539      77.20760397      88.62717699
N      73.51505598      77.19815534      92.73544198
H      74.98526305      76.89390940      93.91274147
C      70.95069737      77.07721286      93.79746818
H      69.78851569      75.91503117      92.55591799
C      70.98849190      76.19849012      96.49599735
H      71.99004684      77.47216566      97.77156261
H      71.99382629      74.40702958      96.35615760
C      68.31074971      76.11345244      97.54668517
N      66.78007140      74.00451787      97.64684067
H      67.40557081      72.37746352      96.87016316
C      64.67869574      74.64135564      98.81469154
H      63.23305511      73.24862735      99.18507790
N      64.83176357      77.05453614      99.67451701
H      63.51084487      78.16569521     100.48898905
C      67.17691392      77.95026641      98.92429566
H      67.92713527      79.80030847      99.34759436
C      69.76205952      79.72660915      93.57259075
O      70.63700280      81.27618472      95.11649714
N      67.79674415      80.36155719      92.04002271
H      66.94447759      79.16158098      90.82492869
C      66.81030702      83.01473293      91.87561651
H      68.37311068      84.27518038      91.41830275
C      64.90546289      82.96371032      89.69109289
H      63.65068462      81.35555323      89.98211074
H      65.96559936      82.47616093      87.99222894
C      63.14234824      85.23705108      89.10149828
H      62.21449262      85.93247036      90.80225197
C      64.80530740      87.45936922      88.26245980
H      66.16024117      86.91134859      86.80926027
H      65.75206028      88.31352551      89.88006552
H      63.71115586      89.01461398      87.47255420
C      61.59466239      84.63989756      86.64863353
H      60.41736290      86.28773891      86.27446772
H      60.45893688      82.98071786      87.10783703
H      63.04219275      84.39045369      85.20677235
C      65.64245616      83.78952072      94.48154909
O      64.40279569      82.41757942      95.78546026
N      66.32653708      86.09120737      95.40940471
H      67.34132011      87.19102808      94.22643605
C      65.15679649      87.11921848      97.64117150
H      64.48216420      85.67168813      98.94130319
C      67.00872828      88.50060842      99.17373954
H      66.07898293      89.79507094     100.48143014
H      68.13122571      89.78184286      98.01344757
C      68.66412853      86.82253145     100.65528496
H      69.44836495      85.25027916      99.58381015
C      70.80707817      88.42879882     101.70219335
H      70.06252600      89.78373259     103.06279628
H      71.68769063      89.52861953     100.20175065
H      72.07697425      87.34220619     102.90405928
C      67.28840777      85.22760244     102.88138255
H      68.55830386      84.74194278     104.43284787
H      66.92558032      83.31141996     102.21619889
H      65.59332327      86.20081150     103.52388950
C      62.70771119      88.56107966      97.27078514
O      61.03719313      88.28895907      98.74477167
N      62.64912968      90.27506143      95.43397117
H      64.33854500      90.81552315      94.73099297
C      60.39468618      91.63377465      94.75555941
H      58.90747158      90.30907650      94.23210522
C      59.31565246      93.47814753      96.77756657