 %block lattice_cart
   135.996   0.000   0.000
   0.000 142.663   0.000
   0.000   0.000   160.158
 %endblock lattice_cart

 %block positions_abs
N      88.28326711      41.26406464      81.69377114
H      87.18533612      40.23605352      80.51836137
H      87.66532660      41.01273104      83.48145223
H      90.15031671      40.87856047      81.58605674
C      88.02248488      44.08731575      81.21189093
H      89.24135835      44.95847958      82.62540621
C      88.82183911      44.78273503      78.51903093
H      87.80705608      43.57331019      77.19433278
H      90.86652298      44.56730623      78.67209876
C      88.13019928      47.63244231      77.93888495
H      86.14220720      48.14455814      78.11085005
H      88.21334724      47.82330467      75.88853190
S      90.00480778      49.92657006      79.51680642
C      88.34940753      52.77438761      78.50391312
H      86.35007709      52.30762521      78.66642958
H      88.62530757      53.31106988      76.53670803
H      88.69144799      54.26916112      79.88152360
C      85.26726391      44.56919596      81.58416701
O      83.70068080      43.03473819      80.80371004
N      84.60774943      46.53451132      83.04303572
H      85.97591128      47.65700875      83.75357282
C      81.85063874      47.04473743      83.74223446
H      80.64499335      46.14144825      82.33816781
C      81.37631743      45.58964817      86.20832730
H      82.38921074      43.80385680      86.04959029
H      79.37509727      45.11154741      86.29714443
C      82.16055385      46.83686753      88.55725710
O      82.54794775      49.17634871      88.58938245
N      82.16811276      45.56886118      90.63784577
H      82.14354632      46.32853116      92.38773234
H      81.69190173      43.72070884      90.55469782
C      80.83585571      49.72436934      83.57971800
O      82.21724564      51.51016071      83.03169736
N      78.35464506      49.97759267      83.78002898
H      77.29261887      48.46014244      84.24112221
C      77.15088940      52.52872319      83.58727690
H      77.22458872      53.16745068      81.62952044
C      74.32952801      52.28872795      83.60428444
H      73.53773269      51.04528803      82.16242326
C      73.42623884      51.19835586      86.10439235
H      71.38722414      50.92623528      85.98156014
H      73.91756768      52.37376563      87.72199807
H      74.19724717      49.29729119      86.28391635
C      72.87254903      54.72836462      83.27358233
H      73.34687033      56.08896756      84.74378940
H      70.87699804      54.34097072      83.60806389
C      72.87443875      55.80550862      80.64119358
H      73.22970730      54.22569742      79.36751804
H      74.52039037      57.04516908      80.64497303
H      71.14722890      56.88265261      80.33127846
C      78.31307108      54.46191321      85.41842170
O      78.36598342      56.66911354      84.92709286
N      79.11431504      53.70791241      87.71821862
H      78.98770338      51.84086281      88.09616388
C      80.25948918      55.40677636      89.48133327
H      79.06707188      57.08485333      89.56448123
C      80.10831108      54.29372757      92.14395765
H      81.04372560      55.67889695      93.35149276
H      80.95490847      52.42100879      92.28190767
C      77.49292986      53.80806790      93.05102628
C      76.27972557      55.57874146      94.64028611
H      77.07719007      57.43823215      94.89539916
C      73.91189850      54.98536740      95.83837259
H      72.93302027      56.37053678      96.97787755
C      72.90656410      52.53439237      95.53790610
H      71.15667753      52.31140466      96.56780694
C      74.08764305      50.74293182      93.97132299
H      73.29773745      48.86454387      93.85415996
C      76.26460776      51.47992509      92.71465499
H      77.15466885      49.98704130      91.64506990
C      82.81628889      56.16455662      88.71032494
O      83.44934720      58.34341105      89.27346338
N      84.37153364      54.64710639      87.28169184
H      84.00870619      52.79895405      86.96988700
C      86.82817785      55.33118731      86.22344511
H      87.91099102      56.65966491      87.36483980
C      88.30405410      52.93501435      85.72455736
H      89.96512353      53.64744117      84.73623050
H      87.34596286      51.56496277      84.52269143
C      89.16765902      51.88432652      88.23222418
H      87.67288551      52.32652247      89.58148877
H      90.84951544      52.88210201      88.88417976
C      89.45867688      49.01194252      88.35694611
O      90.19189068      48.03873347      90.40162999
O      89.18844601      47.61543478      86.33493896
C      86.50125520      56.94123413      83.89341256
O      87.61997317      58.97268992      83.74412418
N      84.77215562      56.47258200      82.06226777
H      83.65910682      54.94757287      82.34005753
C      84.02571373      58.13365143      80.01002499
H      85.51292833      58.17711514      78.59084053
C      81.76938051      56.74848205      78.73445973
H      80.07051655      56.74092314      79.89664141
H      82.23614291      54.75860024      78.48690558
C      80.91900367      57.79350070      76.07561481
H      82.42511554      57.47035750      74.70934268
H      80.18201040      59.63787358      76.62174571
S      78.17890051      55.92267165      75.03437561
C      78.35086561      56.52360462      71.77081827
H      77.06207226      58.01459868      71.16799557
H      77.61009289      54.88332218      70.76926332
H      80.30862207      56.75793068      71.17366475
C      83.31895608      60.84351897      80.73379017
O      84.54916791      62.64442814      79.74735303
N      81.49537019      61.17800052      82.43832330
H      80.73381049      59.67944756      83.34539193
C      80.96624682      63.67999816      83.48523168
H      80.90010640      64.98012987      81.88841295
C      78.50393344      63.40787757      84.97811547
H      78.16378270      64.87052574      86.38974102
H      78.44346220      61.73169033      86.17431222
C      76.31940982      63.06961656      83.11295560
H      76.79940030      61.77137459      81.58794646
C      73.91000877      62.17766574      84.46222018
H      74.24449033      60.21424010      84.98567437
H      72.34909484      62.33829248      83.12996313
H      73.61332174      63.44945155      86.05525947
C      75.55785012      65.61318818      81.84305951
H      75.03628565      66.84340001      83.40964263
H      73.97425947      65.56972448      80.52403055
H      77.10553597      66.59962532      80.90953472
C      83.13187318      64.84029012      84.96299766
O      83.38320678      67.21567609      84.77024557
N      84.60585970      63.50992279      86.55036776
H      84.07106716      61.69011635      86.76201711
C      86.95856896      64.60974351      87.61428367
H      86.48046821      66.34640199      88.61394889
C      88.10563284      62.63875896      89.29425037
H      90.03693313      63.21512549      89.72888742
H      87.97524172      60.75848128      88.46277079
C      86.78660387      62.62175143      91.90207268
H      84.75136863      62.48002195      91.60727537
H      87.02470938      64.45100650      92.82047967
C      87.77304100      60.71879703      93.77101200
H      89.79315843      60.99658680      94.06958876
H      87.63509098      58.81017345      93.00756257
N      86.46912985      60.84540869      96.27489937
H      85.00081250      59.65866057      96.56402749
C      86.72046345      62.60096444      98.07202909
N      88.14909654      64.51714692      97.52589819
H      88.34751780      65.87208069      98.85626551
H      89.24702753      64.67777366      95.97254316
N      85.45812627      62.60474389     100.23198627
H      86.21023734      63.67243926     101.62282483
H      84.16744320      61.24414094     100.59103427
C      88.69522744      65.64720325      85.53936418
O      89.71001047      67.70511521      85.82093340
N      88.80105212      64.41510170      83.33027412
H      87.96012391      62.72001720      83.07327134
C      90.34117906      65.41476692      81.19299366
H      92.06838891      66.11207593      82.07738558
C      91.14620247      63.29071454      79.29948790
H      89.49080222      62.08695888      79.06138238
C      91.85673957      64.40565307      76.63119434
H      90.31094344      65.34484704      75.64286748
H      92.32350197      62.93355627      75.27059140
H      93.51213982      65.58673201      76.95433754
C      93.53292681      61.75436705      80.15364419
H      93.45922748      61.42744440      82.18698970
H      95.23745994      62.82962132      79.73034550
C      93.70111245      59.19756735      78.80437960
H      92.84695615      59.06150705      76.93355055
H      93.13041510      57.71980137      80.11962912
H      95.70044289      58.91977758      78.39619872
C      89.01081174      67.74668919      79.96278183
O      90.18622151      69.65342304      79.39775366
N      86.52204218      67.64653369      79.63585918
H      85.56206122      66.03459715      79.98923800
C      85.14065225      69.62696687      78.09762196
H      86.22913461      70.07294228      76.40631691
C      82.40054910      68.64052973      77.51558626
H      80.91900367      70.07105255      77.53637325
H      81.90733053      67.49157614      79.14830979
C      82.44023335      66.86985618      75.15909754
O      83.46446501      67.64653369      73.10874450
O      81.40466333      64.83084149      75.27059140
C      84.81183987      72.15164122      79.36751804
O      84.51326311      74.09616960      78.00880482
N      84.79861179      72.24801727      81.80337526
H      85.60363520      70.74001567      82.65375210
C      84.56806518      74.45899705      83.53625429
H      84.31673158      76.11628703      82.34005753
C      82.20212783      74.15097166      85.29936894
H      82.42322581      75.52480269      86.81681917
H      82.23425318      72.30659878      86.21966565
C      79.66989457      74.63852105      83.88396393
H      78.13732653      74.09994905      85.14819084
H      79.36186918      73.25146194      82.39296987
C      79.37131782      77.38051393      82.95043913
O      79.18990409      79.12851077      84.63229555
O      79.05573352      77.78491536      80.59772987
C      86.96990732      75.09394509      85.11984494
O      87.99413898      77.21799747      85.20488262
N      88.08862530      73.09272493      86.27824717
H      87.21746147      71.39575070      86.23667319
C      90.05205094      73.31382291      88.23222418
H      91.52603746      74.62529297      87.64073984
H      91.03848807      71.53748017      88.56670574
C      88.92010488      74.07916206      90.75500881
O      87.04360665      75.38874240      90.80603142
N      90.04260231      73.34027907      92.91496598
H      91.61863405      72.27447343      92.73922143
C      89.34151384      74.17931756      95.43397116
H      87.33273477      73.82782846      95.72498901
C      90.59818184      72.36707002      97.39172762
H      92.63719653      72.55793238      97.60715642
H      90.36007633      70.42443137      96.75300012
C      89.36608029      72.53903512     100.02600610
H      89.16387957      74.52513747     100.52867330
C      86.56739562      71.52425209      99.99577048
H      86.41810724      69.81593950      98.85815524
H      85.07640156      72.73367693      99.24743886
H      86.03071334      70.74757457     101.82691527
C      91.14242302      71.04426160     101.79101047
H      93.07561304      71.75668842     101.86659953
H      91.28793195      69.12429967     101.05968639
H      90.35818660      71.18788080     103.69018542
C      89.82906323      76.91186181      96.01033768
O      91.93232862      77.76790783      96.40151103
N      87.77304100      78.32915654      96.59048366
H      86.06094896      77.52224341      96.34670897
C      87.82784307      80.88595624      97.56180299
H      89.77048172      81.56058854      97.69219410
C      86.26881886      82.73977776      95.91018219
H      85.50725915      84.21565401      97.12905566
H      84.67955903      81.67964129      95.14295330
C      87.99035953      83.85093683      93.77290173
H      88.92199460      82.28813317      92.81103103
H      89.46245633      84.94886782      94.70453680
C      86.69400728      85.54413160      92.04758160
H      86.01559553      87.29779762      92.89417899
H      84.92144400      84.59359927      91.60538565
N      87.92988829      86.27545569      89.75912304
H      89.06750353      87.80991345      89.74967441
C      87.82973279      84.90351438      87.60294532
N      86.41621751      82.92119148      87.37995761
H      86.27637776      81.92530571      85.75857243
H      85.39765503      82.07648382      88.75567837
N      89.20356382      85.64428710      85.65274776
H      89.08829052      84.68619586      84.00679614
H      90.49424689      87.04646402      85.76991079
C      86.70912509      80.78013157     100.10159515
O      84.90065701      79.45354370     100.45875342
N      87.88075540      82.19553658     101.89305569
H      89.36419056      83.29157784     101.40739603
C      86.98502513      82.22010302     104.52733418
H      85.24269747      81.19209190     104.91850752
C      88.88608980      81.00500900     106.38115569
H      88.17177326      81.06925969     108.31245598
H      90.72857296      81.92530571     106.29989746
C      89.45111797      78.22900105     105.85392205
H      90.47534963      77.90585785     104.09647658
C      91.29549085      77.09138581     107.85514221
H      90.53582087      77.13484951     109.77132469
H      92.83750752      78.45954766     107.87214975
H      91.94366698      75.25646156     107.18050992
C      87.06439364      76.43943023     105.92573165
H      86.18378117      76.52068846     107.78711207
H      87.72768757      74.50057103     105.71597203
H      85.55639204      76.91375153     104.60670268
C      86.44834286      85.05469249     105.09614180
O      85.98913936      85.65751518     107.25420924
N      86.26125995      86.74221809     103.21586411
H      86.56928534      86.24333034     101.39983713
C      85.22946939      89.34815067     103.33302715
H      84.17122265      89.38783492     105.09803152
C      87.32517587      91.37771673     103.27066618
H      86.61841823      93.20886153     103.89238613
H      87.91477048      91.37393728     101.29590218
C      89.70812075      90.61993648     104.64071775
H      90.42999620      88.94185951     103.69018542
H      89.32828576      90.20041724     106.62115093
C      91.82461422      92.53233951     104.28355948
H      91.23124016      94.39183020     104.93740479
H      92.07405809      92.61359774     102.24265506
C      94.35873720      91.59881471     105.40416718
H      95.81760592      92.85359298     104.66717392
H      94.93132428      89.70152949     104.83913902
N      94.46645160      91.71030856     108.24064638
H      93.10395893      90.51789126     108.84535880
H      94.06205017      93.49798966     108.77165947
H      96.20877927      91.21709000     108.84724853
C      83.19990333      89.59759455     101.33936589
O      83.34919171      88.32580874      99.40428614
N      81.42356059      91.11882423     101.88738652
H      81.62009213      92.20730658     103.44074155
C      79.41289180      91.85203804     100.12805132
H      78.54550742      90.08136448      99.53467726
C      77.38899491      93.56035062     101.55857414
H      78.35086561      95.22330978     102.30690576
C      75.46714325      94.48442679      99.57247178
H      76.28350502      95.16094881      97.80746741
H      74.17646018      95.83369138     100.44552534
H      74.29362321      92.86493134      99.08681212
C      76.21547487      91.96731134     103.66561898
H      77.65355660      91.44574688     105.04511918
H      75.22903774      90.23821177     103.14027506
C      74.14244511      93.45452595     105.09803152
H      74.83597467      95.34236254     105.54778638
H      73.59820393      92.78934229     106.96886057
H      72.39255854      93.42429033     104.00954917
C      80.47869744      93.17484646      97.80746741
O      82.09630316      94.98520426      97.98888113
N      79.84563912      91.98242915      95.59459789
H      78.61353757      90.54434743      95.83270341
C      80.43334400      92.88760806      93.11716670
H      81.52560581      94.61481791      93.37227975
C      82.38543129      91.11504477      91.75467403
H      83.96146303      90.90906461      93.06425436
H      82.88431903      92.03345176      89.97833129
C      81.41222223      88.53367863      91.04791638
C      81.00215162      87.83825935      88.49867559
H      81.31017701      89.22720819      87.03602742
C      80.34263714      85.37594596      87.93931660
H      80.33318851      84.62761434      86.04014166
C      79.94390489      83.60338268      89.93486759
O      79.13699175      81.29224740      89.50967917
H      78.72881087      80.81981582      87.80703576
C      80.06295765      84.31014032      92.48410838
H      79.74170417      82.96654491      93.98833053
C      80.83207626      86.77623316      93.08504135
H      81.41789141      87.45653463      94.91996560
C      78.15622380      93.30901702      91.53357605
O      76.10587075      93.35248073      92.53891045
N      78.47747727      93.99876713      89.13929281
H      80.23303302      94.10081235      88.40040982
C      76.23248241      94.34647677      87.44609803
H      74.50338283      93.89861163      88.46843997
C      76.45169066      96.94674018      86.29147525
H      75.19124321      97.10358746      84.67009008
H      78.34897588      97.35681079      85.60172515
C      75.49548915      98.65127331      88.34560776
H      76.83908456      98.74198017      89.90463197
H      73.73615395      97.91050060      89.11850582
C      75.23281719     101.18161684      87.28736102
H      74.55440544     102.44206429      88.76890645
H      73.68891079     101.23452918      85.92297862
C      77.64599769     102.30600400      86.03258275
H      78.02394296     101.25909562      84.29970372
H      79.28439041     101.95640463      87.23066923
N      77.58363672     105.08579141      85.59605597
H      76.66145028     106.11947170      86.90941576
H      76.58397150     105.49586202      84.02380368
H      79.39966371     105.56200244      85.25212578
C      76.51027218      92.46052991      85.27858195
O      78.47558754      91.85581749      84.36206469
N      74.42212460      91.68952157      84.26001947
H      72.79884970      92.21864494      85.11417576
C      74.26716705      90.18718915      81.92242802
H      75.83563988      88.85304238      81.98667871
C      71.65178583      88.89650608      82.11140065
H      70.17024040      90.32135972      82.25690958
H      71.69147008      87.82692099      83.87073585
C      71.00549943      86.99733114      80.10640103
O      71.43446730      87.37716613      77.74802259
O      70.07953354      85.01878769      80.83016621
C      74.36732254      92.06179766      79.54893177
O      73.78339711      94.31057197      79.90797977
N      75.25927336      91.30779686      77.35495952
H      75.70524877      89.46720343      77.10173619
C      75.18557403      92.80257037      75.01547835
H      76.14177555      94.61292818      75.23279687
C      76.32507900      91.27189206      72.67788690
H      76.05484814      92.30557235      70.91666197
C      79.25793424      91.02055846      73.16732601
H      80.34641659      90.24955012      71.59885317
H      79.71524801      89.75444183      74.72823995
H      79.92122817      92.83091627      73.89109119
O      75.41423092      88.83792457      72.51348071
H      75.82808098      88.21053543      70.86185991
C      72.32452840      93.51121774      74.28982344
O      71.91445779      94.99465290      72.49269372
N      70.27795480      92.37171277      75.36885717
H      70.45936852      91.06402216      76.74835737
C      67.70414756      93.27878140      74.96256601
H      67.27517969      93.46775403      72.95756639
C      66.15457198      90.90528515      75.65420584
H      66.51739944      90.55568579      77.65164655
H      66.71582070      89.31224587      74.47690635
C      63.32943115      91.16039821      75.10618521
H      62.66424748      92.78934229      76.17766003
H      62.35055292      89.47098288      75.76758942
C      63.03652357      91.61204279      72.32828753
O      62.59999679      93.76822052      71.43822643
O      63.17447359      89.70530894      70.80894757
C      66.99550019      95.59180641      76.63686352
O      64.96782386      96.75965727      76.61418681
N      68.80207855      96.44029352      78.07683497
H      70.41401509      95.42740022      78.20344664
C      68.68113606      98.44529314      79.91364895
H      67.29974613      99.80589609      79.22389884
H      70.45747880      99.48653234      79.84183935
C      67.82886950      97.73475605      82.57060414
O      68.08965173      99.24086792      84.29970372
N      67.09187623      95.35370089      83.20744191
H      66.81786592      94.02333357      81.86762596
C      66.21693295      94.79623163      85.74345462
H      65.23238554      96.30990241      86.73556094
C      64.36500117      92.66839980      85.55259227
H      63.31998251      92.52478060      87.32137610
H      65.42135817      90.89961597      85.53180528
C      62.36945018      92.67973816      83.43420907
C      62.03874807      90.37427206      82.16242326
H      63.29541607      88.81524785      82.56493497
C      59.96760803      90.17585080      80.44277232
H      59.68414909      88.41840533      79.44688655
C      58.34811258      92.33202852      79.97412019
O      56.40736366      92.29801345      78.44155215
H      55.87068139      94.02900275      78.35651447
C      58.84700033      94.56568502      81.25346490
H      57.44293368      96.03400237      81.04559501
C      60.74428555      94.75276793      82.99957202
H      60.84633077      96.32690995      84.29025509
C      68.18791750      94.06301782      87.65018847
O      70.08142326      92.94618957      86.96421782
N      67.91012773      94.56757475      90.05392034
H      66.43425148      95.69952081      90.48666767
C      69.80552322      94.13482742      92.10805285
H      71.56863787      94.54489803      91.12161571
C      69.36899644      95.90928043      94.39462168
H      70.32897741      95.13071319      96.04435276
H      67.35076874      96.12848868      94.73288269
C      70.41023564      98.59458152      94.16218535
C      68.68302579     100.69217773      94.09982438
H      66.66668781     100.41627769      93.97132299
C      69.55041017     103.15638084      94.05069150
H      68.16146133     104.65304408      94.01856615
C      72.09398179     103.68361448      94.26045112
O      72.95758671     106.02498538      94.28879701
H      71.64989610     107.26275612      94.06202985
C      73.84197862     101.66538678      94.21698741
H      75.82619125     102.12081082      94.07903739
C      73.10498536      99.02732885      94.24155385
H      74.53172873      97.58546767      94.02234560
C      69.76016979      91.33992221      93.02645983
O      67.68525030      90.42529467      93.42897154
N      71.89933997      90.11915901      93.34960303
H      73.47537172      91.15850848      93.06047491
C      72.45302978      87.40173257      93.56503183
H      70.74849665      86.41151598      94.16407507
C      73.56418886      86.37939063      91.09704927
H      74.51850064      84.63328352      91.63751099
C      71.40612141      85.69719944      89.30369900
H      70.08709244      87.27701063      89.19598460
H      70.43669181      83.95109232      89.79880729
H      72.06941534      85.45909392      87.36861925
O      75.00227058      88.22565324      89.84794018
H      76.55751534      87.41118120      89.39062641
C      74.26527732      86.84426331      95.76278354
O      75.66934397      88.48076629      96.61505010
N      74.55629517      84.43297253      96.60371174
H      73.23159703      83.19709152      96.00277878
C      76.37988106      83.65062584      98.55957848
H      78.18456969      84.60493763      98.30068597
C      75.37076721      83.90762862     101.24676930
H      74.94935824      85.86349535     101.73998786
C      72.93113054      82.30892016     101.58125085
H      71.41179059      83.14795864     100.47387123
H      72.19791673      82.29191262     103.50499224
H      73.14089016      80.29636163     101.19763641
C      77.10553597      83.15929700     103.49932306
H      77.47403260      81.13540012     103.37460112
H      76.13610637      83.53535253     105.27566580
C      79.55273154      84.69564449     103.73175940
H      79.16722737      86.45686941     102.73587363
H      81.14010165      83.71109708     102.86815447
H      79.98925832      85.34760007     105.63660352
C      77.06207226      80.78202129      98.30257570
O      75.49737887      79.38551355      97.26700568
N      79.11053559      79.75778963      99.20775460
H      80.40499811      80.97855283      99.89939443
C      79.61320278      77.00067894      99.02256143
H      77.95213336      76.04636715      99.77656222
H      81.19679343      76.81170631     100.32836231
C      80.12531862      76.27691376      96.16151579
O      81.70890927      77.36728585      94.77823613
N      78.81006910      74.32860594      95.33570539
H      77.45135588      73.47633937      96.37127541
C      78.73070060      73.41397840      92.64662485
H      80.25382000      73.97333739      91.37861849
C      78.74959786      70.42254165      92.73544198
H      77.09608734      69.81404977      93.80124762
C      78.78172321      69.22634489      90.05014089
H      77.09986679      69.65531276      88.94276127
H      78.87054034      67.17032266      90.17297310
H      80.38421112      69.76491689      88.87284140
C      80.95301874      69.35862573      94.26234084
H      80.57696320      67.35362611      94.54391006
H      80.87176051      70.24490737      96.11994181
C      83.56084105      69.78003470      93.12661533
H      84.12775895      71.73968089      92.84126666
H      83.97658084      68.73312632      91.39940548
H      84.87609057      69.18855036      94.59493267
C      76.34964544      74.33238539      91.42964110
O      74.38999926      73.12862973      91.58270893
N      76.38932969      76.61517477      90.30147449
H      78.13165736      77.39374202      90.28635668
C      74.25960814      77.78869482      88.97677635
H      74.05740742      76.88540564      87.13618292
H      74.88510755      79.72188483      88.64418451
C      71.74249269      77.97010854      90.41296834
O      69.85465610      78.24789831      89.13740308
N      71.72359543      77.73956193      92.84693583
H      73.29017854      77.93798319      93.91841065
C      69.31230465      77.98522635      94.26423057
H      67.91957636      76.83627275      93.27401398
C      69.66946293      76.90241317      96.95709057
H      71.10943438      78.03435924      97.90195372
H      70.44991989      75.00134850      96.84181726
C      67.26195160      76.94398715      98.57847574
N      65.54796984      75.14874716      98.81469153
H      65.90323838      73.38752223      98.17218458
C      63.54863940      75.97266783     100.01277801
H      61.78930420      74.99756905     100.35481848
N      63.91713603      78.49923191     100.53434248
H      62.73416736      79.68598003     101.44897001
C      66.30386036      79.05670117      99.76522387
H      67.10888377      80.92941995      99.71420126
C      68.31830861      80.74800622      94.48343882
O      69.45025467      82.17474959      95.88750547
N      66.31330899      81.38295426      92.97921668
H      65.68214041      80.01101296      91.81136581
C      65.22482664      83.84904710      92.77134678
H      66.72526933      85.20209114      92.38206316
C      63.45982226      83.74133270      90.41107862
H      61.95560012      82.37695030      90.76445744
H      64.20815388      82.59993801      88.86906195
C      62.28252277      86.21876390      89.37739832
H      63.44659418      87.91195867      89.52857643
C      61.45671237      85.58570558      86.64107462
H      59.86934227      84.28179443      86.78280410
H      62.93258862      84.86383013      85.39952443
H      60.58365881      87.28645926      85.87573547
C      59.87690117      86.89717564      90.91752527
H      58.88101540      88.61871631      90.38651217
H      60.07343271      86.84993249      92.96787832
H      58.74684484      85.24366512      90.43375533
C      63.93225384      84.54257666      95.23554989
O      62.74172626      82.97410382      96.50733570
N      64.32531691      86.81213796      95.93285890
H      65.15112731      88.07258541      94.76122859
C      63.47494007      87.68141206      98.42540791
H      63.04030302      86.18474882      99.77278277
C      65.54041093      89.43885753      99.54790534
H      64.97538276      90.64639265     101.11637818
H      66.14890280      90.73709951      98.06824964
C      67.77217771      87.74377303     100.54379111
H      68.59042920      86.95197771      98.82414016
C      69.75450061      89.57869728     101.68518580
H      71.49304882      88.50155328     101.93085022
H      69.49938756      89.76955964     103.72042104
H      70.16268149      91.27000233     100.58536509
C      67.23360571      85.71042752     102.50343729
H      65.86355413      84.27045607     101.96108584
H      66.35299325      86.57970162     104.14938891
H      68.93624912      84.71076230     103.09114218
C      60.90491229      89.07791981      97.94541743
O      59.05487023      88.41462587      99.31168955
N      60.76507254      90.89772625      96.37127541
H      62.24850769      91.21331054      95.21098345
C      58.24795709      91.87660448      95.34326429
H      56.89491305      90.39316932      94.88972998
C      57.05365006      93.87026574      97.26700568