 %block lattice_cart
   135.996   0.000   0.000
   0.000 142.663   0.000
   0.000   0.000   160.158
 %endblock lattice_cart

 %block positions_abs
N      89.91599064      42.20042403      81.72967593
H      91.68666420      42.62750217      82.28714519
H      90.09551464      40.80769573      80.43710314
H      88.77081650      41.55602735      83.11295559
C      88.95034050      44.50966958      80.53158945
H      89.34718302      46.00444309      81.89219241
C      90.45078319      45.08225665      78.15809321
H      90.01992559      43.74810988      76.65009161
H      92.44066500      44.78745935      78.59273025
C      90.04449203      47.83369816      77.14331018
H      88.03193351      48.02833997      76.75591629
H      91.15187165      48.02645025      75.41610033
S      90.90620723      50.15428208      79.48846054
C      89.41899262      52.77911193      78.14297540
H      87.37052930      52.68462561      78.33761720
H      89.78748925      52.64872081      76.12096825
H      90.19567014      54.57435192      78.79304125
C      86.18567090      44.15629076      80.17065172
O      85.42789065      42.31569733      78.95555770
N      84.69278712      45.98743556      81.18165530
H      85.38631667      47.59748238      81.93754584
C      81.93378670      45.68507935      81.45188616
H      80.97947491      44.71753947      79.90420031
C      81.48781129      44.16007021      83.82727214
H      82.98258480      42.74088575      83.87451530
H      79.60186443      43.34937762      83.62885088
C      81.55017226      45.51689370      86.48044788
O      79.68690211      46.20286436      87.47822339
N      83.65154792      46.12160613      87.62940148
H      83.43611912      46.64695004      89.45298737
H      85.28427145      45.84003690      86.68453834
C      80.76026666      48.24754823      81.83739034
O      82.10575179      50.12971563      81.86762595
N      78.34330670      48.40817496      82.10384175
H      77.24348599      46.84915076      82.13596710
C      77.10931542      50.99332056      82.16620271
H      77.75938127      51.85692549      80.41064697
C      74.21047526      50.76844313      82.12273902
H      73.93646494      49.49854705      80.52592028
C      73.15222852      49.39083265      84.38096196
H      73.30529635      50.64372119      86.00990604
H      74.18401909      47.61826936      84.56237569
H      71.15478781      49.03934355      84.02191396
C      72.76672435      53.31012502      81.90542049
H      72.79884970      54.33057723      83.69310157
H      70.79762954      52.71675096      81.78636772
C      73.39222376      54.87292868      79.67365370
H      73.84764780      53.65783466      78.07494525
H      75.03817538      56.06156653      80.01758390
H      71.78973585      56.08613297      79.22200912
C      77.94646418      52.68651534      84.27324756
O      78.30929163      54.84647251      83.82538242
N      78.33574780      51.56779736      86.49367598
H      77.93134637      49.71019639      86.65808216
C      79.25415479      52.97186401      88.75567836
H      78.06929639      54.65561015      88.84260578
C      78.75337731      51.55834873      91.15941023
H      80.03461175      52.28967281      92.59749196
H      79.34108220      49.60626145      90.86083349
C      76.04350978      51.90038919      92.11939120
C      75.30462679      54.38348957      92.89228926
H      76.60853795      55.95196241      92.98299614
C      72.86499012      54.58380055      93.75400447
H      71.99949547      56.31856931      94.39273196
C      71.36265770      52.55045504      94.16218535
H      69.47860057      52.84336262      94.88972999
C      72.08831261      50.14105399      93.29291124
H      70.67479733      48.66895719      93.35149276
C      74.45047050      49.78767517      92.03624325
H      74.94746852      47.98487627      91.22177121
C      82.11709015      53.89405045      88.60827972
O      82.83140670      55.71385689      89.77235113
N      83.32462526      53.02855580      86.50879378
H      82.39110047      51.84180767      85.34094293
C      85.85685852      54.02255184      85.70188064
H      86.91510526      54.83891361      87.26846377
C      87.42533136      51.81157205      84.91575450
H      89.07695216      52.57313176      83.95010436
H      86.48991684      50.54734515      83.58727691
C      88.38153288      50.28467319      87.31759665
H      86.69022783      49.83491833      88.40040982
H      89.39820563      51.51299530      88.62339753
C      89.89898311      47.97920709      86.69965615
O      88.65554319      46.36349109      85.48267240
O      92.24791291      47.67685088      87.09649867
C      85.72646741      55.81968156      83.50223922
O      87.16076968      57.74720240      83.43609879
N      83.97280139      55.42661849      81.71455812
H      82.77849436      53.96019087      81.98478898
C      83.85563836      56.91383310      79.35428996
H      85.61308383      56.61525634      78.32438913
C      81.73536544      55.60803222      77.82928083
H      79.94201516      55.58535550      78.84217413
H      82.40999773      53.70129837      77.44944584
C      81.20246261      56.75509609      75.22523796
H      82.92589301      56.59824880      74.10840971
H      80.62042691      58.70907310      75.51247636
S      78.75526704      55.19796161      73.33740138
C      79.18423491      56.75887554      70.43100232
H      81.17411672      56.52454948      69.95290156
H      78.82518691      58.78466215      70.53493725
H      77.96158199      55.90849870      69.00992812
C      83.20368278      59.78999655      79.88530306
O      84.50570421      61.44350707      78.94610908
N      81.47458320      60.07723495      81.67298414
H      80.71491323      58.44262169      82.30037329
C      80.44090291      62.47718736      82.46477948
H      80.53349950      63.61102315      80.74701826
C      77.78583744      62.20506678      83.53247483
H      77.37576683      63.82456223      84.73623051
H      77.84441896      60.61391722      84.84016544
C      75.66178507      61.77231945      81.62007181
H      76.35531462      60.60635831      80.07049624
C      73.38655458      60.47974665      82.62162675
H      71.86532490      60.37581170      81.23456764
H      72.41145581      61.60035435      84.05025984
H      73.89300124      58.63915322      83.39830427
C      74.89266646      64.32344997      80.51269219
H      73.69835943      63.91337936      78.88563784
H      76.46302902      65.32311519      79.63019001
H      74.09520195      65.75397279      81.75991156
C      82.14165659      63.94928416      84.17687151
O      82.23425318      66.23585300      84.23356330
N      83.76871095      62.56411477      85.57904844
H      83.94445550      60.71974189      85.12362440
C      85.53182560      63.39748408      87.43853913
H      84.42255625      64.62202673      88.67064068
C      86.65999221      61.00320084      88.90307702
H      88.06783831      60.02243288      87.76546179
H      85.19923377      59.66905406      89.47755383
C      87.99413898      62.03310168      91.41263356
H      86.45779149      63.01953882      92.36505562
H      89.49647140      63.33890256      90.88351020
C      88.96167886      59.81267326      92.74300088
H      89.81772488      60.66871928      94.40784977
H      90.35818660      58.75820598      91.65451853
N      87.03982720      58.08168396      93.53857566
H      86.53904972      56.55856455      92.50111592
C      86.08362568      58.54844636      95.80057806
N      86.38976134      60.54588707      97.14228374
H      85.58851739      60.54021789      98.87327304
H      87.58217865      61.90460029      96.53001242
N      84.71546383      56.87414885      96.85126590
H      83.73091642      57.01965777      98.48020998
H      84.83451659      55.11103420      96.12939045
C      87.58595810      65.01131035      86.11195126
O      88.28704656      66.98229489      87.21366170
N      88.31917191      64.33856778      83.68554267
H      87.78815882      62.61324766      83.07138162
C      90.22779549      65.92026871      82.13218764
H      90.89486887      67.39236550      83.41153235
C      92.31783279      64.27242736      80.81126894
H      93.24568841      63.09323814      82.22289450
C      90.89486887      62.47907709      78.98768305
H      92.33673005      61.79877562      77.68377190
H      89.58528854      63.40504298      77.69511026
H      90.04071258      60.98619330      80.11962912
C      94.52692285      65.70106045      79.56593931
H      93.76158369      66.85757296      78.04093017
H      95.89697442      64.36691368      78.79682070
C      96.17098474      67.50763881      81.34228204
H      95.03147977      69.04965548      82.09439312
H      97.60717674      68.37691291      80.14986473
H      96.68121084      66.43616399      83.02413846
C      88.69522745      67.46795456      80.18954899
O      89.73835637      69.22728975      79.07838993
N      86.27448804      67.02764833      79.72467632
H      85.32962488      65.47240357      80.29537366
C      84.77026589      68.67171022      78.05604798
H      86.01748526      69.47295417      76.62930461
C      82.66322105      67.19394424      76.88063822
H      81.19679344      68.46761978      76.19466757
H      81.78638805      65.94483515      78.26580760
C      83.56839996      65.62358168      74.57895157
O      85.82284345      65.89570226      73.68133158
O      82.02071411      64.08345473      73.59818362
C      83.82162328      71.10189826      79.34295160
O      84.04083154      73.04075745      78.21289526
N      82.78605327      70.99040440      81.64841770
H      82.41755663      69.28398154      82.41753632
C      82.15299495      73.29964996      83.16208848
H      81.72402708      74.86812280      81.89975130
C      80.01382476      72.84989510      85.03858672
H      79.37131782      74.72261387      85.60361488
H      80.86798106      71.84267097      86.61839790
C      77.77449908      71.11890579      84.15230507
H      76.55184616      70.48773720      85.68676283
H      78.31685054      69.47673363      83.03358710
C      75.84319879      72.67793000      82.61595758
O      75.11943361      74.84922554      83.17342684
O      75.04384456      71.54598394      80.81126894
C      84.46224050      74.26152065      84.51513253
O      84.79672206      76.44415454      84.96488738
N      86.23291406      72.59478204      85.19354427
H      85.75670303      70.75796807      85.00079218
C      88.62341785      73.22406091      86.53147050
H      89.26781452      75.10055913      85.97400124
H      89.99724888      71.75574356      86.07793618
C      88.24547258      73.43193080      89.41330312
O      86.10630240      73.14469240      90.40351971
N      90.15598589      74.25018229      90.94587116
H      91.83406285      74.67348099      90.14084776
C      89.77993035      74.55442823      93.58392910
H      87.76359237      74.89457897      93.82014488
C      90.58873321      72.25841076      95.18263756
H      92.49735679      71.68582369      94.66107310
H      89.44544879      70.59167215      94.77256694
C      90.29015645      72.36990461      98.07958799
H      90.96100930      74.19915968      98.74477165
C      87.63509098      71.93904701      98.87327304
H      87.30627861      72.30754364     100.87260349
H      87.28171216      69.94916521      98.47832024
H      86.37086408      73.09366979      97.72809890
C      92.21956702      70.68426874      99.35137381
H      94.08094744      71.25874554      98.68619015
H      92.06271974      68.80777051      98.51800450
H      91.95500534      70.65403312     101.39416796
C      90.53960033      77.19437589      94.48910800
O      92.60318146      77.57988006      95.43208143
N      88.86152336      78.97260835      94.16029563
H      87.22124092      78.43592608      93.34204414
C      88.93144324      81.49350325      95.17129920
H      90.86274353      82.03207525      95.63995132
C      87.58784783      83.28874325      93.32503660
H      86.99447376      85.06697571      94.17541343
H      85.94945511      82.30419584      92.55969744
C      89.21679191      84.01439815      90.97043761
H      90.21078795      82.30608557      90.40162998
H      90.64164555      85.35988329      91.60916510
C      87.72768757      85.45436960      88.95787909
H      89.11852614      86.08931765      87.57837887
H      86.63731549      87.06630615      89.62873193
N      86.17055309      83.71771112      87.49145147
H      86.02126471      81.90546359      88.06592826
C      84.81939878      84.12778173      85.31826620
N      84.49436585      86.38600468      84.36395441
H      83.46257529      86.80741364      82.81626857
H      85.53182560      87.83731448      85.04236617
N      83.75170341      82.19459171      84.22222494
H      82.61030872      82.69914864      82.77658432
H      84.25626034      80.48060995      84.88929834
C      87.65965743      81.50295188      97.72998863
O      85.29938926      81.42169365      97.97565306
N      89.18277683      81.78452110      99.78223141
H      90.97423738      82.23805542      99.29657174
C      88.54404934      81.99428072     102.44296605
H      86.80361141      80.90201892     102.57713663
C      90.87408188      81.11366826     104.06246150
H      90.19000096      81.30831007     105.99565152
H      92.52381296      82.30230611     103.73175940
C      91.89642382      78.47938978     103.58436074
H      92.32350197      78.22427673     101.58503031
C      94.12819060      77.81420612     105.31157060
H      94.78770508      75.92825926     104.80890339
H      93.54615489      77.98617121     107.28066541
H      95.71934015      79.10677892     105.12259797
C      90.12197081      76.28919699     104.25899305
H      89.60418580      76.69170869     106.21297004
H      90.94778121      74.42403711     103.96419574
H      88.34751780      76.38557303     103.21775385
C      87.63320126      84.62666948     103.32168878
O      86.87542101      84.91957706     105.50243295
N      87.47257452      86.46915263     101.52644879
H      87.75036429      86.07797929      99.67829646
C      86.02126471      88.76328038     102.04990298
H      84.98380497      88.47037280     103.80545872
C      87.88831431      90.89678139     102.49965785
H      88.43822467      91.84731372     100.75921991
H      89.44544879      90.15222922     103.62404499
C      87.00959157      93.15878378     104.16072727
H      86.60519014      92.37076791     106.02021797
H      85.34285297      94.02427843     103.31412988
C      88.74436033      95.39433001     104.66150475
H      89.04860627      96.39588496     102.88705174
H      90.47534963      94.66300593     105.50243295
C      87.34218341      97.01571519     106.61170230
H      86.53338054      95.88943830     108.13293198
H      85.72079823      97.82262832     105.63093434
N      89.07884189      98.80717573     107.67561821
H      90.56038732      97.89443792     108.45985463
H      88.22468559      99.98069577     108.91149923
H      89.81394542      99.97313687     106.35469953
C      84.09752333      89.26027840      99.94096841
O      84.29783432      88.56863857      97.71676054
N      82.12086960      90.73426492     100.61182125
H      82.12653878      91.20480677     102.46186331
C      79.98358914      91.40889722      99.01122306
H      79.23336780      89.57208324      98.45753326
C      77.95024363      92.95469334     100.43985617
H      77.74615319      92.19502336     102.34470028
C      78.84597390      95.89510748     100.68930004
H      78.42834439      96.90233161      98.94130319
H      80.87742969      96.03872668     101.00677405
H      77.77827854      97.03650218     102.03100571
C      75.32730351      92.67123439      99.27389503
H      74.84353357      90.67946286      99.06224568
H      75.08730827      93.31563107      97.33125638
C      73.33742170      94.06774214     100.90850829
H      73.37332650      93.17201187     102.76232981
H      71.49115909      93.85042361     100.01844719
H      73.52072515      96.09352875     101.23165148
C      80.68089815      92.68824193      96.50733571
O      82.57818337      94.04317570      96.34481924
N      79.40533289      92.00794046      94.42107785
H      77.87276485      90.88733275      94.61571967
C      79.75682199      92.70713919      91.83782199
H      80.63932417      94.56662989      91.90774186
C      81.50292910      90.83819987      90.55469781
H      83.36808897      90.81930261      91.42964111
H      81.91866889      91.67912808      88.71977356
C      80.74892830      88.19825221      90.15974501
C      79.31462603      87.53684800      88.04514127
H      78.63621428      88.95792219      86.75067875
C      78.83652527      85.00083529      87.38184734
H      77.72536620      84.47738110      85.75290326
C      79.86831584      83.09599117      89.01457088
O      79.45635550      80.52218393      88.52135230
H      78.88943761      80.38990309      86.80548082
C      81.15332973      83.80841799      91.18397669
H      81.87142573      82.31931365      92.38017343
C      81.55206198      86.36710741      91.73388704
H      82.52905049      86.85465680      93.45920717
C      77.06396199      93.03217212      90.61894851
O      75.07030073      92.85831730      91.73199732
N      76.96569622      93.80129073      88.23033445
H      78.61542729      94.19624353      87.35350145
C      74.52794928      93.89577704      86.72422259
H      72.85932094      93.02839267      87.56515079
C      73.79284574      96.65855691      86.30470335
H      72.40767635      96.85508845      84.79292230
H      75.50304805      97.73192146      85.89841219
C      72.59097981      97.91900436      88.61394889
H      73.76638957      97.99081396      90.30336421
H      70.79573981      97.00815628      89.04858595
C      71.65745501     100.55328284      87.72010834
H      70.03418011     100.94634592      88.92386401
H      71.02250697     100.35864103      85.76802106
C      73.66056490     102.69245303      87.89018372
H      75.22147883     102.25214680      86.62217736
H      74.70369382     102.41088381      89.64384974
N      72.83853395     105.33806987      87.36295007
H      72.22626263     105.67066170      85.58660735
H      74.15189374     106.69111391      87.65774738
H      71.15667754     105.73302267      88.17742212
C      74.74526780      92.45580559      84.22222494
O      76.83152565      92.42745970      83.18098574
N      72.69680448      91.18401978      83.25090561
H      70.97337408      91.55062669      83.98033997
C      72.83853395      89.82341684      80.76213606
H      74.52605955      88.64611735      80.82638675
C      70.43102263      88.31352552      80.47300793
H      68.83987308      89.57586269      80.13096748
H      69.89056091      87.20614590      82.12462873
C      70.68235623      86.46159373      78.40753707
O      69.46348276      87.11921849      76.51214158
O      72.29429278      84.81753184      78.42265488
C      73.30340663      91.65645136      78.53225901
O      73.24104566      93.96002774      78.97067552
N      73.57552722      90.70780875      76.27214635
H      73.46781282      88.86721533      75.77325859
C      73.46970254      92.61076315      74.13486589
H      74.64133286      94.29261957      74.36163304
C      74.51094174      91.44480202      71.60830180
H      73.09553673      90.22592854      70.73902771
C      75.56540902      93.41011738      69.78660564
H      76.87876881      94.58363742      70.85430100
H      74.18023964      94.62521140      68.86252948
H      76.64255302      92.32163503      68.40899516
O      76.69735508      89.91979288      72.36797179
H      76.06240704      88.70847831      73.56038908
C      70.85054187      93.80507018      73.72668501
O      70.65590006      95.91778420      72.74402732
N      68.81908609      92.59753507      74.47690635
H      68.73026895      90.77961835      75.05138314
C      66.31330899      94.01860925      74.45989882
H      66.11677746      95.18457039      72.77237321
C      64.12689565      92.04762471      74.35596387
H      62.35433237      93.04728993      74.68288652
H      64.46704639      90.82119233      75.97545931
C      63.83209835      90.36198884      72.12230737
H      62.54519473      88.84264888      72.64765127
H      65.68025068      89.46058939      72.00892379
C      62.83810231      91.57897258      69.71857550
O      60.74050610      91.08008484      68.82473494
O      64.23272032      93.14933515      68.45434858
C      66.06197540      95.76282664      76.73134984
O      64.28374293      97.23681317      76.77859299
N      67.84398731      95.71558348      78.63052479
H      69.23860533      94.44568740      78.33383775
C      68.16335106      97.25193098      80.93410116
H      67.21281872      99.02071480      80.47678740
H      70.19102739      97.45791114      81.23267792
C      66.76495358      96.05951367      83.22633917
O      66.82164537      97.16878302      85.30692784
N      65.45915270      93.82585717      83.06004326
H      65.36466639      92.73548509      81.49534987
C      64.48027447      92.58430698      85.54314364
H      62.97038315      93.68223797      86.41430747
C      62.83432285      90.13900113      85.12173466
H      61.59466239      89.64389284      86.69209724
H      64.22516142      88.62533036      84.98000519
C      61.23183494      90.18246484      82.78981240
C      61.48316854      88.09053781      81.22322929
H      62.78707969      86.57497731      81.62574100
C      60.13957313      88.09620699      78.98390360
H      60.05264572      86.39734303      77.85573700
C      58.49551124      90.08797852      78.41509598
O      57.05931924      90.13900113      76.19655729
H      56.02563895      91.62810547      76.27025661
C      58.24417764      92.23092816      80.00435581
H      57.08577541      93.84097498      79.51680642
C      59.64635456      92.33486311      82.24557122
H      59.28352711      93.85609279      83.55704128
C      66.58542958      92.09297814      87.39696516
O      68.69814360      91.33519789      86.71099449
N      66.13189527      92.44068778      89.94242650
H      64.43492104      93.05295911      90.56225672
C      68.19925586      92.41612134      91.79813774
H      69.99638558      93.10020227      91.06114447
C      67.61344070      93.65200235      94.39840114
H      69.23860533      93.22114475      95.58703900
H      65.71993493      93.17579132      95.05791562
C      67.65879413      96.51871717      94.47776964
C      65.47049106      97.97569615      93.98266136
H      63.62989763      97.18201110      93.59337773
C      65.80497262     100.66855615      94.31903264
H      64.15902100     101.79672276      93.88628531
C      68.17090996     101.85341455      94.81414093
O      68.58664975     104.37808890      94.71965461
H      66.93313923     105.11886162      94.67430118
C      70.29307261     100.32084651      95.16563003
H      72.11476878     101.17500280      95.50200130
C      69.99071640      97.66578104      95.12405605
H      71.46470292      96.38265687      95.70987121
C      68.82475526      89.58720105      92.25356178
O      67.16746529      88.12644261      93.00945229
N      71.20770015      88.95036328      92.37828372
H      72.41334553      90.40734227      92.11750148
C      72.08831261      86.33876152      92.20442890
H      70.65967951      85.11799832      93.04346738
C      72.35098456      85.45059015      89.40196477
H      74.12543757      86.28206973      88.76323727
C      72.96703534      82.61033150      89.31692709
H      73.80796355      82.17002527      87.48956173
H      71.04518368      81.87522797      89.31125790
H      74.02906153      81.95837592      90.95909926
O      70.26850617      86.13656080      87.77302069
H      69.95859105      87.92235217      87.67853437
C      74.63188422      86.22159849      93.83526270
O      76.05106869      87.95069806      93.98077162
N      75.03250620      84.10699474      95.11271769
H      73.72859505      82.71615618      94.97854711
C      77.22647845      83.59865836      96.77000767
H      78.72881087      84.91579760      96.27111992
C      76.62743521      84.54163179      99.47042656
H      76.02083306      86.50883689      99.43074232
C      74.85487193      82.80308359     100.90850829
H      74.62432532      83.16969049     102.92295653
H      75.39344393      80.81698123     100.95764117
H      72.94435863      83.01095348     100.16395612
C      79.17478628      84.51895508     101.04645830
H      80.53538923      85.41468535      99.78601086
H      79.72091719      82.57820616     101.47164672
C      78.90833487      86.10632518     103.46530799
H      77.56284974      85.13311613     104.68229174
H      78.39432931      88.00738985     102.86248529
H      80.76404611      86.33309234     104.32891291
C      77.83686005      80.74895108      96.57725558
O      76.30618174      79.29008237      95.84782122
N      80.30295289      80.11022359      97.01000290
H      81.72402708      81.35744296      97.25944677
C      81.08529958      77.51940882      97.39172762
H      79.71902746      76.48005934      98.52745314
H      82.84841423      77.35878208      98.44430518
C      81.68623255      76.13612915      94.98799575
O      83.19612388      77.05453614      93.44408935
N      80.32185015      73.94593636      94.74422105
H      79.19935272      73.47161505      96.21064867
C      80.09697272      72.34533817      92.61827895
H      81.39521470      72.81776975      91.09138010
C      80.30862207      69.51074870      93.35716195
H      78.78361293      69.18382605      94.70453681
C      80.07807546      67.91581969      90.88162048
H      81.67111474      68.60745952      89.77802031
H      78.29984300      68.00463683      89.84416072
H      80.32185015      65.88247418      91.11027735
C      82.80117108      68.96083834      94.76878749
H      83.08463002      70.22128579      96.37316513
H      84.23547335      69.26697401      93.32314687
C      83.06195331      66.25097081      95.91018220
H      82.55550666      64.85068361      94.48910800
H      81.86008737      66.12246942      97.58070026
H      84.94034126      65.84845911      96.65095490
C      77.59119563      73.11445678      91.44664864
O      75.91689812      71.45527708      91.10838763
N      77.25104489      75.51251947      90.77579579
H      78.48125672      76.94115256      91.07248283
C      74.94179934      76.10022435      89.23566886
H      74.64889176      74.73773168      87.71821862
H      75.16478704      77.85200065      88.17553240
C      72.42657362      76.51218469      90.65485331
O      70.42346373      76.78619501      89.53424562
N      72.42846334      76.33266069      93.23432973
H      74.09709168      76.21171821      94.15084699
C      70.14000478      76.63123745      94.58737378
H      68.81908609      75.31220848      93.71809967
C      70.43291236      75.94715652      97.34448446
H      71.65934473      77.37767934      98.17407432
H      71.38722415      74.15569598      97.69597355
C      67.82320032      75.98117160      98.61438054
N      66.23583022      74.10089392      98.76933811
H      66.21126377      72.46817038      97.78101123
C      64.02485043      74.99473446      99.77845196
H      62.21071317      74.05931994      99.84459237
N      64.35933199      77.29642111     100.54001166
H      63.07053864      78.36411648     101.45652892
C      66.74416659      78.00128903      99.80490812
H      67.44525506      79.91747151      99.80679785
C      68.94947720      79.20126523      94.33604017
O      69.95859105      81.08721209      95.19586564
N      66.61755493      79.27874401      93.31369824
H      65.72371439      77.63090267      92.95087079
C      65.24750335      81.55964367      92.81103104
H      66.61944466      82.94103361      92.13261930
C      63.37856403      81.08910182      90.50745467
H      61.47183018      80.45793323      90.96665816
H      64.35366281      79.81920574      89.21299214
C      62.77196188      83.36622203      88.96543798
H      64.59932723      84.23360641      88.57048520
C      61.48694799      82.66891302      86.60516982
H      61.26773974      84.35454889      85.43920869
H      59.73328197      81.72404986      87.13051373
H      62.48472348      81.30831007      85.42598061
C      61.08443629      85.32964767      90.30336421
H      62.07843233      86.80552392      91.33893424
H      59.90524707      84.53407289      91.79246855
H      59.73895115      86.32742316      89.10149828
C      63.99839426      82.46482258      95.32247731
O      62.48661321      81.08532237      96.52434325
N      64.79207931      84.64745647      96.34103978
H      65.62922807      85.78507171      95.05413617
C      63.46927089      85.94758817      98.51233533
H      62.85510984      84.50005782      99.84459237
C      65.44214516      87.71070282      99.74254716
H      64.67491628      88.73304476     101.35637342
H      66.00150415      89.31508046      98.58036548
C      67.80997223      86.25183411     100.64961579
H      68.60743674      85.04996817      99.17940871
C      69.59387387      88.23226728     101.39227823
H      69.98693695      89.43413322      99.76522386
H      71.33809126      87.27606577     101.93273995
H      69.21403889      89.43224349     103.02311203
C      67.38856327      84.34132081     102.67351267
H      69.05719160      83.13567542     102.75288116
H      65.76150891      83.12433706     102.34470028
H      66.98794129      85.29941205     104.45174513
C      61.08632601      87.52739937      97.86793865
O      59.23061477      86.88111297      99.09437102
N      61.30553427      89.50783255      96.30324526
H      62.95526534      89.77995313      95.38105882
C      59.14935654      90.92890673      95.48499377
H      57.48072821      89.72326134      95.43208143
C      58.48984206      93.01138513      97.44652969