 %block lattice_cart
   135.996   0.000   0.000
   0.000 142.663   0.000
   0.000   0.000   160.158
 %endblock lattice_cart

 %block positions_abs
N      90.11630164      43.73015747      81.41409164
H      89.69867211      43.66779650      83.27547206
H      92.01925603      43.60921499      81.37251766
H      89.27915287      42.22404560      80.59206070
C      89.07695215      45.80318724      79.87963388
H      89.59284744      47.55874298      80.82827649
C      90.30527427      46.28128799      77.13764100
H      89.90276256      44.54085006      76.10962988
H      92.33673004      46.44380446      77.44377666
C      89.01270146      48.61887944      75.90742917
H      87.06061418      48.15400677      75.45200513
H      90.11630164      49.01383224      74.21423439
S      89.11852613      51.48748399      77.83117055
C      92.48979789      52.22636697      78.12596786
H      93.61796448      50.66734277      78.86674057
H      92.88286096      53.80050899      79.39397421
H      93.10962811      52.51927455      76.18332921
C      86.30850312      45.40445498      79.55838040
O      85.35608104      43.79062871      78.25068980
N      84.92333372      46.89733877      80.86229156
H      85.76615165      48.30518487      81.83739034
C      82.29472442      46.66868189      81.39141493
H      81.52182636      45.36288101      79.99868663
C      82.17189221      45.19847482      84.12395918
H      83.43044994      46.05830029      85.50912856
H      82.89187793      43.32386631      83.65908650
C      79.58485688      45.00005355      85.33338402
O      78.61920674      46.59876201      86.62595681
N      78.20724641      42.95725941      84.98756410
H      76.50838246      43.07631217      85.84361012
H      78.86109171      41.38500712      84.12206945
C      81.04183588      49.19146652      81.65597661
O      82.35330594      51.09631064      81.60684373
N      78.51905124      49.30673982      81.81660335
H      77.59497508      47.63622176      81.86951568
C      77.22269900      51.73503813      81.73723484
H      77.43623808      52.66478348      79.91175922
C      74.24638006      51.24937848      82.00179653
H      73.71725668      49.96436458      80.48056684
C      73.49426898      50.21947763      84.50379416
H      74.40322733      48.39967119      84.83260654
H      71.47604128      49.89444470      84.24301193
H      73.70213888      51.61220592      86.00423686
C      72.80451887      53.69090487      81.43487863
H      73.32230388      55.10442015      82.84272474
H      70.78818090      53.57563156      81.84683897
C      73.26939155      54.89843998      78.79304125
H      75.18935348      55.64299215      78.85729194
H      72.21681399      56.64643682      78.50391312
H      72.94435863      53.42256373      77.39086432
C      78.25071012      53.59263910      83.79892625
O      78.46802863      55.67322777      83.30948714
N      79.00282118      52.66856293      86.00801631
H      78.60030947      50.81474142      86.22722456
C      80.03839121      54.06318095      88.16041458
H      78.91211433      55.78661135      88.20198856
C      79.57918771      52.72903417      90.70965538
H      80.60719883      53.63421308      92.24600287
H      80.28405563      50.81663114      90.39974026
C      76.80129002      52.85186638      91.49956098
C      75.87721386      54.96269068      92.76756733
H      77.02049829      56.61620120      93.12283588
C      73.32986279      55.10064070      93.50267087
H      72.49649349      56.70879779      94.44375457
C      71.76894885      52.99737531      92.93008379
H      69.79040541      53.25815754      93.34771331
C      72.74215790      50.72592428      91.90963159
H      71.52139471      49.13099527      91.54491441
C      75.22336856      50.66545304      91.01201159
H      75.85264742      49.01005280      89.99722856
C      82.85030395      54.96080095      87.84294056
O      83.88776370      56.17211552      89.50589972
N      83.92366850      54.14821863      85.82093341
H      82.77849435      53.04083902      84.77024557
C      86.43133532      54.97402903      84.99890246
H      87.24580736      56.11164427      86.51257324
C      88.10752257      52.60242251      84.38663113
H      89.86685776      53.24870891      83.53247484
H      87.28549162      51.67267716      82.74067951
C      88.68766854      50.89410992      86.68264860
H      86.88864908      50.23648517      87.43664940
H      89.54560428      51.85031144      88.29269542
C      90.32606126      48.50927532      86.09872317
O      89.15254121      46.59876201      85.50156966
O      92.58806365      48.28817734      86.78658355
C      86.24047297      56.58974503      82.58761168
O      87.15887996      58.67789261      82.47611783
N      84.87798029      55.66377914      80.70544428
H      84.45090214      53.80428845      80.62040659
C      84.32429049      57.03194099      78.28470487
H      86.04961060      57.08674305      77.15653826
C      82.50070458      55.52015994      76.64442243
H      80.61286800      55.48047569      77.46267392
H      83.17722660      53.58696992      76.41198609
C      81.96591205      56.55195050      74.04226930
H      83.51170816      56.13432099      72.74780677
H      81.86953600      58.58907547      74.32950770
S      79.11620476      55.78850107      72.74402732
C      79.71146856      57.16233210      69.69211932
H      78.01638404      57.06973551      68.52426846
H      81.27805166      56.16077716      68.80394796
H      80.18201040      59.12953720      70.07951322
C      83.27738210      59.57173315      78.74768782
O      84.15799456      61.41043686      77.72345615
N      81.38576607      59.86086128      80.50891274
H      80.60152964      58.22624802      81.10228680
C      80.38988030      62.30805685      81.34795122
H      80.31429124      63.72535159      79.85506743
C      77.73859429      62.17010683      82.60272949
H      77.70268949      63.78582283      83.87829476
H      77.66867440      60.33707232      83.54192347
C      75.45391517      62.20979109      80.72623127
H      76.02461252      61.08918338      79.09539746
C      73.01049904      61.20067723      81.88085404
H      71.40045223      61.52948961      80.64119358
H      72.53428801      61.89798624      83.76113172
H      73.25805320      59.17111118      82.12651846
C      74.98526305      64.98390932      79.91364895
H      74.95124796      66.27081293      81.52180604
H      73.29962718      65.37697239      78.80060015
H      76.44791120      65.61507790      78.60595834
C      82.22480455      63.69700569      83.10350697
O      82.27582716      65.92499302      83.08271998
N      83.80650547      62.46868359      84.63229555
H      83.76871095      60.56006001      84.65686200
C      85.67355506      63.69511598      86.28013690
H      84.70034602      64.85162847      87.67664464
C      86.97179704      61.72980060      87.92608852
H      88.13397872      60.44667644      86.80926027
H      85.37308859      60.63186961      88.61961807
C      88.74247060      62.63308978      90.01423609
H      87.72768758      63.95211875      91.22744039
H      90.13330916      63.91243449      89.19598460
C      89.78370979      60.40699219      91.60160620
H      90.96856819      61.18177997      93.10015916
H      91.06872369      59.25236941      90.47910877
N      87.77682046      58.77615837      92.72221390
H      86.96423814      57.40232735      91.67719525
C      86.73180181      59.22591324      95.01256219
N      87.61052453      60.99469707      96.53757133
H      86.73369153      61.04005050      98.23265583
H      88.92955351      62.34963083      96.27300964
N      84.69656657      58.02404730      95.59081844
H      83.76115204      58.38120558      97.21409335
H      83.86886645      56.78627657      94.39462169
C      87.58784783      65.21445592      84.75701749
O      88.33995889      67.38575146      85.58093816
N      88.40420959      64.33573319      82.49501509
H      87.71068003      62.64064869      81.95833282
C      90.25992084      65.53381967      80.85473265
H      91.29549085      66.79615685      82.10762120
C      92.30082524      63.70834405      79.84561880
H      92.97167809      62.73702473      81.53125467
C      91.30116003      61.80538965      77.86329590
H      89.48513304      61.01359434      78.42643434
H      92.47656979      60.11786406      77.75558150
H      91.11407712      62.66710485      76.00002576
C      94.68377012      64.90832027      78.75713645
H      94.08472689      65.89475741      77.05071359
H      96.07082924      63.46456936      78.26958706
C      96.30137586      66.67332464      80.42765451
H      98.24968369      66.76403150      79.77002975
H      96.52058411      65.88152931      82.31360137
H      95.50013190      68.56494069      80.27269695
C      88.87475144      67.15709458      78.88563784
O      90.02559476      68.32305572      77.21323005
N      86.36330517      67.29882405      79.04059539
H      85.21813102      66.36151981      80.24813051
C      84.83073713      69.07516678      77.30393691
H      86.01370581      70.03325803      75.91687780
C      82.80495053      67.51425285      76.01892302
H      80.90388585      68.30226873      76.08128399
H      82.54227857      65.81727863      77.15842799
C      83.58162805      66.71489862      73.35629864
O      85.70190096      67.31772132      72.53048825
O      81.95268395      65.67743888      71.97868816
C      83.76115204      71.35417671      78.80626933
O      83.73091641      73.34405853      77.71400752
N      83.06384303      70.92898830      81.21000120
H      83.44934720      69.18855036      81.89030267
C      81.99425794      72.82249407      82.83327610
H      81.21380097      74.40419499      81.76558074
C      79.83430076      71.52047264      84.25812974
H      79.12754312      72.69399268      85.79636696
H      80.42011591      69.84239566      85.29747922
C      77.42300998      70.83072254      82.61595758
H      76.29295365      69.70633538      83.92175846
H      77.91055937      69.54948809      81.07772036
C      76.07185567      73.15697563      81.80526499
O      76.76916468      75.43787528      82.29659383
O      74.29929240      73.04548177      80.35584491
C      83.95201439      74.12451549      84.53402979
O      83.36053007      75.88574041      85.90408136
N      86.42188669      73.44043457      84.26568865
H      86.86408264      72.27447344      82.82004802
C      88.53082126      74.12262577      85.84738957
H      89.03348845      76.09927949      85.55448199
H      90.14464753      72.94343654      85.34850183
C      88.13964791      73.85617436      88.61016944
O      86.79794222      72.13652341      89.36605997
N      89.41899262      75.40386021      90.17297310
H      90.71156541      76.59249805      89.42653121
C      88.58940276      75.95188083      92.73544198
H      86.53338054      75.96510893      92.89039954
C      89.99724887      74.05270590      94.51745390
H      92.00791767      74.13207439      94.08470657
H      89.17143848      72.16486930      94.43808539
C      90.02559476      74.85772930      97.35015364
H      90.55849758      76.84194193      97.50322147
C      87.22313064      74.74434572      98.34414968
H      86.46912984      72.94721601      97.67896602
H      86.09118459      76.22211171      97.46542695
H      87.18533612      74.68576420     100.40206164
C      91.63942103      73.17587288      98.96209019
H      90.92132505      71.24646232      98.88839086
H      91.88130600      73.61995856     100.95764117
H      93.35907198      72.90375230      97.86226947
C      89.40009535      78.78647030      93.42330236
O      91.60918542      79.34771903      93.42141264
N      87.34974231      80.22833148      94.05636068
H      85.57150985      79.60472180      93.74833529
C      87.69745195      82.81725653      94.95776013
H      89.68922348      83.33882099      95.04468754
C      86.60519014      84.58226092      93.00756257
H      86.56361617      86.47387695      93.82014489
H      84.60774943      84.08148343      92.94898106
C      88.03760268      84.66729860      90.45454232
H      88.55538770      82.77190311      89.82904291
H      89.87063721      85.56680832      90.72855264
C      86.38787161      86.10349060      88.53647012
H      85.80016674      87.96487101      89.19787433
H      84.66444122      85.13784044      87.95065496
N      87.68233413      86.68363658      86.13462797
H      88.76703704      88.24644023      85.96455260
C      87.68233413      84.99422125      84.24112221
N      86.54471889      82.86827915      84.14474617
H      86.45401204      81.90829817      82.49879455
H      85.79827700      82.29191262      85.80392587
N      89.04293709      85.51578570      82.30604246
H      89.16387957      84.23077181      80.89819636
H      89.48891249      87.33748188      81.95266364
C      86.63731548      83.21220933      97.63550231
O      84.29405486      83.31992374      97.89628455
N      88.27570821      83.37283607      99.61404576
H      90.09740436      83.90195944      99.38727861
C      87.47446425      83.37283607     102.25588315
H      86.14409692      81.80625295     102.40895098
C      89.71190019      82.74355721     104.12293275
H      89.24702752      83.31047510     106.05045359
H      91.22368126      84.03424028     103.58625047
C      90.80227228      80.05069721     103.87726833
H      91.57894979      79.71810539     101.99510092
C      92.91876576      79.92975473     105.95785700
H      94.44188517      81.14862819     105.30023224
H      93.68032546      78.01735170     106.02210769
H      92.14586769      80.57415141     107.75687645
C      88.90876651      77.84538660     104.30434647
H      88.35318699      77.53358177     106.26399266
H      89.84229132      76.14463292     103.60892719
H      87.15699022      77.90018867     103.22153330
C      85.80961537      85.47232200     103.07980382
O      84.52460147      85.26067266     104.94874315
N      85.86252770      87.68519151     101.85904062
H      86.70345590      87.48299080     100.15828694
C      84.84018577      90.16451244     102.51099620
H      83.84996918      89.99065762     104.31001565
C      86.98313541      92.16762234     102.85303666
H      88.13775818      92.07880520     101.14661380
H      88.12641982      91.46275442     104.41773005
C      86.21590653      94.95685836     103.21964357
H      84.34507748      95.01732961     104.07757931
H      85.89843250      95.86392699     101.39794740
C      88.03193351      96.49320586     104.81079312
H      88.09807392      95.34047281     106.51721598
H      87.08707036      98.31301231     105.00354521
C      90.65676336      96.64249423     103.66183953
H      90.35818660      97.42106148     101.77778239
H      91.59406760      94.81323916     103.51822033
N      92.10996289      98.28277668     105.29645279
H      92.08350673      97.52688615     107.04822908
H      91.15376137      99.87392623     105.72920011
H      93.81638575      98.78355415     104.60292323
C      82.74258955      90.74843786     100.51922467
O      82.76904573      89.65239661      98.38572366
N      80.93979065      92.37738196     101.11448846
H      81.12498383      93.33736291     102.75477090
C      78.69857525      93.08602931      99.54979507
H      77.51749631      91.49676948      98.97909772
C      76.92979142      94.80379053     101.02189187
H      78.06551694      96.31935104     101.83258446
C      75.03628566      96.06990716      99.27578475
H      73.84386835      97.42862038     100.26411162
H      73.89678069      94.84914396      98.06824964
H      76.09075294      96.97508608      97.75455507
C      75.40856174      93.47720266     103.13838534
H      76.65956056      92.15817369     104.11159439
H      73.82497108      92.50021416     102.25399342
C      73.88733206      95.33858309     104.88638218
H      73.26939155      94.38994048     106.60981257
H      72.19224755      96.13037840     104.02277725
H      75.16667677      96.88626894     105.34180622
C      79.75682198      94.14616578      97.05157688
O      81.38009689      95.84502973      96.85693507
N      79.04817461      93.02177862      94.92374505
H      77.85953677      91.54401265      95.15051221
C      80.03650147      93.67562392      92.37261453
H      80.90388585      95.54267352      92.45009331
C      81.89221271      91.77644899      91.35594178
H      83.28683073      91.14717013      92.73355226
H      83.02415877      92.75910666      89.94431622
C      80.92467285      89.44641644      90.18998064
C      80.24059192      89.41618081      87.60483504
H      80.59397073      91.01866874      86.39163075
C      79.66989458      87.09559691      86.40296911
H      79.39021507      86.96709552      84.38285168
C      79.65099731      84.74288764      87.86561728
O      79.32596438      82.38828867      86.87162124
H      78.59653002      82.29002289      85.21244153
C      80.30484262      85.00178016      90.52446220
H      80.16878231      83.34449018      91.70932060
C      80.99459272      87.26567227      91.64129045
H      81.61064350      87.34693050      93.58392910
C      77.79339634      94.15561442      90.49233685
O      75.64099807      93.35626018      90.87784102
N      78.16756216      95.51432764      88.40985845
H      79.76249117      96.55934629      88.33993858
C      76.24571049      96.14927567      86.45399172
H      74.40322733      95.61826257      87.21366170
C      76.17768034      98.89315827      85.83605122
H      74.64889175      99.17661723      84.48300718
H      78.07118611      99.42039192      85.22000044
C      75.48037134     100.36336535      88.17931184
H      76.98270375     100.30100438      89.59093740
H      73.67946216      99.63015154      88.86150304
C      75.28950897     103.28677196      87.78246932
H      74.68668629     104.25053238      89.50023054
H      73.75316148     103.81211587      86.51446296
C      77.65733604     104.59068311      86.85461370
H      77.51182712     104.88548041      84.82126819
H      79.27305204     103.34724320      87.15696991
N      77.96914090     106.85268551      88.34938721
H      79.30139794     107.90904252      87.47822338
H      78.69668552     106.14025868      89.96321348
H      76.18901870     107.53865616      88.44387353
C      76.63310438      94.60536927      84.02380368
O      78.67967799      94.53544941      83.06193299
N      74.66211985      93.35059100      83.06760217
H      73.00482987      93.61137324      83.97656052
C      74.59975887      91.61582225      80.85662238
H      76.28350502      90.43096385      80.80559977
C      72.33397702      89.87349459      81.25157518
H      70.67290759      91.08291943      81.37629712
H      72.64578187      88.79446086      82.98067476
C      71.80674339      88.01967307      79.08027965
O      69.59387387      87.59448466      78.50580285
O      73.53584297      86.70631328      78.11085005
C      74.76416506      93.09925741      78.19021855
O      74.77928288      95.40850295      78.19210828
N      74.89266646      91.64227841      76.16254222
H      75.08163909      89.76011100      76.42332445
C      75.22714802      92.49643470      73.50747675
H      77.02994692      93.47342321      73.29393768
C      75.44824598      90.17018161      71.74625183
H      75.08730826      90.70875362      69.79227482
C      78.29228409      89.26878217      71.87097376
H      79.53194455      90.79379130      71.25681271
H      78.51527179      87.59826410      70.68611536
H      78.65889100      88.79824031      73.84195831
O      73.66245463      88.34281627      72.47379646
H      74.53550818      87.49999833      73.82306104
C      73.33931143      94.42962472      72.57584168
O      73.73804368      95.49732009      70.50281191
N      71.40990085      94.96063782      73.89487064
H      70.95447681      93.85136847      75.38019553
C      69.64300675      97.16216897      73.21078972
H      70.64078224      98.27143832      71.79160526
C      67.09187624      96.00187701      72.48891427
H      66.05063703      97.60247520      71.71790593
H      66.01662196      95.51243790      74.17643986
C      66.94636730      93.72664653      70.74658661
H      65.95426099      92.13738670      71.60641208
H      68.78885046      93.04445534      70.12864610
C      65.46671161      94.35970485      68.31072939
O      66.37000079      95.68062355      66.56084282
O      63.31809278      93.52633554      67.89309987
C      69.23104642      98.91016581      75.46901266
O      68.38822848     101.07957162      75.00225026
N      69.94158351      98.20340817      77.79526575
H      70.65590005      96.43651407      77.85384727
C      70.01717257      99.70196114      80.06482706
H      68.84176279     101.38003810      79.83239072
H      71.94280367     100.36147562      80.37663190
C      68.90412377      98.62481715      82.55359661
O      69.33687109      99.76810156      84.58316267
N      67.82131059      96.39116064      82.50824318
H      67.19203172      95.52944544      80.92465253
C      66.55141450      95.30834746      84.77402503
H      65.28529787      96.77855453      85.46377513
C      64.91869098      92.93485122      84.14852562
H      63.56753665      92.68540734      85.68298338
H      66.15079252      91.28512015      84.16742288
C      63.47116062      93.03878617      81.64841771
C      63.28218799      90.75977622      80.16120310
H      63.97949699      88.95697732      80.82071758
C      62.61700432      90.94874885      77.64219792
H      62.47338513      89.13839105      76.70867312
C      61.81953982      93.17484645      76.51025186
O      60.98239107      93.08602931      74.13864534
H      60.79530816      94.80568027      73.58684525
C      61.77607612      95.42740022      77.98234866
H      61.30175482      97.24531694      77.18677388
C      62.68692419      95.26110431      80.54481754
H      62.92691944      96.97130662      81.62952044
C      68.43169219      94.76221656      86.92831302
O      70.47448633      93.81546367      86.40863829
N      67.72304483      95.23464813      89.31692708
H      65.92402537      95.78077905      89.65896755
C      69.28773821      94.41828637      91.47877399
H      71.27762001      94.93985083      91.34649314
C      68.53184769      95.85636809      93.85604969
H      69.64489649      95.04945495      95.38861773
H      66.56275286      95.49543037      94.33604017
C      68.93813884      98.65316304      93.75211474
C      67.10321459     100.34446808      92.89795845
H      65.27395953      99.63582071      92.33859946
C      67.44336533     103.01465136      93.30424960
H      66.05063703     104.46029200      92.92819407
C      69.88867118     103.90849191      93.74644556
O      70.35732330     106.43127655      93.66707706
H      69.27073068     107.00008417      92.32915083
C      71.80107420     102.13970808      94.48910800
H      73.67568270     102.81434038      94.93508341
C      71.34565016      99.59991591      94.21320796
H      72.90467438      98.35836574      94.65162447
C      69.35576836      91.58369690      91.97577201
O      67.33754065      90.37616178      91.82648363
N      71.55163033      90.58970085      92.85071529
H      73.08419837      91.72542637      92.83181803
C      72.17524001      87.92707648      92.79780295
H      70.49149388      86.76867426      93.05669546
C      73.49426898      87.17685514      90.38462245
H      75.37454666      88.01211416      90.46210123
C      73.41490047      84.34415540      89.72321824
H      74.43913213      83.20087097      91.09893900
H      74.31629993      84.17219030      87.88073509
H      71.46092347      83.69597927      89.76857167
O      71.92390642      88.10471075      88.50623450
H      72.45491950      89.76578019      87.99600839
C      74.13866566      87.34882024      94.86705327
O      75.22903773      89.19508285      95.86671848
N      74.53928763      85.00744933      95.47743486
H      73.28828881      83.84904711      94.62138884
C      76.49137491      84.02290192      97.11204813
H      78.18834914      85.09626646      96.65662408
C      75.77705836      84.63706297      99.94852732
H      75.10242608      86.57403245      99.77278277
C      73.51505597      82.94386819     100.72898429
H      72.36610237      83.01756753      99.02067170
H      72.37366127      83.67897174     102.27667014
H      74.14244511      81.03713434     101.19385696
C      78.15244434      84.61627598     101.71920088
H      79.80028569      84.87894794     100.51355549
H      78.27338682      82.67930652     102.40706125
C      77.94457445      86.52678929     103.84892243
H      79.86453639      86.83103522     104.52733418
H      76.63310438      85.79735493     105.25865826
H      77.07341062      88.28234503     103.21586412
C      77.16978667      81.24689396      96.66418299
O      75.70335905      79.61983961      95.94797672
N      79.56595963      80.59304866      97.28023377
H      80.66200088      81.96121052      98.03423457
C      80.20468712      77.94176264      97.66384821
H      78.53416906      76.99689949      98.41217983
H      81.73914489      77.97388799      99.03578951
C      80.99837217      76.91186181      94.98232657
O      82.25126072      78.08727157      93.45731744
N      79.81162405      74.70088201      94.51367444
H      78.66267045      74.08672096      95.91018219
C      80.03083230      72.97934134      92.35560700
H      81.53694416      73.45744210      91.03468830
C      80.26137890      70.18443613      92.97543723
H      78.52661015      69.55137781      93.88817504
C      80.93601120      68.69155234      90.44131424
H      82.79361217      69.19421955      89.70432098
H      79.42423016      69.16209420      89.12228527
H      80.60530909      66.67899382      90.73611155
C      82.47613814      69.71578400      94.95020122
H      81.94512506      70.81749444      96.60938093
H      84.28649595      70.48490262      94.33415045
C      82.68589776      67.00969592      95.90262328
H      83.37375815      65.63964434      94.52879226
H      80.85853242      66.45978557      96.68308025
H      83.88965343      66.87174590      97.56936189
C      77.57985727      73.57082568      90.76256771
O      75.93390565      71.98534531      90.86839239
N      77.12632296      75.95755002      89.92919841
H      78.54928686      77.22555637      89.97833129
C      74.98526305      76.68887410      88.34749749
H      74.73770889      75.12040126      87.03413770
H      75.31029596      78.34049490      87.15885963
C      72.54373664      77.08193718      89.69487235
O      70.67101787      77.37862420      88.41363791
N      72.35665374      77.28602761      92.24978232
H      73.97236974      76.88162618      93.18330712
C      69.88678146      77.61672972      93.66140788
H      68.40523602      76.31281856      93.06992354
C      70.33086714      76.95721524      96.49032817
H      71.66501392      78.18175788      97.46920640
H      71.14722890      75.08071700      96.74355149
C      67.87233320      76.75312479      97.89061537
N      66.03929867      74.99001014      97.47487558
H      66.19614596      73.49523663      96.29757608
C      63.92469493      75.91786576      98.49532779
H      62.12756520      75.02780467      98.11549280
N      64.33854500      78.14207364      99.58381014
H      62.94014753      79.10205461     100.46253288
C      66.84243235      78.70710181      99.24554913
H      67.74761126      80.51368016      99.53467726
C      68.70003332      80.16974996      93.28346262
O      69.79229513      82.02168176      94.20375933
N      66.52306861      80.37761986      92.02112544
H      65.95804044      78.80725729      91.09515954
C      65.01128757      82.68497569      91.68853361
H      66.30763982      84.11549851      90.97421706
C      62.91369135      82.40718592      89.69676207
H      61.76473775      80.77824184      90.21265736
H      63.64312571      81.98577696      87.81459467
C      61.06931848      84.67296777      89.26023529
H      60.07721215      85.32681307      90.94398144
C      62.49228239      87.00866949      88.00356730
H      64.04374770      87.55669012      89.24322776
H      61.15813561      88.57714233      88.01679538
H      63.13478934      86.45875914      86.12517934
C      59.13990791      84.20431565      87.14752128
H      57.57899397      83.11394356      87.93553715
H      60.05453544      83.22732715      85.58282789
H      58.14402215      85.93341523      86.63729517
C      64.20248470      83.91896697      94.15651617
O      62.89857354      82.50167224      95.39806636
N      64.95648550      86.25466869      94.83681764
H      65.95426099      87.43574764      93.71620994
C      63.72249421      87.53212368      96.99110564
H      63.12534070      86.08459332      98.32903187
C      65.63867670      89.13272187      98.48209970
H      64.52751763      90.02656242      99.96742458
H      66.44370011      90.64639264      97.34070501
C      67.91579691      87.52267506      99.51955945
H      68.85310115      86.69308520      97.88305646
C      69.82819993      89.21020065     100.87638294
H      70.89022612      90.34403643      99.52333890
H      71.17179534      88.05935733     101.93085022
H      68.87388814      90.47631728     102.19163245
C      66.88211662      85.60838229     101.47353646
H      68.37311067      84.33470676     102.10659477
H      65.49883696      84.29124305     100.70252812
H      65.94481236      86.43230297     103.11192917
C      61.45104318      89.20831093      96.22954594
O      59.36478534      88.49966355      96.86638370
N      61.83843709      91.14717013      94.65729364
H      63.57698530      91.43629824      93.92219011
C      59.58966278      92.49832444      93.71620994
H      58.01930021      91.19441327      93.42897154
C      58.82999280      94.69418641      95.39239718