 %block lattice_cart
   135.996   0.000   0.000
   0.000 142.663   0.000
   0.000   0.000   160.158
 %endblock lattice_cart

 %block positions_abs
N      89.49080223      43.36921975      80.25002023
H      89.59284744      42.19758943      81.75424238
H      91.29360113      43.85298968      79.85317770
H      88.81050075      42.35254699      78.78737206
C      88.04894104      45.64822968      80.64308331
H      88.98813502      46.49860652      82.26824794
C      88.46846028      47.50583065      78.40564735
H      88.08673558      46.64033599      76.57639228
H      90.46401127      48.02361566      78.39619873
C      86.91888471      49.89633443      78.90264538
H      86.61274905      50.05696117      80.93221143
H      85.02915839      49.47303574      78.20344664
S      88.19256025      52.81218213      77.50613762
C      91.01203191      53.09186163      79.63585919
H      90.64353528      54.66033447      80.91898335
H      92.64475544      53.61909527      78.49446448
H      91.49202239      51.34197506      80.61095796
C      85.23513856      45.03028918      80.99646212
O      84.24114253      43.47693415      79.55082149
N      84.10130277      46.05263111      82.98067475
H      85.09907828      47.15812100      84.17498178
C      81.35175100      46.05263111      83.47767278
H      80.39932893      44.72415351      82.22667395
C      80.64688308      45.00950219      86.04392110
H      81.45568593      43.13489368      86.31604169
H      78.59841976      44.81486038      85.94376562
C      81.47269347      46.49293734      88.43253517
O      82.35330594      48.57730547      88.11317143
N      81.74103461      45.36666046      90.60194098
H      82.66511077      46.47592981      91.85105006
H      81.08340986      43.60543554      90.93264308
C      80.09886245      48.70769658      83.10728642
O      81.42922978      50.49159822      82.51391236
N      77.62710043      48.96280963      83.65908651
H      76.78617223      47.25638677      83.82349269
C      76.22303378      51.45913809      83.31137686
H      76.74837769      52.19046218      81.45944508
C      73.34687034      51.33819561      83.53436457
H      72.76294490      49.87554744      82.20588697
C      72.07130506      50.72592428      86.13084851
H      70.01717257      50.66356331      85.98533959
H      72.57397227      52.23770533      87.43664940
H      72.70247366      48.96658909      86.99823290
C      72.09398179      53.77594255      82.55359660
H      72.61743598      55.37654074      83.74034473
H      70.07575408      53.38476921      82.71233362
C      72.63066406      54.38065497      79.69822016
H      72.39444826      52.65533485      78.59839944
H      74.54873627      55.08741261      79.44688656
H      71.37399605      55.97180453      79.33728242
C      77.33797230      53.57563156      85.04992506
O      77.50993740      55.77338327      84.31104208
N      78.05417858      52.85375611      87.29491993
H      78.03717104      50.96402980      87.56893025
C      79.01415955      54.58096596      89.12984418
H      77.76316073      56.21557922      89.22433050
C      78.91778350      53.11264862      91.66018772
H      79.87398501      54.17467480      93.14173315
H      80.06673710      51.52149906      91.03657802
C      76.32318928      52.33219165      92.61072004
C      75.11376444      53.75704529      94.55335870
H      75.78461727      55.63165379      95.00500329
C      72.63444352      52.99737531      95.31869785
H      71.65178582      54.11987274      96.71142615
C      71.47982074      50.91300719      94.22643604
H      69.56363826      50.43868588      94.74989023
C      72.69680447      49.41634395      92.47465976
H      71.65367556      47.75149507      91.91341103
C      75.10431580      50.06640980      91.69420279
H      76.16256254      48.93068429      90.36761492
C      81.57284897      55.73936819      88.25868035
O      81.86386683      58.06940074      88.12828923
N      83.25281567      54.11042411      87.46310558
H      82.65944161      52.29439712      87.45743640
C      85.82662290      54.64332693      86.37651295
H      86.83195731      55.92456137      87.64073984
C      87.25147655      52.12999093      85.91541973
H      88.84640555      52.47014167      84.65497226
H      85.86819689      51.04528803      84.84016544
C      88.24925204      50.98481679      88.42308653
H      86.73180181      50.66923249      89.77991004
H      89.62686251      52.34919919      89.11661609
C      89.36419055      48.43746572      88.08860499
O      88.36641507      47.05040660      86.44832254
O      91.14242302      47.92534989      89.58526822
C      85.75859275      55.99637097      83.76113172
O      87.55194303      57.45146023      83.35484057
N      83.73280615      55.68078668      82.32116027
H      82.37409293      54.55262007      83.04681518
C      83.34919171      57.03572044      79.97223046
H      85.08396046      57.21146499      78.87429948
C      81.25915441      55.61275653      78.46044941
H      79.70013020      55.24803935      79.75680166
H      81.95457369      53.84964188      77.65353627
C      80.17823096      56.91288823      76.10585042
H      81.67111474      56.65588545      74.71123241
H      79.87965420      58.93489539      76.36474293
S      77.29639833      55.39921746      74.80004954
C      77.27750106      56.17211552      71.42877780
H      79.25604452      56.41966966      70.91855170
H      76.39877832      58.01648840      71.16421612
H      76.50838246      54.79639476      70.10218993
C      82.35330594      59.75881606      80.44655178
O      83.60997393      61.42933412      79.59428521
N      80.48814606      60.07817981      82.12840818
H      79.50548839      58.53805286      82.67831854
C      79.74926307      62.57450827      83.01091037
H      79.40533289      63.63653445      81.27992108
C      77.13955104      62.41010208      84.44332293
H      76.67656809      64.13353247      85.47322377
H      77.24726545      61.04760940      85.98344986
C      75.00605004      61.56728414      82.75012815
H      75.57863711      60.04983391      81.48023206
C      72.85365176      60.71690730      84.41497702
H      71.46659264      59.70212427      83.28114123
H      71.90500915      62.42710961      85.05559424
H      73.54151215      59.51126191      85.93998616
C      73.96292110      63.77448447      80.99646212
H      72.49271404      63.02993231      79.76247084
H      75.34431105      64.26959277      79.55271122
H      73.28261964      65.36941348      82.10762119
C      81.79016749      63.99558245      84.55670650
O      81.88465382      66.35396089      84.20710714
N      83.44556775      62.97701997      86.22722457
H      83.30383828      61.08351420      86.40107939
C      85.13120362      64.32250511      88.06403853
H      84.26570897      65.75869710      89.26023530
C      86.00992636      62.19278355      89.90652169
H      87.34785258      60.95690254      88.94465100
H      84.47735832      61.05327858      90.67941975
C      87.29305053      63.53637896      92.24789259
H      85.98535992      64.69478119      93.33637495
H      88.79160348      64.80438531      91.62050346
C      88.57239523      61.50681290      94.01667642
H      89.36608029      62.44033770      95.67207667
H      90.07661738      60.69423058      92.86772283
N      86.78282441      59.50370301      94.85760464
H      86.34251818      57.99381168      93.77857090
C      85.70945987      59.48480574      97.12338648
N      86.03827225      61.35752452      98.74666138
H      85.25592556      61.31028136     100.48709931
H      87.17588749      62.83529050      98.34414969
N      84.02004454      57.77271370      97.48810366
H      83.17344715      57.76326507      99.19830597
H      84.21657609      56.12487236      96.54513024
C      87.65587798      65.50547378      86.71666368
O      88.93144323      67.14575622      87.76735150
N      88.14720682      64.56816953      84.46977909
H      87.17210804      63.02615285      83.91042011
C      89.79315844      65.74735875      82.57060415
H      91.03659835      67.02481373      83.60050499
C      91.42399224      63.71779268      81.37440740
H      92.09484509      62.33073357      82.74256924
C      89.93488791      61.98680338      79.42420983
H      88.61774866      60.83029088      80.50513328
H      91.16887919      60.58462646      78.55493574
H      89.07317270      63.17355151      77.97856920
C      93.92787961      64.74202435      80.19521817
H      94.57416600      66.43332940      81.17787585
H      93.60095696      65.48657651      78.30171241
C      96.08594705      62.77859871      80.07805513
H      97.83016445      63.62897555      79.38641530
H      95.74012713      61.30272246      78.68532685
H      96.42987725      61.94522940      81.92998692
C      88.53460071      67.62952615      80.72056208
O      89.88953448      69.16209419      79.67932289
N      86.12142020      67.20433773      80.28781476
H      85.28994063      65.64342380      81.00780049
C      84.43200488      68.82005373      78.77036453
H      85.54883313      69.32083120      77.11307455
C      81.90166135      67.63708506      77.79148631
H      80.54483785      69.11296131      77.32094444
H      81.49725992      66.30860746      79.31271598
C      82.28338607      66.09695811      75.30271674
O      84.20334800      66.48435201      73.95534188
O      80.71680295      64.44533732      74.59973856
C      83.78760820      71.22189587      80.09884213
O      84.07484661      73.29114619      78.98957278
N      82.95801836      71.21055752      82.53091989
H      82.63865462      69.54570863      83.40964263
C      82.40054910      73.50846471      83.87073584
H      81.96213260      75.03725330      82.55926578
C      80.06862682      73.24390303      85.49023130
H      79.39966372      75.02591494      86.27635745
H      80.48625635      72.12707478      87.16830826
C      77.54584220      72.05526518      84.28269619
H      75.98114882      72.21967137      85.61117379
H      77.81607307      70.07105255      83.80081598
C      76.73892907      73.36106606      81.79581635
O      77.87465457      75.38685267      81.04370529
O      74.63377395      72.84139132      80.81693812
C      84.55672681      74.36640046      85.45243677
O      84.44145352      76.42053296      86.45777118
N      86.47857848      72.79603789      85.82471286
H      86.44456340      71.10473284      84.93843121
C      88.50814454      73.41586812      87.52168708
H      89.05427545      75.33205060      86.99634317
H      89.91032147      71.93999187      87.20988225
C      87.58784783      73.24768248      90.14840666
O      85.87764552      71.76802678      90.75689854
N      89.13742340      74.56104227      91.66018772
H      90.60007157      75.39441157      90.76256772
C      88.67255073      74.85772930      94.43619566
H      86.62975658      74.59505734      94.43619566
C      90.28259755      72.84139132      95.78546026
H      92.28192799      73.23445440      95.48688350
H      89.75914335      71.05748968      94.90106834
C      89.85173994      72.97178244      98.70130796
H      90.00669751      74.92386972      99.33814573
C      87.22691009      71.69999663      99.31735873
H      87.12675461      69.79515251      98.54257094
H      85.82473318      72.90564202      98.40462093
H      86.94156143      71.39953015     101.33369670
C      91.89831355      71.60740004      99.90695335
H      91.64886968      71.59795141     101.95163722
H      93.72567889      72.36707002      99.33625600
H      91.86429847      69.60240042      99.43641148
C      89.27348370      77.60917081      95.17129920
O      91.48824293      78.16664007      95.68152530
N      87.41021356      79.19087174      95.44530952
H      85.68300371      78.45387847      95.09948961
C      87.75603347      81.95932078      96.08781647
H      89.72701801      82.51679005      96.30513498
C      86.61463878      83.62983885      94.06014013
H      86.12142020      85.53468297      94.66485255
H      84.81561933      82.80213872      93.48944278
C      88.35696644      83.66574365      91.75845349
H      88.84640555      81.74200226      91.21610202
H      89.91977009      84.96398562      92.10427339
C      86.95667923      84.89595547      89.45865656
H      88.33428972      85.81436246      88.23411391
H      85.74158522      86.38317008      90.20698818
N      85.57150985      83.05725177      87.87128646
H      85.22568993      81.36972617      88.68953794
C      84.56806518      83.33315181      85.67353476
N      84.61341860      85.47421173      84.39419003
H      83.89532260      85.61405147      82.63107539
H      85.34852215      87.10315581      85.06315315
N      83.76871095      81.40563097      84.52080170
H      83.50414926      81.66830293      82.64808292
H      84.39421036      79.65385468      84.94976958
C      86.54849835      82.32781742      98.58414493
O      84.25437060      82.09349135      98.85815523
N      88.04138215      82.44120099     100.58158563
H      89.86685776      82.08782217     100.14505886
C      87.28549162      82.20876466     103.21019494
H      85.73780576      80.88028706     103.47664635
C      89.64764951      81.33760083     104.68040201
H      88.83506719      81.32059329     106.57201804
H      91.23312989      82.64718116     104.58024651
C      90.72101406      78.72221961     104.28166975
H      90.95534012      78.74111687     102.23509615
C      93.27592402      78.48033464     105.52699940
H      94.30771459      76.90808235     104.68796092
H      93.03970824      78.27813393     107.56223463
H      94.42865707      80.11494790     105.03567055
C      88.84640555      76.56793161     104.99976575
H      88.43066577      76.50935010     107.01421400
H      89.62119334      74.73111764     104.48198075
H      87.16076968      76.64163094     103.81679709
C      86.13086884      84.78068217     104.09080739
O      84.78727342      84.83359451     105.88982685
N      86.48046820      86.93497017     102.65839485
H      87.78248963      86.73276945     101.27700492
C      85.27293310      89.41051164     103.09681135
H      84.23547335      89.24988490     104.86937463
C      87.32139642      91.38338591     103.51633059
H      88.38720205      91.26433315     101.75888513
H      88.49113701      90.94307968     105.15472331
C      86.30472366      94.18773976     103.61648609
H      84.84963440      94.29923361     105.06779590
H      85.64142972      94.84158506     101.78156184
C      88.62530757      95.81857356     104.39316360
H      90.23913384      95.74865369     103.11570862
H      89.08640080      95.29133992     106.33013308
C      87.92043965      98.57190480     104.51788554
H      86.18000173      98.78922333     103.43696209
H      89.45111797      99.65471798     103.66561898
N      87.52548685      99.48086316     107.11247977
H      87.28171216     101.37436892     107.10303115
H      89.00514256      98.80434114     108.11025527
H      85.87386606      98.73253154     107.70207439
C      83.51548762      89.83570006     100.82347060
O      83.82162329      88.75288688      98.65028535
N      81.45568593      91.29834822     101.27133573
H      81.35364072      91.77644898     103.11570862
C      79.29383903      91.87471475      99.50255191
H      78.25826901      90.13994599      99.09437103
C      77.26805243      93.30712729     101.02000215
H      76.52916945      92.20919631     102.59981333
C      78.35653479      95.79400712     102.23131670
H      78.84786363      97.04311621     100.66851304
H      80.16311315      95.45385639     103.15728261
H      77.00160102      96.95618880     103.25743809
C      75.00605004      94.14805550      99.34948408
H      74.08197387      92.57580321      98.39517229
H      75.68446177      95.55401188      98.00588867
C      72.82530586      95.33480363     100.78189663
H      71.10943438      95.37070843      99.64428138
H      73.13144153      97.32468544     101.22031313
H      72.52672911      94.23120346     102.49587840
C      80.11964944      93.12949302      96.93441386
O      81.69946064      94.90772548      96.81536110
N      79.09163832      92.16951205      94.84248682
H      77.80473471      90.79568102      95.15618140
C      79.67367402      92.83091626      92.33104056
H      80.86609133      94.50710350      92.43875495
C      81.47647292      90.75788650      91.31436779
H      83.09974783      90.79757075      92.58426388
H      81.91488943      91.19252355      89.35094215
C      80.51271250      88.02156280      91.05547529
C      79.61887197      87.42062983      88.74434002
H      79.28250067      88.83036566      87.30625828
C      79.09163832      84.82981505      88.39096120
H      78.53416906      84.23077181      86.52013215
C      79.56029044      82.97410381      90.33171011
O      79.10297668      80.44753973      89.99722856
H      78.58141222      79.85983485      88.36261529
C      80.39743921      83.76400941      92.74489062
H      80.75459747      82.31269960      94.13383946
C      80.92467285      86.33025775      93.08315162
H      81.49725992      86.87827838      94.96153958
C      77.30017778      93.13705193      90.89295882
O      75.25549391      92.45864018      91.96065420
N      77.45702507      93.90806026      88.41552764
H      79.11998421      94.50521378      87.69554190
C      75.25171446      94.21608565      86.69776642
H      73.64355736      93.80601504      87.91663988
C      74.87754864      96.95996826      85.78880806
H      73.40356211      96.92028400      84.35072634
H      76.61798658      97.65538754      84.93276203
C      73.94024440      98.68906783      87.88262481
H      75.34620076      99.12559461      89.32448598
H      72.41334553      97.77821975      88.92008456
C      73.05585247     101.08524080      86.39729994
H      71.50627690     100.48052838      85.18220591
H      74.54495682     102.02254505      85.32582512
C      71.93713450     103.08457124      88.19442965
H      73.15411825     103.78188025      89.70243125
H      70.34976439     102.12270054      89.08260103
N      70.99227135     105.27854349      86.85650342
H      70.88833640     106.77331700      88.03758237
H      69.23293614     104.94028248      86.19698895
H      72.00138520     105.78310041      85.31826621
C      75.70713850      92.40761757      84.43576402
O      77.75560182      92.07313601      83.48145222
N      73.56796830      91.41740098      83.46633442
H      71.99382629      91.69708048      84.50757361
C      73.34120115      90.20041724      80.90386553
H      74.80951849      88.77556360      80.68843673
C      70.72581994      88.79068141      80.73756963
H      69.23104642      90.20797614      80.69599564
H      70.56519320      87.38850448      82.23612259
C      70.48393497      87.48110107      78.14864458
O      71.42690839      85.28145964      77.88030344
O      69.55229990      88.65084166      76.31183060
C      73.63599845      92.40005866      78.94421936
O      73.43379774      94.59214119      79.60562357
N      74.01772318      91.78400789      76.48568542
H      74.30874102      89.95853227      76.01325384
C      73.98937728      93.46775403      74.18021932
H      75.48604052      94.87560013      74.31627961
C      74.63377395      92.05801820      71.78215662
H      73.89867041      93.24476633      70.26848585
C      77.51371686      91.76511062      71.56672783
H      78.21858477      90.86182144      73.27693014
H      78.46046974      93.57924788      71.31728395
H      77.87654431      90.46686865      70.00959334
O      73.30151689      89.74688292      71.60641207
H      74.27472596      88.53367863      72.54182660
C      71.45525430      94.94552001      74.05927684
O      71.37966524      97.27177310      73.65298567
N      69.25372314      93.75499243      74.63186391
H      69.30285603      91.85203803      74.76225503
C      66.95770566      95.03244742      74.79249065
H      66.81786591      96.27021815      73.15220820
C      64.74483616      93.10681630      74.60729747
H      63.02140576      94.07624590      75.18366398
H      64.71649025      91.69519075      76.10774016
C      64.32342718      91.90117092      72.08451283
H      62.52818719      90.96575639      72.46812728
H      65.75772946      90.47442755      71.70656757
C      63.55052913      93.68318283      69.87542278
O      65.21159855      94.50899323      68.46757668
O      61.36222606      94.60347954      69.85463578
C      66.45692820      96.70107575      77.14897935
O      64.72026972      98.27143832      77.18488416
N      68.10665927      96.56501546      79.02736730
H      69.67702184      95.48598173      78.91209401
C      68.18035860      98.34702737      81.04370529
H      67.49249822     100.19517970      80.45600040
H      70.03795956      99.09724872      81.52558550
C      67.15990638      97.49854026      83.55326182
O      67.06353033      99.03110830      85.30692785
N      66.45692820      95.08535975      83.85939749
H      66.32464735      94.01766439      82.28336574
C      65.22482663      94.04034110      86.09116427
H      63.88312096      95.34425226      86.95098973
C      63.76217847      91.67251403      85.17086756
H      62.92313998      90.72765088      86.79603219
H      65.01317729      90.13994599      84.60205993
C      61.56820623      92.17896069      83.30948713
C      61.46238154      90.77489403      81.00213131
H      62.73227764      89.24799517      80.52781001
C      59.57832442      91.35881947      79.09161801
H      59.37801342      90.30246246      77.35495952
C      57.94749060      93.39972388      79.64719754
O      56.15414034      94.12159933      77.98801783
H      55.15447512      95.36314952      78.85540221
C      58.12890434      94.75465765      81.87140541
H      56.85711853      96.28155651      82.34383698
C      59.99784366      94.27277744      83.66664540
H      60.16980875      95.31968582      85.41086279
C      67.15423721      93.36003963      88.18498102
O      69.26884094      92.49454498      87.76735150
N      66.38322887      93.49421020      90.60761016
H      64.72782861      94.32002060      91.07248282
C      68.29185245      93.13705193      92.50300565
H      69.99638558      93.96664178      91.69420279
C      67.64556605      94.81323917      94.86327381
H      68.65656963      93.78900750      96.33915006
H      65.63867670      94.74709874      95.32247731
C      68.54507577      97.56657040      94.89539915
C      66.71393098      99.34669259      94.82925873
H      64.70704163      99.00465213      94.97854711
C      67.54541055     101.89026421      94.93130396
H      66.15646170     103.38314799      94.85760464
C      69.99449585     102.64048555      95.19775537
O      70.68613569     105.09901949      95.16374029
H      69.19703134     106.12136142      94.99366493
C      71.88233243     100.77721541      95.26956497
H      73.85520671     101.28366206      95.39050746
C      71.12266246      98.21852598      94.98610602
H      72.56830308      96.85603331      94.51556417
C      68.73593812      90.39505905      93.28157289
O      67.01250773      89.13272187      94.03557369
N      71.05463231      89.51255686      93.13417424
H      72.43791197      90.63316456      92.44631385
C      71.97492902      86.89906537      93.30047015
H      70.39889729      85.79924465      94.03746342
C      72.36988182      86.07325497      90.65296358
H      73.89111150      87.18063459      89.81581483
C      72.88199765      83.22165796      90.13139913
H      74.45424995      82.70765240      91.35783150
H      73.34309088      83.00811889      88.13584814
H      71.30407619      81.98766668      90.60949989
O      70.31196987      86.72143109      89.08827019
H      70.40078701      88.53556835      89.08260103
C      74.22181362      86.57025299      95.05035672
O      75.59375492      88.46375875      95.50956021
N      74.69802465      84.26289716      95.89506438
H      73.37521623      82.90418394      95.67963558
C      76.64066329      83.43330731      97.59203860
H      78.24693067      84.60304790      97.05346660
C      75.80729400      84.26856634     100.32647259
H      74.81896713      86.07703442     100.35103903
C      74.22748280      82.15963177     101.48865426
H      72.57019282      81.90262899     100.29434724
H      73.59064503      82.79457981     103.34436550
H      75.21580966      80.37384041     101.77589267
C      78.15811353      84.86383013     102.01588790
H      79.25415478      86.46442831     101.32613781
H      79.22013971      83.10827438     102.20675026
C      77.76882990      85.43263775     104.79756504
H      76.50082355      87.05024347     104.87504381
H      79.58863634      86.04490907     105.54400693
H      77.06963117      83.66574365     105.59502955
C      77.29639833      80.65540963      97.37094063
O      76.02461252      79.16252584      96.23899456
N      79.36942809      80.04313830      98.63705726
H      80.52972005      81.39618234      99.31735873
C      80.48247689      77.39374201      99.04901759
H      79.33163357      76.48289393     100.49465822
H      82.37598266      77.52602285      99.85026156
C      80.68467760      75.94810138      96.50166653
O      82.20023811      76.69454328      94.98610602
N      79.42423016      73.75223941      96.10671373
H      78.35842451      73.20610850      97.59014889
C      79.44123769      72.24801726      93.73699692
H      81.07018178      72.72044884      92.56536662
C      79.78138842      69.43988396      94.25856140
H      78.08441419      68.71233933      95.17129920
C      80.12720835      68.01880977      91.78301993
H      80.61664745      66.04026632      92.08348641
H      81.58796678      68.83706127      90.58682316
H      78.39054985      68.20589268      90.69075811
C      82.13409769      68.91454005      96.00466850
H      82.37409293      70.33183478      97.48054475
H      83.85374863      69.22256543      94.91240670
C      82.10386207      66.38986569      97.42574269
H      82.56684502      64.91965862      96.05947056
H      80.30484262      65.89664712      98.29879625
H      83.39832459      66.20089306      99.01500252
C      77.17734556      72.98312080      92.16285491
O      75.29328843      71.53370072      92.10427339
N      77.04128528      75.23378484      91.13295408
H      78.39810876      76.42809187      91.74333567
C      74.74904725      76.35061309      89.94431622
H      74.28417458      75.52858214      88.11128170
H      75.26494253      78.29892092      89.52101753
C      72.12988659      76.21455279      91.26901437
O      70.28551370      75.94432193      89.88762444
N      72.21303454      76.64730012      93.76723256
H      73.90056015      77.36917557      94.28123810
C      69.94536297      76.99689949      95.28846223
H      68.58476003      75.56259721      94.70831625
C      70.11354861      76.63029258      98.25533255
H      71.08486794      78.23278050      99.11326829
H      71.30218645      74.98056151      98.57658602
C      67.54541055      76.38651789      99.60270741
N      65.99394524      74.38151827      99.49499300
H      66.14890281      72.86406804      98.34792914
C      64.20437442      74.61395461     101.14283436
H      62.50928993      73.50657499     101.39605767
N      64.35177309      76.88162618     102.18029409
H      63.07809754      77.69798795     103.34247577
C      66.66290836      78.01735170     101.37338096
H      67.26384133      79.87684239     101.95730640
C      68.87577788      79.55180946      94.83681764
O      69.96048078      81.35460836      95.72876847
N      66.69125426      79.90518828      93.63495171
H      65.81253152      78.40285586      92.84882556
C      65.18892184      82.20876466      93.53479622
H      66.29441174      83.71298680      92.66363238
C      62.80219751      81.75334062      91.77357129
H      61.68536926      80.23400066      92.60316115
H      63.52407296      81.17130491      89.93675731
C      60.93892736      84.01912247      91.53546578
H      59.95815941      84.29880196      93.32692631
C      62.08788096      86.33781665      90.42619643
H      60.62901224      87.76267029      90.13139913
H      62.89101464      86.00522482      88.55914683
H      63.57131612      86.99544141      91.69420279
C      58.95849418      83.06670040      89.62495248
H      57.21805624      84.13250604      89.90841142
H      58.24606737      81.17319464      90.01234636
H      59.58777304      83.21031960      87.67097546
C      64.23272033      82.96465518      96.09915482
O      63.34265922      81.28468849      97.44841940
N      64.22516142      85.36838705      96.73221313
H      64.95081633      86.69308520      95.56436227
C      62.81353586      86.09215223      99.02445115
H      62.30330976      84.45564924     100.16773557
C      64.43492104      88.16707172     100.43040754
H      63.47494007      88.94563896     102.07635914
H      64.52940736      89.65617606      99.01122306
C      67.08431733      87.39228393     101.47731590
H      68.04240857      86.22065362     100.07891844
C      68.86632925      89.72042675     101.60770702
H      69.00427927      90.34025698      99.64806083
H      70.73526857      89.23098764     102.31824411
H      68.20303531      91.21708999     102.85681612
C      66.94636730      85.93530495     103.92640121
H      68.55830385      84.66540886     104.11915330
H      65.19081157      84.86383013     103.86215051
H      66.77440222      87.25622364     105.49676378
C      60.16791903      87.15417842      98.36115722
O      58.40480438      86.20553581      99.39672724
N      60.03941763      89.07791981      96.74355150
H      61.70804597      89.73743429      96.09159591
C      57.62623714      90.47253782      96.03301441
H      56.09366910      89.12705269      95.74577600
C      57.04231171      92.45486073      97.97754278