 %block lattice_cart
   135.996   0.000   0.000
   0.000 142.663   0.000
   0.000   0.000   160.158
 %endblock lattice_cart

 %block positions_abs
N      89.87252694      40.65084845      82.47422811
H      88.89931789      39.05591945      82.08683421
H      89.88575502      40.67919434      84.38096196
H      91.62808268      40.61116420      81.72589649
C      88.63853565      42.88450495      81.38385602
H      89.43033098      44.65895795      82.06982667
C      89.15254121      43.18497144      78.49446449
H      88.29460547      41.61649860      77.47023283
H      91.18966618      43.15473582      78.17510074
C      88.14720681      45.74555058      77.48346091
H      86.09496404      45.86649308      77.62708011
H      88.79916239      45.66240263      75.53137363
S      89.28293233      48.44785922      79.14453034
C      87.01904020      50.70419244      78.02014319
H      86.95101006      50.46608691      75.97356959
H      87.52359713      52.66194890      78.40942681
H      85.22568993      50.08058276      78.81949742
C      85.86819688      42.55758230      81.82416225
O      84.91955427      40.44486828      81.45944508
N      84.32995966      44.53990520      82.24557122
H      85.02726867      46.31624793      82.18509998
C      81.52749554      44.29802024      82.60461922
H      80.74325912      43.06024950      81.15897859
C      80.99081327      43.21142760      85.22000044
H      82.01315520      44.12794487      86.75445820
H      81.78260859      41.31414238      85.13685248
C      78.28094573      42.84104124      85.81904368
O      76.76916468      42.73710629      84.09183383
N      77.79906552      42.62750217      88.17553239
H      76.03406115      42.07192263      88.64229479
H      79.21636026      42.54435421      89.45109765
C      80.36909331      46.88316582      82.13596710
O      81.78638804      48.67273665      81.70510950
N      77.96158199      47.43118647      82.50446373
H      76.72003180      46.02900954      82.87296036
C      76.88632771      49.89538958      82.63863429
H      77.39277437      51.10103496      81.04748474
C      73.94213412      49.73854229      82.46666920
H      73.37143677      48.94485724      80.65253194
C      72.68357639      48.21353316      84.71544351
H      72.85932094      49.33792030      86.43320473
H      73.60576283      46.38427808      84.93843122
H      70.70881240      47.91873585      84.21277631
C      72.33208730      52.14038444      82.38352124
H      72.83475450      53.21941815      84.06348793
H      70.34220549      51.64338642      82.57438360
C      72.98215315      53.98097786      80.15553392
H      72.71759147      53.34036064      78.21289527
H      74.98337332      54.43640190      80.32371956
H      72.17712974      55.82724047      80.59206070
C      77.81796279      51.67740148      84.83449627
O      78.21291559      53.86570456      84.19765850
N      78.26960738      50.53600679      87.04358633
H      77.86520594      48.67462638      87.15508018
C      79.48470139      51.76810835      89.34338325
H      78.42267521      53.44618532      89.88951416
C      79.38832535      49.87082314      91.58459866
H      80.56562485      50.78923012      93.00378312
H      80.09508299      47.97542764      91.19342531
C      76.74648797      49.57791555      92.85638447
C      75.38021584      51.75488026      93.58770855
H      76.25704885      53.59358397      93.49322224
C      72.77050380      51.52622339      94.54202034
H      71.64800637      53.11359349      95.16940948
C      71.76327968      49.13194015      94.44564430
H      69.86221501      49.02044628      95.18641701
C      73.15033879      46.94363707      94.05825040
H      72.30563113      45.10871282      94.34359908
C      75.69768986      47.17040422      93.23621946
H      76.65011193      45.47531972      92.62205841
C      82.16622303      52.68084615      88.99000443
O      82.97691562      54.26254709      90.44887315
N      83.45690610      51.95708097      86.93965138
H      82.51771213      50.62293420      85.94754507
C      86.00614690      52.82068590      86.14785606
H      86.85652374      54.13026624      87.49523092
C      87.50847932      50.59269859      85.38629635
H      88.98813502      51.24654389      84.11262082
H      86.43700450      49.23776481      84.26190920
C      88.64798429      49.25666208      87.61617340
H      87.34218340      48.65005994      89.08827020
H      89.77048172      50.76844312      88.45143243
C      90.40165030      46.99465969      86.94721029
O      89.51725839      44.84037169      86.51257324
O      92.69388832      47.29134672      86.62973627
C      85.63765027      54.59513891      83.83861050
O      86.95289978      56.51888030      83.79514680
N      83.83485137      54.05845663      82.20777670
H      82.63676488      52.60525710      82.50824318
C      83.27360265      55.63448838      80.02703253
H      84.92333372      55.83290965      78.81193851
C      81.19112426      54.29089297      78.42454462
H      79.40533289      54.30412106      79.45255573
H      81.66544556      52.31612897      78.08817333
C      80.64121390      55.35858835      75.74302298
H      82.25692990      54.98064308      74.52225978
H      80.42578510      57.38059550      76.06805590
S      77.78016826      53.87326347      74.46934744
C      78.26771765      54.45151972      71.09618598
H      76.89010717      53.23453596      70.16455090
H      80.15744396      53.93373470      70.46312766
H      78.07307584      56.47730633      70.76737360
C      82.70290531      58.37648127      80.71111346
O      84.17122265      59.97707946      79.85317771
N      80.76593583      58.77710324      82.25124040
H      79.77193979      57.44484619      83.19232410
C      80.11020080      61.25642416      83.28681042
H      79.71146855      62.60946820      81.78636773
C      77.78961689      60.87092000      85.01213054
H      77.23403736      62.60379903      85.97967042
H      78.40944712      59.41205128      86.32549033
C      75.58997546      59.84290888      83.40775290
H      76.00382553      58.07601478      82.43454385
C      73.27128128      59.30622661      85.08771960
H      71.94091395      58.23475180      83.93876600
H      72.35476402      61.03910564      85.72455736
H      73.82119163      58.15538328      86.70721505
C      74.92479180      61.70806875      81.33472314
H      73.03317576      61.12414332      80.77158470
H      76.23815159      61.44539680      79.77380920
H      75.10809525      63.69984029      81.83172116
C      82.37976211      62.60379903      84.62095720
O      82.89943684      64.70139524      83.85750777
N      83.74414450      61.45295571      86.43509446
H      83.36053006      59.63314927      86.86973151
C      86.06094896      62.48474626      87.65963711
H      85.57906875      64.04188075      88.91819483
C      87.35163204      60.44195213      89.34338325
H      89.17899738      61.11658441      90.01234637
H      87.78248963      58.68450665      88.36072557
C      85.62442219      59.91093903      91.58837811
H      83.92366850      58.95662724      90.92697390
H      85.18978513      61.59279545      92.69575773
C      87.25525599      58.16105246      93.18141740
H      88.88608980      59.17961494      93.92030038
H      88.10563283      56.55289537      92.21198780
N      85.94756539      56.91383310      95.31680813
H      85.90599141      55.00709924      95.38294855
C      84.92711318      57.97774902      97.30480021
N      84.93278235      60.28321511      98.05880101
H      84.33940829      60.72919052      99.81813621
H      86.19134008      61.50775777      97.31235912
N      83.92177878      56.41305562      98.97909772
H      83.43800884      57.08579820     100.69874867
H      83.50792871      54.64238208      98.40273120
C      88.11130201      63.37669708      85.75101353
O      89.19789464      65.44027823      86.12895879
N      88.35507671      61.86869549      83.75357282
H      87.22313065      60.33990690      83.58160772
C      90.36952496      62.49230517      81.89030267
H      91.91343136      63.11213540      83.10539669
C      90.92321477      59.98085890      80.45222095
H      89.25647616      59.38937456      79.39775367
C      92.76947737      60.79722067      78.36407337
H      93.05104660      59.14937932      77.16031771
H      94.44377489      61.63058997      79.22956803
H      91.95311561      62.29766336      77.21511978
C      92.28759717      57.88893187      82.00746571
H      91.46367649      57.62437019      83.87640503
H      94.30015569      58.25364905      82.24179177
C      91.90587245      55.29811711      80.95866760
H      93.26458567      54.00176485      81.80904444
H      91.97390260      55.28299930      78.90075565
H      90.08606601      54.43640190      81.39708411
C      89.51914812      64.82233772      80.35017573
O      91.04415725      66.57789347      80.21033598
N      87.12864433      64.83367607      79.60940302
H      86.08173595      63.36535874      80.23490242
C      85.82284345      67.01064078      78.39808845
H      87.12297515      67.60590457      76.91843275
C      83.17155743      66.24719135      77.38897460
H      82.17000249      67.92148887      76.72379094
H      82.04150110      65.41571178      78.89508647
C      83.13565263      64.39148012      75.01547835
O      84.72869191      64.95839802      73.36574728
O      81.63520994      62.55277641      74.86052079
C      85.66977562      69.55043296      79.97600992
O      86.37842298      71.49496133      78.91209401
N      84.80428097      69.60523502      82.32305000
H      84.19956855      67.98007039      83.11673505
C      84.48302749      72.07510731      83.72333720
H      84.06161852      73.65302877      82.46666920
C      82.23614291      71.81621481      85.51479774
H      82.39487992      73.26374515      86.97177673
H      82.30417305      69.95483438      86.39918966
C      79.48281167      72.05809978      84.49623526
H      78.07307584      71.75952301      85.96833206
H      79.26927259      70.46128103      83.21311109
C      78.71747251      74.41269875      83.12429396
O      76.79373112      74.40136039      81.66731497
O      79.93634598      76.36667576      83.41720154
C      86.85463402      72.93493279      85.26535387
O      87.31761696      75.21961189      85.26724360
N      88.03382323      71.32110651      86.73367122
H      87.58973755      69.48240281      86.46721980
C      89.84607077      72.21683678      88.73111193
H      90.84762571      73.81365551      87.90152208
H      90.99691409      70.57466462      89.20543323
C      88.23224450      72.90091770      91.04980611
O      85.97780101      73.23728900      90.97799651
N      89.60796525      73.01052184      93.30235988
H      91.44477923      72.49462655      93.23432973
C      88.72357334      74.18026242      95.63239242
H      86.69400728      73.84578086      95.53034720
C      89.78937898      72.68737864      98.02478594
H      91.83973203      72.88391017      98.05124210
H      89.42277207      70.68804819      97.69975301
C      88.76892677      73.62468288     100.55701919
H      89.47946386      75.55031399     100.69307949
C      85.94000648      73.63413151     100.70819730
H      85.42033174      73.79097880     102.69618938
H      85.15577006      71.98440045      99.75955469
H      84.98380497      75.26685505      99.89372526
C      89.91410092      71.75574357     102.48642976
H      88.96923776      69.93593712     102.28800850
H      89.46812551      72.30565391     104.41961978
H      91.88130601      71.24929690     102.13872012
C      89.37552892      77.03941833      95.73065819
O      91.54871418      77.72727871      95.43019171
N      87.55383275      78.66647269      96.53946105
H      85.83796126      77.87845682      96.82480973
C      87.83729170      81.26673609      97.53156737
H      89.81016597      81.68625533      97.94163798
C      87.09651898      83.38889875      95.77979108
H      87.13053406      85.19169765      96.77378712
H      85.17844678      82.92591579      95.18641701
C      88.85585418      83.57976111      93.54235512
H      89.06939325      81.63334300      92.90740708
H      90.78526475      84.10510502      94.03557369
C      87.85429923      85.38067027      91.35783150
H      89.47379469      85.92302172      90.20698818
H      86.83762648      86.96426093      92.19686999
N      86.18189145      83.78385155      89.77802031
H      85.69056261      82.00183963      90.25423134
C      85.22191048      84.55297015      87.68420355
N      85.81150509      86.73749378      86.66564107
H      85.02726867      87.34220620      85.03102781
H      86.96612787      87.91479327      87.62184258
N      83.97280139      83.21693364      86.06092865
H      83.84807945      83.83109470      84.25812975
H      83.47769309      81.42736283      86.50501433
C      86.31039284      81.48783407     100.11482324
O      84.26192951      80.42769761     100.38505410
N      87.20801284      83.05819664     101.88549679
H      88.86530281      83.90668376     101.46219810
C      86.18000172      83.37189120     104.48387047
H      84.56995490      82.12845130     104.81457258
C      88.08295612      82.46860202     106.53611325
H      87.20612311      82.60088287     108.39560394
H      89.53615565      83.90857347     106.77610849
C      89.17899738      79.76818312     106.11659401
H      90.12008108      79.68692490     104.28733894
C      91.06116479      78.86867340     108.11214499
H      90.00669751      79.04819740     109.87148019
H      92.52003350      80.31998321     108.08946828
H      91.67532584      76.93359365     107.76632508
C      87.06628336      77.79719859     106.17328580
H      87.81083553      75.87723664     106.23375704
H      85.84740989      78.02018628     104.52544445
H      85.91921949      78.05420136     107.86459085
C      85.04238648      86.00239023     105.00543494
O      83.01848960      86.23860602     106.28288992
N      86.17055309      87.92046244     103.70908268
H      87.74658483      87.60298843     102.68296130
C      84.95734880      90.55096147     103.33302715
H      84.05783907      90.98559853     105.13582605
C      87.07951145      92.56163027     103.03445039
H      87.73902593      92.52761519     101.08236311
H      88.46468083      92.18368501     104.51410609
C      86.13842774      95.33952795     103.38971894
H      85.04238648      95.71558348     105.09236235
H      84.92711318      95.98014516     101.84959199
C      88.45712193      97.01571519     103.47853607
H      89.46056660      96.83808092     101.68896526
H      89.74213582      96.68123363     105.05456782
C      87.49525124      99.67833957     103.50121279
H      86.48424766     100.11108689     105.24165072
H      86.22157570      99.69723683     101.88171734
N      89.63631115     101.46791038     102.98909696
H      90.92132504     101.51515353     104.40072252
H      89.00514256     103.26126066     103.16484151
H      90.65298390     101.22980487     101.39038850
C      83.05439440      90.28451007     101.29401246
O      83.67233490      89.16012290      99.36082244
N      80.86231188      91.30496227     101.95541667
H      80.83207626      92.26305351     103.60703746
C      78.74203895      91.75471714     100.18096366
H      77.85197786      89.91412370      99.92774033
C      76.77672359      93.49326534     101.55857414
H      76.48192628      92.72414674     103.44641073
C      77.78205799      96.22958904     102.25777288
H      79.78138843      96.19368425     102.74721199
H      76.78806195      96.79650693     103.97175464
H      77.36442847      97.56940499     100.74977128
C      74.20858553      93.73892976     100.09781570
H      73.58686557      91.77550412     100.01844720
H      74.74715753      94.46269494      98.24777364
C      72.40389690      95.48692659     101.51888989
H      72.24893934      94.30773738     103.20074631
H      70.47637606      95.67589924     100.81213225
H      73.20703058      97.31618167     102.01777763
C      79.50359866      92.86587621      97.65062013
O      80.88687832      94.79906623      97.72431945
N      78.68912662      92.05896307      95.37161019
H      77.72914565      90.41301144      95.26011634
C      79.28061095      93.31941052      92.92063516
H      80.02894257      95.19023956      93.35338249
C      81.12120438      91.52983971      91.45420754
H      83.00337179      91.50149380      92.28757685
H      81.30261811      92.53517410      89.66652645
C      80.40688784      88.88044340      91.11216708
C      79.50548838      87.99983094      88.77268591
H      79.03494653      89.38122089      87.34783227
C      79.02360817      85.46003878      88.29269542
H      78.26015874      84.88556198      86.48989652
C      79.60564388      83.63456317      90.28257723
O      79.27683150      81.16091142      89.81014565
H      78.73448005      81.06453538      88.08104608
C      80.42200565      84.44714547      92.61260977
H      81.30261811      83.12433707      93.89195449
C      80.85475297      87.02851162      93.00378312
H      81.63332021      87.49527403      94.83303819
C      76.83152565      93.75782702      91.52223769
O      74.65456094      93.57263384      92.45576249
N      77.12821268      94.22836888      89.01268115
H      78.80439992      94.78772786      88.28891597
C      74.96069660      94.43245932      87.26468431
H      73.30529635      93.77861402      88.30214405
C      74.24826978      97.23681317      86.62028764
H      72.54562637      97.22547481      85.45810595
H      75.83375016      98.20813250      85.73589572
C      73.44135665      98.49726062      89.04102704
H      74.92479180      98.66355653      90.46021150
H      71.66312419      97.73759064      89.74778468
C      72.97648397     101.15988499      88.20198856
H      71.85587627     101.36208570      86.48800679
H      74.83786439     101.78538441      87.58215833
C      71.95414204     103.15543598      90.13517858
H      73.28072991     103.58062440      91.65262881
H      70.40456646     102.39387627      91.25956573
N      71.11888301     105.54782950      88.83504688
H      72.37933046     106.02026106      87.48389256
H      71.33242208     107.03126464      90.01612582
H      69.38222453     105.47413017      88.04703100
C      75.25927336      92.96603169      84.78347366
O      77.31529559      92.56163027      83.74790364
N      73.05585248      92.23848707      83.73089610
H      71.53651252      92.59564534      84.83260654
C      73.02183740      90.78906699      81.35739985
H      74.65834039      89.57019351      81.08527927
C      70.50472196      89.37366198      81.61629236
H      68.85499088      90.60576353      81.51235741
H      70.26472671      88.31541524      83.36995838
C      70.21370410      87.56708362      79.38263586
O      71.23982549      85.41090589      79.48657080
O      69.01750735      88.33242277      77.57227805
C      72.81585724      92.49926930      78.93477072
O      72.15634275      94.73859497      79.26925228
N      73.39222376      91.73015068      76.65576079
H      73.76072039      89.87632917      76.38741965
C      72.91601273      93.20224749      74.45800909
H      73.71536696      95.02394365      74.99280163
C      74.49204448      92.37076790      72.17332997
H      73.79851492      93.46680917      70.57273179
C      77.36631820      92.77516934      72.54182660
H      78.08252447      91.96258703      74.29360290
H      77.56851891      94.82363267      72.65521018
H      78.50204371      92.09108842      70.96390513
O      74.26716704      89.76105587      71.57239701
H      75.53517340      89.45869966      70.31005983
C      70.27039589      93.94302020      73.72857473
O      69.83953829      95.22992383      71.88231212
N      68.43736137      93.30807216      75.32917292
H      68.78885046      92.19313363      76.83717451
C      65.74261165      94.21703052      75.25736332
H      65.72182466      95.06929709      73.38275481
C      64.18358744      91.82274727      75.70144900
H      64.37444980      91.31441091      77.68755135
H      64.95837523      90.15600867      74.77170365
C      61.49261717      91.80573974      74.68666597
H      60.13579368      93.19468858      75.37074690
H      60.81987460      89.92168261      75.18177426
C      61.44726374      92.01360963      71.81806143
O      61.53230142      89.94813878      70.63509275
O      61.34521852      94.18112571      70.95067705
C      65.21348828      96.19179451      77.28126020
O      63.24817291      97.26704879      77.43054858
N      67.14667830      96.74926378      78.84784331
H      68.87388815      95.95557872      78.67776794
C      66.89345497      98.40466403      80.96244706
H      65.70292739     100.04683619      80.59772988
H      68.73026895      99.01126618      81.67109442
C      65.53096230      97.13665767      83.18287547
O      64.67680601      98.57851885      84.77969421
N      65.52529312      94.65922647      83.44176798
H      66.23960967      93.54617767      82.06415750
C      64.68814436      93.35531531      85.72644709
H      63.04408247      94.30773738      86.52202187
C      63.56564693      90.70591903      85.04803534
H      62.51495910      90.10687578      86.71666368
H      65.15868622      89.51539145      84.51135307
C      61.65324391      90.57174846      82.88429872
C      61.36600551      88.19447276      81.61062318
H      62.83054340      86.87922325      82.14730545
C      59.52730180      87.85432203      79.79459619
H      59.09833393      85.99861078      79.06327211
C      57.93615225      89.82341684      79.14264062
O      56.24484720      89.48893528      77.14519990
H      55.30943267      91.00071634      76.78048272
C      58.17047831      92.07219115      80.33316819
H      56.84011099      93.57074411      79.93821539
C      59.90335734      92.52194601      82.37029316
H      60.11122723      94.29828874      83.35106111
C      66.67991590      93.00949540      87.63507067
O      68.73404840      92.32541448      86.74689930
N      66.08654184      93.47058863      90.10494296
H      64.24972786      93.52161123      90.62461769
C      67.87800238      93.24382146      92.12506039
H      69.71292663      94.09986749      91.75089458
C      66.87455771      94.12821338      94.77256695
H      68.07642364      93.23815228      96.18986169
H      65.00750811      93.32130025      95.08437179
C      67.15612693      96.82485282      94.77067722
C      65.13978895      98.34041333      94.22454632
H      63.39179211      97.52783102      93.55369348
C      65.36466638     100.99925826      94.09226548
H      63.66391270     101.97624676      93.52723731
C      67.63422769     102.17277830      94.69319845
O      67.88745101     104.77871088      94.37005525
H      66.41157476     105.69333841      93.84849078
C      69.77906705     100.63076163      95.26011634
H      71.58942486     101.48869736      95.64373078
C      69.52206427      97.90199682      95.32058758
H      71.09998574      96.68501308      95.76278354
C      68.14067434      90.30907650      92.26867959
O      66.37944941      88.77272901      92.14206792
N      70.54062676      89.60042913      92.79591323
H      71.85398654      90.92323756      93.20220438
C      71.53462280      87.05307806      92.66363239
H      70.02662120      85.71326210      93.08315163
C      72.70814284      86.49749852      90.12761967
H      74.54117736      87.43102332      90.03502308
C      72.97270452      83.60432755      90.01612582
H      71.18313370      82.59332396      90.14273748
H      74.38433008      83.02796102      91.40129521
H      73.76261012      83.30197134      88.13773787
O      71.15289808      87.03984999      88.09238443
H      70.76739391      88.81430298      88.08293580
C      73.60576283      86.64678690      94.61760939
O      75.16100759      88.41935018      94.93508341
N      73.63221900      84.46037356      95.90262329
H      72.29240305      83.13189596      95.62483352
C      75.72981521      83.76684400      97.56747217
H      77.36442847      84.89123116      97.00433373
C      74.78873151      84.48494000     100.23387600
H      73.95914166      86.36521769     100.08458762
C      72.80829833      82.58198560     100.97653844
H      71.24927412      82.46671231      99.63294303
H      71.98059821      83.24338982     102.74154281
H      73.22781757      80.57887571     101.21275423
C      76.94112978      84.56808797     102.32013384
H      78.53794851      85.72649019     101.73053924
H      77.65544632      82.65757466     102.60548252
C      76.02272279      85.58287099     104.84291847
H      75.22714801      87.47070758     104.61804104
H      77.64410797      85.76995390     106.09769674
H      74.52605955      84.57942633     105.84447342
C      76.60664822      80.97571824      97.20464472
O      75.21958911      79.54141598      96.05569112
N      78.74014923      80.23872499      98.27422981
H      79.94390489      81.54074640      98.98098745
C      79.36942809      77.58932868      98.76177920
H      77.64410797      76.78808473      99.55168480
H      80.85097352      77.39846633     100.17718421
C      80.20846657      76.17203396      96.49221790
O      82.16622303      76.91091694      95.39806636
N      78.91211432      74.09900418      95.72309929
H      77.42489971      73.59633698      96.80780219
C      79.50170893      72.50785464      93.46109689
H      81.24025714      73.22784035      92.62016868
C      80.13854670      69.70161106      94.14895727
H      78.43212384      68.72651228      94.76311832
C      81.25159550      68.33344920      91.68475416
H      83.28305128      68.66226158      91.58648839
H      80.17256177      68.85312394      90.00856692
H      80.81884817      66.32089068      91.74333567
C      82.02449356      69.47673362      96.40151103
H      81.13443247      70.22128580      98.10415444
H      83.91044042      70.22128580      96.04813221
C      82.41944636      66.50041469      96.92685495
H      83.60808421      65.65192758      95.47554514
H      80.59963992      65.55177208      97.11015840
H      83.53249516      66.30766260      98.65217507
C      77.45135588      73.04453691      91.43531028
O      76.28161529      71.24551745      90.53013138
N      76.93357087      75.52385782      91.04791639
H      77.97103062      76.89768885      91.86805761
C      74.81707740      76.30053535      89.19976405
H      75.05896237      75.19882490      87.47633366
H      74.97392469      78.29041716      88.69142768
C      72.22815235      76.04164284      90.34871765
O      70.44991989      74.91914540      89.20354351
N      71.78217694      77.11311765      92.60883032
H      73.35442924      77.80475748      93.44030990
C      69.38978343      77.08855121      94.07336821
H      68.14256406      75.64480031      93.29858043
C      69.83197939      76.13801888      96.88150152
H      71.09620629      77.51562936      97.74321671
H      70.83353433      74.33899944      96.90417823
C      67.25250297      76.06242982      98.35926749
N      65.51395476      74.05743021      98.33281132
H      65.94859181      72.35856625      97.58258998
C      63.65257434      74.45427274      99.90506362
H      62.15024193      73.14469241     100.35103903
N      64.01729152      76.83910735     100.72331511
H      63.02707493      77.84444174     102.01021873
C      66.16402061      77.87089791      99.85215128
H      66.88400634      79.72849887     100.29245751
C      68.16902023      79.81164684      93.74077638
O      69.17624436      81.79774919      94.40784977
N      65.84654659      79.83054409      92.79024405
H      65.13411977      78.12601097      92.31403302
C      64.34043472      82.05853142      92.26678986
H      65.49883695      83.58920973      91.52223769
C      62.40724470      81.23083130      90.26556969
H      61.48127881      79.53952625      90.98555542
H      63.37100512      80.78863533      88.49867559
C      60.25295671      83.23961037      89.74211551
H      59.33454972      83.06386581      91.57703976
C      61.23750412      85.82664569      88.98433525
H      59.72572307      87.21181508      88.79347290
H      62.16347001      85.69058539      87.14941100
H      62.55086390      86.52773414      90.40729917
C      58.80731608      82.40624107      87.32326582
H      57.07443705      83.51362069      87.20421307
H      58.00040294      80.51084556      87.33838364
H      60.04508681      82.84843702      85.73589572
C      63.28785717      82.82765002      94.90862725
O      62.47338512      81.18547786      96.44875419
N      63.32565169      85.27106615      95.49066295
H      64.37444980      86.38222522      94.34737853
C      62.08599123      86.38033549      97.78479069
H      61.54741923      84.85721609      99.06035595
C      64.04374769      88.02061794      99.29846147
H      63.05542083      88.98626809     100.82536033
H      64.63145257      89.26972702      97.76967288
C      66.38889805      86.59387458     100.35859793
H      67.31675367      85.52806893      98.85815524
C      68.12177707      88.66690433     101.25810766
H      67.27328996      89.82341684     102.73587363
H      68.77940183      89.87821890      99.72742934
H      69.90378899      87.89967545     101.94407831
C      65.75583973      84.92146679     102.65461540
H      67.50383657      83.86322005     102.91539763
H      64.24405868      83.58354055     102.25210370
H      65.31553350      86.12333272     104.26844167
C      59.64824429      87.82975557      97.11204813
O      57.63757549      87.47259730      98.38383393
N      59.74651006      89.53239899      95.18263756
H      61.34332879      89.55696543      94.14139836
C      57.48639738      90.84008959      94.40407032
H      55.73084164      89.77428396      94.57981487
C      57.10278294      93.29862352      96.01411714