 %block lattice_cart
   135.996   0.000   0.000
   0.000 142.663   0.000
   0.000   0.000   160.158
 %endblock lattice_cart

 %block positions_abs
N      85.95323457      37.85972269      82.68493259
H      85.38631668      37.75578773      84.50473902
H      87.82784308      37.49500551      82.70194012
H      85.04616594      36.44053822      81.78731260
C      85.42600092      40.41841211      81.69282627
H      86.14976610      41.70153627      83.13279772
C      86.88864909      40.77746011      79.09634232
H      85.92488867      39.51512294      77.78298254
H      88.85963363      40.27101345      79.41192661
C      86.60141069      43.53835025      78.24218602
H      84.68144875      44.26211543      78.04187504
H      87.33084505      43.71787425      76.32411383
S      88.55160824      45.85893417      79.96183698
C      87.36486012      48.65383938      78.49729909
H      85.35230160      48.94296750      78.82044229
H      87.66343688      48.41006468      76.47340220
H      88.20389860      50.37349032      79.26263823
C      82.68400804      40.98155055      81.70794409
O      81.28939003      39.40929826      80.74040422
N      82.00559630      43.18875088      82.66792506
H      83.26415402      44.56447164      83.07421622
C      79.35431028      43.90306743      83.20082787
H      78.00882515      43.08481594      81.87235028
C      78.50582316      42.82025425      85.76518648
H      78.99526228      40.82659299      85.95793857
H      76.45358040      42.88261522      85.93904130
C      79.62454114      43.96731812      88.06498340
O      79.81162405      46.22932052      88.45048758
N      80.01949394      42.45931653      89.94337136
H      80.49381524      43.31914200      91.57987435
H      79.28439040      40.69998133      90.00951177
C      78.84597390      46.75088498      82.96461208
O      80.55806594      48.22298178      82.57343873
N      76.55562561      47.49732688      83.64869301
H      75.13077198      46.33136574      84.15136021
C      75.92256729      50.16562044      83.46161011
H      76.45358040      50.84025272      81.58889132
C      73.11443399      50.31301909      83.92270333
H      72.19224755      49.00910793      82.62446135
C      72.27161607      49.49287786      86.64768867
H      72.92735109      50.73253833      88.15569027
H      72.68357640      47.52189333      87.07665654
H      70.24205000      49.51933403      87.00484694
C      72.08075370      53.07957840      83.61467794
H      73.01616823      54.23420118      85.03953158
H      70.10409999      52.62793382      83.97750539
C      72.70058393      54.28522380      81.00118645
H      71.21714877      55.70251853      80.81221382
H      72.47192705      52.91895167      79.47806704
H      74.63755340      54.93717937      81.24307142
C      77.27372161      51.86070494      85.31732135
O      77.88788266      54.05656691      84.77874934
N      77.95780253      50.91584178      87.60011073
H      77.33797230      49.12060178      87.80231144
C      79.55651099      52.22164266      89.51629321
H      78.80817937      54.13404569      89.68447886
C      79.55084181      51.00654864      92.12411553
H      80.88498859      52.04211866      93.30519446
H      80.37854194      49.12249150      92.04096756
C      77.02616747      51.10859386      93.48471847
C      76.21925432      53.28177912      94.86421867
H      77.45891479      54.90316430      94.83020361
C      73.80607382      53.30634557      96.21915244
H      73.33364224      55.07134995      97.12433135
C      72.27917496      51.17095483      96.20970382
H      70.56519320      51.22008771      97.31708344
C      73.15978743      49.00721821      95.07964748
H      72.07508452      47.29323643      95.30074545
C      75.48981998      48.88249627      93.74361097
H      76.03784060      47.13638915      92.84221153
C      82.36464430      52.42573310      88.84544038
O      83.52304652      54.35703339      89.23094453
N      83.37186843      50.69285407      87.27507780
H      82.31929086      49.11493260      87.06720792
C      85.97402155      50.76277394      86.25462559
H      87.07762173      51.90416864      87.56798539
C      87.16832858      48.10770847      85.85022417
H      88.89742816      48.31368864      84.75040345
H      85.66977562      46.98710077      84.98661924
C      87.71823894      47.03056448      88.45048758
H      85.91921949      46.48254385      89.29330551
H      88.44389384      48.57447087      89.60511035
C      89.43788989      44.75344427      88.61489377
O      88.99191448      43.03757278      90.19659469
O      91.08006205      44.50777985      86.94626543
C      86.17055310      52.37660022      83.71672316
O      88.00169789      53.65594494      83.28019638
N      84.11075141      52.49187352      82.15014005
H      82.72180257      51.18607264      82.25218527
C      83.78571849      54.15483268      80.17915550
H      85.39009612      53.82979975      78.93004641
C      81.28750030      53.41783941      78.93571558
H      79.89666173      54.02255184      80.32844388
H      81.18356535      51.36370692      78.81855255
C      80.87365023      54.70285331      76.42615904
H      82.10953124      53.83924838      75.02209239
H      81.22513933      56.72675020      76.29954738
S      77.54773192      53.97341895      75.47373698
C      77.95969227      53.13815992      72.11569332
H      78.36598342      54.81245743      70.98941644
H      76.18334952      52.22353238      71.60546722
H      79.58674661      51.90794809      71.82845492
C      83.82729246      56.83068514      81.15425427
O      85.26915365      58.29333330      80.10167673
N      82.27204770      57.64326746      83.11579019
H      81.16088863      56.48108577      84.14569103
C      81.84119012      60.37203226      83.83955536
H      81.55206198      61.48886050      82.13124279
C      79.42989934      60.66116038      85.09811310
H      79.39777399      62.62269628      85.72172277
H      79.34486166      59.19284303      86.53997427
C      77.15088941      60.43061376      83.42003612
H      77.46269424      58.94906833      82.01974892
C      74.73203972      59.83534997      84.82599250
H      74.24260060      61.39815363      86.07321186
H      75.07596992      58.25364905      86.09966804
H      73.22592785      59.48386088      83.46349983
C      76.76916468      63.03654635      81.98195441
H      75.01549866      62.93828059      80.90670013
H      78.11087036      63.15370938      80.42293019
H      77.29072915      64.70517469      83.07232648
C      84.19389938      61.60980298      85.19826858
O      84.51893229      63.90393073      84.99417815
N      85.98724964      60.02243289      86.01652008
H      85.50914889      58.17428054      85.99195363
C      88.59318222      60.62147613      87.02563394
H      88.37964315      62.21451541      88.31442728
C      89.53426593      58.36325318      88.38623688
H      90.05016122      56.80422898      87.14279697
H      88.12453010      57.49208935      89.61077952
C      91.93988753      58.94339916      89.93959191
H      91.82083477      60.63659394      91.10555304
H      93.69166381      59.33457250      88.93236778
C      92.55593830      56.67005840      91.77451616
H      90.68321952      56.20896518      92.50206078
H      93.80693713      57.08390847      93.35810681
N      94.00346866      54.62348480      90.56887077
H      95.45855792      55.29055819      89.53141103
C      93.87496728      52.23109129      91.02240509
N      92.23657456      51.18796236      92.66268752
H      92.36885541      49.30201550      92.92535949
H      90.83061818      52.24431937      93.39968078
N      95.42832230      50.60025749      89.85455422
H      95.69288398      48.78800995      90.38745704
H      96.71711564      51.11804249      88.54497388
C      90.33739961      61.58145709      84.92425827
O      92.30460471      62.61891684      85.52897069
N      89.77048172      61.24130635      82.38257638
H      88.19067053      60.29833292      81.87612972
C      91.25958605      62.12569826      80.24151646
H      92.85451507      63.26142378      80.88024397
C      92.54837940      59.76354037      78.88280324
H      93.83717275      58.83379504      80.19238358
C      90.80416202      57.63570854      78.24407576
H      91.78492997      55.93117541      77.63369416
H      89.30182960      57.99475655      76.87969336
H      90.15787561      56.85525158      80.03742603
C      93.97323305      60.60257886      76.36190834
H      92.58995337      61.48319132      75.11657870
H      94.77825644      58.81867722      75.72129112
C      96.10862377      62.58112231      76.60190359
H      96.80215333      62.44695174      78.53698334
H      95.12596609      64.36691368      76.30899601
H      97.48245481      62.49041544      75.06933555
C      89.61741389      63.85101839      78.63335937
O      90.67755035      65.68405291      77.54298729
N      87.05305528      63.32756421      78.49729909
H      86.66566138      61.54366256      79.04720944
C      85.30883789      64.89225759      76.88536254
H      86.20645789      64.78076373      75.03532047
C      82.81250943      63.38614572      76.72473579
H      81.86953601      63.25197515      78.55021142
H      83.29249991      61.45862488      76.17860490
C      81.10608657      64.60123974      74.68572110
O      82.14732577      65.07367131      72.66371395
O      78.82518692      64.86013224      75.09579171
C      84.96112825      67.56433060      77.83211542
O      85.46190572      69.34445278      76.46584330
N      84.84585494      67.96117312      80.34167196
H      84.68144875      66.43805371      81.48117692
C      85.09718854      70.43482486      81.61156805
H      85.89276333      71.85022987      80.34356168
C      82.41566690      71.14914142      82.13691195
H      82.41377719      72.37557380      83.79420193
H      81.07207150      69.59767611      82.29942843
C      81.33663318      73.02374991      80.09600754
H      79.39021508      73.29964996      80.71205832
H      81.28750030      71.84645043      78.40659221
C      82.67077996      75.55598317      79.46483896
O      84.85341385      76.11534216      80.23584729
O      81.60119486      77.12256629      77.98329352
C      86.60896960      70.44616322      84.16080884
O      87.91288076      72.27541830      84.53875411
N      86.49936548      68.54698828      85.75762757
H      85.50347971      66.99930244      85.25685011
C      87.53115603      68.36935400      88.24828686
H      89.41521317      69.20272331      88.24828686
H      87.75036429      66.35679548      88.62623211
C      86.06472842      69.80365628      90.33454471
O      84.50759394      71.44204899      89.93959191
N      86.64109494      69.13847262      92.69859232
H      88.06405885      67.89503271      92.95748482
C      85.26915365      70.14947620      94.87177758
H      83.33974308      70.25152141      94.16124049
C      85.21813103      68.17093274      97.09598546
H      87.14376214      67.89503271      97.77250747
H      84.63798506      66.36435438      96.30041067
C      83.35297116      68.97028697      99.22192756
H      84.05405962      70.80899067      99.83230915
C      80.41255702      69.10445755      98.54729527
H      79.70201993      69.96050357     100.28017429
H      79.61320278      67.27709219      98.02762053
H      80.05917820      70.47639885      97.05252175
C      83.87453562      67.01442024     101.34597994
H      82.69912585      67.74007514     102.87098907
H      85.85874825      66.82355788     101.86187521
H      83.26037458      65.09634804     100.91134288
C      86.12142020      72.86879236      95.42357767
O      88.32673082      73.34311367      95.15901598
N      84.30539323      74.46561109      96.12655585
H      82.49881486      73.94215690      95.81475102
C      84.68900766      77.08855121      96.79173951
H      86.73369153      77.34177454      96.71048129
C      83.79327740      78.79875352      94.62800289
H      83.91799932      80.69981820      95.41034959
H      81.82985175      78.43592607      94.12911515
C      85.55450231      78.73828228      92.36600050
H      85.64709890      76.80320255      91.67058120
H      87.48013342      79.24850839      92.89323414
C      84.87987003      80.55997845      90.32698580
H      84.97057688      82.53285272      90.91091124
H      82.92967246      80.49194830      89.66558159
N      86.60519014      80.04030371      88.02718888
H      88.37586371      80.75273054      88.01962997
C      86.08551540      79.10866864      85.80676045
N      84.03705208      78.13734931      85.00362677
H      83.94445549      77.22083205      83.33121898
H      82.78227381      77.55531361      86.31698657
N      87.66721633      79.14268372      84.07955061
H      87.28738135      77.96160478      82.63013052
H      89.21301245      80.26140169      84.15324993
C      83.71768833      77.60066704      99.48648923
O      81.94890451      76.46116208     100.31796882
N      85.23324884      78.94426246     100.95291686
H      86.63353604      79.85700027     100.03073041
C      84.96679744      79.30331046     103.69302002
H      83.38509650      78.13545959     104.30340162
C      87.51792796      78.50017677     105.04606405
H      87.42911082      79.05575630     107.02649723
H      88.99758365      79.74550641     104.33174751
C      88.28326712      75.74117635     104.69079551
H      88.76136786      75.62779277     102.69146506
C      90.60952020      75.50118112     106.17612038
H      90.33173043      75.50496057     108.21702480
H      91.87752656      77.04130806     105.66211484
H      91.53737582      73.67003632     106.00982447
C      86.48235793      73.67948494     105.37487644
H      84.63042615      74.11034255     104.58497084
H      86.19134008      73.90625210     107.40255276
H      87.03037856      71.88235522     104.53394822
C      84.23925280      82.10199513     104.46969752
O      83.21880060      82.54041162     106.53138893
N      84.60019053      83.91991183     102.63477328
H      85.37119886      83.33409668     100.99071138
C      84.06917744      86.66946362     103.02972608
H      83.10919646      86.88678215     104.84197362
C      86.45779149      88.44769608     103.10342540
H      87.81839444      87.67479803     104.44324135
H      85.86063798      90.20703128     103.99159676
C      87.84107115      89.23193251     100.70725243
H      86.71101481      90.42812925      99.46381253
H      88.17366298      87.46503841      99.70380776
C      90.42432702      90.61899161     101.32708267
H      91.65264912      89.28862430     102.31163008
H      90.00858723      92.08919868     102.70658288
C      91.74713544      91.90967468      99.16523577
H      91.52225801      90.88166358      97.39456222
H      93.75969396      91.94180003      99.60365228
N      90.81739009      94.42112095      98.50383156
H      89.02592956      94.40411342      97.84431707
H      91.89453409      94.90300117      97.00338887
H      91.16132029      95.69101704      99.88711122
C      82.12086960      87.29496303     100.92457096
O      82.10953124      85.95892653      99.04240355
N      80.60719882      89.24327086     101.27794979
H      80.61853718      90.08608879     102.99193154
C      78.57574304      90.16167784      99.59798309
H      77.30773668      88.56296939      99.31263441
C      76.83530511      92.11376513     100.93968878
H      78.01260460      93.76916539     101.28172924
C      74.91345345      92.86209676      98.93090971
H      75.61832136      93.64633317      97.16023614
H      73.56229914      94.09419830      99.88333177
H      73.76072039      91.19157868      98.58508979
C      75.64477754      91.22559376     103.50215765
H      77.11120514      90.38277583     104.67378797
H      74.10087113      89.92735178     103.08830760
C      74.44291159      93.38933040     105.08952776
H      73.67190326      92.65989604     106.85453213
H      72.81207778      94.09797775     104.05017828
H      75.93768510      94.71591826     105.58652578
C      79.85319802      91.12543826      97.28684781
O      81.70512981      92.56352000      97.21881766
N      78.70802389      90.23537717      95.15712626
H      77.46269424      88.79540572      95.27995846
C      79.77760897      90.46592379      92.59276765
H      80.87176051      92.20636171      92.43969982
C      81.64654830      88.25116454      92.13734361
H      82.65188269      88.01116931      93.91935553
H      82.98825399      88.67068378      90.63123174
C      80.28405562      85.86255048      91.29452567
C      79.95335352      85.31075040      88.77174104
H      80.89443723      86.59009511      87.48861687
C      78.59841975      83.08465280      88.07065259
H      78.50582316      82.67080275      86.07321186
C      77.72347647      81.38956831      89.91691520
O      76.67089891      79.13512482      89.13078905
H      76.24948996      79.32220771      87.37712303
C      78.16756215      82.03585470      92.43214091
H      77.88977239      80.44659487      93.68502946
C      79.43745825      84.22415778      93.24283350
H      79.82674187      84.53596261      95.22326667
C      77.63465933      90.77016972      90.55375295
O      75.67312342      89.59475996      90.94681604
N      78.02016350      92.35376038      88.58087868
H      79.82863158      92.90745018      88.32765536
C      76.03028169      92.97548033      86.67792428
H      74.23504171      93.19090912      87.66058198
C      76.65767084      95.38677111      85.22661448
H      75.17234595      95.82518760      83.86979099
H      78.42078548      95.28094644      84.16458829
C      76.59153041      97.71869337      87.02185447
H      78.21291559      97.38421181      88.25017658
H      74.84353357      97.61664816      88.10655739
C      76.81451811     100.34541294      85.81242964
H      77.22647845     101.75703850      87.25429081
H      74.99282195     100.73847603      84.93748636
C      78.97636502     100.48336298      83.92648278
H      78.22425395      99.43645459      82.32021542
H      80.74136939      99.51960256      84.37623765
N      79.58485690     103.10252364      83.26318885
H      80.11020080     104.03037926      84.84677949
H      78.07496556     104.06439434      82.59800517
H      80.96435711     103.35007778      81.96872631
C      75.86398578      90.95347317      84.65969659
O      77.79717580      90.04640455      83.69404644
N      73.53584297      90.43190871      84.10411705
H      72.19413728      91.10843073      85.28141655
C      72.49082431      89.33964690      81.80432013
H      73.30151690      87.48204594      81.43393378
C      69.61844032      89.30563183      81.91581398
H      69.00994844      91.02528277      80.96150220
H      68.83987307      88.93524547      83.78664303
C      68.33720587      87.59731924      80.10923562
O      68.17846886      88.25494399      77.90392501
O      67.43580642      85.58854017      80.86323642
C      73.52261488      90.79662590      79.39680881
O      74.49204448      92.96036251      79.45539032
N      73.34687033      89.45869967      77.22929272
H      72.26783660      87.88833709      77.16315231
C      73.97803892      90.80229507      74.91059853
H      75.76760975      91.74148905      75.30177188
C      74.31629994      88.84642833      72.83000986
H      74.83597466      90.03128674      71.22941169
C      76.62365576      86.97181983      73.23819076
H      78.39810877      88.01494876      73.31189008
H      76.62365576      85.56397373      71.73396861
H      76.41956531      85.91735256      74.99563622
O      72.20736537      87.45936922      72.18561320
H      72.79695997      86.19892178      71.01965207
C      71.96170095      92.79595632      74.30210666
O      72.56830310      94.63654976      72.93583455
N      69.74505199      92.79973578      75.28476435
H      69.17624437      91.21803485      76.18805352
C      67.85154621      94.82363266      75.01453348
H      68.16713051      95.86487186      73.26464692
C      65.14356840      93.53483931      74.77075880
H      63.70548668      94.99937722      74.93516499
H      64.64090121      92.23659735      76.29009874
C      65.18325266      92.32541448      72.10246524
H      66.49283300      90.76072110      71.82467547
H      65.79930343      93.68223797      70.68139106
C      62.39590635      91.46180956      71.35413361
O      60.83310269      93.15689406      70.89115068
O      61.57387540      89.28106539      71.49586310
C      67.99894486      96.89666242      77.02520229
O      66.64212137      98.82985245      77.12913724
N      69.98882667      96.68879254      78.64847718
H      71.22281795      95.27149779      78.31777508
C      70.53306785      98.46513526      80.83300081
H      70.00205476     100.39643556      80.35490004
H      72.57397228      98.59363666      81.07677549
C      69.19703135      98.07585165      83.37090324
O      69.86410473      99.24559224      85.18315078
N      67.67769139      96.08408012      83.71294371
H      66.92747005      95.21480601      82.18793458
C      66.53062752      95.12409915      85.92959267
H      65.58954381      96.70013090      86.86122775
C      64.49917174      93.14744543      85.40046931
H      63.34832841      93.01327485      87.10500243
H      65.58198491      91.46558900      84.91103018
C      62.67558585      93.62176672      83.13846691
C      61.78552475      91.53928834      81.80054068
H      62.40157552      89.64956201      82.26730308
C      59.93170324      91.86999044      79.84845340
H      59.17581271      90.25427443      78.85634709
C      58.75440374      94.23970723      79.52153075
O      56.85900825      94.60253468      77.92660173
H      55.75351835      96.01038078      78.22139903
C      59.54052989      96.33541371      80.95961246
H      58.57676947      98.13254344      80.86134670
C      61.59088294      96.02738833      82.62824080
H      62.19370564      97.56751526      83.82443756
C      68.31830861      93.96569691      87.88734913
O      70.33653632      93.07941528      87.13901752
N      67.57942562      93.91845376      90.31564744
H      65.77284728      94.38899561      90.71815914
C      69.26128205      92.74871318      92.26773472
H      71.26628166      92.86587621      91.80853122
C      69.15356764      94.34931135      94.62044399
H      70.56330347      93.71436331      95.98104692
H      67.41879889      94.09797775      95.69947770
C      69.76016979      97.08563506      94.54674465
C      67.96681952      99.00748673      94.73193783
H      66.04118840      98.44623800      94.35588230
C      68.67924634     101.58507342      94.99272007
H      67.35832765     103.12142091      95.24216394
C      71.24171522     102.12175569      95.26484066
O      71.79540504     104.64643004      95.53129207
H      70.25905753     105.58940347      95.31586326
C      73.16167715     100.15833004      94.86988786
H      75.15533842     100.59674655      94.89823376
C      72.33019757      97.67145021      94.50517067
H      73.89111151      96.43745893      94.05163637
C      68.69436416      89.99538194      92.62111355
O      66.59676794      89.11099001      93.20125953
N      70.76361447      88.56674885      92.52284778
H      72.32641813      89.57208324      92.08254154
C      70.75605556      85.78696143      92.84977043
H      68.91357240      85.01028392      93.34487873
C      71.23982549      84.63989756      90.30430908
H      71.66690365      82.63867740      90.54808378
C      68.77184293      84.38667423      88.80386640
H      67.93658389      86.24616492      88.50151019
H      67.72115510      83.27740489      90.18336661
H      68.95514638      83.25472817      87.09366407
O      72.86121067      85.88522721      88.53363552
H      74.21236498      86.63733827      89.48038841
C      72.81963669      85.05185790      94.65634879
O      74.33897665      86.50694716      95.56152768
N      72.76861408      82.65190548      95.30074545
H      71.46659265      81.47838544      94.55052410
C      74.22559306      81.37634023      97.19236150
H      76.07941458      82.24561432      97.42101837
C      73.08419837      81.63712245      99.90600849
H      72.75916546      83.59676863     100.44647020
C      70.64267197      80.10644414     100.27639483
H      70.00583421      80.42769761     102.20769512
H      71.12266247      78.10900342     100.13466536
H      69.26695122      80.63367777      98.83642338
C      74.87376919      80.43147706     101.91289782
H      75.30084734      78.43403635     101.64644642
H      73.80040465      80.48816885     103.67223302
C      77.37387710      81.86955879     102.35131433
H      76.84286402      83.50984123     103.47570149
H      78.27716628      82.39490270     100.57497159
H      78.74581840      80.77540726     103.42845833
C      74.35976363      78.51529458      96.28340314
O      72.80262915      77.74239653      94.77162208
N      76.14744472      76.97327792      97.11677245
H      77.67623332      77.86711845      97.82353008
C      76.06618649      74.27285900      96.83331349
H      74.09898141      73.66436713      96.79173951
H      76.98270376      73.37712873      98.44525004
C      77.26805244      73.55287329      94.29730079
O      79.46391440      74.27663846      93.83053839
N      75.57485766      72.29431555      92.76851219
H      73.88922179      71.75952301      93.48849792
C      75.95658237      71.92770866      90.07376247
H      77.33230312      73.37712873      89.57109528
C      76.91656333      69.25563565      89.33110003
H      75.41423092      67.85156900      89.24039318
C      78.16000325      69.45405691      86.72705717
H      78.49448481      67.59834567      85.89557759
H      79.87587475      70.58978243      86.84233048
H      77.02427773      70.46317077      85.33432888
C      78.75904649      68.25597042      91.27373869
H      78.04661968      68.16904301      93.20503898
H      80.32751933      69.57499939      91.48160857
C      79.78894734      65.56122070      90.52351734
H      78.69668552      64.56722466      89.08732534
H      79.47903222      64.45006163      92.22805048
H      81.73725516      65.79932622      89.89612820
C      73.65867517      72.85367454      88.53930471
O      72.59475926      71.63669081      86.85177911
N      72.82152641      75.08922078      89.30086442
H      73.88922179      75.96605378      90.61800365
C      71.15667754      76.89390940      87.92892310
H      71.22848713      76.49706688      85.90880569
H      71.83697901      78.83465832      88.03285805
C      68.46381754      76.85044570      88.97016231
O      66.57787068      76.90902722      87.62467717
N      68.30130107      76.99028545      91.53074147
H      70.00205476      76.73139295      92.35655187
C      66.00150415      77.05264641      92.93858757
H      64.46893611      75.98495105      92.07120319
C      66.62511384      75.76385307      95.61255030
H      68.34476478      76.68037033      96.27395451
H      66.98983101      73.81554525      95.05508104
C      64.57287107      76.22494629      97.50983551
N      63.42013801      74.27474874      98.73437817
H      63.82075998      72.41147860      98.62666376
C      62.06898370      75.31787766     100.57875104
H      60.94837599      74.21994667     101.88455193
N      62.09921931      77.75184516     100.50505172
H      60.95593489      78.90646792     101.50660666
C      63.84343670      78.43592607      98.65123020
H      64.45003886      80.35777773      98.32052810
C      65.23805472      79.84188245      93.25984103
O      66.75172550      81.34043543      94.30485968
N      63.00439822      80.57131681      92.43781010
H      61.82142955      79.13512482      92.00695250
C      62.17291864      83.30386105      92.36600050
H      63.81320108      84.42068932      91.81797987
C      60.18681628      83.67424741      90.31753717
H      58.91692020      82.07742869      90.59154749
H      61.09766438      83.18858775      88.53363552
C      59.12290038      86.37466631      89.84888505
H      57.80009195      86.62788965      91.40412979
C      61.16002535      88.51005706      89.90368710
H      62.29575086      88.63099954      91.61766887
H      60.27563342      90.35820939      89.70148639
H      62.14835220      88.34187141      88.10277792
C      57.55820698      86.41624029      87.32232096
H      56.06910265      84.99327639      87.33932849
H      58.80164690      86.25750328      85.68770771
H      56.71727877      88.28328989      87.08988462
C      61.40757948      84.27140094      95.03240432
O      59.50462510      83.61566590      96.07742297
N      62.84188175      86.09876628      96.01695173
H      64.41602377      86.68647115      95.11177283
C      62.46771594      87.42913361      98.42068360
H      61.84032681      86.12900189      99.89089068
C      64.91302179      88.58942555      99.46381253
H      64.27429430      89.74782778     101.03984426
H      65.72560411      89.81774766      98.02573079
C      67.00494882      86.87355407     100.63355312
H      67.70603729      85.56019427      99.20869948
C      69.29718684      88.56863856     101.20047100
H      70.19102739      87.55196581     102.75382604
H      68.46948672      90.35442993     101.80518342
H      70.50283223      88.96170165      99.57530637
C      66.03173978      85.24083053     102.86531988
H      64.81097657      83.67046797     102.32674789
H      65.11144307      86.25561357     104.40544683
H      67.55107974      84.29596738     103.88955154
C      60.55720264      89.57586270      97.95014174
O      58.50684959      89.39822842      98.94980696
N      61.08443628      91.46180956      96.36088191
H      62.90235300      91.43913284      95.77884621
C      59.35911616      93.67656880      95.72782360
H      57.55253781      92.70524947      95.52940234
C      59.33832917      95.69290677      97.77628692