 %block lattice_cart
   135.996   0.000   0.000
   0.000 142.663   0.000
   0.000   0.000   160.158
 %endblock lattice_cart

 %block positions_abs
N      88.99474907      40.40045971      75.16665646
H      90.70495139      40.05086034      74.39375838
H      87.92516398      41.19981394      73.80794324
H      88.22940992      38.76962590      75.79971477
C      89.03254360      42.33931890      77.23212731
H      90.54999383      42.13900792      78.61162752
C      89.04388196      45.11721658      75.99813603
H      87.13336865      45.70114201      75.50113801
H      89.97173758      44.82997818      74.18210905
C      90.30810886      47.22237171      77.51369654
H      92.25452696      46.72537369      77.97290003
H      89.62402794      47.40378542      79.44688656
S      89.76764714      50.32908175      75.99057713
C      92.40003589      51.96558475      77.47779173
H      94.10645874      50.86009485      77.14142045
H      92.10334886      52.13377038      79.50924751
H      92.44916876      53.95546656      76.94866837
C      86.51920759      42.10688258      78.73257000
O      84.86947652      40.59321179      78.09951169
N      86.11669590      43.63189171      80.57127371
H      87.35257691      44.99438437      81.06827173
C      83.48997632      43.89456366      81.53125467
H      82.19740352      42.90434707      80.26891750
C      83.32934959      42.74372033      84.15041534
H      84.21563122      40.88611937      84.06348793
H      81.40938764      42.49994564      84.85528326
C      84.61436348      44.14778698      86.34438760
O      85.29655467      46.25294210      86.07415673
N      84.76176213      42.93458269      88.51001394
H      86.05622466      43.63378143      89.72510797
H      84.24208739      41.10154817      88.60638999
C      82.47897275      46.66301272      81.31204643
O      83.86036268      48.43368626      80.43521342
N      80.01099018      46.83686753      81.97156091
H      78.90739000      45.34776319      82.42509521
C      78.65038723      49.27083502      81.76180129
H      79.26076882      49.99648992      79.93254622
C      75.77800323      48.85509524      81.52747523
H      75.35281482      47.33197583      80.20844625
C      74.78589693      47.87054782      84.05214958
H      74.90117023      49.25004803      85.57904844
H      75.64572240      46.03751330      84.42631539
H      72.73743359      47.69858273      83.93687627
C      74.27000163      51.25126819      80.77725387
H      74.64038799      52.55706908      82.32682946
H      72.28200956      50.74860100      80.57505316
C      75.05423805      52.49470811      78.22045418
H      77.09514248      52.53250265      77.94833359
H      74.15661805      54.33530155      77.99557675
H      74.33992152      51.34386479      76.66709915
C      79.67650862      51.04528803      83.78569816
O      80.25098542      53.15989177      82.97500557
N      80.34925118      50.24026462      86.01179577
H      79.73509014      48.50360614      86.51446297
C      81.35458558      51.97503337      87.95065496
H      80.12815321      53.61720554      88.14151732
C      81.42828492      50.67301194      90.53958001
H      81.93851102      51.91078269      92.10616313
H      82.79833649      49.13477472      90.49611631
C      79.02833250      49.25571721      91.37861849
C      77.42584457      50.39144272      93.14551259
H      77.66961928      52.30006630      93.82959351
C      75.19218808      49.12910555      93.65762842
H      73.83536459      50.09475569      94.83492792
C      74.55346058      46.61576955      92.87717146
H      72.74688223      45.77295161      93.31180851
C      76.26177318      45.40634471      91.19909449
H      75.91406353      43.56197183      90.39596081
C      78.48031187      46.75371957      90.42808616
H      79.74642850      45.93735780      89.05614485
C      83.96429763      53.18067876      87.20421307
O      84.61436348      55.35197429      87.66152684
N      85.63292596      51.61787510      86.12139989
H      84.86380734      50.01160773      85.43731897
C      88.00642221      52.28116904      85.21811072
H      89.05333058      53.45279935      86.55036777
C      89.79032385      49.96814403      84.85150381
H      91.21517748      50.48214959      83.45121660
H      88.82656343      48.33353077      84.05214958
C      91.10935282      49.29162201      87.46877475
H      89.37080461      48.92312538      88.51001394
H      92.24696805      50.78072634      88.32482076
C      92.74963526      46.93702302      87.24389731
O      93.97795736      46.57608530      85.23889770
O      93.03687366      45.65011940      89.15252090
C      88.00831194      53.85531105      82.69721580
O      89.32923063      55.85086204      82.70477471
N      86.31889661      53.33752604      80.86985046
H      85.37781290      51.67834634      80.82638676
C      85.71796364      54.88710162      78.66642959
H      87.42438651      55.35575375      77.61196231
C      83.86603186      53.43012263      76.97701426
H      82.17661654      53.10886916      78.11085005
H      84.74286487      51.58763948      76.69355531
C      83.14226668      54.70190845      74.53926732
H      84.64081965      54.32774263      73.17677465
H      82.80967485      56.71635669      74.81138791
S      80.13004294      53.47547607      73.31661440
C      80.25098542      54.30884537      70.07384404
H      82.11614529      53.80428844      69.36708640
H      80.02043880      56.34597033      69.86597415
H      78.86392631      53.24492946      68.98347195
C      84.50097990      57.52893901      79.22767830
O      85.36269510      59.53771808      78.36218365
N      82.67928373      57.70657328      81.05882310
H      81.93095211      56.04739358      81.63141017
C      81.81189936      60.15754831      81.98667872
H      81.48497671      61.37264233      80.35773463
C      79.32124008      59.80227976      83.21689054
H      78.69952011      61.61641702      83.97089134
H      79.37037296      58.58718574      84.87984970
C      77.09703221      58.94056456      81.60495400
H      77.47308774      57.07729442      80.81315867
C      74.64416745      58.35663913      83.08649942
H      73.27789533      57.39665816      81.87896432
H      73.80134951      60.01770856      83.96333243
H      75.25643878      57.01304372      84.52269143
C      76.39972320      60.97013062      79.59239548
H      75.39438879      62.61608224      80.31049148
H      75.31502029      60.31817504      77.96912058
H      78.10803578      61.76003623      78.75524671
C      83.82256815      61.38020123      83.63074060
O      83.90382639      63.65921117      83.38507619
N      85.35324646      60.15187913      85.26535387
H      84.95262449      58.30561652      85.53558474
C      87.33934882      61.33862725      86.67508969
H      86.69495215      62.94489462      87.79191795
C      88.66404696      59.51882081      88.36072557
H      89.36324570      57.96735551      87.20232334
H      87.10313303      58.87631388      89.53802506
C      90.74463564      60.57895728      90.06714842
H      90.01898073      62.08884860      91.26523492
H      92.34334410      61.17611079      88.91630511
C      91.98051665      58.52482477      91.75278431
H      93.36568603      59.46212902      92.95842968
H      93.03498393      57.30217185      90.47154987
N      90.31944721      56.85052726      93.28346262
H      90.07378279      54.99292629      92.92441462
C      88.88892440      57.73491917      95.17696838
N      89.21773678      59.94400923      96.08214729
H      88.01398112      60.76792991      97.31613857
H      90.64448013      60.91343884      95.26767525
N      87.23730360      56.47069227      96.19742059
H      86.51920759      56.85619644      97.92274072
H      86.93683712      54.67167282      95.63428215
C      89.46151147      62.50458839      84.90063669
O      90.40448489      64.45289622      85.57337926
N      90.17582802      61.32728890      82.78603295
H      89.71473479      59.47535711      82.71233362
C      92.21295298      62.34585138      81.13252243
H      93.57166620      63.19622822      82.42887468
C      93.53387168      60.12920241      79.76625030
H      93.42615728      58.67033370      81.21756011
C      92.12035639      59.25614887      77.35873898
H      90.38558764      58.25837336      77.83872946
H      93.42993673      57.88987673      76.54804639
H      92.04665707      60.62053125      75.81672230
C      96.34200498      60.81139362      79.28437009
H      97.16403591      62.08506915      80.68087784
H      96.52341870      61.86397117      77.52125544
C      98.05976620      58.49458915      78.92721182
H     100.01752266      59.10119131      78.71367275
H      97.43237706      57.30406158      77.36818761
H      97.85756548      57.33240747      80.61851687
C      91.37391450      64.37730716      79.32216462
O      92.82144485      66.14609099      78.68154740
N      88.89270384      64.49258047      78.73445974
H      87.67949956      63.05071930      79.04059539
C      87.65493312      66.62797120      77.50235817
H      88.94183673      67.66921041      76.27403607
C      85.27198823      65.91365466      76.18521894
H      84.01154079      67.50669394      75.84695792
H      84.14571134      64.64375859      77.35118007
C      85.69150748      64.67588392      73.49046922
O      87.71162491      64.82706203      72.29049301
O      83.87548048      63.62330637      72.53048825
C      87.15415563      68.93343731      79.15586870
O      87.46973994      71.15764519      78.41887544
N      85.87292120      68.62730164      81.38763548
H      85.28899576      66.87174590      81.85817732
C      85.18506083      70.66442661      83.11673506
H      84.68428334      72.25179671      81.90353076
C      82.79077759      69.97089705      84.44332293
H      82.88148444      71.18032189      86.11006153
H      82.73975497      68.03014813      85.13118329
C      80.29444912      70.54915331      82.96555695
H      78.59558517      70.22978957      84.08616465
H      80.43428888      69.40019971      81.25913408
C      80.09224841      73.30815373      81.91297938
O      81.22608419      75.18087250      83.04114600
O      78.75621191      73.52169280      79.95900239
C      87.42816595      71.57905414      84.86095244
O      87.23919333      73.78814421      85.68298338
N      89.34056899      70.02380940      85.31448676
H      89.26309020      68.24935638      84.61150857
C      91.52131315      70.75891293      86.74311985
H      92.22807078      72.50879950      85.91730945
H      92.85734966      69.19988872      86.58060339
C      90.99785895      71.13307873      89.68353398
O      89.65048409      69.55137781      90.74933963
N      91.81800018      73.21366740      90.90051774
H      92.71750991      74.43443060      89.74022577
C      91.19439050      74.03380863      93.48188388
H      89.18750116      73.69932707      93.80124763
C      92.68727429      72.44454881      95.51711911
H      94.65447938      72.88296530      95.09004097
H      92.29610093      70.45277727      95.17129920
C      91.99752417      73.26280030      98.15895651
H      91.91437622      75.31504306      98.31958324
C      89.33489981      72.27069398      98.89594976
H      88.58845792      72.43887962     100.80835280
H      89.09301484      70.29592998      98.36304695
H      88.00453248      73.20610851      97.63361259
C      93.84378679      72.30281933     100.03923418
H      94.69983280      70.59450674      99.27578476
H      92.92160035      71.80582130     101.81179746
H      95.35934730      73.68987845     100.19419174
C      91.94461184      76.83060357      93.85415997
O      94.27653412      77.45043380      93.75967365
N      89.97929647      78.30647982      94.47776965
H      88.17460784      77.71121604      94.29257647
C      90.31566777      80.89162541      95.38861773
H      92.27531395      80.98800146      96.02356577
C      89.87725126      83.04024423      93.32881605
H      90.45550750      84.89595547      94.00911751
H      87.85524410      83.10449493      92.93764270
C      91.47029054      82.35427358      91.12350543
H      90.95817471      80.50045207      90.38651218
H      93.47717988      82.29569206      91.58837811
C      90.92415963      84.12683687      89.06748321
H      92.54932426      83.93975396      87.81459467
H      90.97329251      86.07703442      89.72321824
N      88.39570583      83.50700664      87.85616864
H      87.92138453      81.69475911      88.22277555
C      86.90093232      84.75233628      86.33493897
N      86.91605012      87.21464966      85.96833206
H      85.71040473      87.75511138      84.59072158
H      87.88925918      88.39950806      87.10594730
N      85.26064987      83.60338268      84.89118806
H      83.91516474      84.45942869      83.84616940
H      85.18317110      81.69664883      84.95921820
C      88.90026275      81.39807207      97.79801878
O      86.70440077      80.68942470      98.08525718
N      90.02276018      82.69064486      99.55357453
H      91.72918304      83.40874086      99.08870185
C      89.30088473      82.92308120     102.24265507
H      88.15382086      81.29413712     102.77366816
C      91.79910292      82.78702091     103.74309776
H      91.17549324      82.93819902     105.69896449
H      93.10679353      84.34604512     103.41995456
C      93.27686890      80.35872259     103.73364912
H      94.35212317      80.07715337     101.99699064
C      95.34233975      80.74611649     105.74998711
H      96.34956388      82.50356196     105.38715964
H      96.66514817      79.17008474     105.67628778
H      94.46361701      80.80658773     107.61136751
C      91.65170427      77.89262977     104.43473759
H      92.93482844      76.30714939     104.73520407
H      90.31188830      77.25579200     103.00610450
H      90.67093630      78.17986816     106.22241868
C      87.82689821      85.32681307     102.80201406
O      86.31889661      85.30035691     104.48764992
N      88.51853804      87.36960723     101.39227822
H      89.87725126      87.06914073     100.08458762
C      87.20706798      89.73554456     101.33558644
H      86.24141784      90.12104873     103.11570863
C      89.05899976      91.96164217     101.01622269
H      89.99441429      91.98809833      99.18129844
H      90.69172330      91.61771197     102.22564752
C      87.91382562      94.41261718     101.50377208
H      87.42816595      94.65828160     103.49176415
H      86.28677126      94.44663227     100.23954518
C      89.72418343      96.62737642     100.96897953
H      90.20606364      96.66139151      98.96586964
H      91.44572410      96.38738119     102.07446943
C      88.63948052      99.15960968     101.60203784
H      87.25620086      98.97063705     103.11570863
H      87.71729409      99.84935979      99.89372526
N      90.41393353     101.04933600     102.52989347
H      91.02242541     100.18195163     104.11915330
H      89.61268958     102.66316227     103.15917233
H      91.91437622     101.44050935     101.41873440
C      85.14159711      89.55224111      99.35704299
O      85.51387320      88.63005467      97.19708581
N      83.01754474      90.41395632     100.36804657
H      82.86069746      90.87127007     102.21430917
C      80.66105603      90.88260844      98.90350867
H      79.80689974      89.01177939      98.79390455
C      78.82613178      92.39249976     100.56646783
H      78.41417145      91.40228318     102.32391329
C      79.70296479      95.05701386     101.38660905
H      78.59180572      95.91117016     102.89839010
H      79.55178668      96.34958665      99.78979030
H      81.64560343      94.94363028     102.05746189
C      76.29956770      92.67595870      99.11137857
H      75.56446417      90.85237281      98.50477642
H      76.46019444      93.63971912      97.29913103
C      74.08858792      93.75310271     100.65339524
H      74.35314960      92.81390873     102.46753250
H      72.32925271      93.70774927      99.58381015
H      74.39850302      95.75432287     101.03889941
C      81.21663557      92.13738671      96.39584186
O      82.84557965      93.80034586      96.08781647
N      79.76154630      91.46275442      94.37950387
H      78.55212146      90.05679803      94.83303820
C      79.99965182      92.25832919      91.70932060
H      80.71018892      94.18773975      91.60727538
C      82.09913776      90.55946524      90.49233684
H      83.94729009      90.79379130      91.37105958
H      82.45062685      91.44007769      88.66497150
C      81.61347808      87.74188330      90.14273748
C      80.14705048      86.99166195      88.05458991
H      79.38549077      88.30313201      86.68642806
C      79.66328053      84.46887732      87.62562204
H      78.71085847      83.83203957      85.93620671
C      80.71018892      82.58482019      89.25267639
O      80.72530672      80.22644175      88.48166806
H      79.57446339      79.96754925      87.10216784
C      82.32023573      83.37850524      91.18397669
H      83.19517902      82.03868930      92.45198303
C      82.70573990      86.01089401      91.72632814
H      83.71674348      86.61371669      93.39684620
C      77.50899254      92.34336687      90.21832654
O      75.49643402      91.98809833      91.31625752
N      77.75843642      92.82335735      87.71065972
H      79.45919009      93.33547319      87.01524044
C      75.69485528      92.72131214      85.93242726
H      73.97709405      92.05801820      86.85650342
C      75.20919561      95.44440775      85.01402026
H      73.82402622      95.35559062      83.49279059
H      77.02144315      96.12848869      84.31293181
C      74.28700918      97.33413407      86.92264385
H      75.74398817      97.74987386      88.31726187
H      72.60137330      96.40816817      87.66152684
C      73.97520434      99.87203651      85.66975530
H      72.72987470      99.61692346      84.04837013
H      75.89516627     100.45407221      85.19921344
C      72.59570412     101.69751213      87.39696515
H      73.78434198     102.34568825      88.95032018
H      70.88739154     100.78099486      88.09049470
N      72.02689650     104.24864264      86.22911429
H      70.82125111     104.03699331      84.76646613
H      73.62749469     105.21807225      85.85872794
H      70.96676005     105.28799212      87.42720077
C      76.23342727      90.69552554      83.73089610
O      78.29511869      90.53489880      82.57816306
N      74.25299410      89.30090752      82.98067476
H      72.67318291      89.69963977      83.97467080
C      74.18307422      87.71353741      80.65820111
H      75.92918133      86.65340094      80.40119834
C      71.96642526      85.95798167      80.75835661
H      70.24488460      87.07103047      80.95488814
H      72.23854585      84.54446638      82.23423287
C      71.44864026      84.43864171      78.31871994
O      73.00388501      82.77568256      77.70644861
O      69.51356051      84.82225615      77.05827249
C      74.25677355      89.40673219      78.30360214
O      73.74843718      91.68385240      78.59461999
N      74.65928526      88.48643548      76.09073262
H      74.71975649      86.58915025      75.88286273
C      74.52322496      90.17207135      73.82684049
H      75.91784299      91.68574212      73.81550214
C      75.49265456      88.47887657      71.66877305
H      75.61170732      89.36515821      69.81495154
C      78.07780016      87.31102570      72.36419233
H      79.64060382      88.64895193      72.28104438
H      78.58235708      85.84648781      71.00547911
H      78.16094811      86.10727005      74.03471038
O      73.95630707      86.32647829      71.43066753
H      73.08703297      86.57781189      69.85841524
C      71.80201908      91.09803723      73.24102534
O      71.45808888      92.85926216      71.72924429
N      69.82347563      90.16262271      74.47690635
H      70.07858868      88.68485674      75.65609557
C      67.16085125      91.23409753      74.37486113
H      66.82259024      91.79723598      72.42277385
C      65.32025782      89.15350885      74.84540297
H      63.42297261      89.95097337      74.93044067
H      65.51300991      88.27667586      76.69922450
C      65.31647836      87.00111058      73.08039860
H      64.02957475      85.64617682      73.94778298
H      67.22699166      86.27734541      72.82906501
C      64.49255770      87.64550726      70.34029545
O      64.87239268      86.22821253      68.49403285
O      63.20754381      89.55980002      69.92833512
C      66.78857516      93.52822528      76.12852715
O      64.74578102      94.69040695      75.90931889
N      68.68586038      94.06301783      77.78770685
H      70.37527571      93.22397933      77.49668899
C      68.89184056      96.02833319      79.66231535
H      67.63139310      97.61003411      79.27114201
H      70.84959702      96.50643394      80.08561404
C      67.84682190      95.20819196      82.20777670
O      68.11516303      96.57446409      84.05970849
N      66.76778818      92.98776355      82.29659384
H      66.72810392      91.78589762      80.81693813
C      65.86638873      91.99187778      84.66253117
H      64.56058785      93.28256085      85.59605597
C      64.65507415      89.37460684      84.21088658
H      64.28090835      88.32769846      85.94565535
H      66.06669971      88.37683134      83.09027889
C      62.24756284      89.18941366      82.49879455
C      61.37828873      86.86694002      81.42731973
H      62.22677584      85.11327400      82.03959106
C      59.28636171      86.63072424      79.74735304
H      58.57771434      84.84871232      79.04626458
C      58.12606975      88.92296225      78.95177826
O      55.89619270      88.74910743      77.54771161
H      55.47856318      90.07569531      76.37986075
C      59.24667745      91.30779685      79.58483657
H      58.40574924      93.03878615      78.90642483
C      61.11561677      91.39850372      81.43865809
H      61.80725660      93.19941289      82.10573147
C      67.93752876      91.45897497      86.62406709
O      69.90662359      90.26844739      86.21966566
N      67.48210472      92.16384288      89.03913732
H      65.70198253      92.81390873      89.25456612
C      69.39261803      91.84069967      91.10271845
H      71.21998337      92.64005391      90.59249235
C      68.64617612      93.32035537      93.45542771
H      69.95575647      92.66839981      94.90295807
H      66.71109639      92.84414434      93.98077163
C      68.87294329      96.16439349      93.37983866
C      66.88495121      97.60058548      92.50867482
H      65.25600712      96.53100038      91.90207267
C      67.05880602     100.18573108      92.30836384
H      65.45820783     101.19295519      91.54491441
C      69.15451250     101.53688539      93.37416948
O      69.19986594     104.04833165      93.13417424
H      67.47265608     104.55855776      92.91496599
C      71.23132173     100.16116464      94.37950387
H      72.98876720     101.00209284      94.98799575
C      71.07636417      97.47397381      94.36249634
H      72.56546850      96.25887979      95.04657727
C      69.66473862      89.04579445      91.85293979
O      67.73532805      87.62849973      91.66774661
N      71.93618964      88.02156279      92.48221865
H      73.49143439      89.12327323      92.34237891
C      72.70152880      85.30602608      92.36694535
H      71.16896076      84.14384441      93.10582835
C      73.17773983      84.48210542      89.65140865
H      74.59692429      85.62161038      88.68386876
C      73.93740981      81.70987691      89.07315239
H      72.68830071      80.24533902      89.80636620
H      75.67973747      81.46799194      90.14651694
H      74.29834754      81.56625772      87.05114524
O      70.81369222      84.26100744      88.35694611
H      69.63072354      85.42129940      89.09204965
C      75.24699014      84.94508837      93.99966889
O      76.68885132      86.74410782      94.43619566
N      75.79501078      82.55458458      94.83114846
H      74.44196674      81.21098917      94.76311831
C      78.11748442      82.04246875      96.32025280
H      79.69540588      83.10638465      95.53034720
C      77.66206037      83.05347233      99.07547376
H      76.76255065      84.90351438      98.99988472
C      76.11815397      81.33571111     100.70819730
H      75.98776285      81.84971666     102.69807911
H      76.84569860      79.41763890     100.91039801
H      74.23787628      81.07303914      99.90884306
C      80.16405801      83.82826010     100.56646783
H      81.51332260      84.58604037      99.20586488
H      81.04656019      82.04813792     101.10315010
C      79.99587236      85.43641720     103.00421477
H      79.22864349      87.29779762     102.56579826
H      81.92717266      85.62538983     103.69207515
H      78.91305919      84.22321290     104.26844168
C      79.16439279      79.32882176      96.42418774
O      77.89260698      77.54303039      95.59270817
N      81.47930752      78.70143262      97.38038927
H      82.56967961      80.15652188      97.96053524
C      82.54700288      76.17864800      97.70164274
H      81.31868078      74.95977453      98.82036072
H      84.36491960      76.17297881      98.67107234
C      82.98352967      75.17709304      94.98232657
O      83.97374626      76.55848298      93.41574345
N      82.29566929      72.77903036      94.60249159
H      81.56056575      71.78503431      96.05758085
C      82.38259670      71.29559520      92.18175217
H      83.83390651      71.97400694      90.88728965
C      82.90416117      68.46856464      92.97732696
H      81.34891640      67.51425284      93.93730792
C      83.57123454      66.84340001      90.68130948
H      83.50509412      64.81950312      91.05358557
H      85.46285058      67.18544048      89.94242650
H      82.12937338      67.15331513      89.24133803
C      84.97719093      68.24935638      95.16185057
H      84.21752095      68.95611403      96.94008303
H      86.55133294      69.48145794      94.66296283
C      85.90504655      65.55838611      95.74955546
H      84.32712507      64.23368797      95.75900409
H      86.60046583      65.73979984      97.67896602
H      87.66816119      65.05760864      94.81225121
C      79.84658398      71.60551032      90.80603142
O      78.41606117      69.87641074      90.48099850
N      79.31935035      73.97522711      89.99155938
H      80.55145191      75.30748417      90.57737454
C      76.85514724      74.85206013      88.68008932
H      76.71908694      73.66342227      87.00390207
H      76.89861094      76.85328029      88.18687075
C      74.44196674      74.71599983      90.10683269
O      72.41995958      74.36451074      89.00701197
N      74.30023725      75.23945402      92.61449950
H      75.92918133      75.59283283      93.54613458
C      71.95697664      75.28858690      94.06014013
H      70.82503057      73.74090105      93.30424961
C      72.26689174      74.84450122      97.01000291
H      73.43285289      76.34116445      97.81313659
H      72.93963432      72.90753175      97.19519609
C      69.75544548      74.94276698      98.47643052
N      68.13972947      73.00201806      98.83169907
H      68.26634114      71.37118426      97.84526194
C      65.99866957      74.00735246     100.02411638
H      64.24689328      72.96044409     100.05813145
N      66.36527647      76.43376105     100.48143015
H      65.03490915      77.74334139     100.88016239
C      68.75011108      77.06115019      99.54979506
H      69.52111942      78.94898677      99.50444164
C      70.49432846      77.80003318      93.57825992
O      71.27856489      79.77290744      94.43052649
N      68.30413567      77.76979755      92.31592275
H      67.85816026      76.07093359      91.56759113
C      66.61472034      79.97888761      91.83782199
H      67.61816502      81.51901455      90.90240746
C      64.33004124      79.28157860      90.00856692
H      63.48911303      77.53547148      90.70587593
H      65.12750573      79.00000937      88.13017896
C      62.29480600      81.47744058      89.75156414
H      61.69198329      82.30514070      91.53924523
C      63.24533832      83.70920735      88.28135707
H      61.75056482      85.05658221      87.84672002
H      64.35649740      83.26890112      86.60328010
H      64.35649740      84.83926368      89.59660658
C      59.95532482      80.46832672      88.32293105
H      59.46210625      78.60316685      89.04669623
H      60.41641803      80.33604589      86.31793142
H      58.45866158      81.86861393      88.52135231
C      65.68308527      80.89540487      94.30958401
O      64.58893374      79.65385468      95.72309929
N      66.10827370      83.29535728      94.84626628
H      66.84148751      84.43297252      93.50078113
C      65.01223243      84.69375476      96.96842892
H      64.50200632      83.46732238      98.54446067
C      66.86038477      86.63639341      97.92652016
H      66.17819357      87.90817921      99.39672724
H      67.14006425      88.11226966      96.51678433
C      69.22632211      85.55546996      99.08870185
H      70.19008253      84.39895745      97.68274548
C      71.09337170      87.54913121      99.97687321
H      71.42029435      89.00422048      98.55579902
H      72.97931856      86.84426330     100.41528972
H      70.16740581      88.60737796     101.48109536
C      68.82381041      83.89817998     101.49621318
H      67.72021023      85.13028153     102.72642501
H      70.57936615      83.13662027     102.25777288
H      67.67107736      82.26167699     101.00866379
C      62.36850532      85.84837753      96.29379664
O      60.44098448      85.29657746      97.46542695
N      62.41763821      87.77211893      94.61571967
H      64.05792064      88.17841008      93.72943803
C      60.11217210      89.31035614      93.77668119
H      58.49456638      88.03857034      93.89384422
C      59.46777542      91.27000233      95.82892396