 %block lattice_cart
   135.996   0.000   0.000
   0.000 142.663   0.000
   0.000   0.000   160.158
 %endblock lattice_cart

 %block positions_abs
N      89.67032622      42.23349424      79.22767830
H      89.08829051      40.94470089      80.50891274
H      91.54871417      42.48860729      79.44877628
H      89.38875700      41.35666123      77.55527051
C      88.36263561      44.83375764      79.18043514
H      88.82561856      45.72948791      80.97756486
C      89.49080222      46.38900239      76.92599165
H      89.09962887      45.39500635      75.16476672
H      91.54115527      46.60254148      76.98079371
C      88.60452058      49.04784732      76.65009161
H      86.55227780      49.17823843      76.69733476
H      89.10340832      49.84720155      74.81894681
S      89.51536866      51.26449628      79.08216937
C      89.07506243      53.84775216      76.91654302
H      90.47534963      54.06129122      75.42176950
H      89.65331868      55.55606475      77.90864933
H      87.17399776      54.00459944      76.14553468
C      85.37119885      44.50872471      78.94799880
O      84.59452134      43.20103410      77.14708963
N      83.88398425      45.82397424      80.46544903
H      84.85530357      46.93891275      81.67487387
C      81.08152012      45.85609958      80.76024634
H      80.10453162      45.00005356      79.16153788
C      80.30673234      44.15534590      82.91453433
H      81.17978589      42.30719356      83.15452958
H      78.33196834      43.75472391      82.49312537
C      80.34074741      45.41390363      85.52046692
O      78.27716628      46.02050577      86.34249787
N      82.43645389      46.07152837      86.62595681
H      82.20212783      46.39845104      88.49300641
H      84.11453086      45.65200914      85.81904368
C      80.26137890      48.52439313      81.00969021
O      81.85441819      50.20058038      81.31960533
N      77.74426346      48.96658909      80.94166006
H      76.81640784      47.39244707      80.39363943
C      76.51405163      51.42323330      81.24023682
H      77.13199213      52.62131978      79.68310234
C      73.58686557      51.26638602      80.91331417
H      73.31096553      50.55584891      78.99902141
C      72.37555100      49.63933165      82.95421859
H      71.97870847      50.76938800      84.63040583
H      73.47726144      47.95558552      83.39074537
H      70.50661168      49.12343637      82.25879930
C      72.12232767      53.75515557      81.04370528
H      72.38499963      54.39955224      82.98256448
H      70.10976915      53.31295961      81.06260255
C      72.94435862      55.77527300      79.00469059
H      72.70436338      54.74537215      77.23779649
H      74.91912262      56.33652172      79.17665569
H      71.90311942      57.55161572      79.03303649
C      77.26616270      52.97091915      83.63640979
O      77.79717579      55.25937771      83.12051450
N      77.65166687      51.85598063      85.88329437
H      77.46080451      49.97003376      86.09116427
C      78.80817937      53.40366648      88.00734675
H      77.82363196      55.18000920      88.34938721
C      78.79306156      51.87676761      90.43564506
H      80.04972956      52.74226227      91.81703499
H      79.55840072      50.09097625      89.75345386
C      76.14366527      51.61031620      91.47121508
C      75.35375967      53.61342610      93.06614409
H      76.43846257      55.33118732      93.26456535
C      73.04640384      53.38098976      94.24533331
H      72.45302978      54.95702151      95.39806636
C      71.53651252      51.30984971      94.04691204
H      69.69213964      51.28150383      94.91996560
C      72.44169142      49.15934118      92.73355226
H      71.25305357      47.51338956      92.52568236
C      74.96825550      49.20469461      91.56003222
H      75.87532413      47.52472791      90.83815676
C      81.48970101      54.36175772      87.44798776
O      82.17378193      56.37809568      88.44576325
N      83.15454989      53.15989177      86.06659782
H      82.66133132      51.48181481      85.30503812
C      85.85874824      54.10853438      85.61495324
H      86.60707986      55.12142770      87.24389732
C      87.57461974      51.88621624      85.02535863
H      89.40198508      52.44179578      84.25435029
H      86.62030795      50.79773388      83.55704128
C      88.10185338      50.19869064      87.38373706
H      86.38598188      49.94735704      88.49300641
H      89.61741388      51.10386955      88.44387353
C      89.07884188      47.65322931      86.39541020
O      87.68800331      46.48537845      84.90441614
O      91.05738533      46.59120311      86.85272397
C      86.14409692      55.72425038      83.30570768
O      87.60485536      57.52326984      83.27736179
N      84.32995966      55.40866610      81.57660810
H      83.21880058      53.87042888      81.78447800
C      83.91610959      57.12075814      79.48468108
H      85.62631191      57.50059312      78.39619872
C      82.03583191      55.64110242      77.95022331
H      80.64121389      54.90599890      79.27303173
H      82.98069507      53.87798778      77.45700474
C      80.83018652      56.80517383      75.62397022
H      82.34574703      56.88832180      74.23313165
H      80.13287752      58.69112070      76.07183535
S      78.26015874      54.73592352      74.52225978
C      78.09953200      56.04928331      71.40988054
H      76.65200165      55.01371330      70.37242079
H      79.87776446      55.51260104      70.51792972
H      77.77071962      58.07695965      71.26059216
C      82.77471490      59.70968318      80.21222571
O      83.78004930      61.64476293      79.26925228
N      81.00593107      59.77204415      82.06415749
H      80.32373987      58.13743089      82.77469459
C      79.98169941      62.00192120      83.10161724
H      79.45068632      63.41543647      81.70321977
C      77.53450383      61.46523893      84.62284692
H      77.26616270      63.17544124      85.73778545
H      77.84252922      59.88164828      85.90597109
C      75.17423567      61.23469231      82.96744667
H      75.51249668      59.80794894      81.52180604
C      72.99916068      60.00637021      84.29592427
H      71.87288380      61.56728415      85.02913808
H      73.71347723      58.57773711      85.59416625
H      71.80107420      59.17111119      82.84272473
C      74.18212936      63.44000293      81.37629712
H      72.51161129      63.08662410      80.22545379
H      75.77705836      64.22045988      80.33127846
H      73.73993340      64.93855588      82.71800280
C      81.84874901      63.18488987      85.00079218
O      82.26826825      65.52437105      84.92709286
N      83.33974307      61.72791089      86.33304923
H      82.96557726      59.85708184      86.37084376
C      85.46757490      62.63875897      87.92986797
H      84.75325835      64.21290099      89.04669622
C      86.44456340      60.44100727      89.68731344
H      87.73524647      59.29205366      88.56481601
H      84.92522345      59.23158242      90.38084300
C      87.77871018      61.74680815      91.90207268
H      86.72991207      63.19811796      92.92063516
H      89.39631590      62.83340078      91.23877874
C      88.88420007      59.79094141      93.77479146
H      90.16921396      60.84729841      94.98799575
H      90.11630163      58.39065421      92.89984817
N      87.18533612      58.35096996      95.42263280
H      86.49180656      56.67667245      94.82358956
C      85.97024210      59.09363241      97.47487558
N      86.38976134      61.26492794      98.55768875
H      85.46568517      61.59940950     100.19230201
H      87.86374786      62.33451302      97.97565305
N      84.10508223      57.75570618      98.41973873
H      83.51359789      58.01081922     100.21686846
H      83.41533212      56.15132853      97.65062012
C      87.41399300      64.13164276      86.24612182
O      88.52704180      66.03459714      87.08516031
N      88.29649519      63.34362687      83.92364819
H      87.34407313      61.86775062      83.17342684
C      90.06338929      64.82895176      82.28903492
H      91.26903468      65.77759438      83.66286595
C      91.52603746      62.84662885      80.75268743
H      92.07216836      61.41988550      82.13029791
C      89.98968996      61.65799100      78.60973779
H      89.25647615      63.05071931      77.28126020
H      88.47035001      60.54872167      79.44877628
H      91.17076891      60.63186961      77.26992184
C      93.94299741      63.85763243      79.42609956
H      93.67276655      65.44500254      78.13919594
H      94.66865231      62.35907948      78.21478499
C      96.01791690      64.39053526      81.30637724
H      97.80559799      64.94422506      80.44655177
H      96.33917038      62.67277404      82.39863905
H      95.66642781      65.88341904      82.68020827
C      88.87286171      66.93221715      80.64875249
O      90.16354478      68.70855988      79.78703729
N      86.35763599      66.91898907      80.09317295
H      85.31639679      65.45067171      80.73001072
C      85.00270222      68.88052498      78.64186314
H      86.34818736      69.53626001      77.22645813
C      82.73692037      67.71834329      77.07905948
H      81.57473869      69.28303668      76.41198609
H      81.63332021      66.56183079      78.37541173
C      83.17911633      66.44277804      74.54682622
O      85.22757966      66.80182604      73.44700551
O      81.39521469      65.34484704      73.52448429
C      83.95579385      71.15575546      80.19332844
O      83.99169865      73.28169755      79.38074613
N      83.52115679      70.67198552      82.72178225
H      83.40210404      68.80493592      83.10161724
C      82.89376766      72.74123583      84.49812498
H      82.12086960      74.26435525      83.34539193
C      80.81506871      71.85306447      86.24234237
H      80.14988505      73.52169281      87.25145622
H      81.33474345      70.22223066      87.38562679
C      78.34708615      71.04804105      84.81937846
H      77.05829280      70.00869158      86.04392111
H      79.03305680      69.75735798      83.36806865
C      77.06018253      73.21744686      83.39830427
O      77.05262363      75.43976500      84.23356330
O      76.09075293      72.68265431      81.25157518
C      85.07451182      73.77113667      86.06281837
O      84.62664669      75.51913352      87.49712064
N      87.14943132      72.52580703      86.10061290
H      87.16832858      70.83828143      85.21244153
C      89.40387481      72.89241393      87.68420355
H      90.28259754      74.71411011      87.29491993
H      90.70400651      71.32205138      87.37617816
C      88.71412470      72.89241393      90.64162523
O      87.10029843      71.48834729      91.53168632
N      89.90843173      74.71599984      91.92663912
H      91.34462373      75.46622118      90.91941500
C      89.28671178      75.49834653      94.55335870
H      87.39509574      74.80859643      94.98232657
C      91.08573123      74.01113192      96.48465899
H      93.03025960      73.88074081      95.81569587
H      90.69077843      72.03069874      96.09348564
C      90.91187640      74.57238064      99.35137380
H      91.43155114      76.55092409      99.59514850
C      88.33051026      73.76735722     100.45308425
H      87.74469510      71.90408708      99.80301839
H      86.93022306      75.14118826      99.82191566
H      88.35885616      73.77869558     102.51477565
C      92.93955274      72.95855436     100.69874867
H      94.89164002      73.44610375     100.24710408
H      92.64286571      70.92898829     100.51922467
H      92.95656028      73.28169755     102.73398391
C      89.59851662      78.34805381      94.97665739
O      91.76036352      79.19465120      94.76311832
N      87.57461974      79.68598004      95.71931983
H      85.92866812      78.72410935      95.76089381
C      87.76926155      82.23711056      96.79457410
H      89.67977485      82.75489556      97.35960227
C      86.78660386      84.32714786      94.97665739
H      86.28204694      85.99199674      96.08025756
H      85.22568993      83.57692651      93.85793941
C      89.12041586      84.94886781      93.30991878
H      89.95756462      83.24622441      92.50678510
H      90.45267291      85.99577620      94.47965937
C      88.20767805      86.86694003      91.32381643
H      89.74591527      88.05557787      90.64162523
H      86.89620799      88.12927720      92.28568712
N      87.11730597      85.60649258      89.00323251
H      86.89809772      83.72054572      89.19598460
C      86.33306955      86.69308521      86.97744591
N      86.26125995      89.13839105      86.55981639
H      85.32017624      89.55791029      84.95354903
H      87.42533136      90.30435218      87.52546654
N      84.98758441      85.34948979      85.42220115
H      84.19767881      86.18096938      83.89341256
H      84.85152412      83.48432992      85.80203614
C      86.20456816      82.45253935      99.26444639
O      83.93500686      82.15774205      99.49121355
N      87.60296563      82.77001338     101.32046862
H      89.39064672      83.27646003     100.88583157
C      86.66755111      82.82103598     103.90183477
H      85.18033650      81.42074879     104.14938891
C      88.83695691      82.28435371     105.74809737
H      88.16232462      82.52245923     107.67750794
H      90.49613662      83.49188883     105.55534529
C      89.53615565      79.45543342     105.60258845
H      89.37363919      78.85072100     103.63916281
C      92.34050950      78.95465596     106.39249405
H      93.45922747      79.93353418     104.96575068
H      92.86207396      76.96288442     106.42272967
H      92.60129173      79.81070198     108.24631556
C      87.83351224      78.15341199     107.35814419
H      85.87575578      78.50301137     106.82713110
H      88.03760268      78.91119224     109.26298832
H      88.02248487      76.10305895     107.33735720
C      85.45056736      85.41940967     104.50843691
O      83.81595410      85.72176588     106.15060908
N      86.06850786      87.34693051     102.93807435
H      87.22502037      86.99544142     101.46219810
C      85.06506319      90.02656242     103.12515725
H      83.86697671      90.17396107     104.79189586
C      87.32139641      91.92573737     103.44830045
H      88.03571296      92.51155252     101.60770702
H      88.94278159      91.01866874     104.33647182
C      86.45779148      94.34458704     104.99409658
H      85.02537894      93.80412531     106.36981733
H      85.49781052      95.55779134     103.63160390
C      88.53460070      95.75621259     106.47564200
H      89.20923300      94.49198569     107.95529771
H      87.65020879      97.40216421     107.34302638
C      90.75124967      96.72753192     104.75788079
H      90.00858723      98.06734789     103.38027030
H      91.43533059      95.18362552     103.57869157
N      92.83939724      98.10325269     106.16194744
H      93.95622549      96.85981277     107.08791333
H      92.12130124      99.42228164     107.33735720
H      94.03559400      98.98197541     104.96197123
C      83.36053006      90.70119471     100.85370622
O      83.88398425      89.77711854      98.77311755
N      81.26860303      91.97864970     101.38471932
H      80.89632695      92.29423399     103.22909220
C      79.24659587      92.65517173      99.58003069
H      78.12031899      91.02055845      99.02823061
C      77.49670931      94.58269255     100.79701443
H      76.78995167      93.60948351     102.47131195
C      78.90644514      96.99020388     101.65872963
H      79.36753836      98.17128283     100.03545473
H      80.76215638      96.48753668     102.39761262
H      77.77260935      97.94451568     103.08547300
C      75.21958910      95.21764060      99.15106282
H      74.18023963      93.47153348      98.81847098
H      75.61454190      95.88093453      97.24243924
C      73.63032927      97.26988338     100.55135001
H      74.70369382      99.00087267     100.86504458
H      72.85554148      96.59714080     102.33714138
H      71.95981121      97.78010948      99.46097793
C      80.22736383      93.65861639      97.08748168
O      81.99614766      95.04756523      97.00244400
N      79.27683150      92.66462035      94.93697314
H      77.87465457      91.39661399      95.19964510
C      79.92122817      93.32602456      92.49544674
H      80.53727895      95.29133993      92.52379264
C      81.89599217      91.61771198      91.46176645
H      83.65910682      91.60070443      92.52379264
H      82.24181208      92.37549223      89.57770931
C      81.07396122      88.88894717      91.14996161
C      80.16878232      87.94408402      88.84071605
H      80.17823095      89.24043627      87.26657403
C      79.24659587      85.47799118      88.64418452
H      78.53794851      84.74099793      86.87729041
C      79.66611512      83.73188407      90.76445744
O      79.33541301      81.20531999      90.60005125
H      79.23147806      80.60438702      88.89173866
C      80.38799057      84.75044655      93.04157765
H      80.97191600      83.36716689      94.42485731
C      81.11364547      87.34126133      93.29858042
H      81.93378669      88.10849022      95.00311356
C      77.65544632      93.45452595      90.69831702
O      75.49359942      92.89327723      91.35405205
N      77.99370733      94.49954460      88.36450502
H      79.81918295      94.71119395      87.84294056
C      76.02461251      95.42928994      86.71855340
H      74.17646018      95.35937008      87.62373231
C      76.19279815      98.31490202      86.55414721
H      77.88977238      98.33379930      85.38818608
H      76.39499887      99.24275764      88.38151256
C      73.88355260      99.51298850      85.25212578
H      72.22437290      99.16527887      86.42375610
H      73.64166763      98.67395002      83.38507619
C      74.02150262     102.38726223      85.04803534
H      75.84319878     102.63292666      84.12017972
H      74.18401908     103.13937331      86.95854864
C      71.83697900     103.62692270      83.62885088
H      70.14378422     102.91449588      84.55859623
H      71.62910911     103.18472673      81.62763072
N      71.92012696     106.35379776      83.85939749
H      73.54907104     107.17204926      83.29436932
H      71.59320431     106.87536223      85.66597585
H      70.64267197     107.34590408      82.84461446
C      76.04350977      93.87404519      84.14096671
O      78.14488543      93.64727803      83.04303572
N      73.94024439      93.01233000      83.15263985
H      72.53050856      92.89894641      84.43576402
C      73.78528683      91.70085993      80.73945935
H      75.45391516      90.52733989      80.45222095
C      71.57241732      89.88105350      80.69410592
H      69.80174376      90.85048310      80.27836613
H      71.44769538      88.88516773      82.49312537
C      71.82375092      87.77022921      78.82327687
O      71.07919875      88.24077105      76.59151009
O      72.51539075      85.57625696      79.65097699
C      73.54151214      93.50554856      78.47367750
O      72.83286477      95.63338038      78.85540221
N      74.00827453      92.54367787      76.20789565
H      74.61487668      90.73520978      76.15309359
C      73.41679020      93.78144860      73.73235418
H      74.38433007      95.59936532      73.66621376
C      74.15567319      92.03156203      71.51381549
H      73.83252999      92.88760806      69.66755288
C      76.97703457      91.45708523      71.44578534
H      77.47970177      90.96953584      69.50881587
H      77.39277436      89.84514870      72.66276909
H      78.04850939      93.16917727      71.85585595
O      73.04451412      89.63160962      71.51570521
H      71.75383104      89.51633632      72.78371157
C      70.59164936      94.32757951      73.51125620
O      69.78095677      96.00187702      71.99002652
N      69.05341214      92.94618958      74.94744820
H      69.67513210      91.38149619      75.84506820
C      66.34354461      93.40728280      75.41610032
H      65.46860133      93.83247121      73.60007334
C      65.15490676      90.99788175      76.43655253
H      63.14990714      91.28889960      76.79937999
H      66.12433636      90.50844263      78.18643910
C      65.31364377      88.92863143      74.48824470
H      64.96404440      87.15606815      75.48035102
H      67.22037762      88.86438073      73.71156719
C      63.52785240      89.07980953      72.26214711
O      63.44470445      87.23165721      70.85241128
O      62.32598647      90.93363104      71.82751006
C      65.97882743      95.69763108      77.22834786
O      63.82831889      96.23809280      77.83683973
N      67.93847362      96.88815867      78.23368226
H      69.62599921      96.09447361      77.82928083
C      67.85343593      98.77410552      80.27458668
H      66.52873779     100.31423247      79.92876676
H      69.71670608      99.64715908      80.35017573
C      67.24872351      97.74420468      82.96933640
O      67.57942562      99.06134393      84.89307778
N      66.22638158      95.41984131      83.14319122
H      66.50417135      94.35214595      81.58605674
C      65.23994444      94.04223083      85.33905319
H      63.60722091      94.94740973      86.20832730
C      64.20815388      91.49865922      84.52269143
H      63.35588731      90.40450768      86.04392111
H      65.93914318      90.55946524      83.91419955
C      62.18992617      91.31346604      82.57060415
C      61.88190078      88.97020541      81.28181080
H      63.23872428      87.55291068      81.84116979
C      59.88068062      88.51289164      79.61696192
H      59.59911140      86.67418794      78.77792344
C      58.31031805      90.56324469      78.90453510
O      56.65302808      90.21742477      76.91654302
H      55.98973414      91.72542637      76.15687304
C      58.57865919      93.00477109      80.10829076
H      57.45427203      94.64694325      79.65097699
C      60.37767864      93.22586906      81.99990680
H      60.61767388      94.95496864      83.05626381
C      67.39801189      93.77955888      87.24956650
O      69.54285126      92.98965327      86.62595681
N      66.78763029      93.81735341      89.79880729
H      64.97160331      93.65861639      90.36761491
C      68.69814360      93.52255609      91.76412266
H      70.50850140      94.13671715      91.00067323
C      67.87800238      95.02677825      94.02612505
H      68.55641412      94.23120346      95.80057806
H      65.82953905      95.15527963      94.19997988
C      68.98727172      97.58546768      93.93919764
C      67.41690916      99.78699882      94.19809015
H      65.40813008      99.46952481      94.01289697
C      68.47704562     102.17183343      94.64406556
H      67.11455295     103.68739394      94.74611078
C      71.17179534     102.51009445      94.45320320
O      72.24704961     104.83823725      94.47399019
H      70.85054187     105.98341140      94.62894775
C      72.73270927     100.40304961      93.96565381
H      74.73959862     100.77343597      93.97888190
C      71.70658789      97.95585402      93.93919764
H      72.92357163      96.31935105      93.89384421
C      68.95136692      90.73898924      92.54268990
O      67.05030225      89.38972465      92.88662009
N      71.28895837      89.84892815      92.91307626
H      72.67790721      91.15094957      92.78835432
C      72.14689412      87.21464966      93.06425436
H      70.45558907      86.15829265      93.58392910
C      73.19569222      86.22632280      90.62461769
H      75.23848636      86.49844339      90.63973550
C      72.93113054      83.25189359      90.33926902
H      73.63032927      82.48844415      92.11939120
H      74.22370333      82.78891063      88.80292153
H      70.95258709      82.71521132      90.14273748
O      72.32830784      87.19953186      88.36450502
H      72.78940106      88.95319788      88.27190843
C      74.20669580      86.92741127      95.02201082
O      75.71658712      88.50155328      95.15807112
N      74.33708691      84.83548423      96.49788707
H      73.01805795      83.46354294      96.34670897
C      76.37799133      84.11927796      98.08714690
H      78.05417857      85.21531923      97.60148724
C      75.71280767      84.96587535     100.87071376
H      74.58464106      86.68174685     100.69874867
C      74.24260060      82.74544694     102.11604340
H      72.50216266      82.38261949     101.07858365
H      73.98748755      83.04969288     104.13805056
H      75.43123845      81.06170078     102.11793313
C      77.90111074      85.83137000     102.38438454
H      78.98581364      87.15606815     101.24110012
H      79.03683625      84.15707249     102.77177843
C      77.33230312      87.19575240     104.79378559
H      76.26649748      85.87105426     105.95974672
H      76.44413175      89.03823555     104.55379034
H      79.23714724      87.43196819     105.53266857
C      77.06774144      81.16374602      97.78479069
O      75.57107820      79.80314307      96.80213301
N      79.27116232      80.39084795      98.61627027
H      80.69979541      81.61161114      98.95264155
C      80.09508299      77.73767220      98.93752374
H      78.32629916      76.94965634      99.64050193
H      81.49725991      77.51468451     100.42851780
C      80.84530434      76.55659325      96.52245351
O      82.00559629      77.62995781      94.86705326
N      80.17823095      74.07916207      96.27300964
H      79.08785886      73.43287566      97.70164273
C      80.28594535      72.61084471      93.90518257
H      81.91110998      73.25524139      92.81670021
C      80.86987078      69.87641075      94.69130872
H      79.37131781      69.32272094      95.99333015
C      81.26482358      68.23045913      92.33670973
H      83.14321153      68.43454956      91.51656851
H      79.77005006      68.76714139      91.02523967
H      81.17033726      66.23301842      92.83370775
C      83.34919170      69.56838536      96.34481924
H      83.36997869      70.93276776      97.88683591
H      85.15010088      69.88963883      95.39239718
C      83.74414450      67.05504935      97.87360783
H      83.60619448      65.41665665      96.63394737
H      82.20212783      66.77159041      99.20964433
H      85.56584067      67.01158566      98.83358880
C      77.73103537      73.15886534      92.50111592
O      76.07563512      71.52047264      92.17419327
N      77.54395247      75.39252185      91.63751100
H      78.90644514      76.68320492      91.97388228
C      75.29328843      76.12006648      89.98589020
H      75.17990485      74.82560396      88.38907146
H      75.60131382      78.07404349      89.41330312
C      72.64578186      76.10683839      91.29358081
O      70.94691791      75.19410059      90.02746418
N      72.54562637      76.87595701      93.70298186
H      74.09142249      77.78302564      94.35682716
C      70.22693218      77.08571663      95.14673276
H      68.89089568      75.62117874      94.58737377
C      70.55385483      76.69076383      98.14950787
H      71.66690363      78.22711132      98.94886210
H      71.87288380      75.12040126      98.32903187
C      67.95737088      76.41864324      99.27389503
N      66.35677269      74.36262102      98.89028058
H      66.65157000      72.80170707      97.83014412
C      64.23083059      74.94654644     100.18663284
H      62.51873855      73.93365314      99.72742934
N      64.36689089      77.23689474     101.21653368
H      62.80597695      78.28569284     101.54912551
C      66.69503370      78.31781818     100.60426235
H      67.49816739      80.14329380     101.04267885
C      69.07608886      79.62550880      94.64406556
O      69.92268625      81.54358099      95.67963558
N      67.21659817      79.78802525      92.98110640
H      66.59109876      78.10238938      92.34237891
C      65.86355413      82.13506533      92.46899057
H      67.19014200      83.58448542      91.85105007
C      63.89823876      81.82515023      90.24289298
H      63.42958663      79.83526842      89.98966965
H      64.89790398      82.32025852      88.51190367
C      61.65324390      83.66385392      90.22588544
H      60.69704239      83.95298204      92.02679462
C      62.52818718      86.04301935      88.94465100
H      63.57320583      85.73310423      87.19665416
H      63.73572230      87.19008322      90.15218611
H      60.89924310      87.24488528      88.56103656
C      59.50651481      82.51679006      88.61205917
H      60.28697178      82.01790231      86.77335547
H      57.90591662      83.79991422      88.42119681
H      58.88290513      80.77068293      89.50778944
C      64.58609914      83.06859013      94.87461217
O      63.53163186      81.54358099      96.30702471
N      64.86388891      85.57436723      95.45853760
H      66.21315349      86.64395232      94.63272720
C      63.40502019      86.76678453      97.51644955
H      63.00061876      85.34382061      98.94697237
C      65.15679648      88.68674646      98.93185456
H      64.04563741      89.36704794     100.52678357
H      65.50639585      90.23821177      97.62227423
C      67.66446330      87.58881548      99.98443212
H      68.82475526      86.93119071      98.41595928
C      69.01183816      89.75255211     101.22409258
H      68.01028322      90.75977622     102.71508664
H      69.52962317      91.15472902      99.80301839
H      70.79951926      89.01555885     101.93462967
C      67.24683379      85.44208638     101.92140159
H      66.50795080      86.15262347     103.70908268
H      68.72837922      84.06825536     102.31635439
H      65.76906781      84.20620537     101.19385696
C      60.85011022      87.91762786      96.59993229
O      58.91880993      87.18819349      97.74510644
N      60.79908761      89.61271235      94.71965461
H      62.42236251      90.06624668      93.82959352
C      58.57865919      90.79001184      93.78801954
H      57.24073296      89.24799517      93.51211950
C      57.61678850      92.90083614      95.67585613