 %block lattice_cart
   135.996   0.000   0.000
   0.000 142.663   0.000
   0.000   0.000   160.158
 %endblock lattice_cart

 %block positions_abs
N      93.73229293      43.74905474      81.20527689
H      94.31432864      42.54340936      79.84278422
H      93.36946548      42.70403609      82.76052164
H      95.32344249      44.75249942      81.53408927
C      91.76319811      45.57642009      80.40592265
H      91.79910291      46.98237647      81.91014480
C      92.26964476      46.71025588      77.68093732
H      92.36413108      45.11910632      76.37702615
H      94.07622312      47.69480328      77.79810035
C      90.12102595      48.36376640      76.76064059
H      88.50719968      47.09387032      76.60757277
H      90.77676098      48.73982194      74.84445812
S      89.32923062      51.17189970      78.65603608
C      87.52454199      52.81407187      76.30332682
H      88.77365109      52.67990130      74.67060330
H      87.29777484      54.77560778      76.89103171
H      85.72363282      51.86731899      75.98774254
C      89.12136073      44.39723087      80.54576241
O      88.81522506      42.27128877      79.94482944
N      87.19195016      45.82964341      81.30543238
H      87.62091803      47.60220669      81.86857083
C      84.58412785      45.21170291      81.65692148
H      83.70729484      44.25928084      80.05632329
C      84.33468398      43.54496429      84.08710952
H      85.82756776      42.15979491      84.39135545
H      82.75109333      42.23916342      83.91703415
C      84.18539560      44.96414876      86.52296673
O      82.18795488      45.46681596      87.50562441
N      86.24330755      45.82019478      87.44704290
H      85.98819450      46.54773941      89.19126028
H      87.94028178      45.36288101      86.69871128
C      83.12714886      47.76472316      81.85912219
O      84.35925042      49.75649468      82.25974417
N      80.54578272      47.80440740      81.73062081
H      79.71430314      46.12255099      81.37724198
C      78.82991123      49.98704130      82.16525786
H      79.16628251      51.38732850      80.69127133
C      75.99532176      49.13477474      82.02163866
H      75.80634913      48.11999171      80.24151647
C      75.25265932      47.32819638      84.19671364
H      73.43663233      46.47404009      83.72806152
H      74.90305995      48.36943558      85.94093102
H      76.60192390      45.80318725      84.49718012
C      74.13016189      51.38543878      81.83833519
H      74.13583107      52.57596635      83.52019162
H      72.29523764      50.56907701      81.38480089
C      74.60259346      53.15989178      79.67837803
H      75.05045860      52.03550463      78.00974969
H      76.16539713      54.46569267      79.99207259
H      72.99254665      54.40900088      79.37602182
C      79.34769624      51.78417102      84.46127533
O      78.96597152      54.04995288      84.08710952
N      80.32846419      50.92434556      86.55509208
H      80.73853480      49.05918568      86.56832017
C      80.81790331      52.38888345      88.96449313
H      79.28911472      53.69846378      89.40290964
C      81.14293623      50.72214484      91.32287156
H      81.85536305      52.08841695      92.69103342
H      82.40149396      49.11776719      91.02996399
C      78.42362007      49.76972278      92.25828609
C      77.32001990      47.81196631      90.81075574
H      78.30267759      47.10898813      89.16669384
C      74.94274420      46.94836139      91.61766886
H      73.98276323      45.40067554      90.69737215
C      73.75788580      47.99904921      93.66235275
H      71.83036496      47.50394093      94.11966650
C      74.89550104      50.00215911      94.92280020
H      74.11504408      50.78639553      96.63867169
C      77.27277674      50.90544829      94.24627818
H      78.17228647      52.38888345      95.31964272
C      83.14226667      54.01593779      88.43536975
O      83.04211118      56.29683746      88.62056294
N      85.13403821      52.65911431      87.59633127
H      84.97719092      50.78072636      87.30153397
C      87.52076254      53.94412820      86.71193937
H      88.37680856      55.02883111      88.24072795
C      89.60702039      51.89755461      85.94848993
H      88.82089424      50.49726741      84.65780686
H      90.10212868      50.91111747      87.68514842
C      91.97862691      53.08808218      84.73150619
H      92.23562969      54.91355780      85.64991318
H      91.93138375      53.35264387      82.69060176
C      94.25952657      51.30418054      85.23606312
O      96.11145836      52.04495326      86.45304685
O      94.29543137      49.05918568      84.46883423
C      86.91227067      55.58630036      84.43670889
O      87.86658246      57.63098423      84.47450341
N      85.18695054      55.05528728      82.66414560
H      84.59924566      53.24492947      82.77941890
C      84.41594221      56.68423136      80.41159183
H      86.13748288      57.46846778      79.59711979
C      82.51865699      55.22158319      78.66548472
H      80.67428411      55.53716749      79.52719991
H      82.73030634      53.17311987      78.63902855
C      81.99898225      56.28171965      75.89136649
H      83.45596124      55.69023532      74.56099916
H      81.93662129      58.33585215      76.02175761
S      79.00565577      54.98725712      74.61580124
C      79.08313455      56.13621073      71.40704596
H      78.65038723      58.14498980      71.31066992
H      77.72631106      55.04961809      70.29966633
H      81.04844992      56.09085729      70.78343627
C      83.31801122      59.19000845      81.33377828
O      84.27799219      61.16855190      80.71583777
N      81.52088150      59.12953721      83.05531894
H      80.85380811      57.45334997      83.67892862
C      80.31901556      61.41799577      84.02663827
H      79.89193741      62.38553564      82.25974417
C      77.96630630      60.61675180      85.52897069
H      77.41639594      62.29860823      86.58532770
H      78.30645704      59.23347215      87.01618529
C      75.65895047      59.99314213      83.72050261
H      76.62838007      58.80828373      82.33911268
C      73.51222138      58.45301519      84.99984733
H      72.35381915      59.36386326      86.43981878
H      74.33803178      56.77115877      85.85022417
H      72.11193418      57.81617742      83.63168547
C      74.50810715      62.34585139      82.50918805
H      72.83003018      61.93389105      81.38669062
H      75.94051969      63.11308027      81.24685086
H      74.00166050      63.79338175      83.88301908
C      82.11803501      63.19433851      85.60644946
O      82.05756377      65.56405530      85.46471999
N      83.67705922      61.86397118      87.06720791
H      83.31045231      60.01392912      87.35822577
C      85.64993349      63.06583712      88.52985607
H      84.68428334      64.57194899      89.55219801
C      86.75920284      61.22713341      90.41391321
H      88.66404696      61.83751501      90.90335233
H      86.93494738      59.37898108      89.52196239
C      85.26631905      60.93800529      92.74772521
H      83.50320440      59.98180377      92.27718336
H      84.91105050      62.82584187      93.49416710
C      86.91982957      59.57929207      94.61855426
H      88.26153525      60.89454158      95.45759274
H      87.99508384      58.07506992      93.70581644
N      85.37403345      58.44167683      96.64245114
H      84.29122027      56.97524921      96.07553325
C      85.39293071      59.10308104      99.05752136
N      86.65526789      60.97579981     100.01372287
H      86.49086170      61.60129922     101.81085261
H      87.76264751      62.04916436      98.88933573
N      84.28555109      57.59129998     100.57497160
H      83.87359076      57.96168634     102.40044721
H      83.15738448      56.24014567      99.83608861
C      87.53777008      64.46801404      86.95760379
O      88.34090376      66.57505887      87.53586003
N      88.14248250      63.37386251      84.81654386
H      87.63414612      61.53326907      84.82599251
C      89.64481492      64.59084624      82.88524358
H      91.17549323      65.54515804      83.87923962
C      90.84101167      62.69734049      80.93693574
H      89.38781214      61.55027661      80.03364658
C      91.81611045      64.06361261      78.60123402
H      92.87057773      62.82206242      77.34078657
H      93.09167571      65.61507790      79.06232725
H      90.24385816      64.89698191      77.55999483
C      92.64003112      60.73013539      81.98384413
H      92.22618106      60.25770381      83.94726977
H      94.54865470      61.49736428      81.93093178
C      92.70995100      58.25081447      80.38135621
H      93.95528064      56.93367523      81.35834472
H      93.56977647      58.67033371      78.55777033
H      90.85990894      57.58185136      79.77475406
C      88.18594620      66.75647260      81.61156804
O      89.09490456      68.86162771      81.46038994
N      85.77654515      66.25380541      80.93504603
H      85.03766216      64.49258048      80.96906110
C      84.31767644      67.96400772      79.27208687
H      85.55166772      68.37596806      77.67715786
C      81.85536305      66.73757534      78.36690796
H      80.43428887      68.18510570      78.01541887
H      81.03711156      65.34862650      79.64814241
C      82.15582954      65.88152931      75.70050414
O      83.52021194      67.27992679      74.27565050
O      81.33568832      63.82928655      74.90681909
C      83.68650785      70.61718346      80.24151647
O      84.12303463      72.49746114      78.93760531
N      83.06667762      70.47923343      82.79453672
H      82.56967960      68.74257496      83.40869776
C      82.83046183      72.74879473      84.48206232
H      81.98008499      74.23978880      83.34255735
C      80.75176289      72.49368169      86.33399410
H      80.70451973      73.97144766      87.76829638
H      81.29222461      70.70033141      87.19192985
C      78.12504331      71.92298435      85.03953157
H      76.94963355      71.58283360      86.69682155
H      78.14772003      70.21656147      83.88679853
C      76.87782395      74.05270590      83.42003612
O      77.61103775      76.31659802      83.39357996
O      74.87660378      73.44232429      82.26919280
C      85.40615880      73.65208391      85.43448437
O      85.85213421      76.06337469      85.47227890
N      87.01053644      71.94944051      86.36045026
H      86.66093707      70.10884707      85.99573308
C      89.02309496      72.58060909      88.12923410
H      90.24007870      74.09239014      87.43381482
H      90.32133694      71.03859242      88.53741498
C      88.03098864      73.27602838      90.90902150
O      85.85591366      73.14185782      91.37011473
N      89.85835399      73.84105655      92.54930395
H      91.67249125      74.13018468      92.03151894
C      89.29521555      74.45143814      95.16279544
H      87.25998031      74.47978405      95.48404891
C      90.35724174      72.46722551      97.12055190
H      92.38869752      72.67509542      96.85032104
H      89.44261420      70.70978005      96.55552373
C      89.72229369      72.87351667      99.93057493
H      90.91093155      74.36073129     100.71670107
C      87.00864671      73.59539212     100.37466061
H      86.68361378      73.47255992     102.40611639
H      85.90693627      72.07794190      99.52617349
H      86.67416515      75.43976500      99.52617349
C      90.06055470      70.51891768     101.50093749
H      89.30466418      70.78347938     103.39822271
H      91.97295773      69.81971896     101.80707315
H      88.97018262      68.96178320     100.71481135
C      90.38936708      77.06115019      95.52184344
O      92.73451744      77.39185230      95.46515165
N      88.85112986      78.79591895      96.51772920
H      87.06344877      78.28002366      96.94102790
C      89.19883951      81.34138029      97.27550946
H      91.10368363      81.84782694      97.87266297
C      88.21618182      83.08937712      95.04752213
H      87.66249201      84.93186027      95.78451539
H      86.62692199      82.28624344      94.01195211
C      90.40448489      83.38606416      93.09354513
H      91.22273639      81.67964130      92.28474225
H      91.84256662      84.58793009      93.94770141
C      89.25553130      84.68241640      90.84288109
H      88.44294898      86.44364133      91.53641063
H      87.67760982      83.51834500      90.21171250
N      90.86557811      85.33437198      88.73961569
H      91.16604460      87.19764213      88.45615675
C      91.86335361      83.82070121      87.07287709
N      91.43438573      81.43208714      87.23539355
H      91.93516321      80.28124382      85.79542210
H      90.20606363      80.61950484      88.44481839
N      93.39970110      84.65784996      85.34755697
H      94.34267453      83.47677101      84.18159583
H      93.40537028      86.53245846      84.98472951
C      87.73052216      81.82326049      99.61688036
O      85.52899101      81.21476863      99.95136190
N      89.07222784      82.76245447     101.59164435
H      90.85423976      83.30480593     101.17590456
C      88.07445235      82.99300109     104.27694545
H      86.45495690      81.73633309     104.47725643
C      90.23063007      82.03868930     106.09864160
H      89.48040873      82.36939140     107.98836791
H      91.80666182      83.36338743     106.04194982
C      90.82400414      79.17953339     106.11375942
H      91.43060628      78.75245524     104.19379749
C      93.03120447      78.94898678     107.86553570
H      94.60156703      80.12628627     107.24570548
H      93.59623264      76.96666387     107.88254325
H      92.80065786      79.68220059     109.77415928
C      88.76420245      77.39563175     107.16822670
H      86.97274191      77.63373725     106.17612039
H      88.46184624      77.73956194     109.17700577
H      89.34623816      75.45488281     106.80350953
C      87.11636111      85.54980079     105.00071062
O      86.26031509      85.82948028     107.17200616
N      87.23730359      87.24677501     103.23381652
H      88.23885854      86.96709552     101.63321833
C      86.24897673      89.79601580     103.31696448
H      85.06411833      90.10593092     104.97047500
C      88.51664831      91.68196267     103.27539049
H      89.65237382      91.52133593     101.56518818
H      89.74497041      90.98465366     104.77583318
C      87.99319412      94.45608090     103.55884945
H      86.87447614      94.79056246     105.25582368
H      87.11069193      95.12693373     101.82219095
C      90.49330203      95.70518999     103.88955155
H      91.45706245      95.68818246     102.06785539
H      91.61957891      94.67528914     105.27283121
C      90.42905134      98.57379453     104.56229412
H      89.22907513      98.54544864     106.23659163
H      89.48229845      99.63771045     103.07696924
N      92.77609142      99.70574060     105.14432982
H      93.31655314      98.92528362     106.80161980
H      92.41704342     101.55767238     105.42778877
H      94.10267929      99.56212139     103.77805770
C      84.50097989      90.21175559     101.13999976
O      84.92805804      89.06658146      99.12177206
N      82.56212069      91.73298528     101.48204023
H      82.48464192      92.61170802     103.17712472
C      80.61381287      92.57958267      99.49782760
H      79.66328053      90.83347556      98.95736586
C      78.72219683      94.32757950     100.69213463
H      79.55367640      96.20407773     100.86976890
C      76.45263552      94.61670764      98.90445354
H      77.16506234      94.58080284      96.97126352
H      75.35659426      96.25321063      99.50349678
H      75.38494016      92.85737244      99.01594739
C      77.70174462      93.55090200     103.26972131
H      79.20029758      92.95374847     104.55095576
H      76.84758832      91.73109555     102.82374591
C      75.95185805      95.21953032     104.79095100
H      77.02333287      96.92973265     105.19913188
H      75.46997784      94.25576990     106.54650675
H      74.16039751      95.47464337     103.80829332
C      81.87048086      93.55846089      97.10921354
O      83.24998107      95.38393652      97.10543408
N      81.26765817      92.23565247      94.95303582
H      80.03744634      90.80135021      95.22515641
C      81.89882676      93.16728756      92.42647174
H      82.82857210      95.00410153      92.36600049
C      83.51832221      91.28323041      91.03374344
H      85.29655467      91.31535576      92.07687236
H      84.04555585      92.02022368      89.18370137
C      82.70385017      88.40706697      90.79185847
C      82.26354394      87.42062983      88.39001633
H      82.42983985      88.65651085      86.77430032
C      81.61914726      84.94697809      88.01774024
H      81.26387872      84.35927320      86.09588858
C      81.77221510      83.10071548      90.05486520
O      81.53410958      80.53446715      89.61455898
H      81.30734242      80.16219107      87.85333406
C      82.18039598      84.10793961      92.44536900
H      82.18228571      82.79646955      94.01006238
C      82.68684263      86.67229822      92.83843207
H      82.99864747      87.35259969      94.73571729
C      79.29289417      93.49043076      91.01295645
O      77.31057127      93.11815466      92.31875734
N      79.37415240      94.32568979      88.61678348
H      80.98041977      94.75465765      87.68325868
C      77.07435548      94.39371992      86.95571406
H      75.34903536      94.22175484      88.06498341
C      76.98742807      96.94862990      85.64613372
H      75.33391755      96.99398333      84.41592189
H      78.67495367      97.19618406      84.49151095
C      76.47909169      99.16527887      87.42436618
H      78.11370495      99.29189053      88.66969583
H      74.80290445      98.66072195      88.51095882
C      75.95185805     101.50287031      85.84266526
H      74.48543043     101.32334632      84.40647326
H      77.72064188     101.68617378      84.80331579
C      75.77989296     103.81778506      87.60577991
H      77.46552883     104.07856728      88.75851296
H      74.18307422     103.46629595      88.85866846
N      75.41895523     106.07600799      86.01652008
H      76.57168828     106.20450938      84.50284930
H      75.66650938     107.68038563      87.02185447
H      73.60670770     106.18939158      85.42692546
C      77.05167877      92.16951206      85.13590762
O      78.96786125      91.30212769      84.13813212
N      74.74810239      91.42873934      84.48017259
H      73.42907342      92.45108128      85.40802821
C      74.21519957      90.13994600      82.13502224
H      75.70619363      88.81524785      81.62101668
C      71.68485604      88.62816495      82.33722295
H      70.19953116      90.05490832      82.32399487
H      71.69808412      87.49621888      84.05876362
C      71.24454981      87.03323593      79.93160135
O      69.83670370      87.80991346      78.20817095
O      72.74121305      85.15484799      79.56310472
C      74.50999688      91.94841408      79.82955612
O      74.38338521      94.20663702      79.96750616
N      74.80101473      90.90906460      77.47306742
H      74.57046812      89.02122802      77.31244068
C      74.79534555      92.46619908      75.18082940
H      75.97831422      94.11593017      75.53609795
C      75.95563750      91.09047834      72.90370920
H      75.55690525      92.27344701      71.26531648
C      78.83180095      90.56891387      73.26086747
H      79.61036819      89.72609593      71.54877543
H      79.16250306      89.39350411      74.92004716
H      79.69540588      92.37549223      73.74085795
O      74.87093460      88.65273139      72.39915226
H      75.31313056      88.41462588      70.65682460
C      72.11004446      93.57924789      74.48918957
O      72.08736774      95.44251804      73.18716814
N      70.02567633      92.53422923      75.51720069
H      70.12772156      90.94307969      76.56788852
C      67.51611979      93.75499243      75.80065963
H      67.12116699      94.86048232      74.10935457
C      65.60371676      91.56102018      75.97073500
H      65.47143592      91.04134544      77.96061681
H      66.24244426      89.84136925      75.03343075
C      62.94865129      92.20163741      74.95973143
H      62.19087104      93.84380957      75.94616855
H      61.63340178      90.64639264      75.27909517
C      63.11305748      92.55312650      72.04199399
O      62.44220464      94.56568502      71.12169728
O      63.66485756      90.83536528      70.61336091
C      67.32147798      95.77133041      77.97384489
O      65.37505988      97.02421896      78.26108328
N      69.50222215      96.38360174      79.26452796
H      70.98376757      95.18362552      79.18515946
C      69.68741532      98.61536852      81.02008371
H      68.74633162     100.33312972      80.37946649
H      71.71887111      98.95740897      81.02953233
C      68.85215629      98.10703213      83.81309920
O      69.54190640      99.51487823      85.52708096
N      67.50667116      96.09069415      84.29686914
H      67.15518206      94.91339466      82.83422097
C      66.58826417      95.26488375      86.74973388
H      65.61316539      96.89004839      87.55664703
C      64.69286868      93.17862590      86.31131739
H      63.77446169      92.69107652      88.08954985
H      65.83426337      91.58369691      85.68392825
C      62.78046565      93.80601505      84.26852324
C      61.90552237      91.66306540      82.80209561
H      62.44598409      89.71475757      83.08177511
C      59.94776591      91.88038393      81.09378304
H      59.34494321      90.03979051      80.44749664
C      58.94243151      94.18585004      80.37568703
O      57.16986823      94.45986035      78.59178540
H      56.64263459      96.10392225      78.03053668
C      60.01390633      96.38171200      81.60967831
H      59.45832679      98.24876160      80.99929671
C      61.83371277      96.14927568      83.53719915
H      62.45732245      97.90861087      84.36678901
C      68.78601587      94.28600553      88.46938483
O      70.82692029      93.44129786      87.61711827
N      68.50633638      94.33702813      91.02618453
H      66.79613407      94.82646726      91.71971410
C      70.44708530      93.50554856      92.82898343
H      72.23665612      93.98553904      91.92947372
C      70.25433322      95.14394128      95.24405367
H      71.42596353      94.24254182      96.67835593
H      68.31358429      95.10047757      95.93191404
C      70.93274496      97.94262595      94.99649951
C      69.04679810      99.82668308      94.68847412
H      67.03046013      99.50731934      94.70926112
C      69.78946055     102.27765811      93.91179662
H      68.39295280     103.60613571      93.24472323
C      72.45775410     102.99197466      93.99494458
O      73.27978505     105.30310994      93.16535473
H      71.97587389     106.16860458      92.24694774
C      74.16039751     101.08524081      94.25950626
H      76.10492588     101.46318607      93.77195687
C      73.46308850      98.51710274      94.82831388
H      74.71786677      96.91272510      94.71682003
C      70.81558193      90.64072348      93.38834243
O      69.04868783      89.34626095      93.93636306
N      73.14372475      89.72042676      93.13511910
H      74.68007224      90.85048310      93.04819169
C      73.72198100      87.08992772      93.39401161
H      72.06280130      86.00333510      93.94959114
C      74.54023250      85.90695906      90.80697629
H      75.35281481      84.03990946      91.10933250
C      72.32736298      85.70097889      88.80575612
H      71.03101073      84.26856635      89.52007267
H      73.28734395      85.26823157      87.03508256
H      71.03479019      87.27323119      88.49206154
O      76.12004369      87.62661001      89.44448361
H      77.84347409      87.51889561      90.00006314
C      75.92162243      86.62883451      95.30641463
O      77.31813018      88.35793409      96.09820996
N      76.14838959      84.28935334      96.24371889
H      74.63282909      83.14039973      96.06419489
C      78.17417620      83.38606416      97.83675817
H      79.90327577      84.34037595      97.25094300
C      77.48442609      84.07959372     100.65245038
H      76.51310677      85.89751043     100.61465585
C      75.65139157      82.17663931     101.93557454
H      76.77766845      80.51368016     102.39477804
H      74.09992627      81.68720020     100.67134764
H      74.90494967      82.76623392     103.76105016
C      79.97319565      84.53879721     102.00360468
H      81.24309173      85.72743506     100.90000452
H      80.86892592      82.71521132     102.35131433
C      79.89760659      85.89562069     104.50749206
H      79.24943047      87.84392852     104.34875505
H      81.71363358      85.68019190     105.45613465
H      78.48598104      84.79579999     105.52794426
C      78.45763514      80.54958496      97.61188073
O      76.81546298      79.28346833      96.58009017
N      80.65538684      79.64062660      98.63989185
H      82.12559392      80.81603637      98.96492478
C      81.00876567      77.01957620      99.18413303
H      79.39871885      76.02558017      99.99482561
H      82.68684263      76.74367617     100.35009417
C      81.58513219      75.49834653      96.82008541
O      83.23864271      76.26746514      95.38011395
N      80.29444912      73.49523663      96.35710246
H      79.22297430      72.84139132      97.79518418
C      80.21130116      72.08739052      93.94203223
H      81.95929800      72.63541116      92.99905881
C      80.14894019      69.15075584      94.18958638
H      78.26299333      68.71044961      94.89445430
C      80.63459986      67.92243373      91.52318256
H      80.78388823      65.89853686      91.88601001
H      82.32968436      68.66131673      90.61611393
H      79.00565577      68.03392759      90.26840429
C      82.01787952      67.82983714      96.21159354
H      81.95362882      65.77192519      96.11143804
H      81.53599931      68.58194822      98.06730477
C      84.71073951      68.49880026      95.57475577
H      85.38348208      70.44521837      95.59932222
H      84.94128612      68.01692005      93.58676369
H      86.01465067      67.44055353      96.76906279
C      77.94173986      73.10595302      92.30741898
O      76.12571287      71.84172610      91.44381404
N      78.09291796      75.55881777      91.68569901
H      79.51021270      76.54147545      92.50206078
C      76.41673072      76.98367140      89.84888505
H      76.29767797      75.79503356      88.17269780
H      77.08569384      78.88662580      89.43125552
C      73.65206113      77.34082968      90.70304134
O      71.90217456      77.62239891      89.14401713
N      72.99443637      77.04036319      93.19181089
H      74.53267359      77.13295978      94.31808778
C      70.51322572      77.39185230      94.34076449
H      69.21498375      76.10305895      93.39779105
C      70.86282509      76.51690901      96.94858679
H      72.08169856      77.85294552      97.93124449
H      71.86626976      74.71788955      96.90134364
C      68.41185006      76.32604664      98.40934524
N      66.80558270      74.17931756      98.70225282
H      66.87928202      72.51068922      97.77628693
C      64.87617213      74.79347860     100.30285101
H      63.14896228      73.74279078     100.57875105
N      65.08215230      77.32004270     100.78662094
H      63.77446169      78.08160240     101.94880262
C      67.45564855      78.11561747      99.94758246
H      68.20964935      80.00345405     100.12899619
C      69.43419200      80.06581503      94.06864390
O      70.60204286      81.91396736      94.71304058
N      67.04179849      80.28880273      93.49038764
H      65.94953668      78.74489633      93.22771569
C      65.76434350      82.82481545      93.38078352
H      67.12116699      84.18919784      92.64567999
C      63.71588018      82.70765241      91.24917224
H      62.34771832      81.31114467      91.89923810
H      64.57192619      81.94609271      89.53896993
C      62.39496148      85.15862743      90.71060024
H      61.68820384      85.97120975      92.46426625
C      64.19965011      86.94252908      89.42180690
H      65.62072430      87.84770797      90.60477556
H      63.02613007      88.31447038      88.42781086
H      65.36939070      86.03735018      87.98939435
C      60.28035774      84.37817047      89.04386163
H      59.28636170      82.83615380      89.98116588
H      60.84916536      83.79802449      87.15035587
H      58.82904793      85.82759056      88.87000681
C      64.58704401      83.52401417      95.92624487
O      62.79369373      82.30892016      96.80118814
N      65.51112017      85.76711930      96.89378473
H      67.06825465      86.58537080      96.14923257
C      64.76467828      87.02000785      99.13877960
H      64.14862750      85.53090353     100.42379349
C      67.08715192      88.49966356     100.22348249
H      66.26701070      89.82625143     101.56896764
H      67.86193971      89.92640693      98.95925560
C      69.20364539      86.86694002     101.30818541
H      69.92363111      85.41185076     100.03828933
C      71.37116147      88.60548823     101.99037661
H      70.79857440      89.82247198     103.55318027
H      71.91351292      89.80168499     100.40300649
H      73.09459187      87.59259493     102.48926435
C      68.34004046      85.63294874     103.73459399
H      66.41629908      84.92052193     103.54184190
H      68.11705276      86.87638865     105.36164835
H      69.58725983      84.03046083     104.07474473
C      62.51023479      88.80201977      98.72303980
O      60.63373656      88.45997930      99.97592836
N      62.73889167      90.65395155      96.92024090
H      64.14862750      90.53678852      95.63711674
C      60.56381669      92.27533673      96.08876133
H      58.89896780      91.07158107      95.96970857
C      60.01957551      94.32002060      98.16935000