 %block lattice_cart
   135.996   0.000   0.000
   0.000 142.663   0.000
   0.000   0.000   160.158
 %endblock lattice_cart

 %block positions_abs
N      90.12197081      42.29491034      79.99207259
H      89.09962888      40.99288891      79.04154026
H      90.10685301      41.81303013      81.84022493
H      91.84729094      41.91885480      79.27397659
C      89.12986451      44.77423126      79.39491908
H      90.14275781      46.09892942      80.60623365
C      89.25080698      45.54712933      76.61324194
H      88.09618421      44.29990996      75.44728080
H      91.22368126      45.41862794      76.03309597
C      88.30216438      48.12093656      75.78365209
H      86.24803188      48.17951808      75.93483020
H      88.83695693      48.75588460      73.89959495
S      89.38875701      50.67962599      77.84156404
C      87.87508623      53.17595445      76.31844463
H      85.83985098      53.17028527      76.63780838
H      88.21334724      53.28177912      74.29076831
H      88.77837540      54.92395129      76.92693651
C      86.36897436      44.84604086      80.30954662
O      84.80995015      43.32103173      79.47050812
N      85.66410645      46.61293496      81.93849069
H      86.79416278      48.09070094      82.36745856
C      83.04116631      47.02678504      82.81721343
H      81.77504968      45.77578621      81.78164342
C      82.87109095      46.41640343      85.66125153
H      84.13342812      47.73354267      86.62123250
H      83.63831984      44.55502302      86.10344749
C      80.36531386      46.76222334      86.67225511
O      79.67367402      48.56691197      87.92325392
N      78.70802389      45.08036692      86.06943241
H      76.85987155      45.44319438      86.38312699
H      79.21069109      43.54023998      85.06031857
C      82.28149634      49.89538957      82.27486197
O      83.90855070      51.55456927      81.82321738
N      79.90611037      50.42640266      82.28431061
H      78.63621428      49.02233601      82.53564420
C      78.86676089      53.04178389      81.96494687
H      79.25415478      53.65594493      80.03742603
C      75.91689812      52.88682633      81.80432013
H      75.58619602      51.59425352      80.23395756
C      74.82841577      51.85692549      84.25907460
H      75.48981998      49.99554507      84.84488977
H      72.85365176      51.46197268      83.82443756
H      75.18179459      52.94162839      85.97305637
C      74.56952326      55.47575138      81.12212892
H      75.32352406      56.85525159      82.45438597
H      72.56074419      55.12615200      81.40936733
C      74.94557880      56.28833369      78.41037166
H      76.96758594      56.61903580      78.19683260
H      74.01772318      58.11758876      78.23651684
H      73.91378822      55.17528490      77.01953310
C      79.89288229      54.94851773      83.83199647
O      80.19901795      57.18217424      83.13090800
N      80.36909332      54.30223134      86.15258037
H      80.07429601      52.59013930      86.94248597
C      81.83930039      55.87448362      87.84766487
H      80.60908855      57.50153798      88.14435190
C      82.22669427      54.72741975      90.59154748
H      83.17722661      56.10880970      91.78963396
H      83.51359790      53.13060103      90.39312621
C      79.77382952      53.98097786      92.02773948
C      77.56662919      55.54567124      92.03340866
H      77.39655383      57.38626467      91.17547292
C      75.33108297      54.87292868      93.40723968
H      73.77016903      56.18250901      93.53007189
C      75.24037610      52.53911668      94.63178233
H      73.50749708      52.05723647      95.59554275
C      77.23025791      50.80245820      94.58075972
H      77.20947091      49.02233601      95.57664549
C      79.42800960      51.59614326      93.16913417
H      80.80373037      50.08625193      93.21070815
C      84.40743844      56.79100089      86.84610992
O      84.95734881      58.95284779      87.14846613
N      85.96457292      55.18284379      85.67070016
H      85.24647692      53.48020039      85.20204804
C      88.44767330      55.90093979      84.58977671
H      89.71378993      56.87603857      85.88612896
C      89.76481255      53.60870178      83.55987588
H      91.46556623      54.18695804      82.55076202
H      88.58751305      52.44274065      82.33722294
C      90.60763048      52.08747209      85.87857005
H      89.04860627      51.46575214      87.07098736
H      91.83595259      53.23642569      87.07098736
C      92.04004303      49.73476283      84.87134593
O      90.79093392      47.82991871      84.21939036
O      94.27558925      49.75554983      84.17214719
C      87.99035954      57.84735790      82.49973940
O      89.47946387      59.64070816      82.19549347
N      85.76615166      57.64137773      81.33755772
H      84.52271175      56.28266451      81.83833520
C      85.23702830      59.16071768      79.05098888
H      86.84896485      59.21174029      77.76975445
C      83.03927660      57.88893187      77.64881196
H      81.25348522      58.27443605      78.60123402
H      83.31895608      55.85369663      77.79999007
C      82.77471490      58.46340867      74.83689922
H      84.24870144      57.37492633      73.89392578
H      82.85786287      60.49108501      74.47596148
S      79.73981446      57.27855028      73.80132919
C      80.47113853      56.98375298      70.48108005
H      81.51615718      58.65238130      69.87447791
H      78.80439993      56.56990292      69.34157509
H      81.87898463      55.50787673      70.19573139
C      84.61719806      61.95184346      79.58011226
O      85.54694342      63.67716357      78.47273263
N      82.97880535      62.43183394      81.50007419
H      82.40243882      60.90871452      82.49595996
C      82.18701003      64.93572129      82.27297225
H      81.88843327      66.10924133      80.60623365
C      79.71902747      64.70139523      83.63924438
H      79.27872124      66.53820921      84.46505477
H      79.80217541      63.29921832      85.14535625
C      77.54584221      64.04754993      81.82699684
H      78.12031900      62.45262093      80.65725625
C      75.13077198      63.11213541      83.13846691
H      73.72292588      62.67938808      81.70038517
H      74.37299172      64.51431233      84.44426778
H      75.75249193      61.47374269      84.21939036
C      76.82963592      66.13569750      80.01096985
H      76.17201117      67.77597994      81.06921660
H      75.30273707      65.42138096      78.82800119
H      78.43023411      66.52498112      78.77319913
C      84.16555347      66.44372289      83.59389094
O      84.48491723      68.59423144      83.12334909
N      85.49970025      65.12658366      85.27385763
H      85.39765504      63.22740871      85.12078981
C      87.92610884      65.93727624      86.25084614
H      87.84107116      67.80432584      87.11445106
C      88.95034051      63.89070265      88.18214643
H      90.88919970      64.38959039      88.66780610
H      89.14120286      62.12758799      87.13523806
C      87.24580736      63.75464236      90.60477556
H      85.40899339      63.22551898      89.83754668
H      86.93589225      65.56122070      91.54396954
C      88.16799381      61.74586328      92.54552449
H      90.19189069      62.04444003      92.77796082
H      88.14342737      59.95629247      91.52696201
N      87.01904021      61.89515167      95.04374268
H      85.74536467      60.52887954      95.43491602
C      87.35163203      63.33512312      96.98449159
N      88.92010487      65.14170146      96.99582996
H      89.20734327      66.13380779      98.60209733
H      89.95567490      65.45539603      95.42357766
N      85.95323457      62.91560386      99.00838848
H      86.24425243      64.23274310     100.35954279
H      84.58885216      61.60791326      99.29562687
C      89.97835162      66.71206403      84.44993696
O      91.98902041      67.59456622      85.27196792
N      89.67977486      66.52498112      82.03108728
H      88.04516159      65.81822349      81.34322690
C      91.39753608      67.80621556      80.15647879
H      92.47845953      69.21406167      81.19960770
C      93.39686651      65.93727624      78.91492859
H      94.71211603      65.23051861      80.33600279
C      92.28381771      63.65070740      77.55432564
H      91.26903469      62.41293667      78.84878817
H      93.83717275      62.44884147      76.93071597
H      90.93455313      64.11369036      76.06711105
C      95.30737981      67.31677645      77.23496190
H      95.67209700      69.28965073      77.69038595
H      94.80093317      67.44905729      75.24130064
C      97.98512200      66.12246942      77.55243592
H      98.21566861      64.12502871      77.10835024
H      98.59172415      66.49663523      79.48373621
H      99.10572971      67.10134765      76.12569256
C      90.17110369      69.75263367      78.32722372
O      91.13108467      71.81054562      77.84723322
N      87.80138691      69.20839249      77.51842084
H      86.95478952      67.55677169      77.96628598
C      86.33873873      71.05843455      76.06900076
H      87.40076493      71.70094149      74.42682860
C      83.87642535      69.89247341      75.09768144
H      82.85219369      71.44582844      74.21328952
H      82.78605326      69.07989111      76.64536729
C      84.22224526      67.67204499      73.03599003
O      86.09118459      67.52653607      71.62058502
O      82.42889500      66.17349203      72.93016536
C      85.46568518      73.29020132      77.62613525
O      85.60552492      75.44826877      76.76442004
N      84.66255150      73.12957459      80.00341095
H      84.32240076      71.37401884      80.67048433
C      84.07862607      75.20638380      81.75329751
H      83.68556299      76.92225530      80.68182269
C      81.66544556      74.56576658      83.27641692
H      80.98892355      76.20793876      84.31387668
H      82.29661416      73.33744448      84.80331578
C      79.38832536      73.11634650      82.15958867
H      78.28850465      72.38691215      83.73939988
H      80.08941382      71.32866541      81.41314678
C      77.94646418      74.56954604      80.28309044
O      75.91689812      73.60767534      79.57444308
O      78.81573829      76.65202444      79.51964102
C      86.19700926      75.83944212      83.52208135
O      86.27826749      77.96349450      84.41025271
N      87.88264514      74.11979117      83.90191633
H      87.68044442      72.56454642      82.81532370
C      89.91410092      74.37868368      85.82376799
H      90.37708387      76.35722713      85.49306588
H      91.72445873      73.45460751      85.48550699
C      88.96734804      74.54120014      88.61300404
O      86.73180181      74.21427749      89.23094453
N      90.80227229      75.03441872      90.40068512
H      92.59751228      75.28197287      89.80353161
C      90.55282841      75.41236397      93.13322937
H      88.58940277      75.13268448      93.68880891
C      91.94744644      73.42626162      94.76973236
H      93.96567414      73.71727947      94.45981724
H      91.45611759      71.51952778      94.16690966
C      91.53926555      73.78341989      97.56463757
H      91.93043890      75.74117635      98.07297395
C      88.87286173      73.35823147      98.49249319
H      88.27192876      71.53464558      97.74605130
H      87.48769233      74.66781181      97.70825677
H      88.97490695      73.43382052     100.54662570
C      93.08128222      71.77086137      98.96681451
H      92.33861978      69.88680423      98.58320005
H      93.11907675      72.00329770     101.01338809
H      95.04281814      71.79353808      98.33753563
C      91.05171617      78.10900342      93.86455345
O      93.21167334      78.81198161      93.74739042
N      89.14687204      79.56409268      94.78107071
H      87.33651423      78.98205698      94.60532618
C      89.33395495      82.12467184      95.75994895
H      91.29927030      82.55363971      96.20214490
C      88.22090615      83.91613238      93.82675892
H      87.43100055      85.56397373      94.77918100
H      86.63164632      82.87489318      93.03118415
C      89.92165983      84.42446877      91.60822024
H      90.40354003      82.69536918      90.59154748
H      91.63753132      85.36744219      92.24505801
C      88.65554320      86.10065600      89.56353637
H      90.01614614      87.00583491      88.31064783
H      87.73146703      87.57653225      90.66335709
N      86.70912509      84.65501537      88.06498340
H      85.96646266      83.04874800      88.78307940
C      86.00803663      85.09154215      85.69904605
N      86.94156143      86.87166433      84.27041296
H      86.47479904      87.13055685      82.43737844
H      87.61619373      88.42879883      85.14346652
N      84.54727820      83.37756038      84.63513015
H      83.52493626      83.30197133      83.02319359
H      84.30161377      81.85444097      85.76140702
C      87.72390813      82.18325335      98.30352056
O      85.35797078      82.04152388      98.38477880
N      89.14687204      82.60088287     100.32552773
H      91.03281889      82.68970000     100.04017905
C      88.29838492      82.27773967     103.02216716
H      86.77526552      80.91902645     103.30562611
C      90.42810647      81.18358813     104.68323659
H      89.88197558      81.51429024     106.64099305
H      92.16287524      82.23994514     104.33930641
C      90.77014694      78.32065277     104.09553171
H      90.68699899      77.83121365     102.09809101
C      93.40631515      77.60444650     104.87409895
H      94.05071181      75.72038936     104.35442421
H      93.73134807      77.98428148     106.87153967
H      94.55526875      79.06520494     103.98781732
C      88.90309734      76.65202444     105.52983398
H      89.04293709      74.68103989     104.95157774
H      87.03604774      77.41358415     105.10464556
H      89.33773440      76.78052582     107.54050279
C      87.45178753      84.85154692     104.19190776
O      86.30661338      85.06130653     106.20635601
N      87.94122665      86.95103285     102.86343016
H      89.18088711      86.77528829     101.42534844
C      86.73936072      89.43413322     103.37365626
H      85.56584068      89.27728593     105.05929213
C      88.61585895      91.77172466     103.67601247
H      87.61430400      93.57074411     103.66845356
H      89.88575503      91.89077742     102.05840674
C      89.98591052      91.40133831     106.12509778
H      91.51469911      90.12766277     105.59597440
H      88.90876653      90.52828476     107.64821718
C      91.33328539      93.80884964     107.20791096
H      92.66932189      93.43468382     108.73103036
H      89.84040160      94.98236968     107.99970627
C      92.48034925      95.47180880     105.15377845
H      91.08195179      95.59275127     103.64766658
H      94.09228580      94.35309081     104.52449959
N      93.34773363      97.80184133     106.24037107
H      93.96189469      97.63176596     108.03750080
H      92.04382248      99.17378263     106.48225604
H      94.77258728      98.64276954     105.28794901
C      85.03104813      90.05018399     101.14377921
O      85.62631192      89.64956202      98.97248369
N      82.64621353      90.83442041     101.73715327
H      82.16244359      90.88922248     103.58152615
C      80.62042691      91.55629586     100.13277564
H      79.67745349      89.84042437      99.49026869
C      78.63621428      93.07374609     101.67290259
H      78.41511630      91.75660686     103.24515487
C      79.50548839      95.46802933     102.96169593
H      77.98425871      96.29383973     104.08041391
H      79.89477200      96.95524394     101.59353407
H      81.24781605      95.08252516     103.98970705
C      76.13421665      93.56507494     100.32552773
H      75.64099807      91.84164454      99.31074469
H      76.47814684      95.05795872      98.94791723
C      73.77016903      94.26805312     101.92423618
H      72.04484891      94.45324630     100.81307711
H      74.19346773      96.03305750     102.89366578
H      73.53962241      92.73359536     103.27728022
C      81.41600170      92.88477346      97.64400609
O      83.09974784      94.43245931      97.75549994
N      80.40877757      92.31407612      95.56908660
H      78.81006910      91.27094719      95.52373316
C      81.09474822      93.45736055      93.12944993
H      81.68056337      95.42645535      93.29763556
C      83.34163281      91.81518837      92.01262166
H      84.75325836      91.51850134      93.48282874
H      84.19956855      92.81107414      90.42714129
C      82.44401280      89.22626332      91.07153797
C      81.74670380      88.86721532      88.55253280
H      82.12464905      90.36009911      87.21271683
C      80.70924404      86.45214509      87.71727375
H      80.20279740      86.17624505      85.75951729
C      80.40310838      84.44525575      89.49361649
O      79.93823571      82.09065676      88.48450264
H      79.05573352      82.22293760      86.90469144
C      81.28372085      84.79296539      92.07120319
H      80.94168039      83.24905899      93.36188626
C      82.15110523      87.20992534      92.83087316
H      82.52716076      87.52173019      94.81319606
C      78.84786364      93.69546605      91.37011472
O      76.79751058      92.80729468      92.10521825
N      79.02927736      94.98614912      89.19315002
H      80.64688309      95.83274651      88.63757048
C      76.92790170      95.13354778      87.35066686
H      75.26494254      94.21325106      88.14624163
C      76.13043720      97.84341532      86.43603932
H      74.77361371      97.48436732      84.92803772
H      77.82741143      98.62198255      85.56487549
C      74.94179934      99.45724158      88.38245742
H      76.13043720      99.73881080      90.04352685
H      73.06341138      98.67300516      88.70182116
C      74.52228010     102.06128444      87.23161409
H      74.21803417     101.98191593      85.19637885
H      76.12665775     103.30661408      87.57743401
C      72.33397704     103.14031816      88.77741022
H      73.16923607     103.33684970      90.64823927
H      70.69180486     101.89687825      88.69993145
N      71.48171046     105.62908772      87.89679775
H      70.51039113     106.78748995      89.06275890
H      70.18724794     105.44956372      86.50595920
H      72.85554150     106.64953993      87.05020038
C      77.55529083      93.46680917      85.01118567
O      79.62832059      93.55373658      84.12490404
N      75.61643163      92.30462748      83.91892388
H      73.89300124      92.32541447      84.73528563
C      75.41990010      91.41834584      81.31866046
H      76.92034280      90.08230934      80.87079533
C      72.82530587      90.20136211      81.13535701
H      71.46659265      91.74337877      81.28275566
H      72.62877434      88.71603722      82.54887229
C      72.50594212      88.86721532      78.58989567
O      73.03317577      86.49938825      78.38958467
O      72.03917972      90.17112648      76.61891112
C      75.67123370      93.77294483      79.54420745
O      75.30462679      95.98770407      80.24340619
N      76.65200165      93.28917489      77.26141807
H      76.83719483      91.48448627      76.66804400
C      77.18490447      95.10520188      75.32822805
H      78.33952726      96.68690280      75.96506582
C      78.61731703      93.88821813      73.10024072
H      78.41133686      95.23559300      71.55822405
C      81.31395647      93.33452833      73.54243668
H      81.63143050      91.60731848      74.61958069
H      82.28338607      95.01071556      74.24541487
H      81.99614766      92.89233237      71.64893093
O      77.60631345      91.71503287      72.09301661
H      75.82997070      91.93991031      71.79821929
C      74.73015000      96.15399998      74.30399639
O      74.93990962      98.15899960      73.09457154
N      72.51350103      95.13354778      74.81611222
H      72.46247841      93.35531531      75.50964177
C      70.04173901      96.42990003      74.42115942
H      70.00772394      97.64121459      72.75631053
C      68.01406268      94.47781274      74.08856760
H      66.19425624      95.41700672      74.30777584
H      68.26350656      93.10965090      75.60790755
C      67.98004761      92.89422209      71.74530696
H      66.40779532      91.57708286      71.92105150
H      69.55418962      91.56574450      71.74341723
C      67.79107498      94.31340656      69.19039698
O      68.87766760      93.21925502      67.33090629
O      66.54385561      96.37698769      69.05055724
C      69.38600399      98.27238318      76.47907138
O      67.60021262      99.87676082      76.14836927
N      70.65590006      98.15144070      78.61635184
H      72.02217219      96.83430146      78.83178064
C      70.26094726      99.75959779      80.86890560
H      68.76806348     101.10130347      80.40592265
H      71.95414204     100.84052124      81.31866046
C      69.32364302      98.56718049      83.32366009
O      68.95514639      99.89754781      85.29464463
N      69.03073543      96.02549859      83.45216147
H      69.15356765      95.09575325      81.79109204
C      67.70225784      94.63843948      85.61778782
H      66.36811106      96.04061641      86.32076602
C      65.91079730      92.55596108      84.63135069
H      64.41035460      92.22525898      86.00518172
H      67.26006188      91.00638551      84.48584177
C      64.71837999      93.22303447      82.05943317
C      64.16280045      91.19913759      80.54765212
H      64.74294644      89.28484484      80.95016383
C      62.95526534      91.58653149      78.20817095
H      62.61511461      90.18435456      76.76442004
C      61.92914396      93.89955649      77.62613525
O      60.92947874      94.18679489      75.31122052
H      60.41925263      95.89132804      74.97484923
C      62.04819671      95.84030542      79.37791155
H      61.12412055      97.55806663      78.77697858
C      63.65257435      95.60031017      81.45850022
H      63.78485520      97.15366520      82.77563946
C      69.39356288      93.85609279      87.82498815
O      71.35887826      92.52194601      87.45838125
N      68.49405316      94.43623877      90.06053438
H      66.77062277      95.22236491      90.29486045
C      69.80363350      93.74270921      92.50584023
H      71.58564542      94.74426415      92.26017581
C      68.30697026      95.11654024      94.59020836
H      68.00083460      93.83719552      96.17757846
H      66.40968503      95.46047043      93.86644318
C      69.53151290      97.50326457      95.41979822
C      68.21626339      99.85219438      95.04941186
H      66.33787544     100.11297661      94.29919050
C      69.55796908     102.09529951      95.53507151
H      68.60176757     103.85463471      95.14389816
C      72.04862836     102.04616663      96.52339837
O      73.24104567     104.19856490      97.12622108
H      72.23004209     105.69333841      96.94858679
C      73.20325114      99.63298613      97.00716832
H      75.08730826      99.51582310      97.78384583
C      71.98815712      97.44090360      96.25505725
H      73.14466961      95.76660610      96.38544835
C      70.04362873      90.94780400      92.85543961
O      68.13122571      89.56074488      92.46237654
N      72.28106469      90.12577305      93.46015202
H      73.75694094      91.33708762      93.43558558
C      73.17301552      87.37244181      93.38267324
H      71.58375568      86.09498682      93.67180138
C      74.16134238      86.78851638      90.75406394
H      75.92445703      87.85054256      90.81453518
C      74.70180411      83.95770636      90.20226386
H      75.24793501      83.74416729      88.22561013
H      72.97459425      82.93725415      90.66524680
H      76.19846735      83.17724939      91.38334280
O      72.58909009      87.58409115      88.69048281
H      72.14689413      89.34153663      88.59410676
C      75.11754389      86.86977461      95.35365780
O      76.69546537      88.45714471      95.96214966
N      75.24793501      84.49060918      96.17568873
H      73.92701632      83.37000148      95.37255505
C      77.30395724      83.61566591      97.78195610
H      78.98581366      84.78162703      97.53251223
C      76.21169543      84.13156118     100.50127226
H      75.34998022      86.00239023     100.44269076
C      74.11220950      82.35332872     101.28739841
H      74.75471644      80.48438940     101.87510330
H      72.68357640      82.06420059      99.83230916
H      73.08986756      83.10921925     102.90689387
C      78.33196835      84.20715024     102.52705887
H      79.86642611      85.30130177     101.69935874
H      79.10675614      82.31742392     102.80295892
C      77.59119563      85.32775794     104.99126198
H      76.40444751      86.98882737     104.73236948
H      79.25793425      85.67735731     106.15155395
H      76.46491876      84.02195706     106.11564914
C      78.01827378      80.96249015      97.28117862
O      76.77105442      79.51495980      95.95648049
N      80.20279740      80.04975234      98.21092398
H      81.38009690      81.36878131      98.93090971
C      80.96435711      77.42681222      98.17123972
H      79.42423016      76.32699151      98.98760149
H      82.65377242      77.21705260      99.33153167
C      81.75615243      76.46494153      95.50672563
O      83.32462527      77.61011567      94.12911513
N      80.63176527      74.35600696      94.83965224
H      79.45257606      73.53775547      96.09820996
C      80.88876805      73.09933897      92.41324364
H      82.48558679      73.86467812      91.36255581
C      81.08907903      70.16837345      92.74583547
H      79.39588427      69.24807674      93.47715956
C      81.60686405      69.07233220      90.06242411
H      81.91488943      67.03898668      89.93581246
H      83.21502115      70.13057893      89.33487949
H      79.97414052      69.50318979      88.88323490
C      83.30005883      69.26319455      94.39934600
H      85.10096800      69.89436314      93.62455821
H      83.07329166      67.21662095      94.32564668
C      83.18856497      69.63358091      97.39456220
H      81.21002153      69.32933497      97.88400132
H      83.84430001      71.49874078      97.97281847
H      84.60585971      68.42037661      98.26572604
C      78.40944713      74.05365075      90.90146259
O      76.71058318      72.44549367      90.50084062
N      78.28283547      76.49706688      90.05864467
H      79.58863634      77.85200064      90.36855977
C      76.16823171      77.17169918      88.40324442
H      76.05484814      75.63535168      87.03697229
H      76.58964069      78.92725491      87.40924838
C      73.60387311      77.34744372      89.74683982
O      71.81997148      78.05798081      88.46560537
N      73.31852444      76.98461627      92.29986007
H      74.99282196      76.97894709      93.21637734
C      70.86188024      77.35689235      93.73794179
H      69.41623961      76.06620928      93.04063278
C      71.08675766      76.62178881      96.64623058
H      71.99949548      78.20160001      97.60243210
H      72.19791674      74.89079951      96.78984979
C      68.64523127      76.39124220      98.13344519
N      66.89345497      74.39191176      97.96336983
H      67.34132012      72.84422591      96.94102790
C      64.82987385      75.03252898      99.29373716
H      63.06297974      74.01774595      99.16712549
N      65.06419991      77.33421563     100.22726196
H      63.67336134      78.35844729     101.03984426
C      67.44147560      78.27718906      99.56396802
H      68.32208807      80.05542152     100.03639959
C      69.77150815      79.99117083      93.45448285
O      70.84109324      81.69759369      94.59776727
N      67.74761127      80.29352704      92.14490251
H      66.77062277      78.67781104      91.86333330
C      66.32653709      82.67269247      91.79341342
H      67.66635304      84.08809748      91.12822975
C      64.37256007      82.42891777      89.60511034
H      63.38801267      80.73383327      90.23627894
H      65.54419039      81.95837592      87.97616627
C      62.75495435      84.69092017      89.01551573
H      61.79308366      85.25972779      90.74650503
C      64.05319633      87.12299794      88.21616151
H      62.59432762      88.45903445      87.64357444
H      65.16813486      86.82442118      86.51162838
H      65.12467115      88.00738985      89.73739118
C      60.82743352      84.20148105      86.94248597
H      61.95371040      84.04652350      85.22283502
H      59.58588333      85.82475596      86.69115238
H      59.88446009      82.39112325      87.21649629
C      65.06231018      83.47960560      94.27840351
O      63.93603330      81.96782455      95.68058045
N      65.20970884      85.88711693      94.76217345
H      66.30008091      86.90567941      93.57164588
C      63.71493532      87.22504316      96.61977443
H      63.00250850      85.96270598      98.08242259
C      65.44970407      89.20358660      97.81975062
H      64.28752239      90.30907650      99.11043370
H      66.02985005      90.61710189      96.44025043
C      67.86099485      87.86943983      99.19169193
H      69.06097106      86.68458143      98.00872327
C      69.70158828      89.98971275     100.24237976
H      68.61121619      91.30685199     101.38944363
H      70.37622057      91.06118757      98.61910486
H      71.34942962      89.20925578     101.20425045
C      67.13533994      86.34632042     101.60487244
H      65.85410551      87.44047195     102.79162055
H      68.75105595      85.72460046     102.72170069
H      66.09221102      84.63800783     101.11165386
C      61.43592539      88.53273376      95.56530713
O      59.39313124      87.88455765      96.49694222
N      61.75717886      90.23726690      93.77762604
H      63.57320585      90.42246008      93.22393623
C      59.70871554      92.08541923      92.99527935
H      58.09110981      91.01205469      92.30174979
C      58.92069967      93.84853388      95.15901598