 %block lattice_cart
   135.996   0.000   0.000
   0.000 142.663   0.000
   0.000   0.000   160.158
 %endblock lattice_cart

 %block positions_abs
N      87.63509098      40.62628200      83.39924914
H      87.27037381      38.83671118      82.84744905
H      86.73747099      40.82281355      85.07165692
H      89.50214058      40.93241767      83.65247246
C      86.69967646      42.56892065      81.72873107
H      87.18155667      44.42274217      82.48273187
C      88.04516159      42.62750218      79.08689369
H      87.22502037      41.30658347      77.73384965
H      89.95000572      41.86216301      79.25318961
C      88.12264037      45.22587585      77.76597500
H      86.21212707      45.46398136      77.03087146
H      89.40198509      45.26556011      76.15025900
S      88.75380896      48.15873108      79.48751567
C      89.75914336      50.36215198      76.94583377
H      89.81016597      52.27266527      77.70739348
H      88.54404934      50.31490881      75.28287461
H      91.72256900      49.83680806      76.60757277
C      83.78571849      42.48199324      81.45283104
O      82.99581289      40.66974572      80.23773702
N      82.39865937      44.45108806      82.29942842
H      83.44556775      45.97609719      82.77563945
C      79.72847609      44.63250179      82.51674695
H      79.06518216      43.75755851      80.77441929
C      78.78550266      43.37961325      85.02063431
H      79.82107268      41.62405750      85.31165216
H      76.87120991      42.61805354      84.97150142
C      79.18234519      45.03501350      87.32987987
O      77.41923054      46.15373148      88.16513889
N      81.47269348      45.15784570      88.27663275
H      82.02449356      45.89861842      89.94526108
H      82.90888548      44.42841135      87.25429082
C      78.89321706      47.31969261      82.37123802
O      80.37476249      49.10737369      81.98573386
N      76.40822696      47.91306667      82.68682232
H      75.20447130      46.44285960      82.86067714
C      75.49548915      50.39238760      82.32777431
H      76.34397626      50.86481917      80.50985761
C      72.55696473      50.25254784      82.27486198
H      71.87099408      48.95241615      80.83300080
C      71.21147960      49.19430110      84.69371166
H      69.17435463      49.41161963      84.48773148
H      71.57430705      50.26388621      86.41714205
H      71.83697901      47.24599328      84.92425827
C      71.27762002      52.72619959      81.77030506
H      71.24738440      53.86192510      83.48806627
H      69.26506150      52.37282077      81.52275091
C      72.08642288      54.10947925      79.39680881
H      74.11220949      54.47419643      79.50830266
H      71.07919876      55.89905006      79.23051289
H      71.72548516      53.12682157      77.62235580
C      76.27027694      52.27455500      84.27797186
O      76.44224203      54.52143958      83.71672315
N      77.01293938      51.57346653      86.53430508
H      76.71625235      49.70641695      86.80264623
C      77.96536144      53.10603457      88.57143006
H      77.11309487      54.98064308      88.60544513
C      77.94646418      51.80023370      91.17736264
H      78.97636502      53.15894692      92.33009569
H      78.87243007      49.96153000      91.15279620
C      75.43690763      51.35614802      92.46615599
C      74.62999450      53.13060101      94.35966174
H      75.77138919      54.78033210      94.73382756
C      72.47003732      52.63360300      95.76939757
H      72.12799686      53.92806552      97.30952453
C      70.72393021      50.84214246      94.92657965
H      68.83798335      50.66072872      95.68435990
C      71.43446730      49.17351412      92.97827181
H      70.20992465      47.63338717      92.43592037
C      73.78339711      49.45508335      91.78018533
H      74.45424995      48.38360852      90.17769741
C      80.52783032      53.90160936      87.98372517
O      81.18734480      56.11258915      88.11600601
N      82.14543605      52.25187829      86.85555856
H      81.84874901      50.36593142      86.91414008
C      84.75136863      52.89249550      86.21494134
H      85.65654754      53.79200522      87.83254706
C      86.21968598      50.29979101      85.75573784
H      87.96579309      51.13693976      85.05653910
H      85.25592556      49.16406548      84.33088421
C      86.68266892      48.71809008      88.04797586
H      84.86475221      48.39305715      88.96638286
H      88.01114652      49.78956489      89.20070892
C      87.78059991      46.14239312      87.25996000
O      86.22913461      44.42085244      86.60422496
O      90.18811123      45.85326498      87.24673191
C      84.74758918      54.46096834      83.74884850
O      86.58440315      55.84046856      83.44271284
N      82.86164232      54.15483269      82.12746333
H      81.64654830      52.87359824      82.84744905
C      82.28716552      55.64771647      79.79365132
H      84.07295688      55.46063356      78.78453748
C      80.27271727      54.25309845      78.14203053
H      78.42456494      54.78411155      78.88091352
H      80.41066729      52.21786321      78.43304839
C      80.39743921      54.94284855      75.42838355
H      82.06795727      54.09436143      74.57422725
H      80.66578034      56.97052489      75.19027802
S      77.51182713      53.89594017      73.66715862
C      78.33385807      53.85625592      70.53210266
H      80.06673710      52.79045029      70.20518002
H      78.65322182      55.80078429      69.93683888
H      76.65389138      53.24020515      69.51165046
C      81.72024763      58.43128332      80.45694527
O      83.39832459      60.03755069      80.13191234
N      79.68690211      58.91694299      81.81187903
H      78.46991837      57.48075099      82.11612496
C      78.87243007      61.31500569      82.56021064
H      78.43968275      62.44317229      80.89347205
C      76.30051256      61.37169748      84.01152046
H      76.01138443      63.22551898      84.85811785
H      76.29484338      59.79566573      85.33810833
C      74.05551770      61.17327620      82.04053592
H      74.49960338      59.74275339      80.62891036
C      71.62721939      60.19817742      83.28586556
H      70.17590958      60.25864868      81.82510712
H      71.19069261      61.15248922      85.05653910
H      71.90689888      58.20640590      83.72995124
C      73.58686557      63.70739919      80.85945697
H      75.07030073      64.26486845      79.54420746
H      73.42056966      65.07745078      82.39013528
H      71.90122970      63.56566971      79.68215747
C      80.87553996      62.75119768      84.12868349
O      81.22891878      64.99808226      83.90947524
N      82.14732577      61.48697078      85.85022417
H      81.70890927      59.65015680      86.13557284
C      84.19578910      62.50931271      87.41302783
H      83.48336228      64.08723418      88.52796635
C      85.18033650      60.18305962      88.92480887
H      85.84929962      58.69395529      87.66814088
H      83.58540750      59.50842732      90.03596795
C      87.35352176      60.64037339      90.73516668
H      86.55227781      61.97263043      92.08821072
H      88.84451583      61.66082560      89.74495010
C      88.32106164      58.42561414      92.18836622
H      89.73268719      59.00764985      93.56975614
H      89.12797477      57.09902627      90.83343244
N      86.16488391      57.05367284      93.51684382
H      85.72457768      55.45874383      92.56442175
C      85.21246185      57.41083111      95.77128731
N      86.09307431      58.99064232      97.37566494
H      85.16143924      59.09646699      99.03673438
H      87.38753684      60.30022265      96.87488748
N      83.45123693      55.95952130      96.62355387
H      82.73125120      56.21463436      98.37155071
H      83.00337179      54.27955461      95.83742772
C      86.47101958      63.60346424      85.97872555
O      87.38186766      65.60846387      86.75540307
N      87.13242379      62.53954834      83.75262796
H      86.11575103      61.23941663      82.79264699
C      89.22813027      63.77731907      82.14258114
H      90.17866260      65.25886449      83.21216623
C      91.44855868      62.01420441      81.33377828
H      91.97957178      60.88603781      82.97217099
C      90.39787085      60.02810206      79.57066363
H      88.49869591      59.57834720      80.23017811
H      91.73390736      58.47285731      79.39491908
H      90.42054757      60.52698980      77.57322291
C      93.78048095      63.45606559      80.45505553
H      94.42487763      64.59935001      82.04053592
H      93.50836037      64.39903902      78.64469773
C      95.98201211      61.54555229      79.89380682
H      95.28470310      60.10747056      78.59178540
H      96.78325607      60.62525557      81.55298653
H      97.43143219      62.53576888      78.81855255
C      87.93744719      65.42705014      79.87113011
O      89.23568917      67.01064078      78.66359499
N      85.45245709      65.24563641      79.54420746
H      84.44145352      63.95873280      80.52875487
C      84.04650072      66.95772845      77.98140380
H      85.43167010      67.60590457      76.60190359
C      81.55962089      65.91459952      76.86457555
H      80.40499811      67.39425522      76.01419870
H      80.79995091      64.85068361      78.45572510
C      82.20212783      64.14770542      74.79154578
O      83.52493625      65.00186172      73.05488730
O      81.29127975      61.97263043      74.76319989
C      83.39076569      69.47295417      79.36657319
O      83.47958282      71.46850516      78.05132366
N      82.75014847      69.49374117      81.84778383
H      82.70857449      67.87991489      82.86067714
C      82.06228809      71.81999425      83.22350459
H      81.16844754      73.14091294      81.91959343
C      79.97225079      71.27764280      85.26062956
H      79.91177954      72.92359442      86.49462084
H      80.75648721      69.69594188      86.32265573
C      77.36820793      70.48584747      84.51985683
H      76.00949471      70.28553648      86.05431461
H      77.48537096      68.66604103      83.56554505
C      76.37799134      72.54186970      82.57910792
O      76.84475374      74.89079951      82.88146413
O      75.18935349      71.93526755      80.69883024
C      84.31295213      73.16358966      84.40458354
O      84.14098703      75.37834890      85.05464939
N      86.33684901      71.86912713      85.03386239
H      86.31228257      69.98507000      84.73339591
C      88.34562808      72.60612040      86.86500720
H      88.92955351      74.51663370      86.36989890
H      89.96134408      71.33244486      86.73839553
C      87.58973755      72.36234570      89.57865417
O      85.65843726      71.20016402      90.27029400
N      88.93900214      73.78341989      91.22271607
H      90.42243730      74.67348098      90.41958238
C      88.11130202      74.23506448      93.79652331
H      86.07228732      74.01774595      93.97037813
C      89.35096248      72.29998473      95.43113657
H      91.33517511      72.10723265      94.91146183
H      88.56294660      70.50096528      94.81508579
C      89.12041587      72.36612515      98.47548565
H      89.75347418      74.24640284      99.03106519
C      86.34818737      71.88802440      99.20680975
H      85.94378593      72.05432031     101.21936826
H      85.66599617      69.99640836      98.75516516
H      85.21435158      73.28831160      98.20903424
C      90.57361540      70.46883994      99.90600848
H      92.55593830      70.69938655      99.40712074
H      89.83662214      68.54509855      99.91545711
H      90.66999144      71.02819892     101.88644165
C      88.87664117      76.82021007      94.67524605
O      91.22368125      77.36634098      94.62989262
N      87.00770185      78.38679319      95.51050507
H      85.21435158      77.74050680      95.63711674
C      87.39320602      80.80942232      97.00338887
H      89.33017549      80.82642986      97.71014650
C      87.02848884      83.12433705      95.22137695
H      86.62786686      84.85910581      96.25883669
H      85.15199061      82.76150961      94.45414806
C      89.16765902      83.48716451      93.22204651
H      89.55505292      81.75050602      92.18269704
H      90.90998669      83.97660362      94.20470420
C      88.30405410      85.52617920      91.36255582
H      89.95567490      86.12522244      90.28919126
H      87.37808821      87.07575477      92.35844159
N      86.64298467      84.34698998      89.49172677
H      86.88675936      82.46671231      89.28385687
C      85.52993587      85.74349772      87.73806074
N      85.57339958      88.22470837      87.65491279
H      84.64743368      89.16012290      86.27163313
H      86.97368678      89.10532084      88.60733486
N      84.21279663      84.81942156      85.81431937
H      83.22635950      86.06097174      84.75229318
H      83.98980893      82.93536443      85.59322139
C      85.86819688      80.97949769      99.46948169
O      83.48336228      80.71115656      99.39767210
N      87.01715048      81.65035054     101.53873202
H      88.92577406      81.70893205     101.52928338
C      85.94567566      81.92247113     104.10498035
H      84.36775419      80.61667024     104.32418860
C      87.93933692      80.70359765     105.88132307
H      87.05494501      80.63178806     107.73892405
H      89.51914812      82.01128826     106.08163407
C      88.88608980      77.95593559     105.20291134
H      90.12763999      78.19215139     103.57774671
C      90.84195654      77.38712797     107.44223702
H      91.89075464      75.73361744     106.80728898
H      89.99157970      76.93359365     109.26204345
H      91.92854917      79.01607205     108.08285423
C      87.10029844      75.76385308     105.23503668
H      86.00614690      75.76763252     106.97925407
H      88.04705132      73.94215690     105.04417433
H      85.76426193      76.12857024     103.71002755
C      85.08962964      84.53974206     104.73803865
O      83.76871095      85.02351201     106.58619100
N      86.10441267      86.50883688     103.53617273
H      87.12864433      86.05908202     101.99226633
C      85.36175023      89.17713043     103.82719058
H      84.68144876      89.53617843     105.73770388
C      87.61808345      90.91378892     103.30373639
H      88.53838016      90.31285595     101.56140873
H      89.10151860      90.88544303     104.73047976
C      87.23824846      93.59342083     102.44013147
H      86.02693389      93.58775165     100.77339285
H      89.01459119      94.48348192     101.89400056
C      85.98158046      95.42456563     104.36009340
H      86.56361617      94.79339704     106.23281218
H      83.92933769      95.40377865     104.19757694
C      86.82061894      98.24781674     103.87632346
H      85.29372008      99.52716145     104.39788793
H      87.24013819      98.36120032     101.86376494
N      89.09395970      98.94701548     105.33330245
H      88.61018976      99.54605872     107.07751984
H      90.06338930     100.42100200     104.60386810
H      90.25047220      97.45791114     105.62243058
C      83.29627937      89.55507570     101.92990536
O      83.62698147      88.70469886      99.79451463
N      81.25915440      90.80418479     102.56107395
H      80.90577558      91.15945335     104.40355711
C      79.04628489      91.20858622     100.84520246
H      78.25259984      89.33586745     100.51261063
C      76.97325513      92.66556522     102.30596089
H      76.33830709      91.56385477     103.92923579
C      78.09764228      95.19779847     103.49081930
H      78.83652527      96.29950891     101.91856700
H      79.65477677      94.87276554     104.79850991
H      76.65578111      96.03683695     104.70213385
C      74.69235547      93.27216737     100.59008941
H      74.19157799      91.49960407      99.66979269
H      75.43123846      94.66111620      99.25972207
C      72.42279417      94.59875523     101.93935398
H      70.76739392      94.93512651     100.76016478
H      72.78373189      96.43934866     102.79540001
H      72.05429753      93.39877902     103.57396725
C      79.82296241      92.32352475      98.33564592
O      81.19868316      94.20002297      98.28840276
N      79.27872123      91.19724786      96.08687160
H      78.13543681      89.67034900      96.12277640
C      80.04406039      92.34620146      93.68313973
H      80.95490847      94.18112571      93.89478908
C      81.80906476      90.33742239      92.54174504
H      83.46635474      90.05207372      93.73038288
H      82.46291007      91.13488691      90.75973312
C      80.68089815      87.75038707      91.95215042
C      79.68312266      87.30252194      89.62400761
H      79.68690211      88.91823793      88.37489851
C      78.86109171      84.89123116      88.85299928
H      78.21858477      84.64367701      86.92925788
C      79.20313218      82.82387058      90.38367759
O      78.91022460      80.37100582      89.58243363
H      78.70991361      80.37289554      87.77774500
C      80.20846657      83.30953023      92.80252727
H      80.49192552      81.74483686      94.08376171
C      80.94923929      85.69247511      93.56975614
H      81.83552093      85.79452034      95.40468039
C      77.83497033      92.97925978      91.98049633
O      75.67501315      92.41234188      92.83654234
N      78.36409369      93.99026335      89.69392749
H      80.12531862      94.71213882      89.57865417
C      76.38366052      94.58552715      87.90246694
H      74.43157324      94.33986272      88.50906909
C      76.43846258      97.39743990      87.18626067
H      75.45391517      97.83396667      85.42881519
H      78.37543205      97.98325506      86.80075650
C      75.08163909      98.82229354      89.42369661
H      75.91122894      98.28939072      91.23405442
H      73.16734633      98.07585165      89.57487473
C      75.19313294     101.77782550      89.17614248
H      77.05262363     102.65843795      89.11945069
H      73.96859029     102.55261328      90.63879064
C      74.22181362     102.85307976      86.53619482
H      72.45680924     101.91955496      86.03163789
H      75.51816587     102.39198654      85.00173704
N      73.71158751     105.59507265      86.91225035
H      72.23193181     106.06372477      88.02529915
H      73.14466962     106.36230154      85.25873983
H      75.05707265     106.54560498      87.87601077
C      76.85609210      93.17579131      85.53652960
O      79.00660064      92.49171039      84.94693498
N      74.81140822      92.55218163      84.21939036
H      73.30151690      93.18146049      85.20204804
C      74.69613492      90.92512727      81.94793933
H      75.91122894      89.32074963      82.38257637
C      71.90122970      89.86688055      81.90258590
H      70.51795004      91.36354378      81.62101668
H      71.40423168      89.05429822      83.72995124
C      71.44013648      87.60865759      80.31899524
O      71.74249269      85.52617920      81.28464539
O      71.13400082      87.87132956      77.99274216
C      75.58241656      92.12132404      79.47995676
O      75.77705837      94.41923123      79.32877866
N      75.59186519      90.45080597      77.50330304
H      75.64099808      88.62344063      78.04754422
C      75.59942410      91.07441565      74.71784646
H      77.43812780      91.88132880      74.25864295
C      75.03628566      88.83697970      72.93583453
H      75.25738363      89.44169213      70.97996781
C      76.87687908      86.67702252      73.63314355
H      76.52538999      84.96304077      72.54277147
H      76.80506949      86.08931764      75.60601782
H      78.67022936      87.59542951      73.20795512
O      72.56263391      88.05463300      73.17582977
H      72.33586675      87.48204594      74.88225265
C      73.65300599      93.08697419      74.14903883
O      74.07441496      94.93890596      72.68261122
N      71.38155497      92.84697893      75.38114039
H      71.06786040      91.20669650      76.30521656
C      69.39545261      94.80284568      75.21673420
H      70.15890204      96.26549384      73.98274292
C      67.12589131      93.65956125      73.93738948
H      65.59521300      95.03150256      73.80510865
H      66.33787544      92.09864731      75.02398212
C      67.56619754      92.84130976      71.30878019
H      69.27262040      91.69802534      71.15193290
H      67.99516541      94.61198331      70.34501977
C      65.21348828      91.58653148      70.12014233
O      63.38423321      92.92823717      69.69684364
O      65.33065131      89.36232361      69.73463817
C      68.70381278      96.27116301      77.70739348
O      66.83865291      97.65633241      77.88691748
N      70.29685206      95.97825545      79.62735541
H      71.72359543      94.74804362      79.31933002
C      70.67668705      97.86420230      81.68904681
H      69.93780406      99.72747244      81.21472551
H      72.68357640      98.07396192      82.10478661
C      69.31797383      97.11209123      84.20427255
O      69.45025467      98.50104006      86.02407899
N      68.08587228      94.77638950      84.20238282
H      68.04051885      93.76727565      82.58288737
C      66.72904878      93.80318045      86.37556808
H      65.32498213      95.15811422      87.03697229
C      64.98483140      91.58842121      85.58188303
H      63.43714555      91.50338353      86.93870652
H      66.03362950      89.83097574      85.80487073
C      63.80564218      91.53361915      82.93248673
C      63.78107574      89.21870441      81.58700160
H      64.71271081      87.58220144      82.36745857
C      62.57543035      89.19035852      79.19649782
H      62.22961043      87.36299317      78.35745933
C      61.45293292      91.33897734      78.24029630
O      60.01107174      91.34275679      76.00475007
H      59.55753743      93.03973102      75.54932602
C      61.84221654      93.64822289      79.46294923
H      60.86522803      95.32063068      78.81855255
C      62.91558108      93.73892976      81.84022493
H      63.12156125      95.38488137      83.02886278
C      68.41468466      93.16067350      88.55253278
O      70.40267674      92.04573498      88.00829162
N      67.73060373      93.92034348      90.87311671
H      66.05441649      94.80473539      91.09421468
C      69.26506150      93.10587144      93.01228689
H      71.23037686      93.47247834      92.51339915
C      68.35043396      94.52127645      95.38578313
H      68.71137169      93.42901464      97.09409573
H      66.29441173      94.40600314      95.42546739
C      69.32742246      97.18201111      95.61066057
C      67.55674891      99.20590798      95.72215442
H      65.55174929      98.87142642      95.90545788
C      68.47137644     101.72302344      95.25728175
H      67.19203173     103.25748119      94.83587277
C      71.03195560     102.25970571      95.04374268
O      71.62910911     104.65020949      94.31241859
H      70.15323286     105.60074183      93.85888428
C      72.78184216     100.22258073      95.20436942
H      74.79629041     100.53060612      95.10799336
C      71.88800162      97.66767076      95.35743724
H      73.19569223      96.10297737      95.33853998
C      68.98538200      90.17679565      93.43747531
O      66.88589607      89.19224825      93.52062326
N      71.03951450      88.90500986      93.68502946
H      72.67034831      89.89711616      93.68125001
C      71.54029198      86.17057587      93.56219725
H      69.78284651      85.28618396      94.17257885
C      71.94091396      85.64712169      90.72004887
H      73.47537172      86.92457667      90.21171250
C      72.67412776      82.98827676      90.22305085
H      71.02817615      81.75617520      90.11155700
H      74.03662044      82.29852666      91.60633052
H      73.39222376      82.94859252      88.29175056
O      69.96992941      86.53529305      89.16669384
H      70.24582945      88.31541524      88.95504450
C      73.91756768      85.66412922      95.31397354
O      75.28383980      87.42346442      95.88656060
N      74.02339235      83.44181107      96.48938331
H      72.67790722      82.16057663      96.05285653
C      76.15122418      82.59899314      98.02573080
H      77.88221348      83.61944535      97.57030676
C      75.46903298      83.20937474     100.79229012
H      74.23693143      84.86099554     100.75449560
C      73.90433959      81.16658059     101.99226633
H      72.38877909      80.53163256     100.74882642
H      73.00671960      81.80341836     103.73081454
H      75.17045622      79.65102009     102.58186094
C      77.91244910      84.09565638     102.25871774
H      79.01415954      85.20114627     100.91512232
H      78.96124721      82.45159449     102.92390140
C      77.23592708      85.59042989     104.56985302
H      78.97447529      86.44647591     105.26338258
H      76.05106869      84.71737634     106.01171420
H      76.28350502      87.23260206     103.77238852
C      76.45358039      79.78519067      97.70636705
O      74.98904250      78.22049727      96.82197514
N      78.68912662      78.96315971      98.67579665
H      79.89288228      80.26518114      99.38633375
C      79.55840072      76.33644014      98.68335556
H      78.09953201      75.18370710      99.57152692
H      81.27805167      76.12668052      99.79640436
C      79.91555900      75.42181260      96.01128255
O      81.64276885      76.20604902      94.67335632
N      78.63243483      73.39035682      95.38767286
H      77.50048877      72.76863686      96.79173952
C      78.87431980      71.80865590      93.26362049
H      80.57507348      72.37179433      92.24505801
C      79.40533289      68.88713902      93.82108975
H      77.87843403      68.26352934      95.05697076
C      79.45068632      67.14481136      91.49105721
H      81.09285849      67.55299224      90.31375772
H      77.74237374      67.37913742      90.36667005
H      79.39399453      65.17382681      92.08821072
C      81.72969626      68.50730402      95.63522701
H      81.40466333      69.79609738      97.20936903
H      83.38320678      69.21028221      94.62611315
C      82.39487992      65.99018858      96.90890255
H      80.76782556      64.82044799      97.37755467
H      83.43800884      66.23963246      98.66634801
H      83.63265065      64.98296446      95.60310166
C      76.65578111      72.40958886      91.53452092
O      74.87565892      71.08489072      91.09421468
N      76.40066805      74.82087963      90.92602903
H      77.88788266      75.86400856      91.51562365
C      74.30496157      75.84889075      89.40479936
H      74.10465058      74.73017277      87.68703814
H      74.77739315      77.67058692      88.56576088
C      71.71414680      76.00573803      90.82398382
O      69.81308213      76.20982847      89.64290487
N      71.61777076      76.38368330      93.29574584
H      73.26183265      76.32510179      94.26328571
C      69.23482588      76.72761348      94.85665977
H      67.87233320      75.38212835      94.09510006
C      69.83197939      76.06620928      97.71392596
H      71.08864739      77.51751908      98.45847812
H      70.81274735      74.28041792      98.00683353
C      67.43958588      75.97550241      99.28428852
N      65.57442601      74.26152065      98.96114533
H      65.68969931      72.61934848      97.99549518
C      63.47871953      75.22339134     100.03639960
H      61.63812610      74.34088915      99.97214890
N      63.95304083      77.43437113     101.19669155
H      62.66991666      78.74395146     101.73148409
C      66.38700832      78.00317875     100.59197913
H      67.19392146      79.87589752     100.68079626
C      68.08398255      79.19748578      94.45981724
O      69.34443000      80.92658536      95.31019409
N      65.90134866      79.50551117      93.33354037
H      64.98672112      77.88790545      92.90079304
C      64.55397380      81.93003002      92.89512386
H      65.81442125      83.42291382      92.24127856
C      62.33165565      81.59554848      91.02051536
H      60.86333831      80.66013394      92.11844635
H      63.04030302      80.51651474      89.41424799
C      61.12223081      84.03518514      89.93959191
H      60.57798964      85.30508122      91.46649077
C      62.83810231      85.74160800      88.33332454
H      64.41224432      86.33498206      89.52007267
H      61.69292816      87.34220618      87.72672239
H      63.51840378      84.70036880      86.69115237
C      58.68259414      83.35677339      88.66213692
H      57.31443229      82.51773491      89.95470972
H      59.24384286      82.03396497      87.18626067
H      57.66781111      84.96115104      87.86467242
C      63.35966677      83.02040211      95.28562765
O      62.40157553      81.49350325      96.77662170
N      63.30486470      85.56208401      95.52184344
H      64.26484567      86.42946838      94.11777679
C      62.32787620      86.86221570      97.68180061
H      61.43214593      85.53373810      98.97626314
C      64.35555254      88.23982618      99.25783236
H      63.28785717      89.09020302     100.79984903
H      64.97916222      89.75727641      98.01061299
C      66.60054739      86.72237595     100.24049004
H      67.47171123      85.62066551      98.73059871
C      68.64523127      88.46659334     101.14377922
H      68.92869021      90.01805864      99.82097080
H      70.47448634      87.52173018     101.13244085
H      67.99327569      88.99193726     103.02594662
C      65.59521300      85.06130653     102.52516915
H      64.08532167      83.95959609     101.65967450
H      64.63334230      86.25183411     103.90088990
H      67.16746529      83.96904472     103.28483913
C      60.07910189      88.41935018      96.69536348
O      57.84355566      88.01494875      97.16779505
N      60.48161359      90.27884088      95.05697076
H      62.26929469      90.70591903      94.54674465
C      58.38590711      91.75849659      93.76817741
H      57.02719389      90.32230458      93.19370061
C      56.77586029      93.51405232      95.44436466