 %block lattice_cart
   135.996   0.000   0.000
   0.000 142.663   0.000
   0.000   0.000   160.158
 %endblock lattice_cart

 %block positions_abs
N      91.85673957      43.99566402      80.30104284
H      91.02337026      42.34782268      79.82294209
H      92.08161700      44.12227568      82.19265889
H      93.53670626      44.19219556      79.41854066
C      90.35818660      46.00255336      79.37318723
H      90.90053805      47.60882073      80.54292781
C      90.87786134      46.55813290      76.54237721
H      89.81583515      45.51311425      75.12319274
H      92.91876575      46.31246848      76.44222172
C      90.00669750      49.38138401      76.18710866
H      87.99413898      49.52878266      76.60473818
H      90.26559001      49.79145462      74.18588850
S      91.69422310      51.76243917      77.99746647
C      94.57605573      51.86070494      76.12663742
H      95.84973126      53.45752367      76.40631692
H      93.89008508      52.05534675      74.19533713
H      95.46422710      50.00499370      76.20411619
C      87.59540673      45.56602659      80.10451131
O      86.61274905      43.63283657      79.38074613
N      86.22346543      47.31402343      81.51046769
H      87.13998269      48.95430587      81.84116979
C      83.48525200      47.17985286      81.89786158
H      82.62920598      46.05546570      80.39930862
C      82.93345192      45.88539033      84.47544826
H      83.86130753      44.04857636      84.37151333
H      80.90199613      45.55657796      84.53969896
C      84.05405962      47.32347206      86.83004725
O      84.89687755      49.46075252      86.82626781
N      83.85374863      46.25388696      89.12795446
H      84.62853642      47.31591315      90.51312384
H      82.96935672      44.58714836      89.42086203
C      82.17000248      49.81413134      81.81660335
O      83.57973831      51.72653437      81.40464300
N      79.61131306      49.96908890      82.06982668
H      78.47936700      48.45541812      82.32682946
C      78.31874026      52.42951256      81.99045817
H      78.52661015      53.05879142      80.04215034
C      75.50304805      52.08558237      82.65186238
H      75.03628565      50.54734515      81.36117931
C      75.18557403      50.90639315      85.33527375
H      73.41301075      49.85759504      85.35039156
H      75.21014047      52.52021942      86.61272872
H      76.60664822      49.51744431      85.87573547
C      73.57741694      54.20207584      82.41375687
H      74.02906153      55.91794733      83.45877551
H      71.87288381      53.32146338      83.16397821
C      72.83475450      54.72553003      79.70577906
H      72.08264343      53.01343799      78.84028441
H      74.38433008      55.47764110      78.57761244
H      71.47037210      56.26565697      79.81349345
C      79.57918771      54.39671765      83.68932213
O      79.91744872      56.58691044      83.02413845
N      80.47680771      53.67673192      85.97400124
H      80.09508299      51.92873508      86.63729518
C      81.45379621      55.33402190      88.03380292
H      80.41444674      57.11036463      87.92986796
C      81.06073314      54.15483268      90.62839715
H      81.71079899      55.29433765      92.21576725
H      82.26259907      52.48242489      90.62461769
C      78.38110123      53.31201474      91.20476367
C      76.65956056      55.17717461      92.06836860
H      77.21136064      57.11603381      91.73955622
C      74.16323210      54.50821150      92.63717621
H      72.91034355      55.96896994      93.31936742
C      73.35820869      52.05156729      92.43875496
H      71.37399606      51.73598300      92.79402350
C      74.96825551      50.15050262      91.69987196
H      74.28039513      48.23620987      91.86238843
C      77.52316548      50.74387668      91.09704927
H      78.65511154      49.17918330      90.43942451
C      84.28271650      56.23920080      87.71065972
O      85.17655705      57.87003461      89.07882156
N      85.33907351      55.28299929      85.62440187
H      84.39798981      53.96586005      84.61339829
C      87.71823894      55.98597748      84.39607977
H      88.82939801      57.20674067      85.62629159
C      89.13175422      53.56523807      83.79892625
H      90.74180104      53.97719841      82.58383223
H      87.90721157      52.35392350      82.66886992
C      90.43755510      52.39738721      86.10439235
H      88.98813502      51.87960220      87.47444393
H      91.80193750      53.60114287      87.06626304
C      91.84729093      49.90294847      85.49967993
O      90.60574075      47.90928721      85.38251690
O      94.11496251      49.86704367      85.26346415
C      87.31194778      57.63948800      82.17376162
O      88.28515683      59.74275339      82.04714996
N      85.59607629      56.66816868      80.50702302
H      85.02348922      54.85025196      80.61851687
C      84.61530833      57.95507229      78.29604323
H      85.94945511      57.91727777      76.72757039
C      82.43834362      56.41683508      77.10551564
H      80.83774543      56.43195289      78.39997818
H      83.00904097      54.44396081      76.93166083
C      81.61820240      57.27099137      74.54682622
H      83.18289579      56.76076526      73.30527604
H      81.42167086      59.31945469      74.48068579
S      78.61731702      55.86125554      73.65298568
C      78.89321706      56.23164190      70.30628038
H      78.87998897      58.15538328      69.56739739
H      77.62521070      55.02032733      69.22913638
H      80.78861255      55.66283428      69.73747275
C      83.54950269      60.58557132      78.76280562
O      84.42444598      62.36569351      77.69133081
N      81.81473394      60.91060425      80.56371481
H      81.07396122      59.47063280      81.57471838
C      80.75081802      63.42960942      81.31960532
H      80.24248165      64.58423220      79.68877151
C      78.22614367      63.02520799      82.72556171
H      77.70268948      64.39903902      84.16553316
H      78.25826902      61.28477006      83.82538242
C      76.01327416      62.95906757      80.97945458
H      76.38932969      61.92349755      79.23901666
C      73.79284574      61.59279545      81.99234790
H      72.85554149      62.70395452      83.45121660
H      74.11409921      59.61992118      82.48745618
H      72.34909484      61.41894063      80.53347918
C      75.01738839      65.59334605      80.26135860
H      76.40255778      66.58923182      79.10673582
H      74.70936300      66.61190853      82.02258352
H      73.34120115      65.59712550      79.06516183
C      82.63487516      65.19461380      82.85028363
O      82.26826825      67.50574908      83.30003851
N      84.52082202      64.01542458      84.14852561
H      85.01026113      62.17672088      83.98600916
C      86.30283393      65.37413780      85.60361488
H      85.38442694      66.79710171      86.77524520
C      87.40454437      63.48063203      87.42342131
H      88.38720205      62.03310168      86.33493897
H      85.85307907      62.69828534      88.52891120
C      89.34340357      64.67682879      89.43786956
H      88.47223974      66.13380778      90.60572043
H      90.77014694      65.70483990      88.36450502
C      90.56416677      62.56789422      91.04980612
H      91.64697994      63.04410526      92.73544199
H      91.87941628      61.55500092      89.82715319
N      88.66877128      60.59313023      91.79435828
H      88.18878079      59.43283827      90.35627656
C      87.68989304      60.33423772      94.00344834
N      88.28704656      61.77987835      95.87238767
H      87.44989780      61.62681052      97.57881053
H      89.82150433      62.90804496      95.71743011
N      86.03071334      58.59002034      94.74611078
H      85.19167486      58.94150943      96.42418774
H      85.42600092      57.51476606      93.28724207
C      88.29649519      66.57978319      83.91230983
O      89.08829052      68.67926912      84.34694688
N      88.86719254      65.19083435      81.78636773
H      88.38531233      63.35591010      81.59172591
C      90.09740437      66.28876533      79.60184410
H      91.86051902      67.11457573      80.26891749
C      90.85329489      64.15526433      77.84061919
H      89.22435081      62.89859633      77.73479451
C      91.37674908      64.97540555      74.99280162
H      92.51247460      63.66771494      73.88164255
H      92.43499582      66.74229965      75.00413999
H      89.65142896      65.37224807      73.94022408
C      93.10584866      62.68127780      79.18799405
H      92.60129173      62.18805924      81.12307379
H      94.70833657      63.92849717      79.53948313
C      94.14897758      60.40415760      77.88030344
H      95.03714895      61.04855427      76.13797578
H      92.76947737      58.94528888      77.43054858
H      95.56438259      59.54433212      79.10673582
C      88.51948290      68.29187523      78.29415350
O      89.67410567      70.20238853      77.72156643
N      86.08362568      68.10857177      77.99746647
H      85.16143924      66.48151742      78.37541173
C      84.71357410      70.07955632      76.68788613
H      85.81339482      70.76363724      75.08539821
C      82.23425318      69.24051784      75.49357911
H      81.28561057      70.95449960      74.85863106
H      80.99270299      68.38825127      76.90331493
C      82.38543128      67.61724293      73.05583216
O      83.28305128      68.78509379      71.20767982
O      81.56529006      65.33445355      73.02370681
C      84.20712745      72.59100259      78.22234390
O      84.69845629      74.66592208      77.24157595
N      83.55895132      72.27730802      80.60717851
H      83.37564787      70.46883994      81.19110394
C      83.06762248      74.40702958      82.33249862
H      82.03772164      75.75440444      81.16086832
C      81.33852291      73.56043219      84.50190444
H      80.88309887      75.13079475      85.75479299
H      82.25692990      72.12612992      85.66030667
C      78.70613415      72.39825050      83.53058512
H      77.38899491      71.95983400      85.05370452
H      79.08974859      70.50852419      82.80304048
C      77.30584696      74.32010217      81.74290402
O      77.28883942      76.58966347      82.39485959
O      76.17579062      73.58499863      79.86073662
C      85.45812627      75.73361745      83.47956251
O      85.45245709      77.92947942      84.38474140
N      87.39320601      74.23884393      83.69121184
H      87.26281490      72.60989985      82.70288498
C      89.55316319      74.86623307      85.27291278
H      90.26559001      76.78430528      85.03858671
H      90.96667847      73.44137943      84.80804010
C      89.06750353      74.66781181      88.16797349
O      87.17777721      73.68137467      89.03346814
N      90.80983119      76.09833463      89.47566409
H      92.38397321      76.78808473      88.64418452
C      90.59440239      76.58021484      92.19686999
H      88.68955826      76.07565791      92.79780296
C      92.29326634      74.62434810      93.77668119
H      94.19622074      75.40291534      93.87116750
H      92.41987801      72.78564440      92.85449474
C      91.74902517      74.51852343      96.69063915
H      91.74902517      76.39880111      97.52589819
C      89.27915287      73.21839172      97.32558719
H      89.16954875      71.24740718      96.73788232
H      87.76548210      74.17270351      96.30702471
H      89.04860626      73.16925884      99.37027106
C      93.97323304      72.98973484      97.76589343
H      93.67087683      71.19638457      96.80024329
H      93.88819535      73.05587526      99.82569511
H      95.77603194      73.77208153      97.14795292
C      91.16321001      79.26173647      93.02645983
O      93.35907198      79.99495028      93.08126189
N      89.20545355      80.59588325      93.99022025
H      87.50469987      79.77574203      93.71809966
C      89.35663165      83.22449255      95.14673276
H      91.32950592      83.67802687      95.52656775
C      88.22279587      85.08398324      93.26834480
H      87.63320126      86.80174446      94.23966413
H      86.60519014      84.19014270      92.35938644
C      90.34873797      85.63767305      91.22555066
H      91.44477923      83.98227280      90.67375057
H      91.80949641      86.86221570      92.00411790
C      89.10907751      86.71670678      88.90118729
H      90.70022706      87.18913836      87.68042410
H      87.85807869      88.21525974      89.55503260
N      87.76170264      84.76461950      87.51601790
H      87.31572723      83.11866788      88.37206393
C      86.89998745      85.01406337      85.19732372
N      87.05305528      87.06630615      83.64585842
H      86.11764075      86.88867187      81.99234790
H      87.91854993      88.64800707      84.27513728
N      85.77560029      83.09032198      84.32615989
H      85.75670303      82.96937950      82.42131577
H      85.96268319      81.46704708      85.31070730
C      87.77304100      83.39078847      97.59959751
O      85.46946463      83.14701377      97.43519133
N      89.00514256      83.67991659      99.75577524
H      90.89675860      83.53818712      99.53278753
C      87.71823894      83.11299870     102.21052972
H      86.31228256      81.61255601     102.09903587
C      89.70056184      81.89790468     104.10025603
H      89.08640079      81.78830055     106.06368167
H      91.38052853      83.08276308     104.23631633
C      90.74180104      79.31275908     103.26877646
H      91.70934091      79.59054885     101.47164672
C      92.80538217      78.36411648     104.95630205
H      94.40031118      79.66991736     105.01677330
H      93.56694188      76.54997921     104.34592045
H      92.11563207      78.30175551     106.89516124
C      88.81050075      77.30586974     103.08736273
H      89.69867212      75.45582768     102.94941271
H      87.62375262      77.45515812     101.40928575
H      87.66343688      77.75373488     104.73898353
C      86.59763124      85.59987853     103.31790934
O      85.07640155      85.42980316     105.12826715
N      86.99069431      87.73148981     102.30123658
H      87.82217389      87.78062269     100.58536509
C      85.65654753      90.15411894     102.96075106
H      84.85908303      90.04829427     104.85614656
C      87.52359713      92.25738433     102.91917709
H      86.62786686      94.03183734     102.37304617
H      88.96356858      91.86810071     101.49621317
C      88.56672605      92.46903368     105.65172134
H      89.53048647      90.76072109     106.28666938
H      87.13053406      92.74871317     107.09925168
C      90.35818660      94.71024908     105.91061384
H      89.44544879      96.52627607     105.56857337
H      91.85673957      94.29639902     104.56134925
C      91.50714020      94.74048470     108.62237110
H      92.60129173      93.04351047     109.02866226
H      90.09362492      94.88977308     110.11147544
N      93.12852537      96.94201586     109.01354445
H      92.31972251      98.49348116     108.25198474
H      94.95967017      96.60564457     108.59969437
H      93.20600415      97.50515430     110.83713033
C      83.44556775      90.50749776     101.07291448
O      83.45312665      89.17146126      99.22665187
N      81.59741541      92.11376513     101.53211796
H      81.71835790      93.19090913     103.10437027
C      79.59808497      92.53706382      99.77089305
H      78.81384855      90.69458067      99.29090257
C      77.37765655      94.07719077     100.99165625
H      78.19212860      95.76282664     101.84959199
C      75.64099807      95.19968820      99.03012034
H      75.08730826      93.67278934      97.76022425
H      76.59719959      96.71902815      98.02100648
H      74.01772317      95.98392462     100.02600609
C      75.82430153      92.60698370     103.08547300
H      77.21702982      91.57330340     104.19663208
H      74.42023488      91.36354378     102.22942698
C      74.37110199      94.09419830     105.14149522
H      75.32541378      95.91967392     105.06212672
H      74.38621980      93.33641805     107.05767771
H      72.37744073      94.11309557     104.61993077
C      80.60341937      93.94679965      97.29724131
O      82.13976686      95.69101704      97.62794341
N      79.86642611      92.93390635      95.06925398
H      78.59841975      91.51094243      95.15618139
C      80.76782556      93.77105510      92.48410838
H      81.73158598      95.59086154      92.53513100
C      82.68589777      91.88132879      91.38050822
H      84.12586922      91.60731848      92.82614885
H      83.28494101      92.87721456      89.67786480
C      81.78638804      89.28673456      90.68697866
C      81.40844278      88.31352551      88.15663513
H      81.82985175      89.44925103      86.51635269
C      80.84530434      85.82664569      87.48578228
H      80.60341937      85.44114152      85.49590047
C      80.76593583      83.99361116      89.33582435
O      80.10831108      81.52940805      88.96165853
H      79.71713773      81.36311213      87.19854389
C      81.42167086      84.81375238      91.79624801
H      81.41978114      83.36055285      93.22866054
C      81.96780177      87.31952947      92.42741659
H      82.22291482      87.92802135      94.35682716
C      78.40377794      93.84853388      90.67941975
O      76.41578586      93.05862828      91.49389180
N      78.68534716      94.78016896      88.36639475
H      80.52027141      95.18457039      88.03947210
C      76.67656809      94.95024432      86.40863829
H      74.90022536      94.40033397      87.29303021
C      76.32885845      97.69034748      85.47133403
H      75.25738363      97.73570091      83.71577830
H      78.20535668      98.42923047      85.05748397
C      75.12699252      99.45535185      87.42909049
H      76.40066805      99.18701072      89.02401950
H      73.29206827      98.83363190      88.13206869
C      75.09675690     102.04238718      86.20643758
H      74.42401433     101.83451728      84.27135783
H      76.99782157     102.83229278      86.31037251
C      73.20892031     103.62219837      87.91097070
H      74.02528208     103.86975252      89.78557921
H      71.40801113     102.62442288      87.92797825
N      72.70814284     106.06561450      86.65997189
H      73.37332650     107.58495445      87.60294531
H      70.85243160     106.33773509      86.29903417
H      73.57174776     106.05616587      84.95732847
C      77.30584696      93.14555570      84.30537290
O      79.45446577      93.06996664      83.41909125
N      75.28950898      91.94368976      83.15263985
H      73.73804368      91.90211578      84.26190920
C      75.36509803      90.35065048      80.83583539
H      76.96947567      89.05807768      80.80559976
C      72.98782233      88.67824269      80.53536890
H      71.28895837      89.83475519      80.38419081
H      72.60231816      87.62188568      82.26257876
C      73.10498536      86.92268695      78.33005830
O      71.41179058      87.27984522      76.72946012
O      74.57708216      85.01595310      78.25446925
C      75.79973508      92.15911856      78.50013367
O      75.68635150      94.47403329      78.77225426
N      76.12665774      91.08953347      76.34773540
H      76.24571049      89.18657907      76.38741965
C      76.28728447      92.30273776      73.84573776
H      77.70835866      93.79184209      73.76636926
C      76.98270376      90.27128197      71.84829705
H      76.70113453      91.17457115      70.01715225
C      79.68123293      89.46436884      72.15065326
H      79.97603024      89.03540096      74.14431452
H      80.69412623      91.02717250      71.26815106
H      80.05161929      87.66912884      71.20956956
O      75.56918847      87.97337478      71.91254774
H      76.96191677      86.89245133      71.47980041
C      73.74371286      93.59531056      73.23346643
O      73.84386835      95.70424512      72.17332998
N      71.61966048      92.54840218      73.94400352
H      71.85398654      90.73615465      74.49958307
C      69.10821421      93.46869889      73.85329667
H      68.97215391      94.61576277      72.14687380
C      67.46226259      91.05173894      73.95345216
H      67.36588655      90.51694639      75.93955451
H      68.31830861      89.47003802      72.95000749
C      64.72593889      90.99693688      73.12953149
H      63.72249422      92.25549460      74.41265566
H      64.04374769      89.10343111      73.56794799
C      64.24594841      91.88510824      70.37620025
O      64.73916697      90.42057035      68.64332122
O      63.63934626      94.11309557      69.83384880
C      68.42035383      95.43401426      75.98679768
O      66.45125901      96.71146925      76.01892301
N      70.18724793      95.67967868      77.75936096
H      71.80296393      94.69891072      77.48724037
C      70.19291711      97.67522967      79.71144824
H      68.70192305      99.04150179      79.32405433
H      72.05051808      98.55773186      79.82483182
C      69.34820945      96.68123363      82.27580683
O      69.71670608      97.94923998      84.15419480
N      68.33342642      94.35120108      82.47422811
H      68.16335105      93.33452833      80.86796073
C      67.09943514      93.46302972      84.77402503
H      65.57442600      94.68757237      85.42031143
C      65.81442125      90.94780399      84.29781399
H      65.12467114      90.32230458      86.13273824
H      67.18636255      89.50405309      83.77624954
C      63.68092024      90.85898686      82.40997741
C      62.78518997      88.44580635      81.55204167
H      63.35966677      86.72615541      82.48934592
C      60.88034584      88.30785633      79.70955851
H      60.48161359      86.55796977      78.73445973
C      59.64257511      90.53395393      78.81382824
O      57.75662825      90.28262033      77.07716975
H      57.15758501      91.84731372      76.38175047
C      60.40413481      92.79028715      79.77191948
H      59.32510109      94.44379767      79.25224474
C      62.35622209      93.10398172      81.58416700
H      62.81542559      94.91433952      82.40619796
C      68.95892583      93.14933515      86.99256372
O      71.05274259      92.20447199      86.55603694
N      68.18791749      93.76160647      89.25834556
H      66.53629670      94.63466003      89.65140864
C      69.73938280      93.17390159      91.38050822
H      71.64989610      93.83152635      90.97610678
C      68.95892583      94.62521140      93.78612982
H      70.31196987      93.90333595      95.16185057
H      66.97471320      94.35875999      94.25856140
C      69.39167316      97.39743990      93.38172839
C      67.29785640      99.01126617      92.99433449
H      65.39679173      98.27994209      92.86583309
C      67.61722015     101.61530903      92.95087079
H      65.87489249     102.66410713      92.79591323
C      69.98126777     102.66410713      93.24566809
O      70.34031577     105.21334793      93.11149752
H      68.68680524     105.93711311      93.30047015
C      72.13177631     101.19012061      93.67274624
H      74.00260536     102.00081320      93.76156338
C      71.91445778      98.59552638      93.70865104
H      73.60765256      97.51460293      94.06014013
C      70.01339311      90.35442993      91.89451378
O      68.14067434      88.85776669      91.97577201
N      72.41712498      89.50783254      92.10616313
H      73.85142725      90.75883136      92.25923096
C      73.13711071      86.84709789      92.54835908
H      71.40423168      85.85877103      93.06803382
C      74.11787867      85.85499158      90.05581008
H      76.00571525      86.66379444      89.88762442
C      74.22748279      83.06008636      89.97455183
H      72.43035307      82.07931841      90.20887791
H      75.42367955      82.53474245      91.56570140
H      75.15722814      82.42324860      88.25112145
O      72.69113530      86.19325259      87.84860974
H      72.71759147      87.98471313      87.56137134
C      75.11376443      86.75072185      94.77256695
O      76.30807146      88.68580160      95.27145470
N      75.35942885      84.61155167      96.03679385
H      74.03851016      83.25661790      95.77979108
C      77.41734081      83.72527003      97.57881053
H      79.02171845      84.86855444      96.98165701
C      76.95813731      84.40935095     100.39828218
H      76.07752485      86.26884164     100.31324450
C      75.07974936      82.67647192     101.74187760
H      75.99437689      80.89068056     102.21052972
H      73.49426898      82.46293285     100.44363562
H      74.39755816      83.59109946     103.45963880
C      79.26927259      84.83642910     102.23698589
H      80.83774543      85.68113676     101.20519531
H      80.01004531      83.06575554     102.98720723
C      78.69101634      86.51639579     104.50465746
H      79.54706236      85.80963815     106.23942622
H      76.66900919      86.66568417     104.86181574
H      79.52249592      88.39856320     104.38938416
C      78.22047449      81.05886620      97.32369748
O      76.93735032      79.41669403      96.26356100
N      80.50704333      80.44848460      98.26100172
H      81.38009689      82.01506771      98.91673676
C      81.80717503      78.01073765      98.00966813
H      80.77727419      76.53675113      99.01500252
H      83.63454038      78.07498835      98.95453128
C      82.01882438      76.99973408      95.32247731
O      82.86164232      78.39435210      93.68030513
N      81.27805166      74.62434810      94.76689777
H      80.65066253      73.67381577      96.29757609
C      81.32718455      73.18059720      92.31025357
H      82.92211356      73.97995143      91.27846299
C      82.03583192      70.37057417      92.78457487
H      80.28405562      69.52586651      93.46487633
C      82.72558202      69.29909935      90.10305323
H      84.10508223      70.50852419      89.16574897
H      81.14010164      69.30287880      88.78780372
H      83.18289579      67.29976891      90.30525395
C      84.26003979      69.82633299      94.59493268
H      83.86508699      70.57088516      96.47332062
H      85.98347018      70.41214815      93.63306198
C      84.78349398      66.99552298      95.22232182
H      83.81028492      66.40025919      96.93630357
H      86.72046345      67.01819969      95.92341028
H      84.49625558      65.68405291      93.65951815
C      78.64377318      73.47350478      91.03279858
O      77.06963117      71.74440520      90.93453281
N      78.25259984      75.76763252      90.18620119
H      79.57918771      77.13957382      90.17486283
C      76.00571525      76.33644014      88.77268591
H      75.78272755      74.94182212      87.27224322
H      76.36854270      78.12034178      87.80514604
C      73.51883542      76.67281142      90.15407584
O      71.57430705      76.65580389      88.84260578
N      73.59064502      77.05075669      92.70142691
H      75.18935348      77.05831559      93.74266610
C      71.26817139      77.38145879      94.09982439
H      69.83197939      76.08888599      93.38550783
C      71.71036734      76.76351829      96.96464948
H      72.98971206      78.16380549      97.76589343
H      72.57208254      74.91158650      97.22921116
C      69.27828958      76.60856073      98.50099696
N      67.44147560      74.80387210      98.18730240
H      67.59076398      73.25807598      97.07614333
C      65.45726297      75.43126124      99.71420126
H      63.65824352      74.46750082      99.76711359
N      65.94481236      77.57232115     100.93874391
H      64.68814436      78.64001652     101.89494543
C      68.38444903      78.32065277     100.26978080
H      69.37655535      79.94203795     101.01244324
C      70.00394448      79.95715576      93.77479145
O      70.98282271      81.87900742      94.67241146
N      67.90823800      79.94581740      92.51812346
H      67.30352558      78.33199113      91.69420279
C      66.44747956      82.20593007      92.14584738
H      67.70792701      83.71393167      91.52790687
C      64.30641965      81.55964367      90.37706354
H      63.25195237      79.98739138      91.18586640
H      65.34576912      80.88690110      88.73111193
C      62.42236251      83.63267344      89.42842094
H      61.46238155      84.38478451      91.08760064
C      63.71871476      85.79263061      88.18120157
H      65.56308765      86.26128274      88.96732772
H      62.62078378      87.52361991      88.36639475
H      64.10043948      85.32397849      86.21210674
C      60.29831014      82.59899314      87.60483505
H      59.31943191      84.02384678      86.48044789
H      58.77708046      81.71271150      88.67253041
H      61.21293767      81.23839020      86.35572595
C      65.41001981      83.00906375      94.66485255
O      64.51428954      81.55019504      96.29379662
N      65.31931295      85.54129701      95.10893824
H      65.89001030      86.73938349      93.73699692
C      64.17413881      86.73371432      97.27834404
H      63.43147636      85.42791343      98.68807987
C      66.17346925      88.41935019      98.65784425
H      65.24372390      89.40578732     100.20930956
H      66.90101388      89.69302572      97.21220362
C      68.26161682      86.61088210      99.69341427
H      69.10443476      85.40901617      98.24777364
C      70.45558907      88.30785633     100.59103427
H      71.70469816      88.95225301      99.08114295
H      71.74627214      87.22504316     101.77400293
H      69.59009442      89.84798328     101.65117073
C      67.08998651      85.18035929     101.98565229
H      65.72560411      86.23671629     103.11192917
H      68.41657438      84.22415777     103.24043056
H      66.11677746      83.54385630     101.19763642
C      61.83843708      88.34565086      96.68874942
O      59.97327721      87.89589600      97.98510168
N      61.95560011      90.02750728      94.84815601
H      63.62800790      90.31474568      93.97321272
C      59.74462033      91.21992458      93.88250586
H      58.18370639      89.88577781      93.70298186
C      58.76952155      93.31563106      95.67396640