 %block lattice_cart
   135.996   0.000   0.000
   0.000 142.663   0.000
   0.000   0.000   160.158
 %endblock lattice_cart

 %block positions_abs
N      93.92787960      40.64612413      79.34389647
H      93.09262057      39.33654379      78.23462713
H      94.02047619      39.66157673      80.97662001
H      95.62485383      40.86344266      78.49729908
C      92.59940201      43.00072311      79.30421222
H      93.65953847      44.34242880      80.45316582
C      92.79782327      44.08542603      76.63402894
H      91.95878479      42.88733955      75.18271913
H      94.80282289      43.80952598      76.25608367
C      91.84162175      46.78017574      76.15970764
H      89.79693788      46.71403532      75.93105075
H      92.46901089      47.20914362      74.24352515
S      92.64286571      48.97414799      78.55021142
C      95.99901964      49.26138640      77.88124830
H      96.47334095      50.42734753      76.25041450
H      96.90041909      47.41134433      77.81321816
H      96.86262457      50.01538720      79.58956088
C      89.79126870      42.77017650      80.09222809
O      88.65365346      40.72738236      80.00341096
N      88.56294660      44.84698572      80.94260492
H      89.50969948      46.50427570      80.94638439
C      86.26881886      44.83942683      82.32399487
H      84.87609056      43.50339032      81.60589887
C      86.94723060      43.68858350      84.94504525
H      88.43255549      44.78462475      85.85778307
H      87.67666496      41.78373937      84.65780686
C      84.86664193      43.29174097      86.90091200
O      82.59708063      43.63945062      86.46816467
N      85.57528930      42.71726417      89.27251852
H      84.51515284      41.87633596      90.61989338
H      87.43666972      42.54151962      89.64668432
C      85.10096800      47.50016147      82.60556408
O      86.38220244      49.46547684      82.66036614
N      82.55550665      47.74204644      82.86823605
H      81.69568118      46.04129276      82.75296273
C      81.12687356      50.12877077      82.87768467
H      81.80528531      51.28717300      81.31488101
C      78.21291559      49.52216863      82.83611070
H      77.68946140      48.36754584      81.21094607
C      77.35686957      47.82708412      85.05464939
H      78.42834438      46.08475646      85.30031381
H      75.37265694      47.35654227      84.76174180
H      77.34364148      48.71147604      86.91414008
C      76.65389138      51.98448201      82.61501272
H      77.08852843      53.07863355      84.30442804
H      74.66967875      51.42701274      82.57154902
C      77.08663870      53.78728091      80.25852400
H      77.64977714      52.57407663      78.69194088
H      78.60786838      55.12142769      80.65158707
H      75.36509803      54.89088109      80.01663903
C      81.89977162      51.73125869      85.16425351
O      81.94890451      54.08207821      84.94504525
N      82.63487516      50.49726741      87.17870176
H      82.48180733      48.61509999      87.45838126
C      83.78004930      51.65377990      89.40479935
H      82.78227381      53.35264387      90.01329123
C      84.06539798      49.80751729      91.64790450
H      85.10096800      50.54262083      93.26928967
H      85.07262210      48.18802184      90.86555780
C      81.53694417      48.93068428      92.77040193
C      80.31807070      50.15333721      94.88500566
H      81.28750030      51.66322854      95.85443527
C      78.06929639      49.29918093      96.03584899
H      77.37954628      50.06452008      97.79707391
C      76.74081879      47.27339432      94.84343168
H      75.12132334      46.29640581      95.60688112
C      77.84819841      46.05263111      92.70804096
H      76.76727496      44.68635900      91.64412504
C      80.17256177      46.98237647      91.65735313
H      80.70735432      46.26994964      89.82242887
C      86.61085932      52.63076842      89.01551573
O      87.95067528      53.18445823      90.88823452
N      87.57273001      52.37565536      86.79508732
H      86.43511477      51.58574975      85.48172754
C      90.17866260      53.29028290      86.03730707
H      91.15376138      54.22947688      87.58877238
C      91.92476971      51.05095721      85.06031857
H      93.67465628      51.83519363      84.31009721
H      90.92132504      50.16467558      83.49184573
C      92.50491569      48.88344113      86.96138323
H      90.61329965      48.12377116      87.26562918
H      93.28726238      49.48626382      88.76796160
C      94.37007556      47.05418606      85.61211864
O      96.71711564      47.56441216      85.62345701
O      93.59906723      45.13044467      84.56898972
C      89.77993035      55.12142769      83.80931974
O      90.85329489      57.19634718      83.69782589
N      88.12453010      54.34663991      81.93282152
H      87.66532660      52.49281838      81.93282152
C      87.32706559      55.95857645      79.75585681
H      88.81805965      56.44234638      78.41982031
C      85.07451183      54.56773788      78.52186552
H      83.38320678      54.94568315      79.63302459
H      85.43355983      52.54006155      78.48785045
C      84.54916791      55.45212980      75.84790279
H      86.07795650      54.81718175      74.62336013
H      84.65877204      57.50815203      75.87435896
S      81.49914964      54.39388306      74.47785122
C      82.42511554      53.55106512      71.21996305
H      83.95768358      52.17723410      71.13870481
H      83.03738686      55.21024483      70.16360604
H      80.77538447      52.59297389      70.44328554
C      86.53904972      58.62309054      80.55521103
O      87.44422862      60.38620520      79.33633756
N      84.98569469      58.81395290      82.52241613
H      84.31484185      57.23981088      83.36523406
C      84.09374387      61.28760465      83.59956012
H      83.54194379      62.48191168      82.01407975
C      81.74292434      60.86619568      85.29842409
H      81.54639280      62.66332540      86.28864067
H      82.07740590      59.41110642      86.71949826
C      79.44879659      60.55250111      83.61278821
H      79.84563912      59.26181804      82.05565372
C      77.24537571      59.31850984      85.09244392
H      76.48381601      60.66777441      86.44926741
H      77.70646893      57.61775615      86.16013928
H      75.67501315      58.86308580      83.83955536
C      78.47747727      62.95623298      82.20872155
H      80.02705285      63.67054954      81.05031933
H      77.88032375      64.33195374      83.62223685
H      76.90144552      62.44600689      80.98606863
C      86.03260307      62.79182680      84.95071443
O      86.24425242      65.09540318      84.74473427
N      87.82406361      61.49736427      86.12612420
H      87.57273001      59.60763796      86.22061052
C      90.20889822      62.51592675      87.17681203
H      89.98968997      64.19211399      88.35600125
C      91.72634845      60.68100250      88.93803696
H      93.12285619      61.88664789      89.85644394
H      92.77136710      59.16922145      88.00829162
C      89.88764475      59.56795370      91.00917700
H      88.57239523      58.31506515      90.03974740
H      88.74247060      61.07973476      91.81609013
C      91.31060866      58.25459392      93.11055266
H      92.21011839      59.61330713      94.36911038
H      92.75813902      57.09430196      92.21293266
N      89.53048647      56.78627658      94.54863438
H      88.79349321      55.30284142      93.59999178
C      88.85018500      57.00737455      96.90701282
N      89.52670702      58.91788786      98.31296919
H      88.68388909      59.21268516     100.00049479
H      90.78715447      60.27849079      97.85754515
N      87.45556698      55.40488663      98.15801165
H      86.86408265      55.79228054      99.93057493
H      87.14943132      53.60397746      97.60621156
C      91.87185738      63.61763720      85.00551651
O      93.01703152      65.56783474      85.57243440
N      92.06083001      62.51592675      82.79642644
H      91.39186689      60.76981964      82.42226064
C      93.39875624      63.65732144      80.73095559
H      95.20533459      64.25636468      81.51897145
C      94.09606525      61.61263757      78.69005116
H      92.38964239      60.65454634      78.04565449
C      95.24501884      63.00536587      76.44694603
H      95.87051825      61.72791089      74.95406225
H      96.98923623      63.93322149      77.03276118
H      93.86362891      64.14865029      75.43594246
C      95.88752579      59.50370301      79.72751091
H      95.21478322      59.31850984      81.66637010
H      97.89063568      59.93267088      79.52342047
C      95.46044764      56.95257249      78.48218126
H      96.80593278      55.50882158      79.06610670
H      95.83650318      57.05083826      76.45828438
H      93.51591927      56.29305801      78.63146964
C      91.81516559      65.99302316      79.95616779
O      92.98301645      67.94700017      79.77097462
N      89.44733852      65.73413066      79.46294923
H      88.43255549      64.14487084      79.76152599
C      87.99791843      67.72023302      78.28942919
H      89.09962887      68.12085500      76.59434468
C      85.32962488      66.81316438      77.69794484
H      84.21279663      68.52336671      77.44094207
H      84.74380972      65.59429092      79.25318961
C      85.31261734      65.36752375      75.24319037
O      86.55416753      66.17065745      73.34401542
O      83.98602947      63.41165702      75.15437323
C      87.97524172      70.10884707      79.93349108
O      88.79538294      72.10817752      79.14547520
N      87.22124092      69.78948333      82.28242089
H      86.75258879      68.00558170      82.77374973
C      87.10596761      71.83227747      84.11734514
H      86.71101481      73.61239966      83.16114362
C      84.93089263      71.40708906      86.01274063
H      85.19734404      72.97178245      87.32421068
H      85.36930913      69.63074633      86.96138323
C      82.25692990      71.22000616      84.83355140
H      80.83396598      70.54915331      86.16391873
H      82.43267444      69.96900734      83.20649705
C      81.15144000      73.66720172      83.64869300
O      81.51804691      75.75912876      84.63890960
O      80.11020080      73.41397841      81.46227966
C      89.48891249      72.29337070      85.78597346
O      90.20889822      74.53836555      86.03352761
N      90.67755035      70.38852658      86.81398459
H      90.10307355      68.59895576      86.47950302
C      92.51436432      70.92520885      88.85677872
H      93.83906247      72.34250359      88.17269780
H      93.74268643      69.38508191      89.46149114
C      91.14998192      71.81149049      91.29263595
O      88.82939801      71.44488358      91.50995448
N      92.55593830      73.01713588      92.98205126
H      94.37574474      73.09083521      92.40190530
C      91.59595733      73.79003393      95.57853522
H      89.53804538      73.68420927      95.58042495
C      92.70144723      72.04392682      97.63644718
H      94.75746946      71.97589668      97.54574032
H      92.10807316      70.12207516      97.19425123
C      91.95878479      72.92453929     100.25938731
H      92.41420883      74.92953891     100.37655034
C      89.17332820      72.78847900     100.84520246
H      88.56672605      70.82883281     100.65245038
H      87.99413898      74.08294152      99.76049955
H      88.95789940      73.36484551     102.81051783
C      93.61229531      71.61684867     102.28895336
H      93.16631990      69.65153332     101.86754439
H      93.24190895      72.27258371     104.20702556
H      95.63241274      71.85495420     101.96769989
C      92.05894028      76.60194670      96.20970381
O      94.13197005      77.65263452      96.02451063
N      89.93677763      77.79625372      97.01850667
H      88.35318698      76.75879398      97.27173000
C      89.99913860      80.44565001      97.90856777
H      91.93421834      81.15051793      97.86132461
C      88.48735755      81.95176188      95.99427501
H      88.00547734      83.71109709      96.95047652
H      86.77148606      81.03902408      95.30830436
C      90.25425165      82.75300583      93.80408221
H      90.85707435      80.97288366      92.96126428
H      91.96067451      83.59582377      94.59020836
C      88.87286172      84.31958896      91.87467165
H      88.09618420      85.88806179      92.96126428
H      87.18911557      83.45976348      91.05453042
N      90.66243254      85.23610622      89.97171726
H      90.44322428      84.82225616      88.11978547
C      92.68066024      86.72521054      90.31564744
N      93.07750276      87.87038469      92.46426625
H      94.62707834      88.97209514      92.62111355
H      92.07027864      87.48299081      94.04029800
N      94.35873720      87.14095033      88.51473827
H      95.75146550      88.37494163      88.93614724
H      94.08283716      86.17152074      86.89524282
C      88.80294184      80.70265278     100.45591884
O      86.56172644      80.02802050     100.67323737
N      90.37708386      81.25823233     102.32485816
H      91.97390260      82.12183726     101.72959438
C      89.57772963      81.36216728     104.95346747
H      88.27003902      79.80692251     105.28416956
C      91.97957178      80.86138981     106.48603551
H      91.40509498      81.23933507     108.42678442
H      93.51402954      82.18230850     106.11186969
C      92.95845001      78.09483048     106.36698275
H      93.35907198      77.81137154     104.36954203
C      95.44344011      77.77735646     108.04316999
H      96.44499505      76.09550004     107.39877331
H      94.89164002      77.82270989     110.02738262
H      96.94010335      79.15496694     107.71246788
C      91.05738533      76.20510417     107.46680346
H      90.29582563      76.84383166     109.27338182
H      91.86807792      74.31348813     107.54617196
H      89.47946386      76.19754526     106.14399504
C      88.05083077      83.88117245     105.50715727
O      87.01337102      83.98699713     107.52538497
N      88.22279587      85.74444260     103.84419811
H      88.79538294      85.22854731     102.09809101
C      87.26848408      88.32202928     104.13521597
H      86.41432778      88.56202452     105.99470666
C      89.43977961      90.18907889     103.77238852
H      88.71601443      91.99943669     103.10720486
H      90.80983119      89.49365959     102.40044721
C      90.77392639      90.51789126     106.31596013
H      91.67910529      88.72454099     106.77327390
H      89.55127346      91.01866874     107.89577134
C      92.56538693      92.75910667     105.93045597
H      91.31816757      94.39560966     105.97769913
H      93.55749325      93.08791905     104.15411323
C      94.30960432      92.94618958     108.06962615
H      95.67398672      91.40417291     108.12631794
H      93.18143771      92.86304162     109.79116683
N      95.36407160      95.41039269     108.11497959
H      94.15842621      96.88248949     108.24537070
H      96.28625804      95.56723996     106.45202043
H      96.61696015      95.51999681     109.55306130
C      85.28994063      88.57336289     102.04328894
O      85.44678791      87.56613875      99.93057493
N      83.25659511      89.89050212     102.49115407
H      83.31517663      91.06591189     103.99348649
C      81.18923453      90.40072823     100.72425997
H      80.32751933      88.66029030     100.03639960
C      79.03116708      92.11282026     101.83541904
H      79.99114805      93.80601505     102.51194107
C      77.00538047      92.52856005      99.77372764
H      76.39877832      90.72009198      98.99893984
H      77.88977239      93.75310271      98.37155071
H      75.60698300      93.86837602     100.47859555
C      77.65733605      90.73898924     104.04639884
H      78.93101158      90.38938988     105.62809975
H      77.24537571      88.84170402     103.36609735
C      75.19502266      91.92195792     104.98748253
H      73.70969778      91.78967707     103.56829808
H      75.79595563      93.87782465     105.23692641
H      74.72448081      91.24354616     106.87342940
C      82.34574703      91.63471952      98.37721989
O      84.01437537      93.20886153      98.46036786
N      81.35742017      90.89205707      96.17757846
H      80.00248640      89.55413085      96.32119766
C      81.91677916      91.71408802      93.68125000
H      82.97691562      93.46964377      93.88534044
C      83.86130753      89.92262747      92.61544437
H      85.53182560      89.77333909      93.81353085
H      84.68522821      90.59725977      90.85421944
C      82.94290055      87.30535653      92.03340866
C      82.27771688      86.69497492      89.58432335
H      82.15488467      88.04801896      88.06120395
C      81.81851339      84.13439578      89.00228766
H      81.44434758      83.51078610      87.09744353
C      81.82985175      82.26167700      90.96004412
O      81.00026190      79.92030610      90.37044950
H      80.94357011      79.81448142      88.56009169
C      82.46479979      82.95898600      93.49605682
H      82.65377242      81.58515498      94.99272007
C      83.17344716      85.46476310      93.99116512
H      83.77815958      85.95987140      95.87711198
C      79.74926308      92.06179766      91.91057645
O      77.72158674      91.12071395      92.62111355
N      80.02516312      93.35248073      89.76573708
H      81.76182160      93.93073699      89.22527535
C      78.08441420      93.60948351      87.89868748
H      76.30618174      93.01421971      88.75095405
C      77.75371209      96.36848393      86.99539830
H      76.55562561      97.27744229      88.40324442
H      76.86365100      96.62737643      85.15480489
C      80.32373988      97.71396906      86.74217499
H      81.44434758      96.54989766      85.46283026
H      81.10419684      97.59491630      88.64512939
C      80.34830632     100.54288935      85.91069540
H      79.25793424     100.77343597      84.17781638
H      82.34196758     101.05878464      85.88234952
C      78.81384855     102.34568825      87.66814088
H      79.50737811     101.70318131      89.49739594
H      76.79184140     101.98097107      87.50373468
N      79.35053083     105.15760101      87.08232571
H      77.69135112     106.02876484      87.44137371
H      79.64910758     105.32011747      85.20393777
H      80.61286800     106.03065457      88.21616151
C      78.49637453      91.84825858      85.62912619
O      80.77349474      91.22086945      85.13023843
N      76.61798658      91.18307492      84.19104447
H      74.97959386      92.11848945      84.46505477
C      76.54428725      89.69586032      81.86857083
H      78.38299095      88.83225538      81.52842009
C      74.51850064      87.90817922      82.31832569
H      72.65712023      88.56580398      82.89847167
H      75.26116308      86.71954138      83.82821700
C      73.80040464      86.06947552      80.07144109
O      71.79540503      86.56836327      78.93382585
O      75.33864186      84.34415540      79.47239785
C      75.93012620      91.38149619      79.52531020
O      74.95691715      93.48287185      79.68593694
N      76.53861807      90.21742477      77.33700712
H      76.82774620      88.33525737      77.47117769
C      76.01138443      91.44763660      74.97484924
H      76.89766607      93.29956840      75.15248351
C      77.23403736      89.94719391      72.79599479
H      76.78428249      90.94307969      71.04988769
C      80.08185491      89.64672743      73.13803526
H      80.58641183      89.00044104      75.02776157
H      80.73947967      91.58747636      72.93016537
H      80.94168038      88.42596424      71.72074052
O      76.00382553      87.44519628      72.80166397
H      77.03372637      86.20175637      73.63125383
C      73.30340662      92.28478537      74.34368065
O      73.16167715      94.27277745      73.17582979
N      71.26628166      91.04890436      75.27342599
H      71.45903374      89.65995552      76.56788852
C      68.64145181      91.87471475      74.93516498
H      68.26917573      92.40005867      72.97929824
C      67.09754541      89.80168499      76.18994326
H      67.38289409      89.63916853      78.22328877
H      67.92524554      88.02156281      75.56444384
C      64.31397855      89.82058226      75.20161638
H      63.14612769      91.32858384      75.98018364
H      63.39557156      88.16329228      76.01230897
C      64.32531691      89.83758979      72.36513720
O      65.32876158      87.97809910      71.38814869
O      63.35399759      91.61771198      71.04043904
C      68.06508528      94.27844663      76.47151247
O      66.19047678      95.62960093      75.97073500
N      69.64867593      94.74709875      78.39525386
H      71.15667753      93.57735817      78.43493811
C      69.49371838      96.77288535      80.19994248
H      68.42602301      98.43962397      79.63302459
H      71.41368031      97.50798889      80.36245895
C      68.55452440      95.80345576      82.79642644
O      67.78540579      97.31523680      84.29875886
N      68.49405316      93.29389921      83.24240185
H      69.34631972      92.04290040      82.07833045
C      67.73249345      92.21864495      85.69337687
H      66.31708844      93.42429033      86.57776879
C      66.46448710      89.59381509      85.33243916
H      65.62544861      89.12138352      87.15224559
H      67.75139072      88.22943269      84.47450341
C      64.26484567      89.59948428      83.43326421
C      63.59966201      87.30724626      82.30509761
H      64.90168344      85.73499397      82.32588458
C      61.36978496      87.36015860      80.67993297
H      60.81042597      85.73877341      79.57633281
C      59.95815940      89.59381509      80.27175209
O      58.10244816      89.68074250      78.46517374
H      57.48450766      91.38338592      78.54643196
C      60.66869650      91.83125105      81.53975845
H      59.44982302      93.43562868      81.20338716
C      62.72660845      91.76889008      83.14035664
H      63.35021813      93.34303209      84.27797188
C      69.80552322      92.28289564      87.69837650
O      71.90122970      93.25988414      87.19192985
N      69.26884095      91.76511063      90.04919603
H      67.49816739      91.21709000      90.50650979
C      71.10754465      91.45708524      92.01262168
H      72.95758671      91.90495037      91.22838526
C      70.78062200      93.45452596      94.16690967
H      71.51950498      92.82146764      95.98293666
H      68.80207855      93.66617530      94.69981248
C      71.85776599      95.94896469      93.70392673
C      70.65590006      97.80656565      92.14112305
H      68.73026895      97.50231971      91.53641063
C      71.47793101     100.28210712      92.02962921
H      70.30063151     101.60869500      91.02051536
C      73.91378822     101.03610792      92.93102866
O      74.85676165     103.22630072      92.22805048
H      73.63788818     103.97085288      91.10744277
C      75.35564940      99.18228640      94.11966650
H      77.14899967      99.86258788      94.82264469
C      74.38999925      96.73509083      94.65256933
H      75.55218094      95.27433239      95.47460028
C      71.30029673      88.71887181      93.00283826
O      69.32175328      87.41118121      93.16535473
N      73.55096077      87.97809910      93.80219249
H      75.02116784      89.13461160      93.41857805
C      74.41078624      85.30791582      94.04974664
H      72.80640860      84.27045607      94.81508580
C      75.33486241      84.28746360      91.48916748
H      76.91467361      82.96654492      91.46649077
C      73.13900043      82.99678053      89.83754669
H      71.42312894      84.09849098      89.54085966
H      72.57208254      81.15996655      90.57453994
H      73.93646494      82.67363734      87.96860736
O      76.10587075      86.33214747      89.91502546
H      77.84063950      86.73654891      90.25895565
C      76.50838245      84.96587536      96.11899695
O      77.78772716      86.71576192      97.03173476
N      76.86554072      82.54702568      96.89945391
H      75.73737412      81.21287890      96.13411475
C      79.00849036      81.70609746      98.46981648
H      80.66767007      82.80402845      97.92935476
C      78.32440944      82.10671944     101.24771417
H      77.17545584      83.80369366     101.44991488
C      76.76349550      79.98644651     102.45146983
H      74.82463631      80.21321368     101.79762451
H      76.64822220      80.23589039     104.49237425
H      77.47592232      78.09860993     102.03573004
C      80.75081802      82.38450921     102.74059795
H      82.25881962      83.40118197     101.77494780
H      81.35175099      80.41919385     102.86531989
C      80.51271251      83.66574365     105.36542780
H      78.70613415      83.16874562     106.21958410
H      80.67522897      85.69719944     105.07629968
H      81.96969150      82.97032436     106.64666223
C      79.91177954      78.90552306      97.90478832
O      78.52849988      77.56003793      96.68969429
N      82.09441343      78.09294076      98.91390216
H      83.27360265      79.46299233      99.52806322
C      82.66889023      75.40763967      99.07452890
H      81.05695369      74.34939293      99.80396325
H      84.29216513      75.18843141     100.32363799
C      83.43800884      74.59505735      96.41568398
O      84.17122265      75.94999112      94.74327620
N      83.02415878      72.15353094      96.01317228
H      82.11520042      71.49023702      97.55518894
C      83.05628413      70.84961980      93.52629244
H      84.59830080      71.54314935      92.35088269
C      83.48147255      67.96967690      94.01195211
H      81.76371133      67.07961579      94.72248921
C      83.90855069      66.92465825      91.33420992
H      85.81906400      67.49346587      90.82209409
H      82.49314568      67.60118026      89.99628370
H      83.71390888      64.87808465      91.46271132
C      85.76237221      67.16276376      95.80908184
H      85.42600092      68.00558170      97.65723417
H      87.43477999      68.03014814      94.97571253
C      85.88331469      64.32250511      96.34954355
H      85.09340909      63.82928655      98.18635753
H      87.92043966      64.02770781      96.24749834
H      85.02159949      63.20756658      94.84721113
C      80.61097828      71.39197125      92.09010045
O      79.03872598      69.72901210      91.90490727
N      80.07618573      73.65964283      91.21326744
H      81.50481882      74.91064164      91.41546815
C      77.75938127      74.36640046      90.03029876
H      77.58741618      73.24390304      88.31064783
H      77.99370733      76.27880350      89.30086442
C      75.14211033      74.32860593      91.32287156
O      73.19569222      73.59161268      90.31375771
N      75.17801513      74.83694232      93.84187675
H      76.83530510      75.52480270      94.49383232
C      72.90089492      75.09583482      95.36310642
H      71.54218170      73.75223942      94.59209809
C      73.50749707      74.71599984      98.22037260
H      74.38055062      76.43754051      98.93846860
H      74.58086161      73.00768724      98.63989186
C      71.21714877      74.32482649      99.86632422
N      69.80174377      72.27447344     100.12899619
H      70.16835067      70.73623622      99.05941110
C      67.63044823      72.80548653     101.25149362
H      65.87489249      71.76424732     101.23826553
N      67.76461880      75.29614581     101.97714851
H      66.47771518      76.35628227     102.90878360
C      69.98882667      76.18998636     101.08519770
H      70.55574456      78.12695582     101.38188473
C      71.77650776      77.64696534      94.93791801
O      72.79318052      79.58393482      95.76372840
N      69.56363825      77.72822358      93.72471370
H      68.87010869      76.05203633      93.13133964
C      67.90256882      79.87684239      93.41101914
H      68.86821897      81.36027755      92.35844158
C      65.64056642      79.03591419      91.75183943
H      64.87711699      77.31815296      92.59654710
H      66.22071240      78.48411410      89.85455423
C      63.57698529      80.99367065      91.31720239
H      62.71715982      81.31303439      93.16346499
C      64.04185796      83.68275119      89.97927615
H      62.17102891      84.49722322      89.70715557
H      64.99805948      83.07047987      88.25962521
H      65.18136293      84.88272740      91.20759827
C      61.63623637      79.74078210      89.73928091
H      61.25640138      77.78491537      90.26651456
H      62.36756045      79.51968412      87.82498817
H      59.98272584      80.96910421      89.79786243
C      66.92180087      80.96343503      95.99238528
O      65.86355413      79.63306770      97.54196087
N      67.08431733      83.56936760      96.37788946
H      67.83642840      84.62572462      94.97571253
C      66.00906306      84.84682260      98.52839800
H      65.32309240      83.51834500      99.94569273
C      68.03107021      86.60615780      99.73971257
H      66.95770566      87.49243944     101.25716279
H      68.93057994      87.90062031      98.40934524
C      70.29685206      85.18697334     100.90567370
H      71.18691315      84.05502727      99.43168718
C      72.12610713      86.97465442     101.98470742
H      73.06908056      88.18218954     100.60898667
H      73.39600321      86.03168100     103.30373640
H      71.05463231      88.33714710     103.09397677
C      69.55229989      83.33315182     102.99760072
H      71.08864739      82.35994276     103.96514061
H      68.28240381      81.95743107     102.13588553
H      68.48082507      84.25722799     104.49615370
C      63.63556681      86.27923514      97.74605130
O      61.61922883      85.77089876      98.68146583
N      63.86044424      88.01211416      95.88467089
H      65.44214516      88.01400390      94.81319606
C      61.71560487      89.49176988      94.99838924
H      60.11311696      88.20675598      95.16279544
C      61.37167468      91.80290516      96.77851143