 %block lattice_cart
   135.996   0.000   0.000
   0.000 142.663   0.000
   0.000   0.000   160.158
 %endblock lattice_cart

 %block positions_abs
N      88.98057611      42.86277310      80.58828124
H      88.89364870      43.20103411      82.46477947
H      90.71912432      42.62466759      79.83617017
H      87.98846980      41.32453588      80.05537842
C      87.58595809      44.94336177      79.42232011
H      88.07350748      46.73293259      80.32182983
C      88.38531232      45.50272076      76.74457792
H      87.74847456      44.05708013      75.41987978
H      90.43755510      45.68791394      76.74457792
C      87.46879506      48.17479377      75.96412095
H      85.51670778      48.40723010      76.57828201
H      87.81461498      48.59809246      73.97801860
S      89.44733851      50.26483107      77.75180205
C      87.48391287      52.96902942      77.78392739
H      88.50058563      54.50726664      78.70233438
H      85.85874824      52.53628210      78.97256524
H      86.78282441      53.51516033      75.92443670
C      84.85908302      44.54085007      79.88341333
O      83.59863557      43.05174573      78.61351724
N      83.75737258      45.89956329      81.72967593
H      84.90443646      46.87466206      82.90508570
C      80.97002627      46.18302223      82.13407737
H      80.06106792      45.14178304      80.60717850
C      80.44846181      44.76005832      84.69843597
H      81.31584619      42.89300872      84.62095719
H      78.40188821      44.53329116      84.71544351
C      81.24025713      46.17357360      87.09838839
O      81.89221271      48.42234792      86.82815753
N      80.83018652      45.22115154      89.28102228
H      81.86953600      45.98082152      90.69075811
H      80.28783507      43.39378620      89.22999967
C      80.05539874      48.93257402      81.95455337
O      81.39143524      50.71080648      81.27425189
N      77.61765179      49.31429873      82.48745619
H      76.36476325      47.87621701      82.48745619
C      76.37610161      51.90700324      82.13596709
H      76.76538523      52.66289376      80.25946886
C      73.51883542      51.59141894      82.53847880
H      72.81585723      50.14199886      81.25346490
C      72.55885445      50.80718252      85.19921345
H      73.55096077      49.16878981      85.96455260
H      70.54251648      50.39333246      85.10661686
H      72.92168191      52.46636223      86.36328485
C      72.15256330      54.01971725      81.91486911
H      72.26216742      55.27260580      83.54759265
H      70.15701231      53.57374184      81.64841770
C      72.74404763      55.74881683      79.70388933
H      71.15667753      57.04516908      79.50168861
H      73.02750658      54.63954749      77.98990756
H      74.52039037      56.73714369      80.02136335
C      77.59119562      53.84775216      83.98033997
O      77.98425870      56.04361414      83.29436932
N      78.34330670      52.96336025      86.15352523
H      78.25826901      51.11898736      86.64107462
C      79.42234042      54.57907624      88.05836936
H      78.39999849      56.36675734      88.12450978
C      79.32029520      53.35264387      90.69264784
H      80.21224602      54.63576803      92.03435352
H      80.50515360      51.67078745      90.54902864
C      76.77294413      52.42100879      91.70365141
C      75.31029596      54.05751178      93.16629958
H      76.15878308      55.82629561      93.73132775
C      72.86687984      53.45657881      93.83715242
H      71.91445778      54.81340231      95.02390055
C      71.87855298      51.04339831      93.09071053
H      70.04929791      50.46325233      93.78612981
C      73.33931142      49.42957204      91.55814249
H      72.56830308      47.66267794      90.88917937
C      75.75627137      50.00782829      91.01768076
H      76.90144552      48.59809246      90.08982514
C      82.21157646      55.32740786      87.34594254
O      82.93723136      57.52893902      87.65396793
N      83.61753284      53.64177199      86.16486359
H      83.06384303      51.81818610      86.04203138
C      86.06850786      54.21813852      85.29936894
H      87.05494500      55.46157843      86.61083900
C      87.50281014      51.74259705      84.58505239
H      89.24702752      52.56462799      83.86695639
H      86.36519490      50.79206471      83.15452957
C      88.03382323      49.94357760      86.79036300
H      86.32551064      49.48059465      87.84105083
H      89.19411519      50.80529280      88.25868035
C      89.54182483      47.67779575      85.93998616
O      88.37397397      45.95625508      84.69843597
O      91.94744642      47.61732451      86.05148001
C      86.07228732      55.88676685      82.93154187
O      87.84107115      57.22658281      82.25313012
N      83.85941780      56.00204016      81.68054305
H      82.28716551      55.14977359      82.34005753
C      83.46068555      57.63665342      79.37318722
H      85.24080774      57.68578630      78.33761720
C      81.21758042      56.48392037      77.95589249
H      79.54895208      56.80895329      79.12185362
H      81.44812703      54.43734677      77.98612811
C      80.82451735      57.57618218      75.32539346
H      82.55550665      56.89210125      74.44478100
H      80.83774543      59.62842495      75.48413047
S      78.17134160      56.15321826      73.67377266
C      78.96313693      56.44801557      70.29683174
H      77.80095525      55.22914209      69.10819389
H      80.82262762      55.69590449      69.82817962
H      78.98581364      58.44734601      69.79983372
C      82.68589776      60.41077164      80.23112297
O      83.97280138      62.19467328      79.53381396
N      80.78105364      60.61864154      81.90919993
H      79.91744872      59.03694062      82.53847880
C      80.02516312      63.10741109      82.82949665
H      79.95524324      64.36974826      81.20244229
C      77.46080451      63.01292478      84.16175370
H      77.32852367      64.93666616      84.88362915
H      77.60253398      61.45201084      85.49779020
C      75.29328843      62.43655825      82.28336574
H      75.87532413      60.90587994      81.03614638
C      73.08419837      61.41610604      83.69499130
H      71.32486317      61.62397594      82.64241374
H      72.98971205      62.69545076      85.30692785
H      73.27317100      59.43567287      84.22789412
C      74.59786914      64.74769353      80.71111345
H      76.32885845      65.13886688      79.66231535
H      74.15567319      66.35018145      81.92620747
H      73.00105041      64.24502632      79.51302697
C      82.21157646      64.34707155      84.31860098
O      82.50259431      66.67143492      84.03703176
N      83.68367326      62.97890970      85.80770532
H      83.19234442      61.14587518      85.99100877
C      85.72268795      64.01259000      87.26279458
H      84.86664193      65.58295256      88.28702624
C      86.79794222      62.06428217      89.13173390
H      87.48013342      60.40132301      88.12828923
H      85.31450707      61.52193072      90.45454232
C      89.14120285      62.97324053      90.85138485
H      88.28515683      64.25636468      92.21765697
H      90.63219691      63.99747219      89.86494771
C      90.54904895      60.88320322      92.35938645
H      91.59217788      61.60696840      93.98266135
H      91.69800255      59.88164828      90.97232733
N      88.61774866      59.06339678      93.30235988
H      88.53082125      57.51760066      92.18742135
C      87.09273953      59.26748723      95.39617663
N      87.40454437      61.09296284      97.08748168
H      86.27070858      61.05327859      98.62382917
H      88.75191923      62.40821236      96.78323574
N      85.32962488      57.62153561      95.69097394
H      84.45279187      57.57240272      97.38605844
H      85.12175498      56.08896757      94.57225596
C      87.79193826      65.23335320      85.78691833
O      88.77081649      67.16465349      86.64674380
N      88.16799380      64.45289623      83.43798852
H      87.15699022      62.87119530      83.09216861
C      90.01236668      65.48279706      81.73534511
H      91.38241826      66.50891846      82.88429871
C      91.53926554      63.48535636      80.25379968
H      92.14208823      62.13420204      81.68999168
C      89.90465228      62.11908423      78.43777270
H      91.04037779      60.70367922      77.46456365
H      89.02970900      63.50236389      77.18677388
H      88.33617944      61.06272722      79.25224474
C      93.85795973      64.60785379      78.88752756
H      93.07561303      65.87963959      77.46645337
H      94.70644684      63.11119055      77.75369177
C      95.92909977      66.03837660      80.21789488
H      96.67365193      65.18611004      81.93754583
H      95.43210175      68.01692005      80.51458192
H      97.56182330      66.02892797      78.96311661
C      89.06939325      67.50669394      80.04781952
O      90.35251742      69.40775862      79.88908251
N      86.70534563      67.25725008      79.25224474
H      85.82284344      65.57728338      79.44877627
C      85.32017624      69.15264557      77.67432327
H      86.62786685      69.72523263      76.18899838
C      82.88998821      67.96967690      76.34962512
H      81.69568118      69.50413466      75.67688255
H      81.73914488      66.87363563      77.66109518
C      83.34541225      66.56183079      73.90053982
O      85.12553443      67.26102952      72.47190673
O      82.24370181      64.53604419      73.53393292
C      84.25626033      71.50157538      78.95177825
O      84.56806517      73.62751747      77.98612811
N      83.43422938      71.37496370      81.25346490
H      83.17155743      69.67609975      82.08494448
C      82.49503541      73.66342228      82.73878979
H      82.07362644      75.23000538      81.47078343
C      80.07429600      73.09083520      84.06348793
H      79.34108219      74.78591970      84.97811547
H      80.41444674      71.55448771      85.39007580
C      78.01071487      72.09494944      82.30604246
H      76.64444274      71.50724454      83.73089610
H      78.60219920      70.39230603      81.30448751
C      76.87309963      74.30592921      80.73190044
O      77.69324085      76.55659325      80.79615114
O      75.09108771      73.73523188      79.25035501
C      84.45657132      74.58371898      84.63418528
O      84.59641107      76.86272892      85.20488262
N      86.09307431      72.94154683      85.57526898
H      86.04583115      71.15953491      84.89496751
C      88.39287123      73.60673049      87.11917538
H      89.26781451      75.26024101      86.25179100
H      89.65898786      71.98345559      87.03791715
C      87.73146702      73.96766820      89.89707306
O      85.72457768      73.01524614      90.64918413
N      89.31505767      75.02969440      91.54113495
H      90.65676335      76.21266307      90.87784102
C      88.80105211      75.27535882      94.33792989
H      86.76959633      75.07882729      94.60438131
C      89.95567489      73.10784273      95.84593149
H      91.90965190      72.98123108      95.20720400
H      89.04104735      71.35228700      95.27901360
C      89.63820087      73.43665512      98.67296206
H      90.34495851      75.32449171      99.10759911
C      86.96612786      72.77903036      99.62160467
H      86.86408264      73.04359204     101.66250908
H      86.49369629      70.79103828      99.36649161
H      85.57339957      73.84483600      98.54068122
C      91.42777169      71.55826717      99.99199102
H      91.72634845      71.96644804     101.99132146
H      93.28537265      71.57527469      99.10192993
H      90.65298390      69.66287167      99.77656222
C      89.74024609      77.86617359      95.07870261
O      91.95122588      78.41608396      95.05791562
N      87.90343211      79.44787451      95.93474863
H      86.10819212      78.81103674      95.81002669
C      88.18311161      81.97632832      97.09882004
H      90.18811123      82.41474483      97.27267486
C      87.24391763      84.00589439      95.36405128
H      87.15887995      85.89373098      96.18608223
H      85.33529406      83.57314705      94.72721352
C      88.97679666      84.39706774      92.93764270
H      89.58339881      82.52623869      92.32726110
H      90.79282365      85.27012129      93.36472084
C      87.67666496      85.71609670      90.65674304
H      89.26025561      86.23955088      89.44731820
H      86.53715999      87.29779763      91.32003697
N      86.15543528      83.90762861      89.21299213
H      85.91355031      82.14262423      89.89518333
C      85.53560504      84.36116294      86.84705479
N      85.80016673      86.42474406      85.49212102
H      85.51103860      86.42096462      83.60428444
H      86.42377641      87.96487100      86.42942528
N      84.84018576      82.40340647      85.63762995
H      84.22791444      82.91363258      83.90286119
H      84.41877679      80.68942470      86.36328485
C      86.94534087      82.16530095      99.79734921
O      84.79861178      81.45476387      99.94096841
N      88.16421435      83.22354770     101.61337620
H      89.76481253      84.19864646     101.24865902
C      87.31761696      82.94386819     104.21930879
H      85.79638728      81.55491936     104.23064714
C      89.53804538      81.96498997     105.90683438
H      88.80294184      81.95176188     107.83057577
H      91.09706958      83.28968811     105.66305969
C      90.18622150      79.22677653     105.31912950
H      90.53015169      79.06992926     103.29523262
C      92.59562255      78.65418947     107.05011880
H      94.05260154      80.00534378     106.51721598
H      93.12852537      76.72666863     106.55123106
H      92.19122112      78.75623469     109.06645678
C      88.01681569      77.21988720     105.88604739
H      87.37619847      77.23500501     107.84191413
H      88.68766853      75.28480745     105.65928024
H      86.25370104      77.54114067     104.86937464
C      86.25748050      85.46665283     105.24920963
O      85.00081250      85.39862268     107.18995855
N      86.47479902      87.51511615     103.80545872
H      87.36486012      87.10315582     102.16895574
C      85.13120361      89.93207610     104.04734369
H      84.30917267      89.99632680     105.93707000
C      87.11730597      92.04479012     103.97742382
H      87.97524171      91.62527088     102.15194820
H      88.65365346      91.66306540     105.29456306
C      86.00614690      94.66961997     104.08135876
H      84.74191999      94.90205631     105.69140558
H      85.19923376      95.10803648     102.23698588
C      88.21334723      96.41005791     104.49331910
H      89.30749877      96.22864417     102.75666062
H      89.26025561      96.07179690     106.23375704
C      86.96801759      98.96307816     104.55945952
H      85.24080774      99.14260215     103.45207990
H      88.19822942     100.35391671     103.66183952
N      86.59007233      99.73408649     107.22586335
H      88.28893628      99.49598098     108.06490183
H      85.25970500      98.71552400     108.14049089
H      86.14220719     101.57656965     107.43184352
C      82.96746698      90.28167547     102.21997835
O      83.09218892      89.03445611     100.31324450
N      81.25915440      92.09581274     102.50721675
H      81.33474345      93.15972865     104.09080740
C      79.18612463      92.55690595     100.88016239
H      78.28472518      90.78434266     100.34536984
C      77.25104489      94.19907811     102.17840437
H      76.80129003      93.08791905     103.85459161
C      78.07496556      96.76154700     103.24609973
H      78.76093621      97.89160334     101.66817826
H      79.81351377      96.64627369     104.34781017
H      76.59342013      97.87081635     104.14938891
C      74.94746851      94.53544941     100.55323974
H      74.33330746      92.72320186      99.79734921
H      75.43879735      95.69385163      98.92051620
C      72.79507024      96.10581197     101.69841388
H      71.43446730      96.61792780     100.23765544
H      73.18246414      97.95585403     102.51666538
H      71.95225231      94.98520426     103.20641548
C      80.05161928      93.86081710      98.42351818
O      81.72969625      95.46141529      98.48209970
N      78.89132733      93.15028001      96.22198703
H      77.74804291      91.63660924      96.42985692
C      79.53572400      93.96097260      93.65006952
H      80.07051655      95.94518523      93.77668118
C      81.65221747      92.23565247      92.61638922
H      83.24525675      91.96353189      93.89384421
H      82.34952648      93.28256086      90.98366569
C      80.93979065      89.48610070      91.86805760
C      79.98169941      88.90784444      89.45676683
H      79.72847608      90.22876314      87.92041934
C      79.13510202      86.47576668      88.96543799
H      78.49259508      86.00333510      87.08705003
C      79.42234042      84.60304790      90.77957525
O      79.09541777      82.05569683      90.19376009
H      78.84597390      81.75900979      88.42308654
C      80.25004055      85.12461236      93.22299137
H      80.74136939      83.62227995      94.51178472
C      80.84719406      87.67952234      93.75778392
H      81.51048800      88.20108680      95.61727461
C      77.17734556      94.19529866      91.88695487
O      75.32541378      92.98776355      92.48977756
N      77.21325036      95.76377150      89.89329361
H      78.49637453      97.17350734      89.84038127
C      75.18935348      95.74865370      87.95065496
H      73.41679020      95.14583100      88.80670098
C      74.42023487      98.30167395      86.77713492
H      72.69680447      98.11648077      85.66597584
H      75.94902346      99.06134392      85.62440187
C      74.04795879     100.27454822      88.88984893
H      75.77705836     100.68461883      89.92919841
H      72.80451887      99.55456248      90.36572519
C      72.85365176     102.75575886      87.79758713
H      70.88644667     102.39482114      87.29114047
H      73.89489096     103.12425549      86.05903892
C      72.98404287     105.08201196      89.60794493
H      74.88132809     105.76231343      90.02935390
H      72.28673386     104.32801116      91.39373630
N      71.48548991     107.28165338      88.87662085
H      71.63477829     108.72351456      90.11817104
H      69.68080128     106.78465536      88.50623449
H      71.87288380     108.08667680      87.18909525
C      75.81863234      94.02144384      85.84738957
O      77.99181760      93.80979450      85.06126342
N      73.89678068      92.81012928      84.86851134
H      72.26405715      92.67028953      85.85116902
C      73.98181837      91.46464414      82.51769181
H      75.50871723      90.09837201      82.71422334
C      71.62721938      89.75633156      82.15486436
H      69.98315749      90.97331530      81.90164103
H      71.41745976      88.64139303      83.87640503
C      71.93146532      88.20297652      79.75680166
O      73.23726620      86.28868378      79.90042086
O      70.50661168      88.63383412      77.95211303
C      74.37677117      93.20130263      80.32560928
O      74.31063075      95.55023243      80.43332368
N      74.95313769      92.43785320      78.02581236
H      75.51438641      90.68796663      77.50991708
C      74.80195959      94.24821101      75.79782504
H      75.61076245      96.06423799      76.33450731
C      76.27027693      93.33547319      73.39598289
H      75.89989057      94.67150969      71.87475321
C      79.09352804      93.24287660      73.73235418
H      79.66422539      91.74810308      75.02870643
H      79.90233091      94.97008646      74.51470087
H      79.90800008      92.88949779      71.87286349
O      75.45769462      90.95063859      72.60040812
H      76.10776047      90.71064334      70.92611060
C      72.12799685      94.94552001      74.93233039
O      71.77272831      96.99020388      73.96668024
N      70.14378422      93.70208010      75.73546407
H      70.51417058      91.91061956      76.28915388
C      67.36021737      94.41450692      75.75058188
H      66.95392621      95.42551049      74.00258504
C      65.79741371      92.07124629      75.71467708
H      63.89067986      92.82713682      75.51814554
H      65.94859181      91.23787699      77.59117531
C      66.44181038      90.23821177      73.52637401
H      65.27773897      88.56769371      73.84195830
H      68.42224355      89.67318360      73.58684525
C      65.56497737      91.43440853      71.07917843
O      63.36911539      91.19441328      70.40076669
O      67.13533993      92.51722170      69.72613439
C      66.84621181      96.29478460      77.97667948
O      64.70137244      96.88815866      78.52281038
N      68.83798334      97.12437445      79.35995914
H      70.51606031      96.33824831      78.90453510
C      68.96270528      98.94418089      81.34606149
H      68.07075446     100.64493458      80.60150933
H      70.97526380      99.11047680      81.75424238
C      67.64934549      98.03522254      83.77813926
O      67.29596667      99.67361525      85.40330389
N      66.98794128      95.64849820      84.13907698
H      67.56430781      94.42206583      82.79737130
C      65.63111779      94.53166995      86.24045264
H      64.45759775      96.10014279      86.88295959
C      64.15713127      92.26021891      85.35039155
H      62.95337560      91.75377227      86.94343083
H      65.36655611      90.70497417      84.75512776
C      62.18614672      92.88760806      83.27736178
C      61.81009118      91.14717013      81.34417177
H      62.90613245      89.42562944      81.30637724
C      60.11500668      91.66684485      79.42987901
H      59.93737241      90.33458781      77.89542125
C      58.66747633      93.91561917      79.42420983
O      57.14435692      94.50899323      77.39842323
H      56.47350408      96.19462910      77.40409240
C      58.73739620      95.53511461      81.48590124
H      57.73584125      97.31145736      81.40086356
C      60.66869649      95.13449264      83.30948713
H      61.02774449      96.43462435      84.84016545
C      67.44525505      93.75499243      88.41174818
O      69.04207378      92.07880520      88.01490565
N      67.13156048      94.80568027      90.64729441
H      65.80119316      96.16817294      90.77201634
C      68.61688536      94.09136371      92.86394337
H      70.54062675      94.64316379      92.37828371
C      67.57564617      95.39149542      95.09948960
H      68.49027370      94.51466242      96.72276450
H      65.54608011      95.06079332      95.21665263
C      68.06886473      98.15805475      95.33381566
C      66.12055690      99.87203651      95.15429166
H      64.20059497      99.18039667      95.10704850
C      66.56275286     102.50253553      95.32814648
H      65.03774373     103.84424122      95.15618139
C      69.06664023     103.46251650      95.58514926
O      69.46726220     105.97774223      95.66262804
H      68.00650376     106.95095127      96.12372126
C      71.04707340     101.76176283      95.53034720
H      73.01049904     102.31356290      95.59081844
C      70.48015551      99.14827134      95.43208143
H      71.99571601      97.79522730      95.23554989
C      68.62444427      91.24732561      93.37605920
O      66.67424671      89.93774529      93.53479621
N      70.88455694      90.29868301      93.76723255
H      72.39066881      91.47220305      93.70676131
C      71.71036734      87.55102095      93.87116750
H      70.11921778      86.56080436      94.72343406
C      72.26027770      86.41151598      91.22933011
H      73.89489096      87.45842436      90.53769028
C      72.75727572      83.59015460      90.97988624
H      70.95636654      82.59048938      90.97799651
H      73.92701630      82.93252983      92.54268990
H      73.72481559      83.12339220      89.22055104
O      70.20614519      87.08047910      89.49645108
H      69.96803968      88.86249101      89.25834557
C      73.85331698      87.16173732      95.76656299
O      75.32163432      88.75477661      96.31836307
N      74.15756291      84.72399039      96.55268913
H      72.86687984      83.40307169      96.07269865
C      76.31752009      83.69975873      97.97565305
H      77.92567718      84.92241165      97.57881052
C      75.99815634      84.17219030     100.83291923
H      75.08730826      85.98254811     101.21086450
C      74.22937251      82.08971191     101.93273995
H      73.54529159      82.84182298     103.72420049
H      75.32541378      80.37761987     102.25021397
H      72.80451887      81.80058378     100.47387123
C      78.63243482      84.44242117     102.09714614
H      79.87776446      85.46854255     100.81591170
H      79.45635550      82.57915102     102.40706125
C      78.58141221      85.91829742     104.49520883
H      77.20569146      85.06603085     105.77077409
H      77.81985251      87.78912647     104.08513822
H      80.50137415      86.11293922     105.21141510
C      77.08285925      80.98611174      97.29157212
O      75.57107820      79.52535330      96.12183153
N      79.37131781      80.27179519      98.22509692
H      80.37287276      81.44720496      99.34759435
C      80.32185015      77.63562699      98.61627027
H      79.02738762      76.65107958      99.87860744
H      82.14165659      77.72822358      99.57625123
C      80.80373036      76.38651789      96.01222741
O      82.44968198      77.15185705      94.72721352
N      79.39588425      74.31348812      95.47554514
H      77.99748678      73.65775310      96.59804257
C      79.64910758      72.84517078      93.04346737
H      81.16655781      73.57649487      91.85860897
C      80.12720834      70.01814022      93.61416472
H      78.33952724      69.30193395      94.34359907
C      80.98514408      68.52336671      91.27279382
H      82.87864985      69.12052021      90.72099373
H      79.72847608      68.86540716      89.67786481
H      81.03994615      66.51647736      91.73199731
C      82.12842850      69.60240043      95.75711436
H      81.42734004      70.53781496      97.45408859
H      83.87453562      70.63986017      95.42074307
C      82.92778273      66.80371576      96.36182678
H      84.12964867      66.13853210      94.82547928
H      81.24781604      65.62263682      96.50922543
H      83.70823970      66.56183079      98.25344282
C      77.32852367      73.33460989      91.43531028
O      75.73359466      71.65464321      91.14051297
N      76.86743045      75.77424656      90.91185609
H      78.22236421      77.09894472      91.15185133
C      74.56007462      76.92131044      89.75345386
H      74.30118211      76.03313907      87.91286043
H      74.79629041      78.96032512      89.59660658
C      72.12610713      76.62273368      91.05358556
O      70.12488696      76.13140484      89.94998540
N      72.17712974      76.99878922      93.56314211
H      73.72103614      77.76601809      94.38139360
C      69.90189926      77.34082968      95.07303343
H      68.53562713      75.92731439      94.45698265
C      70.57275210      76.56793161      97.87549755
H      71.98248793      77.68098041      98.88461140
H      71.30596591      74.65174914      98.05880101
C      68.17468941      76.74745562      99.46097793
N      66.30952954      74.88040602      99.72553961
H      66.23771994      73.27602838      98.69374905
C      64.30830937      75.98778563     100.86315485
H      62.39968579      75.27157937     100.77055826
N      64.86010945      78.33104626     101.51133098
H      63.52407295      79.57826564     102.06124134
C      67.21470844      78.93008951     100.52489384
H      68.19358667      80.72155005     100.47954041
C      68.81719635      80.07715337      94.77634640
O      69.66001429      81.82137077      96.08214728
N      66.99361046      80.37950958      93.01134202
H      66.54763505      78.78458059      92.06080969
C      65.30419514      82.56025375      93.04346737
H      66.60054739      83.99077658      92.32348165
C      63.07242836      82.07081464      91.28980135
H      62.08410150      80.45509864      92.09860421
H      63.73194284      81.72310499      89.36983942
C      61.23183493      84.22699237      90.82303895
H      60.78208007      85.23232677      92.56536661
C      62.24094878      86.12238785      88.73678110
H      63.37289485      87.56046958      89.68164426
H      60.73672664      87.15606815      87.78624877
H      63.46927089      85.25878292      87.32704527
C      58.77708045      83.17630454      89.88573470
H      57.75284879      84.78446163      89.10338801
H      57.83032757      82.50545170      91.58648838
H      58.86778732      81.63995705      88.51568312
C      64.31397855      83.21220934      95.80057806
O      63.67336133      81.49066867      97.19519608
N      64.39334705      85.62727957      96.46765145
H      65.08876634      86.95953661      95.29035196
C      63.03841329      86.49844340      98.66540315
H      62.50173102      84.83548423      99.75577523
C      64.83932246      88.02912170     100.29056778
H      63.87178259      89.04957391     101.79290020
H      65.51206503      89.63727880      99.19074707
C      67.02762553      86.57592217     101.36393233
H      68.05752638      85.48177064      99.95797595
C      69.00427926      88.29746285     102.45997359
H      70.65590006      87.21842911     103.04578875
H      68.07831336      89.56924865     103.79034091
H      69.63922730      89.31413560     100.78378635
C      66.17157952      84.83548423     103.38216003
H      67.81753113      84.07959372     104.36292799
H      64.99428002      83.27646003     102.73020445
H      65.25128280      86.04490907     104.77110887
C      60.41169371      87.72298604      98.07580854
O      58.69204277      86.99544142      99.33058681
N      60.37011973      89.35004040      96.12183153
H      62.03874807      89.80924390      95.31680813
C      58.04386664      90.58403168      95.06169507
H      56.39602530      89.35004040      95.01445192
C      57.26718913      92.84792380      96.84559671