 %block lattice_cart
   135.996   0.000   0.000
   0.000 142.663   0.000
   0.000   0.000   160.158
 %endblock lattice_cart

 %block positions_abs
N      87.50281014      39.83543154      81.83550060
H      89.35852138      39.47638354      82.10573147
H      86.62219768      38.76584645      80.52025109
H      86.86597237      39.72582742      83.62885088
C      87.19478475      42.55285798      81.20055257
H      88.04327187      43.97582189      82.42509521
C      88.42877603      43.36355057      78.79115151
H      87.60674509      42.42057714      77.15464854
H      90.45645237      43.01017175      78.74201863
C      88.05838968      46.15467633      78.40564736
H      86.04394143      46.55340859      78.25635898
H      88.71790416      46.44380446      76.47434706
S      89.52103784      48.26361090      80.72245181
C      88.74247060      51.30418054      79.31082625
H      89.97646188      52.77438761      80.05726814
H      86.73369153      51.70291279      79.52436532
H      89.02592955      50.95458117      77.30015746
C      84.42255625      43.01962038      81.23456764
O      83.06384303      41.86121815      79.72467632
N      83.36430951      44.72604324      82.68209799
H      84.43956379      45.54807419      84.02947285
C      80.65633171      45.24760770      83.04492544
H      79.55462127      44.31975208      81.57093893
C      80.03461175      43.99282943      85.60172515
H      80.51271251      45.27028442      87.14374183
H      81.07207150      42.22026615      85.76802106
C      77.24159626      43.29741015      85.70566010
O      75.74115357      43.62055335      83.95577353
N      76.31185091      41.94436611      87.59727613
H      74.57897189      41.28674135      87.13996237
H      77.24159626      41.81019554      89.25834557
C      80.13854670      48.13321978      83.19421382
O      81.83363120      49.74137688      83.52491593
N      77.77827853      48.91556648      82.86540145
H      76.48003656      47.58141970      82.43832331
C      76.88065853      51.54039633      82.85784255
H      77.52127576      52.34164028      81.07205118
C      73.88922178      51.38921822      82.80115076
H      73.38466486      50.27427970      81.14575050
C      72.78562161      49.97570294      85.24267715
H      73.08419837      51.07552365      86.95665891
H      73.56229913      48.08408690      85.50156965
H      70.76739391      49.71303098      84.92709286
C      72.56452364      53.93467956      82.37974178
H      72.64956132      55.11386878      84.06915711
H      70.54440621      53.68523569      82.05659858
C      73.47537172      55.48992432      80.08183460
H      72.10720987      57.03005126      80.06293733
H      73.20325113      54.39388306      78.35651447
H      75.41990009      56.12865181      80.31994011
C      77.68946140      53.20524521      85.06693261
O      78.12787790      55.46346815      84.65497226
N      77.97481007      52.07518887      87.34405281
H      77.58174700      50.20813927      87.38373706
C      78.97825474      53.26193700      89.66085728
H      77.69513058      54.80206394      90.13895802
C      78.67778826      51.30229081      91.86994734
H      78.94234994      52.38888344      93.60093664
H      80.21224602      49.93223923      91.84538088
C      76.05862759      49.96247485      91.97577201
C      73.78339711      51.37221068      91.89073433
H      73.85142726      53.40933565      91.99844871
C      71.45903374      50.01727692      91.67341580
H      69.68647046      50.93757363      91.25578627
C      71.30407619      47.32630665      91.96443365
H      69.54852044      46.28884690      91.83782199
C      73.66434435      45.99782905      92.02490489
H      73.68702107      43.95692463      92.00222817
C      76.00382553      47.28473267      92.00411790
H      77.70079975      46.21514758      91.62428291
C      81.74292434      54.17656453      89.44164901
O      82.51582240      55.53527775      91.14240270
N      83.09029920      53.56240348      87.48200284
H      82.14165659      52.61376087      86.12328962
C      85.57906875      54.52049472      86.93965138
H      86.16677364      55.77149354      88.46843996
C      87.20045393      52.09030668      86.80737053
H      89.03537818      52.71958554      86.11384098
H      86.14787637      51.03205995      85.39007581
C      87.32139641      50.56151810      89.26590448
H      85.46946463      50.14199885      90.06336898
H      88.57239523      51.40433603      90.66997112
C      88.49869591      48.00093894      88.73678111
O      87.00959157      46.37766404      87.85994809
O      90.65865308      47.49071284      89.30936818
C      85.89276332      56.15510798      84.55103733
O      87.14754159      58.08451855      84.49434554
N      84.49058640      55.42756335      82.61784730
H      83.51359789      53.81373708      82.90319597
C      83.91799932      56.95824166      80.28214557
H      85.59418656      56.81462247      79.09350772
C      81.78449832      55.68834558      78.81571797
H      80.23681247      55.67133805      80.17821063
H      82.19078947      53.70224323      78.44911106
C      80.93601120      56.87509371      76.33450731
H      82.34574703      56.64832655      74.84918243
H      80.68845706      58.87442415      76.76914436
S      77.84630868      55.79417026      75.03248588
C      78.25259984      56.56706832      71.67444223
H      79.95146379      55.57307228      71.05650171
H      78.34708615      58.58718575      71.29271751
H      76.56696397      55.95101754      70.66532838
C      83.35864034      59.62653522      80.88118883
O      84.76648644      61.44256221      80.16876200
N      81.24214687      59.98369349      82.29281438
H      80.05350901      58.64198781      82.94665969
C      80.54861731      62.63308978      83.05815354
H      80.33129878      63.85007353      81.40842247
C      77.93323609      62.67277404      84.42631539
H      77.61954152      64.53415445      85.25590524
H      77.84063950      61.47846701      86.10439235
C      75.89611113      62.00948010      82.50824317
H      76.78239277      60.62809016      81.26480327
C      73.72670532      60.76226073      83.99356805
H      72.99916069      62.18900410      85.28803059
H      74.56385408      59.28071530      85.15386001
H      72.40200717      60.17077640      82.53280961
C      75.01927812      64.23179824      80.88685800
H      76.35531462      65.00847576      79.52247561
H      74.59219997      65.82483753      82.12084928
H      73.36198814      63.77259475      79.75491193
C      82.70857448      64.00881054      84.67197981
O      82.98447453      66.28215129      84.05403931
N      84.15988429      62.73702473      86.18565058
H      83.93122741      60.85296760      86.39729992
C      86.50314492      64.01636944      87.41019324
H      85.78315920      65.60184982      88.51568313
C      87.81839443      62.24569589      89.28291201
H      89.53048647      62.91654873      90.21265736
H      88.21334723      60.49769905      88.26623925
C      85.92299894      61.41043686      91.26523492
H      84.48680694      60.41077164      90.17675256
H      84.95356934      63.00536587      92.14206792
C      87.34974231      59.63031467      93.00567284
H      88.38153288      60.86997513      94.28690729
H      88.56861578      58.27538091      92.04758161
N      85.55261259      58.15254869      94.47965937
H      84.31295212      57.10375059      93.47432498
C      85.00081250      58.29994735      96.83236862
N      86.08551541      59.99692158      98.28934761
H      85.66788589      59.91566334     100.15072804
H      87.34029368      61.31406082      97.71676054
N      83.23769785      56.83540945      97.62416396
H      82.72747175      56.90343960      99.46097793
H      82.92967246      55.24048045      96.62260900
C      88.40609932      65.12941824      85.51101829
O      89.51914812      67.18166102      86.07415672
N      88.69333772      63.91432422      83.28303096
H      87.49147178      62.47057332      82.94099051
C      90.47157018      64.74013462      81.24401628
H      92.18933140      65.54893748      82.04714996
C      91.25013742      62.48002195      79.44121738
H      89.58717826      61.61830675      78.58517135
C      92.72790340      63.28882481      77.06394166
H      91.76792243      64.77037024      76.00191549
H      93.00191371      61.83562528      75.63341884
H      94.52314339      64.07306123      77.70077943
C      92.54082049      60.12920242      80.69032646
H      91.84918066      59.93645033      82.62162675
H      94.55526874      60.42399972      81.01346967
C      92.02681493      57.80105960      79.20311186
H      92.65042462      58.31695488      77.30960609
H      90.06716875      57.18689855      79.36940778
H      93.39875624      56.48203063      79.99112773
C      89.27726315      66.95489386      79.81349346
O      90.44511401      68.86351744      78.95366799
N      86.70723536      66.66765546      79.51302696
H      85.82095372      65.08784426      80.11395993
C      85.44300846      68.78792838      78.15809321
H      86.48235793      69.34917710      76.47245734
C      82.68022859      67.94700017      77.42298966
H      81.62009213      69.64019495      76.92221220
H      81.73725516      67.16654321      79.08216938
C      82.63298543      66.08184030      75.17232563
O      83.09029920      66.99835757      73.07850888
O      81.72213735      63.91999340      75.51247636
C      85.38631667      71.16709381      79.78136811
O      85.95890374      73.20988796      78.85162277
N      84.33184939      71.13307874      82.20399724
H      83.69312189      69.50035520      82.95799804
C      83.65532737      73.44610375      83.66475568
H      83.80650547      75.09583482      82.44021302
C      80.79617146      73.30248455      84.32993935
H      80.38610085      75.00701768      85.41086280
H      80.55617621      71.62440758      85.49779021
C      78.69857525      73.22689549      82.25690958
H      76.96191677      72.45399743      83.04870490
H      79.28816986      71.74723979      80.94921897
C      78.25826902      75.87440206      80.92843197
O      76.41578586      77.32571187      81.57660810
O      79.51871647      76.31092884      79.05004403
C      85.46001600      74.02624972      85.95699369
O      84.85719330      75.62684791      87.47822337
N      87.42722109      72.62218307      86.17809167
H      87.63320126      71.20110889      84.91953395
C      89.56828100      72.92831874      87.99789811
H      90.38653249      74.76324299      87.54814326
H      90.82305927      71.43732468      87.32893501
C      88.70656580      72.62785225      90.73800127
O      87.34407313      70.79481773      91.27846300
N      89.46245633      74.41175389      92.38773234
H      90.86085380      75.60228147      91.87561651
C      88.48735755      74.68765393      94.97854711
H      86.43322505      74.53269638      94.96153957
C      89.54938374      72.55982211      96.74166177
H      91.53737582      72.10439806      96.46387200
H      88.51381372      70.88741432      96.12561099
C      88.94089186      72.88296530      99.58569987
H      89.86685776      74.65741831     100.06946981
C      86.11008185      73.10217356     100.14505886
H      85.07262210      74.10939768      98.68052096
H      85.63576054      73.80704147     102.01966735
H      85.31072762      71.21622670      99.92207115
C      90.01236668      70.84584034     101.30157135
H      89.15443094      70.99134927     103.16862095
H      92.04571220      71.05937941     101.55668442
H      89.66465704      68.91642977     100.66851304
C      89.01270146      77.35027831      96.08781647
O      91.17265864      77.77357700      96.62260900
N      87.07195254      78.92819978      96.42796720
H      85.34285296      78.48222437      95.75522463
C      87.54249439      81.50389674      97.44463996
H      89.50592003      81.75523034      98.01533731
C      86.98502513      83.43330731      95.30546976
H      86.66377166      85.15484798      96.39206240
H      85.29183035      82.52434895      94.56091761
C      89.05616517      84.18352866      93.31558796
H      89.77804062      82.45253935      92.46332140
H      90.66054281      85.22098840      94.08281684
C      87.84107115      85.67074326      91.17641778
H      87.11730597      87.51700587      91.73388704
H      86.29149557      84.74855682      90.18053201
N      89.71190020      86.28112486      89.20354350
H      90.03882285      84.99989042      87.82593303
C      91.20289426      88.31636010      89.18464624
N      90.92321477      90.21742477      90.71532455
H      92.01925603      91.77455926      90.60005125
H      89.50969948      90.22309395      91.99844871
N      93.17009935      88.45053067      87.73900561
H      94.13952895      90.09081311      87.86372754
H      93.95622550      86.94630853      86.86595206
C      86.01181608      81.90451872      99.94474787
O      83.72713697      81.27335013     100.13561022
N      87.27793271      83.03079561     101.72675978
H      89.12230559      83.39929224     101.40361658
C      86.56172644      83.25000386     104.37615608
H      84.75703781      82.31458933     104.71819654
C      88.86341309      82.20876466     106.02588715
H      88.15665544      82.26356672     107.95907715
H      90.42054757      83.55424979     105.92195219
C      89.82717351      79.65196496     105.20385620
H      90.79660310      79.89196020     103.40294701
C      91.66965666      78.47844492     107.20885581
H      90.87408188      79.00756828     109.03433144
H      93.61985422      79.09071624     106.95941193
H      91.69611283      76.41864324     107.19373801
C      87.68611359      77.84160715     105.14905414
H      86.29338530      78.27057502     103.69396488
H      86.61274905      77.66208315     106.89894069
H      88.54215961      76.01991098     104.70874790
C      85.74536467      85.99577619     105.12070823
O      84.15988429      86.28490432     106.84791809
N      86.64298467      87.96109156     103.65617034
H      87.95445473      87.53590314     102.33714137
C      85.59040711      90.57836250     103.57869157
H      84.55672682      90.96197694     105.31723977
C      87.64642934      92.51722170     103.59191965
H      86.68266892      94.33135896     103.41617511
H      88.67255073      92.46808881     101.80801801
C      89.53615565      92.85926216     105.86148095
H      90.86463325      91.28700987     105.77644327
H      88.73869115      92.78556283     107.76065590
C      91.14809220      95.17606662     105.73108984
H      91.72445872      95.47653310     103.77711282
H      92.94900137      94.90583576     106.69296052
C      89.72701801      97.35870051     106.98586811
H      88.57806441      96.79745180     108.60158411
H      88.37964315      98.06923760     105.59880900
N      91.49013266      99.44117891     107.60569833
H      92.56727666      99.11992543     109.14771501
H      90.55282841     101.10224834     107.59247025
H      92.90364794      99.74353512     106.35658925
C      83.52493625      90.72765088     101.51511043
O      83.78949794      89.49176987      99.60648686
N      81.50481882      92.03156203     102.15761738
H      81.61064350      93.02744780     103.78089228
C      79.23147807      92.50588334     100.53056302
H      78.41133685      90.66906936     100.07891843
C      77.29450860      94.25765963     102.08202833
H      78.14866489      96.07368662     102.54312154
C      74.98526304      94.68851723     100.41528972
H      73.75883067      96.04912018     101.35637342
H      73.73426422      93.08413959     100.09781570
H      75.33864186      95.45763584      98.53690177
C      76.42712422      92.91595395     104.65772530
H      78.17890051      92.68540734     105.71786176
H      75.39722338      91.14717012     104.42339922
C      74.76227534      94.62048708     106.29422827
H      72.87632848      94.62426654     105.46652815
H      75.56540902      96.51210312     106.16194744
H      74.81896713      93.91561917     108.22741830
C      80.18201040      93.86837601      98.16273595
O      81.68434282      95.64282902      98.22698665
N      79.39588426      93.17106700      95.87427738
H      78.08819365      91.79156679      95.70042256
C      80.11964944      93.96475205      93.39117702
H      80.78861255      95.90928043      93.48944278
C      82.02827301      92.11848944      92.34993782
H      83.70446025      91.89550174      93.52534758
H      82.76148682      92.86304161      90.57548481
C      81.16655781      89.45208562      91.64695962
C      81.03616670      88.68107728      89.07315239
H      81.30639756      90.13427682      87.66530629
C      80.39177002      86.11860840      88.69709686
H      80.02516312      85.51578571      86.78091437
C      80.20468712      84.36872183      90.63784577
O      79.13699175      82.15774205      89.93297785
H      78.97258556      82.32214824      88.13395840
C      80.66200089      85.17374524      93.04913655
H      80.52783032      83.87739299      94.61949911
C      81.11742493      87.77400865      93.64817980
H      81.50481882      88.47887657      95.52278829
C      77.56096001      94.33702814      91.85671924
O      75.51627614      93.94018561      92.90362763
N      77.78394771      95.09858784      89.41141340
H      79.55462127      95.40094405      88.76512700
C      75.79973508      95.27244266      87.44987749
H      74.04417934      94.68095833      88.35127693
C      75.54651176      98.20151845      86.64485408
H      74.45613968      98.17506228      84.89874696
H      77.31151613      99.12559461      86.11762043
C      73.95158275      99.69251251      88.47221942
H      75.07219045      99.99108926      90.17486282
H      72.20169618      98.73253154      88.98244553
C      73.57363749     102.42316703      87.30058911
H      72.14878385     102.35324716      85.81715396
H      75.28572953     102.92016505      86.26879854
C      72.49649349     104.32612143      89.33204489
H      73.69835942     104.44517418      90.99878351
H      70.77306309     103.45306787      90.04825117
N      72.12043795     106.89992866      88.24545227
H      70.91290284     107.83156374      89.39440587
H      71.11888301     106.74875056      86.62784654
H      73.78717656     107.78054113      87.94309606
C      76.44980094      93.54712254      85.25401551
O      78.64755264      93.47153348      84.61906747
N      74.58275134      92.24510111      84.20899686
H      72.96703534      92.46430936      85.19921344
C      74.92479180      90.38750014      82.18698971
H      76.79562085      89.56735892      82.45344112
C      72.87254903      88.35037518      82.54603771
H      70.98660216      89.17429585      82.63674456
H      73.19758195      87.26567227      84.26757837
C      72.81774696      86.43419270      80.36907299
O      71.13589054      86.65907013      78.74012891
O      74.70558355      84.92430137      80.24246132
C      74.93990961      91.63282978      79.66042562
O      74.43157323      93.90617054      79.56027012
N      75.33486241      90.34970562      77.54015269
H      75.29139871      88.44486149      77.62330066
C      75.24982473      91.50432839      75.10051602
H      76.36098380      93.23720742      75.02303725
C      75.98114881      89.60893290      73.05205270
H      74.43346296      88.38250052      72.46434783
C      76.84286401      90.83725500      70.43478176
H      75.37643639      91.59503526      69.20456993
H      77.61576207      89.20831092      69.43889599
H      78.28661491      92.21486549      70.94689759
O      78.15811352      88.20486625      73.90809873
H      77.53639357      86.57403244      74.40698647
C      72.50216267      92.43974292      74.41076592
O      72.23382153      93.95719315      72.65709990
N      70.41401509      91.69519075      75.58050651
H      70.45369934      90.34970562      76.93166082
C      67.93280444      92.80823955      75.41232088
H      67.59643316      93.20319235      73.41676989
C      65.79741371      90.82402692      76.17954976
H      65.80686234      90.65584128      78.23179253
H      66.30575009      88.97965404      75.41799005
C      63.03274411      91.65172705      75.50869692
H      62.67180639      93.50554856      76.33072785
H      61.75717885      90.21364532      76.24569017
C      62.87967628      91.64794759      72.51537043
O      62.63590159      89.62216099      71.46279287
O      63.17636331      93.61326296      71.32862231
C      67.61533042      95.28756047      76.81260807
O      66.02607059      96.93162236      76.34206621
N      69.39734234      95.88093453      78.55115628
H      70.99227134      94.83591588      78.65320149
C      69.28395876      98.16939310      80.21222571
H      68.00650377      99.47897343      79.26547282
H      71.20203096      98.91583499      80.26135859
C      68.10665926      97.70263070      82.84272473
O      67.84587703      99.46196590      84.18065097
N      67.12967076      95.43684885      83.53247483
H      67.17502419      94.16884249      82.10762120
C      65.77851645      95.01355016      85.88329437
H      64.80719712      96.71997302      86.50879378
C      63.93981274      92.92729231      85.62629159
H      63.15179687      92.49643471      87.48200284
H      65.07931771      91.30023795      85.08016069
C      61.80820146      93.09547795      83.74223445
C      61.06364930      90.80323993      82.37029316
H      62.18803645      89.10815543      82.22100478
C      58.78274964      91.00166119      80.85284293
H      58.22717010      89.32358423      79.83050099
C      57.24262269      93.21264098      80.94732924
O      55.01652509      93.16161837      79.73601468
H      54.12268455      94.70174531      80.07427569
C      58.21016256      95.40094405      82.03392188
H      56.90814113      96.96752716      82.15675408
C      60.35878138      95.41984131      83.48334196
H      60.94459654      97.16405870      84.36206469
C      67.77973661      94.29167470      87.89774263
O      69.77528760      93.25988414      87.19476443
N      67.20903926      94.80190081      90.37328410
H      65.80686234      95.99431811      90.88351020
C      69.00805871      94.14427605      92.50489537
H      70.93368983      94.72820148      92.06080969
C      68.28996272      95.48409201      94.98799575
H      69.24805396      94.50143433      96.52623296
H      66.36811106      94.96252755      95.51522938
C      68.94569775      98.32435066      95.08626151
C      67.18825228     100.20084889      94.71020598
H      65.22104718      99.70196114      94.48910800
C      68.01217295     102.74631023      94.27178947
H      66.50228162     104.08045701      93.95242573
C      70.52739867     103.49842130      94.75177995
O      71.21714877     106.02309566      94.98988547
H      69.91512735     107.24763831      94.67808063
C      72.34153593     101.64082034      95.24877797
H      74.35787391     101.95640463      95.21476290
C      71.53273307      99.01599049      95.39617663
H      72.96325589      97.58357794      95.66073832
C      69.28206903      91.25299479      92.96787832
O      67.32809202      89.83192061      93.03779819
N      71.62721938      90.51033235      93.32125713
H      73.09742646      91.71408801      93.50078114
C      72.22248317      87.81369290      93.65573869
H      70.47070688      86.88394756      94.21698742
C      72.82341614      86.67607766      91.02712940
H      74.66023012      87.41118120      90.45265259
C      72.91601273      83.81125257      90.75122935
H      73.92323686      83.39740251      89.00323252
H      70.98471244      83.16307645      90.43753478
H      73.89678069      82.88339695      92.30647411
O      71.11132410      87.42251956      89.22244076
H      71.05463231      89.23287736      89.30936818
C      74.23882115      87.17874486      95.65884858
O      75.81107344      88.82847593      96.20497950
N      74.15189374      84.93563973      96.78134601
H      72.78562161      83.66007447      96.39395212
C      76.34397626      84.05313754      98.39328256
H      78.03339159      85.07736920      97.80746741
C      75.53328367      84.52556912     101.22220286
H      74.48448557      86.29624267     101.29212273
C      73.71725669      82.41663455     102.15761738
H      72.11098932      82.55647430     100.87449322
H      73.31663471      82.86638942     104.12671220
H      74.57330271      80.54391578     102.17462492
C      77.89544156      84.96587535     102.59981333
H      78.81951773      86.56836326     101.68707553
H      79.08029996      83.29346756     102.79634487
C      77.50237849      85.59515421     105.27566580
H      76.15689336      87.13717088     105.49109459
H      79.34486165      86.15451320     106.00698987
H      76.77105441      83.93597451     106.25265430
C      76.77483386      81.18075354      97.70164274
O      75.56540902      80.05447666      96.04624248
N      78.62676565      80.06581502      98.81280180
H      79.84563912      80.94642748      99.98821158
C      79.22580889      77.22744610      98.54824013
H      77.46458397      76.26746513      99.01878197
H      80.42389537      76.46588639     100.03923418
C      80.24815082      76.30336993      96.11994180
O      81.87142573      77.54680985      94.78768475
N      79.33919247      74.04703671      95.46231705
H      78.21669504      73.12485027      96.70008778
C      79.43367878      72.96422354      92.90929680
H      81.12876329      73.65019419      91.95876447
C      80.07807546      70.07483200      93.11716670
H      78.27527655      69.20555790      93.60093664
C      80.80562009      68.90131196      90.55469781
H      81.38954552      66.92843769      90.68508894
H      82.25504017      69.92554362      89.50778944
H      79.10108695      68.78981811      89.40574421
C      82.28149634      69.33594902      94.97476767
H      82.70668476      70.99512872      96.11805208
H      83.98225002      68.94288594      93.88061612
C      82.02071411      66.94544523      96.58103503
H      83.82351301      66.68844245      97.54668517
H      81.36119962      65.37319294      95.42263279
H      80.41255701      67.04560072      97.86415920
C      77.13766131      73.83916682      91.38050821
O      75.30651652      72.54470429      91.29358081
N      77.18112502      76.10116922      90.39218135
H      78.69479580      77.11973170      90.95154035
C      75.40856174      77.33516050      88.62528725
H      74.96069660      76.08416168      87.05303495
H      76.12098856      79.18142311      88.05081046
C      72.67979694      77.77168728      89.73455659
O      70.71259185      77.78113591      88.46088106
N      72.45869896      78.04002841      92.25356178
H      74.16701155      78.01357224      93.10582834
C      69.97937804      77.85861469      93.61605445
H      68.59609838      76.73800698      92.58048443
C      70.21181438      76.49045284      96.19364114
H      71.81430229      77.13484951      97.31046939
H      70.88455694      74.57238063      95.86482875
C      67.92146608      76.42620214      97.95675579
N      65.92969455      74.65363886      97.88872564
H      65.93914318      72.91509065      97.10259949
C      64.33854500      75.66464244      99.66506838
H      62.49795157      74.87284711     100.04868282
N      65.07553826      77.83593797     100.61749044
H      64.20437443      78.99056075     101.86470980
C      67.50383657      78.35561271      99.56680260
H      68.37500040      80.19809586      99.68207591
C      68.76617375      80.39651713      93.92219010
O      69.51639509      81.91018790      95.64939996
N      66.80652756      80.89729460      92.45198304
H      66.53251724      79.66330332      91.02334995
C      65.09254579      83.13284083      92.65985292
H      66.10354937      84.80713834      92.01167681
C      62.73227763      82.68308596      91.01768076
H      61.80631174      81.10138504      91.95498502
H      63.17825304      82.03113039      89.11472636
C      60.62145334      84.62572461      90.90240746
H      60.24917725      85.28712882      92.81670021
C      61.84410626      86.98599278      89.55692232
H      60.50240058      88.54690671      89.66463673
H      62.45070841      86.64584204      87.61806312
H      63.49383733      87.70030932      90.56036700
C      58.35000231      83.58259569      89.53613534
H      57.69048783      81.87239338      90.47343958
H      59.06053940      82.96654491      87.70310081
H      56.99317882      85.12461236      89.37172914
C      64.34421417      83.92841560      95.36405128
O      63.44659418      82.36939140      96.77945629
N      64.46704638      86.34348583      96.16151579
H      65.52718285      87.54724149      95.12594577
C      63.25006264      87.18819349      98.50099697
H      63.04408247      85.52145489      99.69530399
C      64.84877110      88.85493210     100.10726432
H      63.86422369      89.53145412     101.78723103
H      65.19459102      90.54434743      98.98098745
C      67.39045299      87.39417366     100.71008703
H      68.35232368      86.69686465      99.03012033
C      69.17813408      89.40673219     101.68329607
H      69.24427450      91.06213244     100.45686370
H      71.00171998      88.49399438     101.97431392
H      68.49216343      90.07569530     103.50877170
C      67.14289884      85.27201101     102.60926197
H      68.96459501      84.91107329     103.50121279
H      66.39834668      83.56558815     101.72864950
H      65.82953906      85.86160562     104.08324849
C      60.59310744      88.20486625      97.90195372
O      58.68826332      87.37527640      99.06602513
N      60.42870125      90.20419669      96.31458362
H      61.91591586      90.52356044      95.15996085
C      58.09488926      91.23031808      95.47176569
H      56.65491781      89.75633155      95.42830198
C      57.18593090      93.04256561      97.52400846