 %block lattice_cart
   135.996   0.000   0.000
   0.000 142.663   0.000
   0.000   0.000   160.158
 %endblock lattice_cart

 %block positions_abs
N      90.29110131      42.08042641      78.27053193
H      90.12480541      41.75539349      80.14514042
H      92.11279749      41.95003530      77.71306266
H      89.09679429      40.98249542      77.26330780
C      89.38214297      44.65234392      77.76786472
H      90.16071021      45.97704207      79.14169576
C      90.33645474      45.21926182      75.02209240
H      89.33301008      43.94180683      73.75219630
H      92.36980027      45.15312140      74.70272864
C      89.51631353      47.77039234      73.98652237
H      87.46973994      47.74960535      73.76353466
H      90.37424928      47.95558552      72.12136250
S      90.56133217      50.34986876      75.90459458
C      89.37836351      53.06351574      74.25297378
H      89.69016835      54.76237970      75.37358149
H      87.32612074      53.17311987      74.10557513
H      90.41960271      53.08808218      72.47663105
C      86.50408978      44.74683024      78.08722848
O      85.14726630      43.39378620      76.71150771
N      85.59702115      46.06396948      80.05632329
H      86.71195969      46.97103811      81.31299128
C      82.86636663      46.35876678      80.75363230
H      81.75142811      45.32697622      79.36468345
C      82.24275696      44.96603849      83.23862241
H      83.25187081      43.17268822      83.26885803
H      80.19807307      44.71470489      83.22350459
C      83.27076806      46.23782430      85.51763234
O      83.53155030      48.46581162      85.68392825
N      83.29911395      44.86210354      87.60577990
H      83.38037220      45.75405436      89.29141578
H      83.18195092      42.95914915      87.55097784
C      82.02732815      49.25004804      80.48907062
O      83.51076331      50.78450581      79.72562118
N      79.68028807      49.70736181      80.95016383
H      78.65416669      48.22014720      81.56810434
C      78.28944950      52.18668273      80.77441928
H      78.52944475      52.79517461      78.82044228
C      75.56446415      51.77472240      81.42448513
H      74.90494968      50.55962838      79.89758627
C      75.11848876      50.48781878      84.05687389
H      75.54934635      51.67456690      85.68392825
H      76.36192866      48.84753634      84.10033759
H      73.19663708      49.75838442      83.92648277
C      73.85426184      54.20113098      81.25629949
H      74.59692429      55.62976408      82.54131340
H      71.97020471      53.92712067      82.04053591
C      73.77111389      55.55039557      78.61446211
H      72.87160417      54.19168235      77.35590439
H      75.74209844      55.69968395      78.03242640
H      72.81869183      57.37587119      78.63524910
C      79.36659350      54.19735153      82.45627570
O      79.57068395      56.36486761      81.97817494
N      80.43617860      53.36776168      84.57843836
H      80.37759708      51.46858673      84.76363154
C      81.40560820      55.05150782      86.47383385
H      80.25287514      56.75415123      86.34344273
C      81.47930752      53.94412820      89.17614247
H      82.31078709      55.45968871      90.29486045
H      82.80022622      52.36620673      89.09866369
C      79.04722976      53.24681919      90.52540706
C      78.17039675      54.69245982      92.59843682
H      79.21730512      56.37620597      93.08409649
C      76.11437452      53.74192749      93.96659868
H      75.59092033      54.63576803      95.72593387
C      75.16006273      51.40055659      93.55085890
H      73.85993103      50.42167836      94.78107071
C      75.96886560      49.89633444      91.52507228
H      75.14494491      48.08408691      91.07153797
C      78.02488781      50.77694690      90.11533646
H      78.80723452      49.57886042      88.66024719
C      84.15893944      56.02471687      85.77274538
O      84.86947653      58.29238845      86.10533721
N      85.69717665      54.18223372      84.68804248
H      85.20962726      52.33597111      84.74473427
C      88.10846743      54.71513654      83.40869776
H      89.26686965      55.99826071      84.52741574
C      89.36891488      52.22636699      82.82477233
H      90.85990893      52.65533486      81.46983857
H      88.01965029      51.05851612      81.79676122
C      90.33645474      50.78261608      85.02819322
H      88.84357096      50.52561330      86.42470096
H      91.68193988      52.11487313      85.83699608
C      91.56099740      48.24660337      84.15513966
O      90.40826434      46.48159899      83.08366485
O      93.88536077      48.04251293      84.51985684
C      87.64737421      56.20424087      80.90292068
O      89.26497993      57.78027262      80.31710553
N      85.60269034      55.82818534      79.42704442
H      84.40649358      54.44112622      79.96372669
C      84.98097037      57.41555544      77.17827012
H      86.67605489      57.48547531      76.01041926
C      82.77377004      56.21557923      75.85168224
H      81.21474584      56.33463199      77.19338792
H      83.18006121      54.22569742      75.50775205
C      82.35047135      57.50059313      73.26653665
H      83.50887357      56.64832656      71.79255012
H      82.59046660      59.54527700      73.32511816
S      79.20218732      56.44234639      72.14403921
C      79.65572163      57.04516908      68.76142911
H      79.85981206      59.07473514      68.47041126
H      78.02866728      56.39699296      67.67861593
H      81.32623968      56.17589498      67.92994953
C      84.22319013      60.18778394      77.96628598
O      85.14159711      62.17955548      76.93638515
N      82.70951934      60.53360386      79.96750615
H      81.84780416      58.95757211      80.61190283
C      81.87803977      63.01103505      81.03898098
H      81.55300684      64.07495096      79.30610194
C      79.51210242      62.45167607      82.70760930
H      79.45352092      63.93322149      84.13813212
H      79.99398264      60.75092238      83.76585604
C      77.02711232      62.12664314      81.45850022
H      77.26521784      60.66210525      80.02986712
C      75.12226821      61.19500807      83.42948476
H      75.89516627      59.40165780      84.08521978
H      73.24388025      60.96068200      82.61690244
H      74.92951612      62.47813223      85.02630349
C      76.38271565      64.76281135      80.33600278
H      76.01043957      66.24813622      81.71361326
H      74.60070375      64.52092638      79.33255811
H      77.71497271      65.41665665      78.90736969
C      83.89248803      64.39242499      82.62635108
O      84.05689421      66.69222190      82.36367911
N      85.40048961      62.96190217      84.09277869
H      85.12458958      61.07784504      83.98695403
C      87.26375977      63.97668520      85.85967279
H      86.20173357      65.37508267      86.93870653
C      88.28799143      62.07751026      87.70971486
H      89.70150671      60.88509295      86.80453595
H      86.70629050      61.16099299      88.66213692
C      89.88292044      63.46834882      89.77518571
H      88.72451821      64.77414970      90.86555780
H      91.46273164      64.50958802      88.95882394
C      91.04321239      61.59185059      91.61388942
H      92.01831117      62.69734049      93.05197114
H      92.60223659      60.66021552      90.64445982
N      89.31222308      59.77204415      92.63812108
H      89.17994225      58.13554117      91.66491202
C      87.82878794      60.00637022      94.57698027
N      87.39037143      62.08128971      95.84687636
H      86.71573914      61.85641228      97.61566018
H      88.29366061      63.73480023      95.53507151
N      86.57023021      58.07506992      95.14767763
H      85.35513618      58.42277957      96.57631071
H      86.84990971      56.41777995      94.24249873
C      89.18372170      65.48468680      84.35167119
O      89.80733138      67.60495972      85.09811310
N      90.04732663      64.38675581      82.14636060
H      89.26309020      62.73324529      81.60967831
C      91.66115290      65.66232107      80.38135621
H      92.94805651      66.87741508      81.43393377
C      93.25797163      63.67243926      79.12468821
H      93.79276418      62.41955072      80.66859462
C      91.78776455      62.25136508      77.05921736
H      91.60635084      63.48346663      75.41893491
H      89.79788275      61.86019173      77.41637563
H      92.65703867      60.41833055      76.69827963
C      95.75807955      64.52281609      78.14014081
H      95.61446034      66.08184031      76.80032485
H      96.72750913      63.13953644      76.96284131
C      97.78386614      65.16343332      80.20750139
H      99.49784791      65.66987998      79.18326973
H      98.38479911      63.41543648      81.11834948
H      97.35489828      66.30671774      81.86668110
C      90.38936709      67.49913505      78.59745458
O      91.72540359      68.75391332      77.19527765
N      87.88170027      67.65787206      78.44627648
H      86.64203980      66.55994107      79.39113962
C      86.51353841      69.51358330      76.82300156
H      87.93839206      70.32238616      75.57389247
C      84.13815245      68.49691054      75.33767668
H      83.16494339      70.09750873      74.47596148
H      82.91360980      67.38197202      76.56221933
C      84.71073952      66.69789109      73.05866676
O      86.73085694      66.65442739      71.82656520
O      82.83991047      65.47901762      72.16671593
C      85.78221433      71.99479394      78.36879769
O      85.75953761      74.08672097      77.28031533
N      85.65182322      71.81526995      80.82544189
H      86.16393905      70.11829572      81.52842008
C      85.03388272      73.98467575      82.45060652
H      84.11925518      75.43031638      81.30354266
C      82.89093307      73.22689550      84.33844312
H      82.55078234      74.81426559      85.60833919
H      83.48430713      71.91164599      85.81053991
C      80.42484024      72.25368644      83.24240185
H      78.97919960      72.02313983      84.69371166
H      80.87648483      70.47167454      82.31454623
C      79.16628252      74.06026481      81.28842484
O      77.37293225      73.24201331      80.01852876
O      79.80312029      76.28447268      81.12779810
C      87.27509812      74.97300262      83.98128485
O      87.49619610      77.31815296      84.37245818
N      88.71129011      73.11351192      85.08110555
H      88.34468322      71.26346986      84.78819798
C      90.47629449      73.56893596      87.21460656
H      91.70461660      75.01457659      86.41336261
H      91.56666657      71.87952064      87.66436142
C      89.09490457      74.41364362      89.66180214
O      86.85935833      74.36451074      89.85455423
N      90.59723698      75.00890742      91.57231545
H      92.45294821      74.76891217      91.20381880
C      89.75630878      75.66464244      94.08187198
H      87.70973517      75.49645680      94.22549118
C      90.99596923      73.86184353      95.93191404
H      93.01608667      74.11317714      95.62955783
H      90.59534726      71.86251309      95.62577839
C      90.44227943      74.41931281      98.68713501
H      91.04699185      76.33171583      99.15389740
C      87.62469749      74.06782370      99.15389740
H      86.44739800      74.82938341      97.64400609
H      87.04833096      74.69521285     101.02850591
H      87.24297277      72.04581656      99.04807273
C      92.10712831      72.72422830     100.30663046
H      94.13102518      72.83383242      99.94380300
H      91.43249601      70.78158964     100.22159278
H      91.59690220      73.27980784     102.22470266
C      90.29299105      78.38017916      94.73004810
O      92.45672767      79.11150324      94.91524128
N      88.31255787      79.93920336      95.09476528
H      86.58156856      79.13417996      95.05697077
C      88.49208187      82.74544693      95.68624963
H      90.44038969      83.40118197      95.80908184
C      87.14281727      84.24211017      93.46582120
H      87.01809535      86.19797690      94.10265897
H      85.30033413      83.39173333      93.12756020
C      88.85112986      84.30825060      91.14712703
H      89.35190733      82.33915577      90.80319683
H      90.62369315      85.31736445      91.43814487
C      87.49619610      85.45342475      88.85488901
H      88.97396208      86.57403245      87.95915874
H      86.04677602      86.76300507      89.50495485
N      86.71573914      83.46921212      86.95193460
H      86.40960348      81.72121527      87.65302306
C      85.87103147      83.87739300      84.57654863
N      85.92583354      86.04679881      83.63735465
H      84.93750668      86.49466395      82.06699208
H      86.64959871      87.48677026      84.66158631
N      85.09246423      81.94609271      83.20649705
H      84.35925042      82.37317086      81.49440501
H      85.54221910      80.16974998      83.73373069
C      87.04455151      83.18008399      98.10320957
O      84.69562171      83.30291619      98.13722465
N      88.52231749      83.52401417     100.18379824
H      90.40070544      83.22165796     100.04017905
C      87.47351939      83.65062583     102.60642739
H      85.92583354      82.29380235     102.67256780
C      89.49174709      82.93064012     104.58308110
H      88.73585657      83.27834975     106.46524851
H      91.16226514      84.11171906     104.32796805
C      90.08890060      80.02991023     104.39977765
H      91.00919731      79.71054648     102.58375066
C      92.15626119      79.27779915     106.27438616
H      92.70806128      77.32382215     105.93612514
H      91.42871655      79.81448142     108.12442821
H      93.79276418      80.52123907     106.11375942
C      87.80989067      78.41041477     104.94590856
H      88.29555034      76.41108433     104.88165786
H      86.26598427      78.68820454     103.61176178
H      87.01431590      78.79591895     106.80539925
C      86.25086645      86.25655843     103.49837820
O      85.08490532      86.34915502     105.47503192
N      86.75353366      88.38061081     102.14911362
H      87.98941466      88.10282104     100.72048052
C      85.64237458      90.95630776     102.39099858
H      84.65215800      91.24354616     104.17490023
C      87.84201602      92.91217450     102.40233695
H      88.88703467      92.39438949     100.70347299
H      89.13080937      92.54934704     103.96892005
C      87.22218578      95.76566124     102.16990060
H      86.47385417      96.46674970     103.95758170
H      85.64048486      96.24565172     100.94157850
C      89.44639366      97.39838477     101.44046624
H      89.99063484      96.94296073      99.50538651
H      90.94116716      97.00154224     102.80106919
C      88.72262847     100.19895916     101.63888750
H      87.49430638     100.53155100     103.25649323
H      87.89303863     100.56745580      99.79073517
N      91.17171378     101.60680526     102.11131908
H      92.58522906     101.15516067     100.91323261
H      91.61768919     101.36869975     103.95191252
H      90.82400413     103.47385486     101.91478756
C      83.75642773      91.30401740     100.20836470
O      84.17405725      90.51222208      97.95581092
N      81.58702192      92.46052991     100.67323736
H      81.20718694      93.18429509     102.39855748
C      79.64438327      92.99343273      98.80996722
H      78.81101397      91.33614275      97.91423694
C      77.55434597      94.77733438     100.05151740
H      77.10270138      94.14805551     101.96203071
C      78.48031187      97.57979850     100.47292638
H      77.16695208      98.58702261     101.69746903
H      78.38582555      98.64182469      98.70981172
H      80.39460461      97.60058549     101.23259635
C      74.96920038      94.60347954      98.71926036
H      74.40228247      92.64950254      98.38855825
H      75.18651890      95.40283378      96.83142376
C      72.74877195      95.92061879     100.16868043
H      70.98376758      95.49165092      99.19736111
H      72.93396513      97.96719239     100.05907631
H      72.81680210      95.44062830     102.16990060
C      80.70263001      94.30868224      96.44214014
O      81.99331308      96.20785718      96.81441623
N      79.93351140      93.36759854      94.26328571
H      78.89227220      91.77077981      94.23871927
C      80.59113616      94.40316857      91.79152369
H      81.50387396      96.24943117      91.75561889
C      82.65660701      92.75721695      90.73894613
H      84.13059354      92.44730183      92.13923334
H      83.53532975      93.90617055      89.27251852
C      82.00465143      90.07002612      90.02462959
C      81.50009450      89.49176988      87.47916824
H      81.48119725      91.02622763      86.13557284
C      80.84813894      86.91985236      86.80453595
H      80.43617860      86.54946600      84.84111031
C      80.47775258      85.13595073      88.80386640
O      79.80878946      82.69631406      88.04986559
H      79.96941620      82.39773730      86.26785367
C      81.09380336      85.73499397      91.37200445
H      81.06167801      84.27234580      92.79496837
C      82.01598979      88.16518200      91.91246617
H      82.25787476      88.76044579      93.84943564
C      78.30267758      94.61859736      89.96604808
O      76.29389851      93.50176910      90.59532694
N      78.56534955      95.91683933      87.84577515
H      80.14705047      96.97697580      87.71916348
C      76.94585410      95.80156604      85.75573784
H      75.26777713      94.72253231      86.26596396
C      76.43373827      98.57757399      84.95449389
H      75.77422379      98.50765412      83.00429633
H      78.13638167      99.72841732      84.80331578
C      74.32480370      99.61503373      86.66847565
H      74.98242845      99.90983103      88.59599649
H      72.72987470      98.31301231      86.76674142
C      73.34214601     102.14159782      85.51952205
H      72.94152404     101.90160257      83.51263271
H      74.72542567     103.65148913      85.75573784
C      70.91384770     102.81623011      87.01051612
H      71.16518131     102.42505676      89.01740546
H      69.35860295     101.67672513      86.28675094
N      70.29212775     105.45050858      86.55320235
H      69.98221263     105.58656888      84.67481439
H      71.53934711     106.74875056      87.19004012
H      68.48743912     105.83601276      87.04642092
C      77.97386521      94.33891787      83.42192585
O      80.23019842      94.36537404      82.79075726
N      76.31279578      92.79312175      82.43548871
H      74.61015238      92.85548271      83.29531418
C      76.94774383      91.09992697      80.26797263
H      78.96219207      90.97898449      79.85790203
C      76.01043957      88.36738271      80.83489053
H      73.98654269      88.61493687      81.12968783
H      76.77955818      87.70597850      82.62824081
C      76.53767322      86.48710504      78.64469773
O      78.53700366      86.55135573      77.49196468
O      74.94274420      84.88461713      78.05888257
C      75.97642450      92.32257989      77.82077707
O      75.00699489      94.48820625      77.84345378
N      76.11437452      91.09425778      75.68538632
H      76.79467598      89.31224588      75.77798291
C      75.76099569      92.23943193      73.15315306
H      77.21986442      93.65861639      72.82623041
C      76.11626424      90.46686866      70.83634860
H      75.97453477      91.46842359      69.04299833
C      78.77132972      89.26311298      70.80611298
H      79.12659826      87.74188331      69.46251757
H      79.02455303      88.49588411      72.70150847
H      80.13949157      90.78245295      70.55855883
O      74.45330509      88.58092179      70.76075955
H      75.01833326      87.10315582      71.64893093
C      73.13805558      93.42806978      72.50497694
O      73.13427613      95.12882347      70.95729110
N      71.24454980      92.88004915      73.96006621
H      71.37683065      91.40984209      75.17138076
C      68.74822135      94.13860687      73.83723399
H      68.62160969      95.24976595      72.11002414
C      66.70542721      92.17329152      73.62558465
H      64.84404679      93.06146288      73.65015109
H      66.89251011      90.92796187      75.25452873
C      66.57314637      90.44230221      71.37492060
H      65.35805235      88.80013005      71.63381311
H      68.38350418      89.46720344      71.23319113
C      65.53001744      91.75944144      69.07323395
O      63.58926852      90.94874886      67.94884681
O      66.82636969      93.73609518      68.27010028
C      68.20209045      96.05478935      76.03120624
O      66.03268464      96.74831891      76.37513644
N      70.26378185      96.87115113      77.25574889
H      71.88516703      95.96030305      76.81733239
C      70.15417773      98.73820073      79.26641770
H      69.33025706     100.50131537      78.59556484
H      72.09681638      99.01221104      79.89947600
C      68.65184530      98.03144309      81.72117217
O      67.64462119      99.73408649      83.05909841
N      68.35704800      95.61259341      82.14825031
H      69.16396113      94.32380005      80.99551727
C      66.87739230      94.69418641      84.29497940
H      65.39206742      95.96786195      84.94126581
C      65.42419277      92.27155727      83.55042724
H      63.94264734      91.99754696      84.95638361
H      66.69408885      90.65584129      83.39546968
C      63.82359458      92.43596347      81.23362278
C      63.85005075      90.43474331      79.50452320
H      65.18041808      88.89650608      79.69538556
C      62.24567311      90.34214672      77.40503727
H      62.24567311      88.84926293      76.01041926
C      60.49956600      92.30557236      77.09701189
O      58.88573973      91.96353190      75.11279925
H      57.83505190      93.44318760      75.07122528
C      60.47877901      94.32568979      78.83178064
H      59.08983017      95.82046329      78.83178064
C      61.96977307      94.36348431      80.91236930
H      61.83371277      95.67495436      82.46950379
C      68.64995559      94.16695277      86.56832017
O      70.80613331      93.59625543      86.15635982
N      67.71643079      94.39938911      88.86811708
H      65.86449900      94.84914398      88.97394176
C      69.22632211      94.16884250      91.16791401
H      71.10659979      94.93040221      90.80886601
C      68.14350893      95.50298928      93.41101914
H      68.48365967      94.42017610      95.12878036
H      66.10071479      95.27622211      93.31653282
C      68.70853709      98.34891710      93.63967602
C      66.80558269     100.02510435      92.71937931
H      65.16718999      98.99520351      92.07120319
C      67.09282110     102.59135267      92.80819644
H      65.75489487     103.92549945      92.03907784
C      69.41340501     103.56834118      93.61510958
O      69.98788182     106.03821347      93.35999653
H      68.70475765     107.01331225      92.52473751
C      71.31257995     101.87325667      94.51839877
H      73.17207064     102.52710197      95.04941186
C      71.02156211      99.22575012      94.43525080
H      72.64483700      98.01065610      94.67524604
C      69.34159542      91.29456878      91.50239557
O      67.54635541      89.89428158      91.77829560
N      71.61682590      90.37427207      91.55530790
H      73.12104804      91.54968182      91.57420516
C      72.39161369      87.73810385      91.68002984
H      70.66251411      86.65151123      91.94837098
C      73.81268787      87.15984761      89.15535549
H      75.82146694      87.61149220      89.13267878
C      73.93552007      84.27801497      88.63190129
H      75.09014286      83.16118672      89.92258436
H      74.82747090      84.09093208      86.78374897
H      72.06091158      83.42574841      88.72827734
O      72.64861645      88.21809434      87.03130312
H      72.25177394      89.98309872      87.15791477
C      74.20575095      87.31669489      93.85321511
O      75.29045385      89.16862668      94.76973236
N      74.78211746      84.93941918      94.72437894
H      74.04134476      83.38795389      93.89478907
C      76.88538286      84.31203005      96.61221552
H      78.33102349      85.75200150      96.33064629
C      75.81957722      84.62950406      99.30885496
H      74.50999688      86.21876389      99.41467963
C      74.29645781      82.17097014     100.15356262
H      73.28734396      81.33571111      98.56430280
H      73.09081242      82.66985788     101.74660190
H      75.60603814      80.72721924     100.81685656
C      77.91528369      85.58381586     101.15133812
H      78.95085371      87.08425855     100.19324688
H      79.27399691      84.10227043     101.60109298
C      76.82113216      86.78379207     103.46247340
H      75.73453953      85.28145965     104.36009341
H      75.84792311      88.56202452     103.10153567
H      78.50865776      87.32047434     104.51316123
C      78.01165973      81.62294951      96.13978393
O      76.75688146      80.10171983      94.91146183
N      80.08279978      80.94453775      97.38511357
H      81.46041025      82.20876466      97.76116912
C      80.82168276      78.38584833      97.85943488
H      79.20596676      77.29358652      98.52272881
H      82.44684739      78.27624421      99.11799260
C      81.65316234      76.89296455      95.40657013
O      83.44651262      77.58082493      94.05163636
N      80.55712107      74.66686695      94.89256457
H      79.03967085      74.30970867      95.99427501
C      81.03522184      73.11162219      92.66457725
H      82.76621113      73.82971819      91.81042095
C      81.54355821      70.42065193      93.41101914
H      79.85603262      69.62318742      94.28407269
C      82.50542891      68.92398869      91.06964824
H      82.82101321      66.89064317      91.19625990
H      84.35736070      69.59673125      90.46871527
H      81.05411910      68.84650991      89.61077952
C      83.57690372      70.08239091      95.52184343
H      82.99675774      71.04426161      97.24716356
H      85.35135673      70.76836156      94.72815839
C      84.10791683      67.52748093      96.44780932
H      82.45440630      66.78103904      97.42479783
H      85.57434444      67.58039328      97.89344995
H      84.61436348      66.25569513      94.90957210
C      78.71841738      73.48767772      90.77485094
O      77.17073153      71.70755554      90.55942213
N      78.46330432      75.73834177      89.57109528
H      80.03933607      76.79847822      89.38590209
C      76.50743759      76.36384118      87.76640665
H      76.49231977      74.86717794      86.34911191
H      77.17829044      77.93042429      86.60800441
C      73.85237213      76.68509464      88.91724998
O      72.00799923      76.79469878      87.52830113
N      73.64450222      76.82871385      91.47027021
H      75.27911549      77.08193718      92.42080255
C      71.35982312      77.22177693      92.81953481
H      69.99922016      75.88951987      92.03151893
C      71.54879575      76.65296930      95.63711673
H      72.65428564      78.16664008      96.48749358
H      72.58247604      74.87851629      95.80719210
C      69.08837209      76.68698438      97.07330873
N      67.22510195      74.76135326      97.03362449
H      67.21187386      73.24768249      95.86955307
C      65.32970644      75.35472732      98.63989186
H      63.49856166      74.47033541      98.81752613
N      65.92497024      77.73389275      99.50538651
H      64.66452279      78.93008951     100.29529211
C      68.24366443      78.62584358      98.67390692
H      69.18285840      80.39084794      99.08586727
C      70.18252363      79.90329857      92.38867720
O      71.09148197      81.77034815      93.52818217
N      68.08114797      80.32281780      91.08665577
H      67.50100199      78.81859565      90.06431385
C      66.45598334      82.55458458      90.97516192
H      67.37628005      84.25155881      90.25706592
C      64.61727963      81.83648858      88.86622737
H      63.77257197      79.98077733      89.15535549
H      65.77568186      81.55302964      87.18626066
C      62.65574372      83.84526765      88.26529439
H      61.76379290      84.13250605      90.09643920
C      63.55525345      86.33970638      87.05020038
H      61.93764772      87.61338191      87.11445106
H      63.94264734      86.16963101      85.03575213
H      65.10104957      87.22031885      88.09143957
C      60.59783177      82.82859490      86.66658594
H      59.02368975      84.15329303      86.56643044
H      59.83249261      81.06925969      87.41680727
H      61.34427366      82.53568731      84.76930071
C      65.16718999      83.25000386      93.45448285
O      64.24122410      81.54358100      94.79996798
N      65.15207218      85.71420697      93.98549594
H      66.19331138      86.77623317      92.78929919
C      64.01445693      86.80835851      96.10576887
H      63.64029113      85.19075279      97.32275261
C      65.70198254      88.73021017      97.56274785
H      64.61727963      89.52389522      99.12177207
H      66.34259976      90.34970562      96.45914769
C      68.26445141      87.63605864      98.35265345
H      69.49655297      87.22787775      96.75394499
C      69.61560572      89.71286786      99.73026393
H      70.40173187      91.08291943      98.40556578
H      71.28801352      88.86627047     100.58253050
H      68.31169458      90.74465842     100.94913741
C      68.05469179      85.34760006     100.14411399
H      67.33092662      83.79235532      99.00271930
H      66.59582307      85.81058301     101.51983475
H      69.73654821      84.74099793     101.16834565
C      61.41230381      87.89684087      95.40657013
O      59.42809118      86.85560166      96.05852570
N      61.40285518      89.75822128      93.68880891
H      63.06959378      90.49899400      93.12000129
C      59.02746920      90.95819750      92.70615122
H      57.68954297      89.41051165      92.46426626
C      58.04292179      92.77044503      94.70359194