 %block lattice_cart
   135.996   0.000   0.000
   0.000 142.663   0.000
   0.000   0.000   160.158
 %endblock lattice_cart

 %block positions_abs
N      89.01270146      40.80202655      78.85918167
H      88.26248012      39.63417569      77.55149106
H      88.84262609      40.19542441      80.66198057
H      90.88919970      40.76801148      78.50580285
C      87.85996841      43.39662078      78.84784331
H      89.03915763      44.41518327      80.19521817
C      87.99224925      44.68163468      76.21923401
H      87.29494024      43.37772352      74.78493174
H      89.97646188      44.89139430      75.70522845
C      86.59007234      47.22709602      75.96979013
H      84.58885216      46.79434869      76.20222647
H      86.89242855      48.13416465      74.14431452
S      87.57084029      49.69507858      77.97101030
C      90.85140516      50.30734991      76.85229232
H      91.24824770      52.32746734      76.95244782
H      90.98935520      49.61571008      74.91721258
H      92.15342659      49.27366962      78.06738634
C      85.12742417      43.48165847      79.73790440
O      83.66099654      41.91885481      78.89319674
N      84.43200488      45.18430187      81.50857796
H      85.80205646      46.20853354      82.35328562
C      81.93756615      45.34114916      82.81059939
H      80.63176526      44.11282706      81.79581636
C      82.49503541      44.25833598      85.58849707
H      84.01059591      45.29012655      86.52580132
H      83.40777322      42.41585283      85.45999568
C      80.09508299      44.09204007      87.24578704
O      78.19968750      45.28256764      86.92075412
N      80.04406038      42.46876516      89.11472637
H      78.52094098      42.28357198      90.24856215
H      81.52560582      41.35571636      89.57959904
C      80.88309886      48.06613450      82.81815829
O      82.58385255      49.84814641      82.66509046
N      78.43590330      48.54612499      82.85217337
H      77.23781682      47.06646928      82.70855417
C      77.33797230      51.09914523      82.78225349
H      77.89544156      51.95141180      80.99079295
C      74.44480132      50.93284932      82.63863429
H      74.14811428      49.81602107      80.93410116
C      73.26183264      49.77633682      85.13496275
H      71.22092824      49.64594570      84.90441614
H      73.74938203      51.10859387      86.62784654
H      74.14622456      47.92251530      85.30881757
C      73.29206826      53.43484696      82.23801231
H      73.92890603      54.70285331      83.73089610
H      71.25683303      53.15138801      82.36462398
C      73.79473547      54.71041222      79.56027013
H      72.48704485      56.29022342      79.36373859
H      73.51127652      53.46508258      77.94266440
H      75.70335904      55.48142055      79.53192423
C      78.38299095      52.92651058      84.82693736
O      78.68534716      55.26977121      84.74189968
N      78.98203419      51.99298578      87.03035824
H      78.89699651      50.12971564      87.43098022
C      80.04783983      53.47075176      89.18653597
H      78.92912186      55.19607188      89.32259626
C      79.80217541      51.88905083      91.70932059
H      80.95301874      53.03989416      92.96976805
H      80.81506873      50.09381084      91.71121032
C      77.07341062      51.28433841      92.47277003
C      76.06240704      53.02288662      94.20186960
H      77.09608733      54.55356493      95.07114371
C      73.44891555      52.88115715      94.71398543
H      72.50783184      54.27955462      95.86293903
C      72.02784137      50.92340069      93.68597432
H      70.01528285      50.90450342      94.01667642
C      73.12766208      49.10926343      92.14017819
H      71.99004683      47.73732212      91.14996161
C      75.79217618      49.27744907      91.42019247
H      76.56129479      47.96219955      90.06336898
C      82.87109094      54.25309845      88.30970296
O      83.77249040      56.32990767      88.96354826
N      84.20523772      52.79045028      86.66564107
H      83.29249992      51.25977197      85.97967041
C      86.67699974      53.53878190      85.69432174
H      87.71068003      54.65938961      87.08138085
C      88.34751780      51.25221307      84.71544351
H      90.08417628      52.18573786      84.12017972
H      87.41588273      50.43396157      83.06949189
C      88.84640555      49.01666684      86.60328010
H      87.14376214      47.98298654      87.13429319
H      89.65520842      49.61571008      88.39852009
C      90.72479351      47.19119122      85.31259703
O      93.06238495      47.46709126      85.41464225
O      89.98213107      45.32603135      84.11451054
C      86.31984148      55.31134519      83.24901589
O      87.41210327      57.38059550      83.38129673
N      84.41877680      54.68017660      81.53314440
H      83.36808898      53.10414485      81.75424238
C      83.92933769      56.29967205      79.30326735
H      85.61875301      56.45273988      78.13541649
C      81.98102986      54.82568552      77.89731097
H      80.21224602      54.75576565      78.94799880
H      82.61408818      52.86603934      77.85951645
C      81.20057288      55.71952607      75.38208525
H      82.65377242      54.85592114      74.20289603
H      81.75804215      57.69240034      75.18366399
S      78.16945189      54.87859786      74.23502138
C      79.18234519      55.02977597      70.91666197
H      79.21636026      57.01209887      70.35352353
H      77.84819841      54.00176485      69.72802412
H      80.98136464      54.07546418      70.61430576
C      83.18100606      59.01898821      79.87396470
O      84.02760345      60.86903027      78.74957754
N      81.51615718      59.35535950      81.77880882
H      80.83774543      57.78877638      82.63296511
C      80.78483310      61.80633452      82.69532608
H      80.64877280      63.03276690      81.04559501
C      78.19968750      61.58523655      84.09372355
H      78.03528131      63.28221077      85.24645660
H      78.24693067      60.08857331      85.50912856
C      75.93579539      61.05989263      82.45911029
H      76.34586599      59.38748484      81.33094368
C      73.56418885      60.66116038      84.12206945
H      71.79162557      60.27565621      83.14508094
H      73.26372237      62.38648050      85.20677235
H      74.11787867      59.22685811      85.49590048
C      75.42556927      63.10646623      80.36907299
H      76.97514485      63.16693747      79.01413922
H      74.94368907      64.87147060      81.31393615
H      73.78150738      62.60001958      79.23712693
C      82.76148682      63.18583473      84.37907223
O      82.89376766      65.47429330      84.27702701
N      84.43767406      61.73830438      85.70188065
H      84.07673633      59.86936505      85.82282313
C      86.48424766      62.83245591      87.11728565
H      85.77371056      64.48407671      88.12450978
C      87.58973755      60.95784741      88.98811470
H      89.48891249      61.54177284      89.53235588
H      87.73524647      59.12103343      88.06781799
C      86.15732500      60.70084463      91.59593702
H      84.19578909      60.17361099      91.25578628
H      86.19889898      62.59812985      92.40096043
C      87.52359713      58.64860185      93.12472560
H      88.78593430      59.65960543      94.40029086
H      88.77081649      57.55822977      91.90018295
N      85.90599140      56.89115638      94.47210046
H      85.68111397      55.19607188      93.62361335
C      84.83829604      57.13871053      96.70008779
N      84.79483233      59.21551975      98.11360307
H      83.75359313      59.24386564      99.71231153
H      86.00803662      60.65360147      97.79990850
N      83.57973831      55.26032258      97.56747217
H      82.63298543      55.44551575      99.21342378
H      83.60241504      53.53878190      96.74355149
C      88.55160824      64.02109376      85.34283265
O      89.87441666      65.65948648      86.13273825
N      88.47223974      63.44661696      82.92965214
H      87.42911082      61.98396880      82.28336575
C      90.23157493      64.52187124      81.09094844
H      91.52414773      65.55366180      82.31927055
C      91.82083477      62.27120720      79.68877152
H      92.49735678      60.97296522      81.14008133
C      90.19000096      60.66493983      77.96156167
H      91.29360112      59.17583550      77.06205194
H      89.22624054      61.80822425      76.54615666
H      88.65365346      59.63314926      78.86674057
C      94.16031595      63.27465187      78.30549186
H      93.64064120      64.86769115      77.10740537
H      95.04281814      61.67027423      77.36251843
C      96.14263884      64.48785616      80.04592979
H      95.59650794      66.33600850      80.76591552
H      97.90008431      64.85257334      79.03114676
H      96.62640878      63.19339364      81.57282865
C      88.95223022      66.41915645      79.15775842
O      90.10307355      68.19927864      78.29604323
N      86.45590176      66.20183793      78.91776318
H      85.63954000      64.62013700      79.60940301
C      84.87987003      68.05187999      77.51936571
H      85.98724963      68.86446230      75.98301822
C      82.54416829      66.68560786      76.34395594
H      80.96246737      67.99707793      76.22679291
H      81.73347570      65.41382206      77.74802259
C      83.14888071      65.34579191      73.76636925
O      85.29183036      65.44783713      72.67599717
O      81.26293385      64.07967528      72.77804239
C      84.09374388      70.39325089      78.98012415
O      84.28082677      72.53053135      77.94455413
N      83.22258005      70.10412276      81.29503888
H      82.76337656      68.39014100      81.99990680
C      82.90888548      72.34344844      82.91642406
H      81.98858877      73.84767059      81.85061842
C      81.26671332      71.62346272      85.09338877
H      81.19112426      73.07666225      86.55225749
H      82.24937099      69.99073919      85.87573547
C      78.47180810      70.82788794      84.42064621
H      77.50426823      70.71639409      86.23478347
H      78.65511154      68.87013148      83.80081597
C      76.92223251      72.41336832      82.63674457
O      76.99215240      74.76040840      82.84650419
O      76.07563512      71.24173800      80.70733400
C      85.33340433      73.55098356      83.97467080
O      85.67355507      75.84889076      83.82349269
N      87.22691011      71.91070112      84.62095719
H      86.57117507      70.11735085      84.65497227
C      89.13931313      72.71005535      86.40863829
H      90.02559478      74.53742069      86.06470810
H      90.59818184      71.25496609      86.38029239
C      88.06027940      72.79320331      89.15819007
O      86.20267843      71.52519695      89.76479222
N      88.96545830      74.50529535      90.81925950
H      90.57361540      75.36512082      90.25423133
C      88.27003902      74.71316524      93.33637495
H      86.21968598      74.52041316      93.27968316
C      89.58906799      72.63635602      94.91807587
H      91.58839843      72.67604028      94.42485731
H      88.83128774      70.77875506      94.44942375
C      89.67221595      72.86690263      97.86226947
H      90.59251266      74.59222276      98.50288669
C      86.97368678      72.87257181      99.04523814
H      86.24614214      74.76985703      98.71075658
H      87.01148130      72.59667177     101.08614256
H      85.82851263      71.40803392      98.16273595
C      91.38808744      70.86379274      98.93941347
H      91.86996765      71.47984352     100.84425759
H      93.18332743      70.74473998      97.93785852
H      90.49613662      69.00808150      98.88839086
C      88.91443569      77.37578962      94.28879701
O      91.11407712      78.13923905      94.36249634
N      86.97557650      78.89890902      94.97476766
H      85.21246185      78.19215138      94.79335394
C      87.37052930      81.44437037      96.23332539
H      89.41143371      81.51051079      96.51111516
C      86.62975658      83.53629740      94.47965937
H      86.58818260      85.33720657      95.48121432
H      84.82506795      83.06008637      93.60849554
C      88.52137262      83.87833786      92.36505563
H      89.12797477      82.13223075      91.45231782
H      90.36196605      84.13723036      93.25511672
C      87.97713144      85.95136762      90.54524919
H      89.81772487      86.51072661      89.81392510
H      87.28360190      87.52739937      91.67908497
N      86.14220719      85.30697095      88.51757285
H      85.64142972      83.48149533      88.27568788
C      85.04616594      86.82820063      86.84138561
N      85.40899339      89.24516059      86.89051850
H      84.40743844      90.25427444      85.61495324
H      86.83195731      89.84987301      88.00734675
N      83.56462050      85.72271074      85.30503812
H      82.83518614      86.66001499      83.81215433
H      83.52115681      83.83109470      85.05937370
C      85.97591128      81.75806494      98.69941823
O      83.69501163      81.78641083      98.55579903
N      87.11163679      82.16246637     100.90472883
H      89.00136310      81.90168414     100.95008227
C      85.78882837      82.17380473     103.32735797
H      84.08051579      81.02296140     103.39727784
C      87.56895056      80.84721685     105.26621716
H      86.71857372      80.82831959     107.14082567
H      89.28671178      81.98483209     105.31912950
C      88.26248012      78.03719383     104.57835679
H      89.20923300      77.87845682     102.75477089
C      89.91977009      77.25106768     106.92350714
H      91.67343611      78.33199113     106.84980781
H      90.22212630      75.21394271     106.85547699
H      88.81428020      77.64224103     108.61670192
C      85.74536467      76.55753812     104.88827190
H      86.04583116      74.53553097     105.13204660
H      84.43578433      76.96571901     103.35192441
H      85.12553444      77.30775947     106.70240916
C      85.03671730      84.83264965     104.25521359
O      83.67800408      84.94036405     106.08446866
N      85.81150510      86.78473693     102.86437502
H      87.06061418      86.36332796     101.48487481
C      84.73436109      89.27350648     102.89839009
H      84.04083153      89.52672981     104.82024175
C      86.74502989      91.33519789     102.51099620
H      87.18155666      91.26338829     100.50032740
H      88.33240000      91.10276155     103.80545872
C      85.87575578      94.06585241     102.67918184
H      85.12175498      94.26805313     104.58402597
H      84.36586446      94.50048946     101.34692479
C      87.89965266      96.08219039     102.23887561
H      88.34751780      96.02360887     100.22820681
H      89.54560428      95.89888694     103.46341826
C      87.01904020      98.66733599     103.10625999
H      86.34818737      98.41978184     105.03945001
H      85.43922900      99.33818883     101.97053447
N      89.23757889     100.44934790     102.98720723
H      90.71534487     100.03171838     104.11915329
H      88.68388909     102.18600638     103.55412512
H      89.85740913     100.61753354     101.19007751
C      82.54038884      89.43035377     101.04078913
O      82.66700051      88.70658859      98.86760387
N      80.59963992      90.79851562     101.83447418
H      80.65255225      91.34464652     103.66183952
C      78.57007386      91.61109793     100.21119928
H      77.57418809      89.90278535      99.63672248
C      76.72948043      93.43279410     101.64928100
H      76.06618649      92.55407136     103.38971894
C      77.92756691      96.00093216     102.53934209
H      76.49893382      96.73981515     103.82435599
H      78.52472042      97.20657755     100.98031789
H      79.64721786      95.87621022     103.66372925
C      74.45424995      93.98648391      99.74254715
H      74.00638481      92.26116378      98.71264631
H      74.95880687      95.54739784      98.49154833
C      72.07508452      94.68190319     101.10315010
H      72.29996195      96.33919317     102.30501603
H      71.34187071      93.09453309     102.18974273
H      70.64078226      95.07307654      99.67640673
C      79.52249592      92.63910905      97.61660505
O      81.02293861      94.38143671      97.53912627
N      78.40377795      91.66401027      95.54735474
H      77.01293938      90.40356282      95.89128493
C      78.95746775      92.50682820      93.01323175
H      79.93256654      94.31529629      93.18519685
C      80.97947491      90.93079646      91.70176169
H      82.88053958      91.17079170      92.45198304
H      81.23080852      91.81140892      89.85549908
C      80.32751934      88.20392139      91.08193146
C      79.42989933      87.31952948      88.74245028
H      79.25037534      88.65745571      87.21177197
C      78.73070060      84.76839895      88.36072557
H      78.09575255      84.00494952      86.58060338
C      79.15777875      83.08843226      90.30903340
O      78.51527179      80.54108119      90.08604569
H      77.87087512      80.19337155      88.42686599
C      80.28783508      83.99739062      92.60883032
H      80.66578035      82.65568493      94.10171411
C      80.74703858      86.55608005      93.07937217
H      81.67300446      87.07575478      94.82169983
C      76.75971605      92.99626732      91.21988148
O      74.77172397      92.08730896      91.73766649
N      76.92223251      94.61765250      89.21488186
H      78.63054510      95.43023481      88.95976881
C      75.03817538      94.81040458      87.13051374
H      73.22025866      94.52694563      88.05836936
C      74.83975412      97.42011662      85.96266288
H      73.80796355      97.26515906      84.18632014
H      76.74648797      98.07018247      85.53369500
C      73.37899567      99.32685047      87.62940148
H      74.49582394      99.83329712      89.28291201
H      71.67068309      98.45946609      88.38529201
C      72.70436338     101.71546453      86.23856292
H      71.20581042     101.43956449      84.85339353
H      74.41456569     102.39387627      85.31448675
C      71.79162557     103.76014840      88.09994334
H      73.28639910     104.04549707      89.48889218
H      70.25716782     102.94000718      89.20165378
N      71.19069260     106.18277753      86.79414245
H      70.63889252     107.61330035      87.93175770
H      69.84898692     106.05616587      85.44298814
H      72.87254902     106.83284338      86.16864305
C      75.19313295      92.81863305      85.04614562
O      77.30584695      92.59375562      84.12773863
N      73.05585249      91.63188492      84.27324755
H      71.45336456      91.96258703      85.25779496
C      72.92546136      89.96703604      81.98667871
H      74.50905201      88.68391187      82.28525547
C      70.51039113      88.37777621      82.17565135
H      68.89278541      89.51350172      82.74823842
H      70.90723367      87.23260207      83.84238995
C      69.73371363      86.59954375      80.03270171
O      68.35799286      87.55007609      78.36785282
O      70.76361446      84.42068931      79.94199484
C      73.10120591      91.43724311      79.51680642
O      72.94057917      93.84664416      79.56404958
N      73.26939155      90.08797852      77.34740062
H      73.54907105      88.20581112      77.49668899
C      73.28072991      91.26527802      74.85485161
H      74.87565892      92.56540972      74.76414475
C      73.69269024      89.22248387      72.88575679
H      71.91256806      88.23415701      72.57395195
C      74.76416506      90.29773814      70.44800985
H      73.77394847      91.94935894      69.72046522
H      74.40700680      88.92390712      68.95323633
H      76.76916468      90.72670602      70.65587974
O      75.54651176      87.46692813      73.65109595
H      74.65267121      85.91357310      73.94211380
C      70.90912338      92.72225700      74.12352753
O      71.18313370      94.58363742      72.85363144
N      68.83042445      91.98148429      75.24224550
H      68.98538200      90.56418955      76.51214159
C      66.28307337      93.33263860      75.19689207
H      65.88434112      93.81262909      73.23535616
C      64.32153746      91.27283692      75.69577982
H      64.21571278      90.74938273      77.68566163
H      65.05475128      89.55885516      74.81894681
C      61.67025144      91.45614037      74.66965843
H      60.85577940      93.12287898      75.56160925
H      60.39846563      89.94435932      75.25547359
C      61.67970007      91.65645136      71.80861279
O      62.33543510      93.78995237      70.68800509
O      61.21860685      89.68735655      70.59918795
C      66.05630621      95.66078142      77.03370605
O      64.17413880      96.88910352      76.97701426
N      67.85721539      95.77794445      78.75146727
H      69.32931219      94.56662989      78.66453986
C      68.00272431      97.78672352      80.58261206
H      67.16746528      99.51204365      79.83239072
H      69.99449585      97.90577628      81.09472789
C      66.63456246      97.04784053      83.11106587
O      66.43614120      98.44245855      84.87795997
N      65.56875682      94.77072033      83.34539193
H      65.57820545      93.59720029      81.84494924
C      64.38578816      93.67467907      85.64329913
H      63.04219274      95.07685599      86.33115951
C      62.90991190      91.34653625      85.06315315
H      62.21449262      90.29395869      86.69020751
H      64.34043472      90.22025937      84.09750301
C      60.73861637      91.58275204      83.10539669
C      59.65769292      89.48515583      81.92998692
H      60.41169371      87.64834185      82.40619796
C      57.87568100      89.65334147      79.97412019
H      57.13112884      87.96014670      79.11240499
C      56.76074248      92.00416101      79.55460095
O      54.90125179      92.13455212      77.71589725
H      53.99040370      93.70113523      77.78392739
C      57.47883848      94.13766201      80.98134432
H      56.47161435      95.91022529      80.89819636
C      59.57265523      93.95813801      82.58383223
H      60.29831014      95.70613485      83.35106111
C      66.35866242      93.07374610      87.59349669
O      68.45058945      92.06463225      86.92831302
N      65.87111303      93.63310509      90.02557445
H      64.03240933      93.90711540      90.45832178
C      67.68525030      93.11532008      92.12128093
H      69.55985881      93.91467431      91.82837335
C      66.81975564      94.42112096      94.50233609
H      67.64178659      93.52917014      96.16718497
H      64.76751287      94.30773738      94.62516830
C      67.57753589      97.18201110      94.64406556
C      65.63300752      98.89599287      95.08815124
H      63.71304558      98.29694963      95.42830198
C      66.07898293     101.56995560      95.21287318
H      64.71837998     103.07417775      95.42452253
C      68.45625863     102.44867834      94.42674703
O      68.93246966     104.95823488      93.91652093
H      67.47171122     106.02026107      93.73699693
C      70.34598494     100.70257122      93.89384421
H      72.16390166     101.39043160      93.27401398
C      70.02473147      98.16088933      94.02990451
H      71.71036734      97.10831178      93.56314211
C      68.08587227      90.15411894      92.85827419
O      66.23205076      88.65934543      93.26834480
N      70.42913290      89.33208800      92.81670021
H      71.80107420      90.62466080      92.51056455
C      71.20014124      86.59954375      92.82992830
H      69.64489649      85.52428948      93.65006952
C      72.04484890      85.66979840      90.15218611
H      73.80607382      86.53529306      89.52668670
C      72.17146056      82.78985550      89.74022578
H      72.48893458      82.35710818      87.75223370
H      70.34409522      81.95648620      90.20509845
H      73.81741218      81.96404510      90.66052249
O      70.29307261      86.46348346      88.43442489
H      70.27795481      88.27195154      88.29647487
C      73.45836418      86.07797929      94.61760939
O      75.11754389      87.72204118      95.06169507
N      73.76072039      83.70637277      95.60782598
H      72.49649349      82.42702805      94.96909848
C      75.89044194      83.09032199      97.29535158
H      77.46647369      84.16935571      96.52434324
C      75.39344392      83.60243782     100.05246227
H      74.31441021      85.35610384     100.12427187
C      73.76827930      81.45948818     101.27700492
H      74.59975887      79.57543104     101.19574669
H      72.07508452      81.33476624     100.10915406
H      72.97648398      81.68814506     103.16295178
C      77.76882990      84.12967146     101.62093511
H      79.01982872      85.42413398     100.61560071
H      79.03683627      82.54986026     101.99699064
C      76.90711470      85.17469011     104.19474234
H      78.55117659      85.70948266     105.31723977
H      76.04350978      83.73093921     105.38149047
H      75.63343918      86.79418556     104.13427110
C      76.64633247      80.26140170      96.81158164
O      75.31407542      78.97638780      95.53412665
N      78.94990885      79.64913037      97.62983313
H      80.22736384      80.99461551      98.07202909
C      79.94768434      77.09611012      97.72809890
H      78.88376842      75.99250996      99.10381966
H      81.71835789      76.94115256      98.76744837
C      80.35397550      75.61834415      95.29980059
O      81.71079900      76.46494153      93.53479621
N      79.03872598      73.46027670      94.99744438
H      77.97103062      72.94816087      96.49599735
C      79.01793899      71.94093674      92.63906594
H      80.40121866      72.54942861      91.23877874
C      79.56595963      69.12524453      93.29102152
H      77.90111074      68.35801565      94.23021550
C      79.73036581      67.60023540      90.84571567
H      79.49415002      65.56500016      91.03657803
H      81.48403183      68.14258685      89.91219087
H      78.30551217      68.19171974      89.48133327
C      81.91677916      68.71895338      95.08437179
H      81.97914013      70.09845359      96.61316038
H      83.61942257      68.89280820      93.93919764
C      81.90544080      66.12246942      96.08592674
H      80.31996043      65.93916597      97.38983789
H      83.68367326      65.74452416      97.05157688
H      81.52371608      64.59557056      94.75555941
C      76.52916945      72.39636078      91.27657327
O      74.90400482      70.89024891      91.05736502
N      76.28728448      74.78497484      90.27123887
H      77.73292510      75.97361269      90.64351495
C      73.98559782      75.60700579      88.92575374
H      73.59253476      74.47883918      87.24767677
H      74.42779379      77.57421088      88.49867559
C      71.40801113      75.59188798      90.40729917
O      69.40868069      74.99662419      89.21488186
N      71.17935425      76.10589353      92.92252489
H      72.91790245      76.47250044      93.62361335
C      68.80018882      76.16825450      94.32659154
H      67.52651328      74.62623783      93.83715242
C      69.61466086      76.00195859      97.22165225
H      70.59542882      77.75562461      97.67707629
H      70.82975488      74.38624259      97.61849478
C      67.23549543      75.93014899      98.78256618
N      65.64245615      73.89302402      99.10570938
H      65.88056166      72.18660116      98.28178871
C      63.60344146      74.64891455     100.38694382
H      61.93481312      73.56610137     100.84236787
N      63.74706066      77.06020532     100.81969115
H      62.59432761      78.08065753     101.94785776
C      66.08087265      77.94837669      99.88994580
H      66.77818166      79.86455917      99.95419650
C      67.55296945      78.78741517      93.84093188
O      68.64901072      80.81320178      94.47776964
N      65.22482663      78.80442271      92.89417899
H      64.42736213      77.09799985      92.57859470
C      63.67714078      81.10421963      92.69575773
H      64.93002934      82.53285272      91.90018295
C      61.58143430      80.66580313      90.69264784
H      60.31342795      79.16158098      91.29924998
H      62.35811182      80.09321605      88.87095167
C      59.78997376      82.87300346      90.18620119
H      58.88101540      83.66668851      91.85482952
C      61.22805548      85.21626409      89.03157841
H      59.95437995      86.77906775      88.60638999
H      62.27496386      84.72115580      87.32893500
H      62.69637283      85.75861554      90.36950464
C      57.76040770      82.26073214      88.10750224
H      56.54153423      83.86322005      87.67664464
H      56.72861713      80.59588325      88.74622974
H      58.65802770      81.77318275      86.31604170
C      62.74172626      81.93569921      95.27145469
O      61.32254180      80.64879559      96.51111516
N      63.09510508      84.36399752      95.70609175
H      64.20248470      85.26539697      94.43808539
C      62.16913919      85.71893129      97.92085099
H      61.46238154      84.44147630      99.37405052
C      64.18736689      87.44992059      99.31357928
H      63.42769691      88.43068855     100.95575144
H      64.44436967      89.13744619      98.15895650
C      66.78385084      86.31230535      99.88994580
H      67.26951050      85.28618396      98.17218459
C      68.97404364      88.27384126      99.89372526
H      69.37844508      88.77650846      97.93596880
H      70.70692267      87.69369529     100.84236787
H      68.30885998      90.01805865     100.76299936
C      66.42102339      84.84776746     102.40706125
H      65.04530263      83.36811175     102.01210845
H      65.52529312      85.96648544     103.88860668
H      68.12933598      83.98983171     103.17240041
C      59.99595393      87.36299318      97.21598307
O      58.11189679      87.33275756      98.55579903
N      60.16791902      89.02217288      95.13728413
H      61.67403089      88.76517010      93.99022025
C      58.14780159      90.87599440      94.51367444
H      56.50940888      89.68168737      94.14517781
C      57.43537477      92.79784606      96.77756657