 %block lattice_cart
   135.996   0.000   0.000
   0.000 142.663   0.000
   0.000   0.000   160.158
 %endblock lattice_cart

 %block positions_abs
N      88.68577881      39.82409319      82.00746570
H      90.56227704      40.12455967      82.18698970
H      88.46657056      38.35766557      80.80748950
H      88.01870543      39.43103011      83.75168309
C      87.47446425      42.15601546      81.00402103
H      88.20578833      43.71692939      82.13029791
C      87.99224926      42.75127924      78.20533636
H      86.42755587      43.82275406      77.40220268
H      88.21712669      40.89934746      77.33039308
C      90.39409140      44.40101032      77.90109043
H      90.61329965      44.68824872      75.87341409
H      91.98902041      43.39189646      78.73068028
S      90.18811123      47.54362517      79.35240023
C      87.75225401      48.99493498      77.44377666
H      87.92988829      51.03961885      77.61574175
H      85.86819688      48.37132530      78.00502537
H      88.03949241      48.64533561      75.43310786
C      84.58129326      42.07853668      81.34039232
O      83.41722185      40.16802337      80.65820112
N      83.33785335      44.04574177      82.23045341
H      84.34507747      45.44035979      83.05815353
C      80.60341937      44.27250893      82.63296511
H      79.53761373      43.51850813      81.03992583
C      80.05161929      42.84387583      85.20299290
H      81.14955028      41.09965845      85.25401551
H      78.15055462      42.06908805      85.36928881
C      80.53349950      44.34242880      87.61239395
O      79.45635550      46.27750854      88.22655500
N      82.23236345      43.42969099      89.18086679
H      82.24748127      44.46148156      90.78713415
H      83.44178830      42.12577983      88.48733723
C      79.68879184      47.02961962      82.72367198
O      81.31584619      48.69068905      82.16053354
N      77.25293462      47.44346968      83.27169261
H      76.09075294      45.97704206      83.65530705
C      76.33830708      50.13255022      83.18476520
H      76.54428725      50.87143321      81.27236217
C      73.47159227      50.22325709      83.36050974
H      72.59664898      48.88533086      82.06226777
C      72.51539075      49.06296513      85.81337450
H      72.89522574      50.39333245      87.33838363
H      73.76261012      47.49449229      86.28202662
H      70.51228086      48.58108492      85.82282313
C      72.27728524      52.75738007      83.01657956
H      72.48515513      53.96869464      84.67009008
H      70.22882191      52.54195127      83.04303572
C      73.09931618      54.31829401      80.59395042
H      71.96170094      55.99070179      80.19899762
H      73.29395799      53.07674382      78.96311661
H      75.00793976      54.97591876      81.00024158
C      77.68946140      51.92212104      85.16519837
O      78.41700603      53.96680491      84.55670650
N      77.92567719      51.21158395      87.60105559
H      77.25671407      49.50894054      88.13962759
C      79.35053083      52.76871843      89.47566409
H      78.71180333      54.72080571      89.62873192
C      79.24659588      51.30607026      92.10616312
H      80.38232139      52.42289851      93.41196400
H      80.23870219      49.51083027      91.92096994
C      76.48948519      50.99237570      93.06992354
C      75.06841100      53.10508971      94.02990451
H      76.01327416      54.91355779      94.03557369
C      72.53428802      52.69690883      94.60060185
H      71.45714402      54.18601316      95.48877322
C      71.47604128      50.26483106      94.36249634
H      69.62977867      50.00026938      95.19397592
C      72.93490999      48.28061844      93.60093663
H      72.21114482      46.37199486      93.66140788
C      75.38021584      48.66234315      92.77701596
H      76.43846258      47.08631141      92.02490489
C      82.11520042      53.24303973      88.66686123
O      82.90699575      55.32173868      89.07693184
N      83.39265541      51.30229081      87.57081997
H      82.50070459      49.62232412      87.40641378
C      86.04016198      51.67267717      86.71666368
H      87.16454913      52.64966567      88.13962759
C      87.24958682      49.14989254      86.14407660
H      89.10340833      49.55051452      85.34283265
H      86.36141545      48.18235267      84.55859623
C      87.57650947      47.59653751      88.58182355
H      85.80205646      47.31307856      89.58904767
H      88.65365347      48.85698496      89.80447647
C      88.81050075      44.96792821      88.28135706
O      90.57550513      44.27817811      89.56448123
O      88.02059515      43.47882387      86.67131024
C      86.13275856      53.27894453      84.23167357
O      87.98280063      54.74159270      83.91797901
N      84.02949318      53.44524045      82.93343160
H      82.68211832      52.14321902      83.31137686
C      83.83296164      55.11386878      80.82260731
H      85.49025162      55.35197430      79.62452082
C      81.61064350      54.09719603      79.12752280
H      79.89288228      54.18223371      80.26135859
H      82.02071411      52.11676285      78.73445973
C      81.12687356      55.58441064      76.81071834
H      82.46291006      54.90788862      75.39531333
H      81.32529482      57.62342533      77.01669851
S      77.89544157      55.14032495      75.46145376
C      78.24315121      56.44612583      72.28671355
H      79.06896161      58.32829324      72.43600193
H      76.40255778      56.17211552      71.41177027
H      79.54517264      55.16678112      71.33051204
C      83.75926232      57.85208221      81.65408688
O      85.13309335      59.43567286      80.63741413
N      82.05094973      58.30561653      83.40775290
H      81.07585095      56.74092314      83.90475092
C      81.11931466      60.84918814      84.27702701
H      80.86420160      61.86208145      82.50068427
C      78.51905125      60.58462646      85.65274776
H      78.15055462      62.16632738      86.91886439
H      78.52661015      58.73269467      86.55603694
C      76.49326464      60.78493745      83.54570292
H      77.16411748      59.95156815      81.78447800
C      74.27094650      59.43567286      84.58694212
H      72.77050381      59.33173791      83.17909602
H      73.64166764      60.05172364      86.44832254
H      74.85865138      57.47035750      84.76457639
C      75.77516864      63.58551185      83.35484057
H      75.04951374      64.22990852      85.17086755
H      74.21803416      63.40409812      82.01880406
H      77.33419285      64.65131749      82.53091989
C      83.27360265      62.13420204      85.86817656
O      83.76871095      64.42644005      85.57715871
N      84.78916316      60.55250111      87.12295483
H      84.20523773      58.78182756      87.53491517
C      87.21935119      61.19500806      88.26057007
H      87.05872446      62.62553088      89.73455660
C      88.45901166      58.69490015      89.15441062
H      89.10340833      57.96546579      87.34027336
H      87.17021831      57.34374583      90.02179500
C      90.75313940      59.01237417      90.84571567
H      90.16165506      60.30683669      92.33293028
H      92.40664992      59.97235513      90.08037651
C      91.71878955      56.59730394      92.26867958
H      90.10685300      55.58252091      93.05291600
H      93.29293156      56.92611632      93.55369348
N      92.84884588      54.85497628      90.41674780
H      93.44977885      55.60330790      88.76701673
C      93.51591927      52.65155540      90.93075335
N      92.72979312      51.59141894      93.02834956
H      93.58961860      50.04940227      93.75589419
H      91.55816281      52.50604647      94.22643604
N      94.77636672      51.19646614      89.45676683
H      95.23179076      49.38799806      89.85927853
H      94.75746946      51.72747923      87.62373231
C      89.01270147      62.65198705      86.52769104
O      90.30149481      64.27904140      87.57837887
N      89.12419532      62.27404178      84.03514204
H      88.26814930      60.72068675      83.32460494
C      90.60007157      63.96534683      82.26257876
H      91.36730045      65.55838612      83.32460494
C      92.81672053      62.41577126      81.00780048
H      93.71623026      61.13075736      82.34194726
C      91.56761144      60.91343884      78.91398373
H      89.80449679      60.10274625      79.59806466
H      92.92443493      59.40354751      78.55493573
H      91.09329014      62.19278355      77.37007733
C      94.95589072      64.16187837      80.05726815
H      95.58705931      65.28059635      81.66731497
H      94.41731872      65.56216557      78.64375287
C      97.36340204      62.67088431      79.12941253
H      96.88908074      61.59374031      77.43999721
H      97.99079118      61.31217109      80.54481754
H      99.00746394      63.90865504      79.02358786
C      88.96545831      65.19555866      80.34639628
O      89.91410092      67.02670346      79.27681118
N      86.56550589      64.43588869      79.88530305
H      85.98913936      62.69167130      80.40686752
C      84.96868716      65.80027108      77.95778222
H      86.01181608      65.97601563      76.19088811
C      82.51393268      64.38486608      77.33606226
H      81.16466809      64.31305648      78.89130701
H      83.10163756      62.42710962      77.07339030
C      81.21758042      65.34862650      74.96256601
O      82.65944160      65.69822586      73.09362669
O      78.88943761      65.69822586      74.95878656
C      84.26381924      68.39297559      78.98012415
O      83.96335276      70.01814021      77.44944584
N      84.44523297      68.62730165      81.39141493
H      84.52271175      67.03237264      82.44021303
C      84.31862130      71.06882804      82.79170212
H      85.00081250      72.54281457      81.52747522
C      81.47269348      71.49401647      83.41531181
H      81.49348047      72.74501528      85.05181479
H      80.77538447      69.70066619      84.15041534
C      79.90233091      72.85461941      81.44054781
H      77.95402308      72.59194745      82.05092941
H      80.17823095      71.95510969      79.60940301
C      80.27082754      75.63062736      80.85095320
O      78.36787314      76.94587688      80.31238120
O      82.46291006      76.49045284      80.58261206
C      85.85685852      71.30882329      85.14063193
O      87.07951145      73.23256467      85.44109841
N      85.86252770      69.35106683      86.83004725
H      84.58696244      68.06227348      86.23478347
C      87.35541149      69.00902636      89.22810995
H      89.34151384      69.43421478      88.88795921
H      87.19100530      67.06827744      89.90085251
C      86.17055309      70.51513824      91.43342055
O      84.54916791      72.06849326      91.04224721
N      86.77904496      69.76302716      93.70109213
H      88.06027940      68.36085024      93.90140312
C      85.12553444      70.16931832      95.97065343
H      83.17155743      70.52080741      95.41318417
C      85.44300846      67.56527546      97.43897078
H      87.45178753      67.20244801      97.70920164
H      84.72302274      66.02325879      96.27867882
C      84.21279663      67.50102477     100.10159515
H      85.42033174      68.75391331     101.20519532
C      81.38576607      68.33628380     100.16206639
H      80.59963992      67.70322548     101.95730639
H      80.36342413      67.29882405      98.70508741
H      81.28750030      70.39230602     100.07324926
C      84.20145827      64.79115723     101.22976176
H      85.73591604      63.50425361     100.75921991
H      82.60841899      63.93889067     100.23954517
H      83.76493149      64.94044561     103.23854083
C      86.09307431      72.50502004      97.38983789
O      88.11130201      72.46911524      98.53501204
N      84.55483709      74.54403473      97.56558244
H      82.80306080      74.29081141      96.84937617
C      85.17277760      77.03091456      98.67107233
H      87.20801284      77.08949608      98.97531827
C      84.28082678      79.00945801      96.73599259
H      83.48525200      80.57226167      97.81313659
H      82.67266969      78.38017915      95.60971571
C      86.55038808      79.97132871      95.13539440
H      87.57650947      78.45198875      94.19809015
H      87.92232938      80.94075830      96.32781170
C      85.68300370      81.87995228      93.13984341
H      85.46757490      83.67330255      94.12817028
H      83.98413975      81.20343026      92.19120080
N      87.75225401      82.34293523      91.36161095
H      88.53271098      84.08337316      91.42397192
C      88.50436509      80.81792609      89.49456136
N      87.58595810      78.56915178      89.18653597
H      88.38153288      77.26524063      88.04325155
H      86.02315444      78.09672020      90.17108338
N      90.31472290      81.25634260      87.98089058
H      90.65676336      80.07715338      86.51635269
H      91.35218264      82.85694079      88.05458991
C      83.89721234      77.31815296     101.32046862
O      81.77693941      76.50746037     101.47731591
N      85.40521393      78.21199351     103.18940795
H      87.21557174      78.47844492     102.65461540
C      84.77593507      78.68631481     105.86337068
H      82.97880535      77.74712083     106.23942622
C      86.85274429      77.93798319     107.81167851
H      86.31417229      78.04569759     109.79778086
H      88.10563284      79.54614028     107.51310175
C      88.21523696      75.38496294     107.22208390
H      88.90687679      75.79125410     105.32290895
C      90.41676812      74.67820530     108.90394032
H      89.95567490      73.28169756     110.34769122
H      91.23690934      76.41675351     109.64471303
H      91.86807792      73.89585861     107.66994903
C      86.35385654      73.21177768     107.18806882
H      85.20868240      73.21933659     108.89827114
H      87.37808821      71.42598632     107.09358251
H      85.13498307      73.53681061     105.55912474
C      84.12775895      81.49822757     106.20163169
O      82.35141621      82.07270437     107.63404423
N      85.25214610      83.22732714     104.65583557
H      86.69778673      82.61883527     103.56735321
C      84.19767882      85.85026727     104.38371498
H      83.36053006      86.01656318     106.25832348
C      86.40865861      87.79479564     104.20986016
H      87.81839444      87.28267981     105.62337544
H      85.48080299      89.56546920     104.70307872
C      87.64076016      87.81558263     101.57369195
H      86.21401680      88.15762309     100.12616159
H      88.45901166      85.94097413     101.33936589
C      89.66465704      89.96042200     101.28834328
H      88.58751305      91.71408801     101.18440833
H      90.55849759      90.06246722      99.43452176
C      91.70367174      90.01900351     103.37271140
H      93.02648015      88.51100191     102.91161818
H      91.12163603      89.81302334     105.33613704
N      93.09828975      92.36037441     103.20452576
H      94.01669674      92.51722170     104.87126437
H      91.74335599      93.70396982     103.22153329
H      94.30015569      92.52478060     101.73053923
C      81.91866889      86.33403720     102.53934209
O      81.63143049      84.91674247     100.68741031
N      80.13287752      88.06502650     103.24043056
H      80.31807070      89.01555884     104.88449245
C      78.25637929      88.82847593     101.36771178
H      77.23214763      87.16740651     100.70252812
C      76.44980094      90.72576115     102.39005372
H      77.46269424      92.30368262     103.24043056
C      74.73014999      91.71975719     100.19419174
H      73.55662995      90.33647753      99.22098269
H      75.94335429      92.78745256      98.91862648
H      73.40734157      93.08413959     100.99165624
C      74.95313770      89.57302810     104.61237186
H      76.15878308      88.69430537     106.03155632
H      73.78717656      88.08203404     103.80167927
C      73.34498060      91.42684961     106.10147619
H      74.30118212      93.13327248     106.75154205
H      72.49460376      90.70308444     107.83246550
H      71.76327968      91.90117092     104.87126437
C      79.72658636      89.78278772      98.92807511
O      81.65221748      91.05268380      99.08681212
N      78.92534241      88.91162389      96.79079465
H      77.40789218      87.76078057      96.85126589
C      79.98358914      89.52200549      94.21131823
H      81.07774068      91.25866397      94.36438606
C      81.52182636      87.29401817      93.34960303
H      82.51393268      86.64962150      95.03523891
H      82.94668000      87.94030457      92.00789735
C      80.08374464      85.02445687      92.26678986
C      79.83430076      84.83170478      89.61928329
H      80.72247213      86.25466870      88.45710161
C      78.60219921      82.74355721      88.70654548
H      78.54172797      82.44498045      86.68831778
C      77.75182237      80.84249254      90.26179024
O      76.63499412      78.64852029      89.43031066
H      76.67845782      78.81670593      87.62373231
C      78.07307584      80.96532475      92.86961255
H      77.64410797      79.41196972      94.12250110
C      79.23714725      83.11583329      93.91652093
H      79.40344316      83.25000386      95.94797672
C      77.88221348      90.15506381      92.20820834
O      75.71280767      90.08325421      92.81858994
N      78.48503618      90.45175084      89.76101277
H      80.32751933      90.44986111      89.26590447
C      76.91656334      91.09425778      87.57459942
H      75.01360894      91.41362153      88.29269542
C      77.58552645      93.65861639      86.48422734
H      76.33830708      94.17640140      84.92898258
H      79.50548839      93.57357871      85.74534435
C      77.75749155      95.71841807      88.42497626
H      79.43367879      95.58991668      89.61550384
H      76.05106868      95.40283378      89.53424561
C      77.84630868      98.48875685      87.61995285
H      78.28472519      99.77755019      89.16763870
H      75.86209605      98.59647125      87.07760140
C      79.38643563      99.04055693      85.37306827
H      79.08785887     101.06634354      85.13496275
H      78.75337731      98.22041571      83.59294608
N      82.17000249      98.44907259      85.95888342
H      82.62731625      96.59714081      85.99100877
H      82.76337655      99.25220628      87.58593778
H      83.46257528      99.01599049      84.67197981
C      76.58208178      89.08736844      85.48456212
O      78.46235946      87.95164293      84.84016545
N      74.28606431      88.96453623      84.45844073
H      72.90656410      89.83947951      85.44487787
C      73.59820393      87.70975796      81.96967118
H      74.80951850      86.04490908      81.95833282
C      70.76739391      87.26000309      82.14919518
H      70.04551846      89.14406023      82.57249387
H      70.49338360      86.33214747      83.96900162
C      69.53718208      85.81436247      79.92498731
O      68.11988735      87.00111059      78.57761245
O      70.05118764      83.52590390      79.65286672
C      74.33897665      89.50499795      79.81160373
O      74.69613492      91.75755172      80.17821063
N      74.23504170      88.66406975      77.46834310
H      74.32952801      86.77623316      77.20567114
C      74.60353833      90.32324945      75.22523797
H      76.04350978      91.67440376      75.81105312
C      75.44068709      89.00611021      72.83851363
H      75.67501315      90.33836726      71.28515860
C      77.96536144      87.53968259      73.28070959
H      79.29572876      88.81713758      74.19533713
H      78.72503142      87.13717088      71.40799081
H      77.76505045      85.71798642      74.22179329
O      73.60576284      87.24488528      72.23569094
H      74.25393896      85.95042276      71.14531886
C      72.45114006      91.95408326      74.58840020
O      72.77050381      93.67940338      72.91410269
N      70.14567396      91.65739622      75.72979489
H      69.88678145      90.07380557      76.76158546
C      68.19169695      93.55090199      75.51814555
H      68.26350655      94.38427129      73.63597814
C      65.47049106      92.31124153      75.68822091
H      64.08343194      93.83247121      75.78459696
H      65.35332803      91.23031808      77.43810748
C      64.91113207      90.62938511      73.34307056
H      66.06386512      88.96642596      73.71912610
H      65.41190954      91.65172705      71.62530934
C      62.14457275      89.81113362      73.05583216
O      60.65924787      91.11315505      71.88609157
O      61.52096306      87.66629425      73.87975283
C      68.59609838      95.61448312      77.63085956
O      67.09943514      97.39838476      77.75369177
N      70.63889252      95.37448788      79.27492146
H      71.95792149      94.01955412      79.02547758
C      71.44580566      97.09413883      81.19488339
H      70.58598019      98.86103293      80.57505316
H      73.48104090      97.40027449      81.23456764
C      70.44047126      96.53289011      83.81593379
O      70.92802065      98.03711226      85.54881281
N      68.82097581      94.53733913      84.15230507
H      68.11043872      93.78333833      82.54981716
C      67.42446807      94.18018085      86.65430271
H      66.88211661      96.03022291      87.37806789
C      64.94325742      92.72698132      86.21021702
H      63.98516618      92.72131214      88.03380292
H      65.38167392      90.79190157      85.65274776
C      63.21793729      93.90050136      84.10506191
C      62.62267350      92.38872031      82.03959105
H      63.13667906      90.41584604      82.13596709
C      60.94081709      93.38082662      80.10073185
H      60.35122248      92.18274014      78.55682546
C      60.23405945      96.00376674      80.20655653
O      58.67503524      97.11303609      78.43966243
H      58.65802770      98.92150417      78.30549186
C      61.40568976      97.45318683      82.03770133
H      61.09010546      99.46952480      82.06982667
C      62.85888929      96.47052914      83.95199408
H      63.66580243      97.76877112      85.30314839
C      68.87955733      92.77422448      88.63095643
O      70.20803493      90.88638789      88.01301593
N      68.57531139      93.43751841      91.07626228
H      67.70792701      95.05701386      91.59215756
C      70.14378423      92.36793332      93.06614409
H      72.11476877      92.29990317      92.46899057
C      70.02095202      94.14427605      95.40373554
H      70.55574457      93.16917728      97.13850429
H      68.03484967      94.63938435      95.61727461
C      71.62532966      96.44974215      95.31302867
C      70.50850141      98.88748910      95.73065819
H      68.63200318      99.03110830      96.52056379
C      72.04673863     101.07579217      95.78357053
H      71.22470768     102.87670135      96.28434800
C      74.65645067     100.86414282      95.14673276
O      76.17957007     103.01843082      95.14295331
H      75.26872199     104.50753515      95.63617187
C      75.82808098      98.45096232      94.97287794
H      77.78205799      98.04656089      94.54957924
C      74.23126225      96.27588733      94.91051697
H      75.04195483      94.42962473      94.59304295
C      69.49560811      89.64861715      93.86927777
O      67.26573106      88.96831568      94.33792990
N      71.38533442      88.07258541      94.45320320
H      73.13711071      88.76800469      94.15840590
C      71.18880288      85.24744457      94.24344358
H      69.29907657      84.57848146      94.72343406
C      71.86910435      84.40273691      91.46554590
H      73.81552246      84.82603560      90.94209171
C      71.54785088      81.52846319      91.03090885
H      72.62877433      80.51934934      92.46710085
H      72.56074418      81.09571586      89.29047091
H      69.54474099      81.04847270      91.04980611
O      70.02284175      85.51956516      89.84794018
H      70.34220549      87.30724625      89.89518333
C      73.01238877      84.22321291      96.26545074
O      74.80195959      85.45909392      96.93630358
N      72.38688936      82.02357148      97.21976252
H      70.84865215      81.17886382      96.46954118
C      74.02339235      80.57415140      98.93752374
H      75.86398578      81.49255839      98.82602989
C      72.92924082      80.84816171     101.65117073
H      72.35287429      82.82292571     101.73809814
C      70.51039114      79.26268134     101.78912075
H      69.03073543      79.86739376     100.49087877
H      69.50316701      79.54991974     103.56546348
H      70.94124873      77.26524063     101.53022824
C      74.80006987      80.25667738     103.82813544
H      75.24415555      78.25167776     103.97553409
H      73.74749231      80.59304866     105.57046310
C      77.27372161      81.58515498     104.26277249
H      76.72948043      83.50889636     103.76766420
H      78.66456018      80.66296854     103.05334765
H      77.65166687      81.42641797     106.28100019
C      74.52228010      77.86050441      97.90951263
O      73.20325113      76.80225768      96.35993705
N      76.71814207      76.69265355      98.62760863
H      77.87276485      77.43153654      99.95419650
C      77.43812780      74.11128741      97.90762290
H      76.01516388      72.79225844      98.59737301
H      79.26738287      73.61050994      98.70697713
C      77.73292510      73.86940244      95.16185057
O      79.23903697      75.17898278      93.97510244
N      76.22492351      72.19132547      93.93163874
H      74.78117260      71.46945002      94.95020122
C      75.94146456      71.72834253      91.31436780
H      77.22458873      73.00768724      90.33926902
C      76.80317976      68.97312156      90.78713415
H      75.67501315      67.61062889      91.84349116
C      76.49515437      68.30604818      87.98655976
H      74.51094174      68.30415845      87.43475968
H      77.09041816      66.39742460      87.49145146
H      77.71402784      69.54003946      86.87351096
C      79.59997470      68.56305095      91.56381167
H      79.77193980      69.12807912      93.53479621
H      80.56373512      69.90286691      90.33359984
C      80.95679819      66.06483277      91.45231782
H      82.76715600      66.22356978      92.42174742
H      80.90577558      65.43366418      89.49267163
H      79.84752885      64.82139285      92.66363238
C      73.34309088      72.45588716      90.52446220
O      71.49304882      71.11607120      91.22177121
N      73.03506549      74.62151351      89.32070654
H      74.55818490      75.77235684      89.31503736
C      70.78251172      75.18276223      87.82026384
H      69.98882667      73.62751747      86.72989176
H      71.27006111      76.60572614      86.41052801
C      68.65656962      76.17108909      89.44731820
O      67.02762554      77.70554686      88.41363791
N      68.55452440      75.66464244      91.98333091
H      70.05685682      75.01835604      92.96976805
C      66.30575009      76.19376581      93.49889141
H      64.67680601      75.46433145      92.47088030
C      66.47771518      74.76513271      96.02545549
H      68.20870449      75.44543419      96.90795768
H      66.80652756      72.75635364      95.71176093
C      64.11366757      75.27157936      97.70731191
N      61.84221654      74.15286139      97.41818379
H      61.52474252      72.73367693      96.18230278
C      60.16791902      75.37740404      99.02067170
H      58.15536050      75.05048139      98.90917785
N      61.28474728      77.32193241     100.16584585
H      60.43437043      78.65041001     101.24110012
C      63.73005312      77.27279953      99.41940395
H      65.32120268      78.53324698      99.60648686
C      66.00717333      78.99811965      94.04124287
O      67.29218722      80.11872736      95.66262804
N      64.22894087      80.21321367      92.75433925
H      63.01195713      79.17197447      91.71687950
C      63.54485995      82.90607367      92.96976805
H      64.88278618      84.27801497      92.21387752
C      61.15435616      83.26323194      91.44664864
H      59.65391347      82.12939615      92.29135630
H      61.50017607      82.61316609      89.52479698
C      59.91658542      86.05624743      91.39562603
H      59.42336686      86.71387219      93.28346261
C      61.56442677      88.16518200      90.29958477
H      63.38612294      88.32958819      91.24444792
H      60.66113759      90.00577543      90.49233685
H      62.06142479      87.58503602      88.38529201
C      57.32388092      86.22254335      90.00856691
H      57.46183094      85.60460284      88.04892073
H      56.65113836      88.16518200      89.87817580
H      56.00485196      85.01689796      91.03468830
C      62.87400710      83.50322718      95.62861297
O      61.24317330      82.21065439      96.73032341
N      63.69981750      85.73499396      96.42796720
H      65.10766361      86.60615779      95.48310404
C      62.74928517      86.96709552      98.73910248
H      61.43403565      85.60460284      99.54790534
C      64.77507178      87.62094082     100.68930003
H      63.89067986      88.65273139     102.23698588
H      66.17724870      88.97020541     100.01655747
C      66.06575485      85.27768019     101.77022349
H      67.03896390      84.30447114     100.23765545
C      68.14634352      86.08648305     103.65994980
H      69.05341215      84.31014032     104.17773481
H      67.63422769      87.47543189     105.09236234
H      69.65812457      87.02756676     102.62437978
C      64.32153746      83.35015935     102.87571338
H      65.59332327      81.80436323     103.36515249
H      62.93069889      82.51490032     101.60392757
H      63.35777704      84.18352866     104.49520883
C      60.91814037      89.03256638      98.14383869
O      58.71094004      88.78879168      99.03578951
N      61.58521376      90.89772625      96.66229326
H      63.30864416      90.92607214      95.84215204
C      59.88257035      92.90839504      95.78734998
H      58.05142555      92.13927643      95.23554990
C      59.09077503      94.91906384      97.70353246