 %block lattice_cart
   135.996   0.000   0.000
   0.000 142.663   0.000
   0.000   0.000   160.158
 %endblock lattice_cart

 %block positions_abs
N      91.68760907      42.26939904      84.61623289
H      92.20917352      40.60077070      83.84711427
H      90.44794861      41.79318801      85.98817419
H      93.33922987      42.80419158      85.40991793
C      90.47629450      44.29896510      83.00240661
H      90.72951783      46.08475646      83.99640265
C      91.69327825      44.57864459      80.36812812
H      91.26808983      43.05741491      79.04909917
H      93.73229294      44.34620825      80.54765212
C      90.73518701      47.12599566      79.19649782
H      88.82656343      47.06174497      78.42737921
H      91.94083239      47.36032172      77.54487701
S      91.37202477      49.94924677      80.93315630
C      91.62524810      52.13943957      78.23462713
H      91.88414060      54.09341658      78.83178064
H      89.89614852      51.86920871      77.14803450
H      93.33356069      51.87865734      77.11212970
C      87.70217627      43.72259857      82.97028126
O      86.94250630      41.69870169      82.11045580
N      86.25275618      45.11910632      84.39324518
H      87.21840633      46.39656130      85.43070493
C      83.56745509      44.84509600      84.71260892
H      82.72652688      43.53740539      83.35956488
C      83.06478790      43.53740539      87.30153397
H      84.30066891      41.89145377      87.41869700
H      81.19773830      42.67191074      87.39413056
C      83.34068794      45.28162278      89.50684458
O      84.51609771      47.20914362      89.50306513
N      82.41283232      44.45392265      91.62144833
H      82.89282281      45.30618922      93.26173076
H      81.84591443      42.63033676      91.58365380
C      82.21441105      47.51905873      84.44237806
O      83.54477838      49.33508572      84.37812736
N      79.67272917      47.82141494      84.53497465
H      78.65794614      46.23593457      84.84488977
C      78.31968513      50.31963313      84.38946573
H      79.06612702      51.01694214      82.59800517
C      75.35659426      50.01538719      84.23261844
H      74.90494967      48.89477949      82.56587984
C      73.75410636      48.86832332      86.38312699
H      71.72454029      48.92690484      86.04297625
H      74.06780093      50.12877077      87.98183545
H      74.40228248      46.95781002      86.79508732
C      74.33047287      52.67423212      83.40302859
H      74.57991675      53.92901039      85.01685486
H      72.30657600      52.31707384      83.29342447
C      75.35848400      53.81184736      80.99740700
H      75.87437927      52.32652247      79.66892940
H      77.17829044      54.48270020      81.68904683
H      74.07913928      55.19134756      80.15836850
C      79.34391679      52.27738959      86.33777355
O      79.61414765      54.46002348      85.61589810
N      79.87681961      51.53283742      88.64890884
H      79.51210243      49.74326660      89.20448837
C      80.77254987      53.32051851      90.68603380
H      79.61981683      55.02316192      90.82020436
C      80.67995328      51.72369978      93.10110402
H      81.58324246      52.93690407      94.49572205
H      81.65883152      49.96814404      92.64190054
C      78.02110837      51.03772913      94.23493982
C      76.19563274      52.75549035      94.78296045
H      76.51121705      54.71324681      94.30863915
C      73.96386598      51.93912858      96.03962845
H      72.44830547      53.18445822      96.59898743
C      73.46875768      49.39933641      96.68213538
H      71.80579853      48.85887469      97.73282321
C      75.40383743      47.59275806      95.96781884
H      75.17707026      45.62177352      96.45347851
C      77.63560419      48.45825271      94.73193783
H      78.91683864      46.97670728      94.16124049
C      83.36336465      54.32396319      89.99628370
O      83.79044280      56.68990053      89.91880491
N      84.96018339      52.64021704      89.02874383
H      84.35169151      50.83174896      88.98716984
C      87.50375501      53.36776167      87.99695326
H      88.51853804      54.58285569      89.31787195
C      89.03443332      50.91867637      87.94593065
H      88.27476334      49.33886517      86.86311747
H      89.09490457      50.30073587      89.91124602
C      91.90303787      51.16245107      87.37523330
H      92.86301882      52.21313890      88.86622736
H      91.98807555      52.07329915      85.53086042
C      93.28442779      48.61887945      87.50373468
O      95.55965828      48.50360614      86.91602981
O      92.29610093      46.72348396      88.45237730
C      87.39982006      54.79261531      85.46471999
O      89.11758128      56.19479224      84.96394253
N      85.30789302      54.47892074      84.07199171
H      83.90004692      53.27894454      84.54820274
C      84.95640393      55.80928807      81.70983381
H      86.74408503      55.94912782      80.69883024
C      82.92872761      54.59419405      79.94860888
H      81.11648007      54.97024959      80.85756724
H      83.33312903      52.58163553      79.76719517
C      82.64715838      55.76771409      77.26330780
H      84.14949080      55.28772361      75.93671993
H      82.46196520      57.81995687      77.32188932
S      79.97508538      54.79450504      75.45672945
C      80.28500048      56.75037177      72.61647079
H      80.97097115      58.55506040      73.33456680
H      78.52944475      56.96958002      71.56200352
H      81.72875140      55.98881207      71.35980280
C      84.23452848      58.54183232      82.10289689
O      85.16616355      60.31250587      80.94638439
N      82.62070222      58.87820360      83.96238758
H      81.82512743      57.31917939      84.72583701
C      81.92339320      61.49547454      84.61245342
H      81.46229999      62.31561576      82.77941890
C      79.58391203      61.39909850      86.19037490
H      79.19840785      62.96379189      87.47538880
H      79.68973671      59.75314688      87.42436618
C      77.21608495      61.33862726      84.50473903
H      77.45230075      59.84007429      83.11201073
C      75.02211270      60.58273674      86.01085090
H      73.49899330      60.30305724      84.65213768
H      74.41362084      61.92633214      87.45082235
H      75.22620314      58.87631387      87.14657641
C      76.63971844      63.96156738      83.32366009
H      75.89894571      65.31083197      84.69371166
H      75.18651890      63.71212351      81.88557836
H      78.28189060      64.88375382      82.48840105
C      84.04555586      63.03182204      85.83888581
O      84.35547097      65.25980936      85.32299052
N      85.64615404      61.74491842      87.29208535
H      85.10569231      59.96479623      87.71538403
C      87.83445712      62.86930557      88.52796634
H      87.15793509      64.42832978      89.69014804
C      88.86057849      60.90210048      90.49517144
H      90.01520127      59.53015918      89.48227814
H      87.18628098      60.09329762      91.37956336
C      90.54054520      62.13042259      92.52851696
H      89.57678478      63.72157214      93.41668832
H      92.30365984      62.68033294      91.61955860
C      91.28698709      60.17455585      94.41257409
H      92.15059201      58.56072958      93.46771093
H      89.66938137      59.30528175      95.34609889
N      92.99907913      61.08918339      96.41568398
H      92.50208111      60.58651619      98.18824727
C      95.35745757      61.44823139      96.20025519
N      96.65380982      61.56917387      94.11588706
H      98.53408750      61.87153008      94.25572680
H      95.69382884      61.81861774      92.48694298
N      96.79553929      61.59185059      98.23738015
H      98.68715533      61.43122385      98.05218697
H      96.03964876      61.91121433      99.96270026
C      89.84323619      63.93322149      86.77241061
O      90.93171854      65.79460191      87.55664703
N      89.91504579      63.24158166      84.35356092
H      88.87191686      61.75058760      83.78097385
C      91.62902754      64.39053526      82.44871681
H      92.83467294      65.70011559      83.48050737
C      93.33922987      62.61419252      80.93504603
H      94.52786771      61.89231707      82.45627570
C      92.07122351      60.24069627      79.85223285
H      93.22017711      58.90277004      78.78831693
H      90.45361779      60.79249636      78.70138952
H      91.22462612      59.18055981      81.40558787
C      94.85668009      64.33762292      79.01886355
H      95.71650557      65.96845673      79.94104999
H      93.66804224      65.15587441      77.55054619
C      96.96561465      62.77481926      77.58645100
H      98.36590186      62.46301442      79.06232725
H      97.72717436      64.19967290      76.30899600
H      96.11901726      61.21012587      76.54899126
C      90.03787800      66.07806085      80.65536653
O      90.99974869      68.07172211      80.06766165
N      87.73241189      65.30327307      80.08844864
H      87.13525838      63.55527623      80.57599803
C      86.06000411      66.80749521      78.39903331
H      87.20328853      67.24213226      76.74174333
C      83.61847771      65.13508742      77.72440101
H      82.23330832      65.27303744      79.24185125
H      84.25909492      63.19055905      77.50897222
C      82.51109809      65.86074233      75.16949105
O      84.01154078      66.42199104      73.39125859
O      80.09413814      65.62641626      74.83878893
C      85.17561219      69.26791887      79.54609719
O      84.72396760      71.09339449      78.19683260
N      84.65782718      69.29815449      81.97628522
H      85.17183273      67.77881454      83.01185525
C      84.03610723      71.61873840      83.46349984
H      84.13248327      73.25902084      82.22383937
C      81.55678630      71.38441234      84.87890484
H      81.55300684      72.62218308      86.52485646
H      81.38104175      69.48145794      85.64802345
C      79.12470853      71.81338021      83.25751967
H      77.60347886      71.02158489      84.39891436
H      79.11525991      70.62096291      81.57944269
C      78.54834201      74.55915255      82.56021066
O      80.12248403      76.06904387      81.74762834
O      76.38271565      75.37173486      82.91736893
C      86.14882123      72.16486931      85.31732134
O      86.26976373      74.41742307      85.95604884
N      87.89492836      70.49813070      85.88990842
H      87.75130916      68.84084072      84.95449389
C      89.96606840      71.00835680      87.72672239
H      90.52542739      72.98878998      87.66247170
H      91.56099740      69.81782923      87.19759903
C      89.16671417      70.41498274      90.45359747
O      87.32423101      69.07138733      90.99216947
N      90.69172330      71.52236236      92.25261692
H      92.35846190      72.31037823      91.75750862
C      90.00008347      71.87385146      94.88122621
H      87.95350987      71.92298434      95.11744201
C      91.24730283      69.73468127      96.30041067
H      93.30521479      69.81782923      96.23238052
H      90.55755273      68.01125087      95.40657013
C      90.64448014      69.55893672      99.13500015
H      91.49107753      71.21811642     100.01561261
C      87.80989066      69.62129769      99.93246464
H      87.87603109      69.64775386     101.99226633
H      86.80455627      67.94888990      99.27483989
H      86.87636586      71.25969040      99.09909534
C      91.76886730      67.07394662     100.24993867
H      93.79654362      66.90576098      99.92490575
H      91.05644048      65.55838612      99.04807274
H      91.11880145      66.95489386     102.20013623
C      90.96006444      74.38151827      95.86199416
O      93.19183120      74.86906766      95.49160781
N      89.43694502      75.88951987      97.28495808
H      87.80422148      75.00890741      97.72904377
C      89.84323619      78.31403873      98.57753089
H      91.86335361      78.42175313      98.95736588
C      89.36324570      80.47021645      96.75583472
H      89.61268958      82.21821329      97.81597118
H      87.37714335      80.32659725      96.22671134
C      90.94494663      80.38139932      94.19525556
H      90.62558288      78.57482096      93.25606158
H      92.93671816      80.61194593      94.66390768
C      90.09645950      82.42230373      92.33198542
H      90.69739248      84.14951358      93.27873831
H      88.08390098      82.20120576      91.95026071
N      91.41359875      82.43553182      89.93959191
H      92.45672767      84.02290192      89.74495010
C      91.01486650      81.09193641      87.82687789
N      89.63914573      79.13984913      87.60200045
H      89.55032861      78.29514147      85.89368787
H      88.65648805      78.62017439      89.15535549
N      92.14114337      81.72877418      85.73306113
H      91.71217551      80.52123906      84.31576639
H      93.50930523      83.05725178      85.81431937
C      88.51286886      78.51245999     101.26472170
O      86.27543291      77.99089553     101.29495732
N      90.03031909      79.30992450     103.16767610
H      91.91437622      79.44976424     102.90500413
C      88.97396208      79.54614029     105.76416006
H      87.15226592      78.62017439     106.01360392
C      90.80321715      78.06648458     107.57073841
H      90.27220406      77.89451949     109.55306130
H      92.40570507      79.33827039     107.81640282
C      91.96917828      75.50590543     106.61453690
H      93.18238258      75.52669242     104.94968800
C      93.80032309      74.55726282     108.73858927
H      95.02864519      76.11628703     109.28660989
H      94.84156228      72.82060434     108.35119538
H      92.75530443      74.00168328     110.42233542
C      90.06055471      73.45177293     106.48792522
H      89.09490457      73.05682013     108.26426797
H      91.11880145      71.78881377     105.88888198
H      88.52987640      73.99412438     105.22180859
C      88.53932502      82.23333110     106.62776498
O      87.68138928      82.62261472     108.73669955
N      89.36324570      84.12494714     105.15188873
H      89.99630402      83.65818474     103.41145080
C      88.22563046      86.71387219     105.47125248
H      87.51320363      87.09370718     107.36664796
C      90.60668562      88.47698684     105.32196409
H      91.19816995      88.34281627     103.35286928
H      92.05421596      87.92329703     106.67878758
C      90.07945197      91.29645850     106.03061147
H      89.59946149      91.41551126     108.02994190
H      88.51853804      92.17707096     105.01960788
C      92.60034687      92.82524709     105.71691689
H      93.34489903      92.82902654     103.79506523
H      94.03842859      91.79156679     106.77138418
C      92.17704817      95.37637761     106.89610611
H      91.60068166      95.15905908     108.85953176
H      90.71251029      96.43273462     105.90777925
N      94.53353689      96.79556207     106.53138893
H      95.47084115      96.31935104     104.93645993
H      95.67115213      96.12470923     107.90899941
H      94.29165192      98.68906784     106.52194031
C      86.11669590      87.14095034     103.48326040
O      86.19606440      85.77089876     101.56518818
N      84.43672919      88.92674170     103.62687960
H      84.31011754      89.72987539     105.35219971
C      82.77565978      89.85837678     101.68424094
H      81.61725755      88.32769846     100.93779905
C      80.85002866      91.77077981     102.78028221
H      81.81567881      93.33736292     103.71002755
C      79.24943047      93.06146288     100.66567846
H      77.74709806      94.29734389     101.34597994
H      78.51621667      91.65172705      99.35231868
H      80.54389300      94.40316856      99.79073517
C      79.00565578      90.66340019     104.86842977
H      80.16216827      89.97553981     106.42745398
H      77.94929877      89.14028078     103.96892005
C      77.41639595      92.71186351     106.12887722
H      76.35248003      92.09959218     107.78049802
H      75.83469503      93.27689168     104.93268047
H      78.65605641      94.26710826     106.66744922
C      84.38381687      90.91284406      99.49215842
O      85.85213420      92.74776831      99.59609337
N      83.85280377      89.79034663      97.22448685
H      82.62448167      88.32958819      97.21314849
C      84.76365186      90.44797139      94.68658441
H      85.98252532      92.10904082      94.72059948
C      86.33023497      88.30691147      93.70203700
H      87.71918381      87.59259493      95.04563241
H      87.41871733      88.92296225      92.06553401
C      84.70507034      86.13372621      92.87055742
C      84.22130040      85.74444259      90.23249949
H      84.67483472      87.31669489      89.01173628
C      83.04778036      83.51645527      89.33487949
H      82.37125834      83.31614428      87.41869700
C      82.46574466      81.51145565      90.97516192
O      81.36214449      79.30047587      90.09454947
H      81.05222937      79.42330808      88.31064783
C      83.12525914      81.79113515      93.53385135
H      82.92683788      80.34171506      94.95870500
C      84.13437298      84.09660125      94.39178709
H      84.70129089      84.17408003      96.35143328
C      82.58290769      91.35315029      92.86866769
O      80.33413338      91.60826334      93.60944041
N      83.32934959      91.95408326      90.46304609
H      85.03766217      91.56102018      89.71282475
C      81.55678630      92.87626970      88.43348004
H      79.60469902      92.69485597      89.06275890
C      82.20307270      95.74298452      88.04230668
H      81.15805405      96.46863942      86.42092152
H      84.21374150      96.15305512      87.87601077
C      81.15238487      97.29444982      90.44414884
H      82.65093784      96.83146687      91.78207507
H      79.27021746      96.59903053      90.90146259
C      81.34891640     100.10447285      90.16446934
H      83.36525439     100.51265373      90.07754193
H      80.53444436     100.88492981      91.88789974
C      79.96374701     101.21374219      87.88356968
H      78.00410084     100.58257360      87.90624639
H      80.84058003     100.49942564      86.16013928
N      80.22263953     103.95951452      87.90246694
H      78.77888861     104.68705915      88.91536025
H      80.05256415     104.59257284      86.11100640
H      81.83079661     104.60202147      88.70749034
C      81.77410483      91.53456402      86.01274063
O      83.87925994      91.06969134      84.99417815
N      79.50265380      90.99410229      84.82032333
H      77.87181999      91.64416814      85.57243440
C      78.86959549      89.38594520      82.67548396
H      80.53822382      88.21620461      82.36178938
C      76.71530748      87.64739699      83.46727929
H      75.33391755      89.09681707      83.95293894
H      77.45796993      86.75166672      85.16425351
C      75.92351215      85.78034739      81.61534749
O      74.20197149      86.37939063      80.14514043
O      76.90428012      83.76211969      81.69660572
C      78.42739952      90.92418242      80.25096509
O      78.32535431      93.24098688      80.22828838
N      78.09102825      89.67696305      77.99274216
H      77.61859666      87.83070044      77.86990995
C      78.50298858      90.75599678      75.53609794
H      80.34547174      91.67440376      75.48129589
C      78.41417144      88.86438074      73.28165445
H      78.20063237      89.96231172      71.55066516
C      80.77632933      87.31291543      73.17016061
H      80.38704571      85.82003165      71.80766793
H      81.08246500      86.42285434      75.00130540
H      82.37692752      88.34659573      72.39159337
O      76.32980332      87.19953185      73.67282780
H      75.84225393      86.58726053      72.03632482
C      76.63026980      93.00855054      74.99374649
O      77.57891240      94.58836174      73.60290792
N      74.34937015      93.23531770      76.16159735
H      73.88449746      91.98998806      77.52975921
C      72.57113768      95.35937007      75.85168225
H      73.06624598      96.34202776      74.10935459
C      69.95953592      94.29734389      75.22051366
H      68.75955971      95.96219277      75.04854855
H      69.30758033      93.33169374      76.92126733
C      69.98599209      92.74776831      72.78654617
H      70.73999289      90.88071871      73.22118321
H      71.17085049      93.55090199      71.30500074
C      67.47643555      92.52856006      71.48263501
O      66.50322648      94.50710351      70.67005269
O      66.54669019      90.37427206      71.07067466
C      72.53901233      97.37003887      78.08344901
O      71.04990799      99.08213091      78.12124354
N      74.27189137      97.15272034      79.86357120
H      75.31691002      95.55590161      79.79932050
C      74.58558593      98.85536375      82.03297702
H      73.58781044     100.65627293      81.94227014
H      76.58869583      99.29944944      82.21628046
C      73.65962004      97.95396430      84.52741574
O      73.60103853      99.19740422      86.42848041
N      72.83380964      95.62393176      84.62757124
H      72.86215553      94.52411104      83.06665731
C      71.31824914      94.66017134      86.73461608
H      70.29023803      96.25321062      87.54341894
C      69.23010156      92.82902654      85.84266526
H      68.03390481      92.74965804      87.51696277
H      70.23165651      91.05646326      85.53086042
C      67.66351845      93.66995475      83.60522930
C      66.11394286      91.84258940      82.28242089
H      66.11961204      89.83570006      82.65280725
C      64.32248232      92.86115189      80.50418842
H      62.87117251      91.79345652      79.54420746
C      64.18075285      95.52188654      80.07711027
O      62.41763821      96.44218325      78.55399087
H      61.80347715      98.09947323      78.97162039
C      65.65662911      97.16972788      81.44338241
H      65.45442838      99.18606586      81.21661524
C      67.45186910      96.29478460      83.28208611
H      68.61971996      97.56468068      84.37056847
C      72.94908295      93.50176911      88.91913969
O      74.68385170      92.05045930      88.27474303
N      72.33681162      93.92317808      91.30019486
H      70.61149149      94.66584052      91.64979422
C      73.88638719      93.00477109      93.41479860
H      75.91973271      93.11437521      93.10299375
C      73.48387548      94.60536927      95.74861060
H      74.70463869      93.76633079      97.17913341
H      71.53367794      94.47686789      96.39867645
C      74.04512421      97.48909163      95.57097631
C      72.07036021      99.23897819      95.09287556
H      70.24866404      98.53600001      94.49572205
C      72.58058632     101.82412379      95.12878036
H      71.00833402     103.05244589      94.70548167
C      75.03723052     102.81245065      95.82797910
O      75.93485052     105.19917499      95.65601401
H      74.45330508     106.13836896      95.19303106
C      76.87404450     101.01721065      96.64812031
H      78.72975573     101.66349705      97.20747931
C      76.29200880      98.43962396      96.57064154
H      77.69040627      97.02421896      97.03173476
C      73.44986042      90.21553505      94.19147611
O      71.29935187      89.33114314      94.56375220
N      75.59092032      88.86627046      94.56186247
H      77.18206989      89.91506857      94.49005286
C      75.75532652      86.10349059      94.32753641
H      73.88638719      85.28523910      94.61855426
C      76.42806909      85.56491859      91.47782912
H      78.37826664      86.12994676      91.13389894
C      76.34681086      82.72654967      91.14712701
H      77.56379460      81.80436323      92.52473751
H      77.04789932      82.16530096      89.29330551
H      74.43251810      81.98955641      91.34743801
O      74.73487431      86.53623792      89.57865417
H      75.08258396      88.29368339      89.30086442
C      77.64505284      85.16807607      96.19269628
O      79.52155106      86.43041324      96.71426073
N      77.27466648      82.81536681      97.26606082
H      75.88193818      81.68908993      96.60276689
C      78.99809688      81.58704470      99.09531589
H      80.93128689      82.22388247      98.77028297
C      78.25921389      82.44875990     101.79573480
H      77.90961452      84.47643624     101.87888276
C      75.86871009      81.09193641     102.91067331
H      75.83847447      79.15685667     102.20580541
H      74.03945503      81.92341599     102.45902872
H      75.94807861      81.08248778     104.96858527
C      80.52688545      81.92908517     103.43979669
H      82.19551379      82.44309072     102.34564515
H      80.59869506      79.96754925     104.07096528
C      80.54200327      83.36338744     105.93612515
H      79.18895923      82.39773729     107.15499861
H      80.59491560      85.39295350     105.59975386
H      82.45629603      82.85127161     106.49737386
C      79.23620238      78.64663056      98.59264870
O      77.54111789      77.58082492      97.39267249
N      81.34702668      77.39752147      99.62443925
H      82.78510841      78.54269561     100.14033455
C      81.77977401      74.64607996      99.33909059
H      80.28122104      73.58405377     100.27450511
H      83.58257291      74.05648535     100.13844481
C      82.04811514      73.74279078      96.54229564
O      83.27643724      75.06181975      94.99083033
N      80.53822382      71.82660830      95.96403940
H      79.65194218      70.89686295      97.37755467
C      80.42861969      70.69088278      93.39968079
H      81.99898226      71.25024177      92.19214568
C      80.53822382      67.69566658      93.56786643
H      78.99053797      67.00402675      94.73571729
C      80.57790807      66.72434725      90.91280095
H      82.16527817      67.59929054      89.93770217
H      78.83747014      67.01725483      89.85266449
H      81.04844992      64.73635517      90.64257009
C      82.84557965      66.63175066      94.98894062
H      83.00620638      67.68243849      96.75205526
H      84.58790731      66.92654797      93.93258361
C      82.52621590      63.78204338      95.65034483
H      82.12370420      62.62742061      93.99116512
H      81.04467046      63.77637420      97.08275737
H      84.31011754      63.07150629      96.39300727
C      78.09291796      71.66409183      92.13545389
O      76.12571288      70.37529849      92.35655186
N      78.06646180      73.93365314      91.15468592
H      79.65572162      74.96733343      91.37578391
C      75.88571764      74.99001015      89.55408773
H      74.99754626      73.62184830      88.29930947
H      76.72475612      76.33738501      88.24261768
C      73.61048716      76.20888362      91.07531742
O      71.80201908      76.94398715      89.79408297
N      73.49521385      76.46210694      93.65290411
H      75.10148122      75.98967537      94.57131109
C      71.26155734      77.34082968      95.07397830
H      69.63072354      76.48667339      94.15368159
C      71.39005873      76.36573090      97.81597118
H      72.51822535      77.50145642      99.11232342
H      71.95886635      74.38718745      97.84998626
C      68.75955971      76.46399667      99.04618301
N      67.06636493      74.51757857      98.85343092
H      67.58981911      72.74690501      98.37721989
C      64.82137008      75.22811566      99.87955231
H      63.18864654      74.00735246     100.01750234
N      64.87806185      77.79436399     100.34820443
H      63.41352396      78.48222437     101.35920802
C      67.41029511      78.57860041      99.83986805
H      68.18508291      80.42108357     100.25371813
C      70.74188261      80.19242669      94.95492554
O      71.97398417      81.76278925      96.24371889
N      68.83892821      80.80091856      93.59054314
H      67.65784926      79.48755877      92.86299852
C      67.83926299      83.29535729      93.19181088
H      69.40206665      84.59170954      92.84599098
C      66.11394286      83.26323194      90.89390370
H      64.64184608      81.85160639      91.17925236
H      67.40273622      82.80213872      89.35566648
C      64.90829749      85.78601657      90.08888029
H      63.94075761      86.51923038      91.74994971
C      66.76022927      87.74944221      89.29519524
H      67.94697740      87.14095034      87.72294294
H      67.97154384      88.30124229      90.86744753
H      65.70576199      89.33681231      88.51284854
C      63.06203487      85.38539459      87.86467242
H      62.37228477      87.11449417      86.97839078
H      61.56726135      84.05313754      88.34277318
H      64.10516379      84.59737872      86.27352285
C      66.63928678      84.17219030      95.70136743
O      64.92152556      82.91363258      96.73315801
N      67.52178898      86.39450844      96.64434087
H      68.75011108      87.30346680      95.49916672
C      66.28590797      87.70030933      98.81752613
H      64.89695912      86.45686941      99.69246940
C      68.26256169      88.36171354     100.94346823
H      67.52367870      89.11004516     102.71414178
H      69.36616186      89.77711854      99.93057493
C      70.09559622      86.20175636     101.91667727
H      70.57747642      84.82225615     100.46725720
C      72.55035070      87.47543190     102.79728974
H      71.96075608      88.88894718     104.17301049
H      73.55757481      88.54690672     101.35353883
H      73.73331936      86.04868853     103.69302002
C      69.02034194      84.78257190     104.19757694
H      70.23354624      83.35960799     105.06118186
H      67.28368346      83.86227519     103.58152616
H      68.59893297      86.05435771     105.76416006
C      64.45287344      89.77144937      97.92746503
O      62.29102654      89.87727404      98.94413778
N      65.24655850      91.42118044      96.16246066
H      66.95676081      90.95252831      95.46326192
C      63.64596031      93.32602456      95.01161733
H      61.96032444      92.19029905      94.67524605
C      63.12061639      95.51810708      96.88433611