 %block lattice_cart
   135.996   0.000   0.000
   0.000 142.663   0.000
   0.000   0.000   160.158
 %endblock lattice_cart

 %block positions_abs
N      87.31289265      38.27735220      78.79209638
H      86.84613025      37.66130142      80.53631377
H      89.21962649      38.17530698      78.76564021
H      86.42472129      37.26823835      77.43716262
C      86.63070146      40.99099919      78.75619158
H      87.93650234      41.90562672      80.06199246
C      86.96329328      42.17396786      76.17104599
H      85.51387320      41.49177666      74.87658346
H      88.88136549      41.87728083      75.48507533
C      86.95573437      44.99343952      76.01797815
H      85.17750191      45.89294924      76.53765289
H      87.47729883      45.69452798      74.15470801
S      89.56166697      46.54679455      77.69794485
C      89.36702515      49.40028128      75.78554182
H      89.42749639      48.90895244      73.78432165
H      90.87313703      50.67017736      76.38836451
H      87.64548448      50.43018212      76.25419394
C      83.96429763      41.48043830      79.79932051
O      82.15393982      40.12550453      79.38547044
N      83.98886407      43.53835026      81.34133718
H      85.63292595      44.42841135      81.72117217
C      81.90449595      44.49644150      82.81343398
H      80.19618335      43.42685640      82.39013528
C      82.66416592      44.12794487      85.60078029
H      84.44995729      45.07091830      86.00329199
H      83.00620638      42.15696032      86.08832968
C      80.69885056      44.93674773      87.60011073
O      78.47275296      45.27500874      86.95004488
N      81.43395409      45.23910394      90.08321110
H      80.09791759      45.72665333      91.35499691
H      83.18195092      44.70809084      90.63501119
C      81.20718694      47.25544191      82.14069141
O      82.72085770      49.02233602      81.96872631
N      78.86959548      47.83180844      82.20305238
H      77.62804529      46.39561644      82.40903255
C      77.64694256      50.41128486      81.68904682
H      78.53322420      51.27488978      80.04120547
C      74.74999213      49.99554507      81.30165293
H      74.30968590      48.76722296      79.70861364
C      73.55190563      48.72375926      83.51263271
H      71.51100123      48.86737846      83.26885802
H      74.05646257      49.57413610      85.31921107
H      74.10370572      46.74899526      83.71483343
C      73.27600559      52.47297626      80.84055971
H      73.38938917      53.84302784      82.37312775
H      71.28801351      52.00243441      80.56088021
C      74.20953040      53.73342371      78.36690796
H      76.21453002      54.20207584      78.32155453
H      73.16451174      55.44551575      77.89258666
H      73.99221187      52.41439475      76.80221457
C      78.26866251      52.34636460      83.74695877
O      78.40094336      54.54033685      83.25374021
N      78.58235709      51.55267955      86.10533721
H      78.65794614      49.68185050      86.47572357
C      79.52155107      53.22130788      88.21616150
H      78.80534478      55.14315954      88.00829161
C      78.85636740      52.17062005      90.87689615
H      80.03744635      53.04178388      92.32253678
H      79.86359153      50.40183622      91.20003935
C      76.17484576      52.40116666      91.71971409
C      75.24699015      54.63671289      92.99338962
H      76.47342252      56.24109053      93.29007666
C      72.76577950      54.71041222      93.84376647
H      71.85682113      56.35636384      94.63745152
C      71.14250459      52.54289614      93.69447809
H      69.30191117      52.44840982      94.57131110
C      72.03067595      50.45852801      92.23938883
H      70.84581755      48.80312776      92.10143880
C      74.62715991      50.27711429      91.32854074
H      75.24699015      48.58958869      90.36100087
C      82.36747888      53.76176961      87.97805599
O      83.33312903      55.30378628      89.40479936
N      83.74508937      52.69596397      86.24328723
H      83.02321391      51.33347130      85.12078980
C      86.36802950      53.62004014      85.41180766
H      86.98030081      55.19229243      86.59477633
C      88.28043253      51.43929597      85.27763709
H      90.05299580      52.47486599      85.10567199
H      87.87225163      50.11270810      83.75451768
C      88.40515446      50.20341496      87.87601077
H      86.73274667      49.01666684      88.06876285
H      88.14626195      51.54134119      89.41991717
C      90.85423976      48.72753871      88.13490327
O      90.62369316      46.39561644      87.97427654
O      92.95183596      49.75743955      88.20104369
C      86.20362331      55.07134994      82.80965452
O      87.47351939      57.03477558      82.55265174
N      84.48775181      54.33057723      81.12023920
H      83.51265303      52.83580372      81.79487149
C      84.07957092      55.60614249      78.70327925
H      85.92961299      55.57401714      77.79810034
C      82.39204534      53.97908814      77.04598927
H      80.38893544      54.00932376      77.52409003
H      83.06289817      52.04589812      77.29165369
C      82.46007547      54.71986085      74.31155529
H      84.01909968      53.81090249      73.31755925
H      82.58290769      56.77588308      74.26998131
S      79.61225792      54.02255184      72.48796940
C      80.48909094      54.82001634      69.40582579
H      79.05289894      54.30979024      68.02254612
H      82.07646103      53.59358397      68.93906339
H      80.54011354      56.87225912      69.21118398
C      82.94195569      58.28199495      78.79020666
O      83.92083392      60.00353562      77.66015032
N      81.02010402      58.83001558      80.45505554
H      80.33413337      57.37114687      81.47739747
C      79.86737098      61.34335158      80.73284531
H      79.89760659      62.32411953      78.92248750
C      77.17451099      60.98808303      81.82699684
H      77.17073153      62.42805448      83.30098336
H      76.95152327      59.17961495      82.78697781
C      75.05423805      61.69106122      79.96750615
H      75.43785249      60.86525082      78.12124354
C      72.38216506      61.02020838      80.90858985
H      71.15384295      61.44728652      79.30988139
H      71.87004923      62.08979347      82.59233600
H      72.42940820      59.03977520      81.47361802
C      75.03912024      64.53698905      79.57633280
H      74.53456332      65.53098509      81.30732210
H      73.68607621      65.26453368      78.20628122
H      76.97231027      65.08311995      79.11712931
C      81.36403422      63.06678197      82.43548871
O      81.41694656      65.30043848      82.15580922
N      82.89660226      61.89893111      84.01907936
H      82.97030158      60.00542535      83.79231221
C      84.73530596      63.05355389      85.76140702
H      83.93595172      64.30077326      87.19192984
C      85.73308145      60.97485495      87.49806551
H      87.06533850      59.85424724      86.39446534
H      84.32901480      59.60291364      88.11978546
C      87.12014056      61.99908661      89.86967203
H      85.75953763      62.65482164      91.26995923
H      88.56767092      63.37858682      89.38023291
C      88.49586132      59.71062804      91.24161333
H      89.86213345      60.33612745      92.65134916
H      89.70717588      58.80922859      89.84132613
N      86.56267131      58.11947849      92.57576011
H      86.08079109      56.60769744      91.50995447
C      85.41371771      58.50120320      94.75839400
N      85.58757252      60.42305486      96.07742297
H      84.34224288      60.49486446      97.52117387
H      87.10502275      61.57389819      95.95081130
N      84.20429286      56.74186800      95.82608937
H      83.97563598      56.78155226      97.71959513
H      83.93406200      55.26410203      94.64501042
C      86.93116793      64.42360547      84.31954585
O      87.69272764      66.58734210      84.99039869
N      88.12925441      63.12158404      82.29942842
H      87.35068717      61.51342695      81.62668585
C      90.02653964      64.34423696      80.73284531
H      91.00163842      65.63869949      82.00463111
C      91.91248649      62.53576888      79.42893415
H      92.75719416      61.38681528      80.91425903
C      90.62180342      60.62714530      77.65070169
H      88.93238811      59.83346025      78.51997579
H      91.92760430      59.08512863      77.25196944
H      89.82622864      61.62303107      76.03120624
C      94.28787248      63.55433136      77.97195516
H      93.67182170      64.38392121      76.18994325
H      95.50296650      61.99908661      77.38047083
C      96.10012001      65.45161658      79.45916977
H      96.42326321      64.52187124      81.26763785
H      95.12691095      67.23173877      79.81443832
H      97.76307916      65.64058921      78.25541411
C      88.83790178      66.12057970      78.78075802
O      90.18905610      67.76086214      77.96250653
N      86.45495690      65.83901048      78.10045655
H      85.50064511      64.28754517      78.67304362
C      85.09057451      67.80432584      76.73229470
H      86.50220007      68.63202597      75.47940616
C      82.93628650      66.64025443      75.09390199
H      81.55678631      68.09534369      74.61958068
H      81.84402471      65.31744601      76.23907613
C      83.77343526      65.39492479      72.65048586
O      84.77687994      66.90103666      71.09524111
O      83.75642773      63.02898745      72.37836528
C      84.33657371      70.26285977      78.15147916
O      85.20962726      72.21683678      77.46739824
N      82.85124882      70.15325565      80.21506030
H      82.35803025      68.50730403      81.04465015
C      82.20685216      72.59100259      81.54164817
H      81.36781366      73.98940006      80.28309044
C      80.14705047      72.00329771      83.57499368
H      80.16783746      73.56043219      84.92236854
H      80.79333687      70.31199266      84.55954109
C      77.57324324      71.22850992      82.51863667
H      76.44507662      70.54064954      84.09844787
H      77.89260698      69.74507476      81.12590838
C      76.08602863      73.26752461      81.20716661
O      76.49798896      75.55220372      81.52842008
O      74.69707978      72.61367931      79.40814716
C      84.47452373      73.74184592      82.98728880
O      84.68239363      76.13801888      83.45027174
N      86.31322743      72.23384432      83.70538480
H      86.10346781      70.34411801      83.55987587
C      88.35791130      73.27130406      85.17748159
H      89.06844839      74.95505021      84.22883898
H      89.78276494      71.80676617      85.43070492
C      87.63225639      73.92892882      87.96104845
O      85.48552731      73.41681299      88.72827734
N      89.28387720      75.36134137      89.17992192
H      91.03754321      75.58243935      88.45615675
C      88.69995177      76.02085585      91.81986958
H      86.66660626      75.85833939      92.10332853
C      90.20984308      74.30498436      93.56597670
H      92.18082763      74.07443775      93.01606634
H      89.44828338      72.40391969      93.33731981
C      90.07756224      74.87757143      96.44025042
H      90.97518224      76.72383404      96.61410524
C      87.41682760      75.03441871      97.59298347
H      86.16771851      73.39791573      97.60054238
H      86.43039046      76.72572376      96.94480734
H      87.55288789      75.42559206      99.60932145
C      91.44383437      72.84989510      97.80652254
H      91.81233101      73.47728423      99.73215366
H      93.22017711      72.76296769      96.76339362
H      90.48196368      71.03008866      97.76683829
C      89.55410806      78.78363572      92.18080731
O      91.69705770      79.52251871      91.53074146
N      87.74375025      80.35399829      93.26173076
H      85.90882600      79.84944136      93.42802668
C      88.19728456      82.77095824      94.38611792
H      90.17582802      83.10921925      94.84910086
C      87.25053168      84.95737158      92.58709847
H      86.58534801      86.48049099      93.80219249
H      85.42127662      84.44525575      91.78963396
C      89.10624293      85.66034977      90.59343721
H      89.70717588      84.02195706      89.50117540
H      90.72384865      86.56363895      91.49105721
C      87.79288314      87.35921373      88.67725473
H      86.71006995      88.85398724      89.58621308
H      86.57967884      85.96837516      87.75884774
N      89.61079985      88.47226253      86.93303734
H      90.26653487      90.22970800      87.27129835
C      91.03943294      87.24016097      85.44960218
N      90.77487125      84.95548186      84.62001233
H      92.23373997      84.15234818      83.68837726
H      89.09112512      84.09187693      84.86378703
N      93.02175585      88.32297415      84.49718012
H      94.17070943      87.11543903      83.56554505
H      93.77575665      89.91223398      85.23039393
C      86.58723775      82.77095824      96.89756419
O      84.32145589      82.16813555      96.84276212
N      87.99130439      82.74450207      98.90823298
H      89.86969236      82.61789041      98.58697951
C      87.28643648      82.83709866     101.47259159
H      86.15826988      81.15524224     101.84486767
C      89.80544166      82.60466232     102.94279866
H      89.34245871      82.87489319     104.93079074
H      91.16982405      84.05030295     102.40611639
C      91.04888157      79.97605302     103.05807197
H      91.28320763      79.28252347     101.13244085
C      93.75307993      80.39557226     103.69113028
H      94.72061980      81.48216489     102.23415129
H      94.52408826      78.49261787     103.84230839
H      94.02142106      81.36878132     105.48637028
C      89.86402317      77.87656709     104.69835441
H      90.41015408      76.00762777     104.02561184
H      87.80989067      77.99750957     104.61520645
H      90.20795337      78.02963492     106.72414101
C      85.75386844      85.20492573     102.26627664
O      84.47641345      84.95359213     104.24482009
N      85.58379307      87.19291781     100.70347298
H      86.94817547      87.23827124      99.36743648
C      84.48019290      89.62499558     101.21747854
H      83.78666334      89.62121612     103.15633774
C      86.48141308      91.62054656     101.07007989
H      87.08990495      91.97770484      99.13500014
H      88.21051264      90.91756838     101.93935399
C      85.58757252      94.19624353     101.83352932
H      84.56145113      94.00916062     103.60987205
H      84.28933054      94.96536214     100.43135239
C      87.82500849      95.80818007     102.52894860
H      88.88892440      95.98014517     100.77717231
H      88.89459357      94.75749224     103.94246388
C      86.98408027      98.41789211     103.17712472
H      85.25309096      98.45379691     104.29206325
H      86.67038571      99.28905594     101.33653130
N      88.85679905      99.99392386     104.60008864
H      88.80199698      99.53661009     106.45013070
H      88.38625719     101.84396592     104.60953727
H      90.58400890      99.95612933     103.78750632
C      82.30889737      90.18246484      99.35987757
O      82.35614054      89.19035853      97.27739918
N      80.51554710      91.82652673     100.09309138
H      80.88593345      92.56351999     101.81652178
C      78.36503856      92.54651246      98.47170621
H      77.16506234      90.92323755      98.06730477
C      76.44318689      94.50615864      99.56774747
H      77.56757405      96.16344862     100.05529686
C      74.38527494      95.37921220      97.74605130
H      73.21364463      96.91744942      98.45280894
H      73.27789533      93.76538593      97.10354435
H      75.38305044      96.14455136      96.11332777
C      75.40194769      93.40633793     102.09809100
H      76.94774383      93.01327486     103.39822270
H      74.44007701      91.62621574     101.71825601
C      73.43663233      95.16756285     103.33586174
H      72.89428089      94.58741688     105.23503668
H      71.68485605      95.26204917     102.25304856
H      74.37771603      96.98736929     103.56640835
C      79.58202231      93.49704479      95.96403939
O      81.15238486      95.26015944      95.94703185
N      78.95085371      92.31407612      93.77951577
H      77.59214049      90.99126770      93.98738566
C      79.39115994      93.11909953      91.26617977
H      80.34169228      94.94646487      91.33798937
C      81.29411434      91.60164930      89.90557683
H      82.92872761      91.75282741      91.15090647
H      81.88370896      92.40100353      88.10088820
C      80.64026903      88.73304476      89.52385211
C      80.33791282      87.89778573      87.02185448
H      80.42484024      89.33397773      85.57621385
C      79.91272441      85.31264013      86.31698656
H      79.64438327      84.76461950      84.36867873
C      79.78611274      83.49472342      88.17647725
O      79.49698462      81.08154292      87.53774976
H      79.60658875      80.76595862      85.75384812
C      80.04878471      84.21659887      90.71248996
H      80.13193266      82.85032675      92.22616074
C      80.43806832      86.77906775      91.34743801
H      80.39460461      87.34031647      93.30897392
C      76.97797944      93.65200235      89.76195763
O      74.89928049      93.23626256      90.83154272
N      77.18962880      94.51371755      87.53963948
H      78.91305919      95.03528201      86.90847090
C      75.14116547      94.30584765      85.72550222
H      73.40828644      93.70491469      86.66280648
C      74.89739077      96.95335422      84.54442328
H      73.53489810      96.87209599      83.00051688
H      76.57924719      97.78105434      83.69593616
C      74.00732969      98.98669973      86.49462083
H      75.13171683      98.94512575      88.21994096
H      72.07036020      98.65788735      87.11445106
C      73.96008653     101.73814124      85.53275014
H      73.19285763     102.83040305      87.10122298
H      72.61271167     102.01971046      84.00207183
C      76.68696159     102.69245303      84.90347128
H      76.99498698     101.82884811      83.05909840
H      77.93607069     102.15199131      86.44737768
N      76.71530749     105.43066646      84.65969658
H      75.70619364     106.12041656      83.19515869
H      78.53133447     105.93144393      84.34978147
H      75.90650462     106.15632136      86.22816942
C      75.71942172      92.25738433      83.75073823
O      77.76221587      91.96636648      82.80587507
N      73.59347962      91.19724787      83.00996551
H      72.11949309      91.79818084      84.06254307
C      72.97175967      89.96703604      80.70638914
H      73.93740980      88.14911933      80.64402817
C      70.11449347      89.36610307      80.86701587
H      69.07325428      91.12921772      80.64024872
H      69.94630783      88.80674408      82.84366960
C      69.33214678      87.23827124      79.04909916
O      69.31702897      85.08776270      79.87113011
O      69.09215155      87.95447752      76.83811937
C      73.53111864      91.53928833      78.34612097
O      73.39505836      93.88443869      78.46895318
N      73.69930429      90.31096623      76.16537681
H      73.56891318      88.42123992      75.94805828
C      74.05268312      91.76983494      73.88258742
H      75.83469503      92.78839743      74.05455252
C      74.49109961      90.04073537      71.65271037
H      75.15817301      91.12732800      70.03510465
C      76.35248003      87.89967545      71.95884603
H      78.22897826      88.71414749      72.17805429
H      76.22964783      86.66190472      70.31856359
H      75.98398341      86.73749377      73.61991546
O      72.16295679      89.02595234      70.95162191
H      71.85682113      87.87888846      72.32545294
C      71.95319717      93.69168660      73.21551403
O      72.45964383      95.77794445      72.33868102
N      69.53623723      93.06051801      73.73329904
H      69.14695360      91.43157393      74.64981630
C      67.27990400      94.54773262      73.56133395
H      67.62383420      95.87809995      72.02498646
C      64.98199680      92.80351524      72.95851125
H      63.35494245      93.84097498      73.68038671
H      65.27868384      91.06874648      74.02620662
C      64.92530501      92.43123915      70.08990671
H      66.78290598      91.98337402      69.32267783
H      64.49633714      94.21892024      69.16205109
C      63.18675681      90.34309158      69.44551004
O      61.24033870      90.59631490      68.19073177
O      63.51934865      88.20203166      70.46785197
C      66.74322173      96.34675207      75.81766717
O      64.72310430      97.50515430      75.97262472
N      68.58570488      96.53194525      77.52409003
H      70.19008253      95.57574374      77.12913723
C      68.74822135      98.37631813      79.67459857
H      67.55769377      99.92589371      79.02642244
H      70.69463945      98.97158192      79.98451369
C      67.74666640      97.51838239      82.33344349
O      68.20398017      98.67867434      84.35545065
N      66.61094089      95.32252041      82.30698732
H      65.84749146      94.65355730      80.68938160
C      65.46576674      94.25860450      84.63135069
H      64.34137958      95.79306226      85.42314601
C      63.62706304      92.17045692      84.04175608
H      62.41763820      91.88888770      85.68581797
H      64.54169057      90.32608404      84.01718964
C      62.08126692      92.54273300      81.66070093
C      62.30236489      90.83631014      79.66703966
H      63.69887265      89.35476471      79.54987663
C      60.86995235      91.11787936      77.46361878
H      61.03624826      89.78562231      75.92538157
C      58.97644658      92.91689881      77.36913247
O      57.66875597      93.06996665      75.21295475
H      56.89018873      94.69324155      74.99374649
C      58.63062667      94.65922648      79.36279373
H      57.30403879      96.19935342      79.16815192
C      60.13295909      94.44001822      81.55109680
H      59.85138987      95.71180403      83.12145937
C      67.37250059      93.47058862      86.68170374
O      69.31891870      92.26494324      86.09399886
N      66.92274574      94.16789763      89.12323014
H      65.66607774      95.58141292      89.38212264
C      68.82947959      93.63121536      91.08854550
H      70.65306548      94.36442917      90.47627418
C      68.30602540      95.03906146      93.46771093
H      69.56080367      94.38710589      94.96437417
H      66.36149701      94.74237443      94.07620280
C      68.84837684      97.81506942      93.11622183
C      66.80936216      99.48369775      93.26173076
H      64.90829748      98.87331615      93.68313973
C      67.19297660     101.93656251      92.62111354
H      65.57159142     103.15921543      92.42269228
C      69.68741532     102.90599211      92.34332377
O      70.02567633     105.35507741      91.71782436
H      68.73499326     106.54182553      92.18458676
C      71.73209919     101.28838638      92.45103817
H      73.54245700     102.03671800      91.88412028
C      71.30124159      98.66922571      92.87433687
H      72.86971443      97.36720428      92.96882318
C      68.92396590      90.76639027      91.66302230
O      66.81692105      89.64578257      91.92002508
N      71.15762241      89.73270998      91.70837573
H      72.68452127      90.87032522      91.57042571
C      71.85493141      87.10032122      91.78207506
H      70.17118526      86.01750805      92.26584499
C      72.58814521      86.30285672      89.17425275
H      74.28133999      87.37622126      88.69993144
C      73.19474737      83.50039260      88.65835746
H      74.86526542      82.99394595      89.75061927
H      73.56891318      83.12244733      86.66658593
H      71.75855537      82.19459171      89.34810757
O      70.77589768      86.99638628      87.38468193
H      70.60393260      88.78784682      87.60200045
C      74.21330984      86.67702253      93.74928015
O      75.71942172      88.30974606      94.20092474
N      74.44952563      84.29596737      94.85854950
H      73.04734871      83.05063773      94.50139122
C      76.65483624      83.66857824      96.40623535
H      78.46897351      84.43202767      95.80341265
C      76.08980808      84.61533112      99.18413303
H      75.28667440      86.50883689      99.05941109
C      74.15472833      82.87867264     100.30852018
H      72.41051094      82.77851715      99.21814810
H      73.80512896      83.49661314     102.24171020
H      74.89361132      80.98327715     100.63166338
C      78.46141460      84.66257428     100.88110725
H      79.59902984      86.16112725     100.04017905
H      79.56312504      82.92969525     100.69402435
C      78.11748442      85.56586346     103.54184190
H      80.01099017      85.91546283     104.27883517
H      77.19151851      84.16557626     104.73425921
H      77.20474660      87.41023634     103.45680422
C      77.34080689      80.90012919      96.12088667
O      75.70052445      79.44692966      95.31964272
N      79.47241818      79.91558178      97.03362448
H      80.79711632      81.03996894      97.81975063
C      80.24153678      77.36067181      96.89378473
H      79.05667838      76.15691614      98.07675341
H      82.07835077      77.46082730      97.81975063
C      80.58168753      76.21738739      94.18769665
O      81.87426032      77.38901770      92.66079779
N      79.70296479      73.88546512      93.71148562
H      78.86959548      73.12201569      95.25161257
C      79.90327577      72.22439569      91.43625514
H      81.34135750      73.00107320      90.18336660
C      80.55901080      69.40492403      91.95592988
H      78.94707426      68.49407595      92.85732933
C      80.77821905      68.05187999      89.46527060
H      82.60369467      68.44494306      88.59788622
H      79.30990171      68.59423144      88.12545464
H      80.30578748      66.08467490      89.85077477
C      83.02510365      68.97973561      93.51684381
H      83.06289817      70.40458925      95.00216869
H      84.75987241      69.16681851      92.42269228
C      82.78132895      66.56655511      95.12689063
H      80.99175813      66.49852496      96.14545311
H      84.55956141      66.50230441      96.16624010
H      82.79455703      64.96028774      93.83998701
C      77.38616032      72.76863687      89.92447409
O      75.64761211      71.27953253      89.84888504
N      77.08569385      75.16669956      89.21204727
H      78.54834202      76.38557303      89.35566647
C      74.97109009      76.30242507      87.70026622
H      74.65172635      74.91914541      86.20549271
H      75.78556215      78.08632671      87.07476681
C      72.43507738      76.53486141      88.97772121
O      70.56046889      76.34021960      87.68136896
N      72.37649587      76.85611488      91.57609489
H      74.02244749      76.95249092      92.53418613
C      70.02189688      76.94304229      93.10488348
H      68.81436178      75.48039412      92.30552925
C      70.53212300      76.28541753      95.91679623
H      71.55824437      77.87467736      96.73126827
H      71.76422454      74.63757619      96.02073118
C      68.07547879      75.90369282      97.45692318
N      66.38606345      73.88546512      97.02039640
H      66.45787305      72.47383956      95.73916196
C      64.43964535      74.26907956      98.68902473
H      62.82959853      73.03319855      98.88933572
N      64.69664814      76.54997922      99.89089067
H      63.31336847      77.44759922     100.85465109
C      67.14384372      77.47972456      99.36176730
H      68.06791988      79.21827277      99.89844957
C      68.79735424      79.47905500      92.99905880
O      69.80268864      81.32531761      94.03651855
N      66.67141213      79.72471942      91.51184419
H      66.51834430      78.21293837      90.35722142
C      65.10671874      82.05286224      91.21893662
H      66.14606821      83.72715975      90.61800365
C      62.85416498      81.72027041      89.36700483
H      61.55781273      80.33699075      90.16635906
H      63.52690755      81.05697647      87.53586003
C      61.34049420      84.26006257      88.99661847
H      60.53547079      84.65690510      90.85043999
C      62.93164375      86.36521769      87.84577515
H      63.74044662      85.64334224      86.09399886
H      64.46799126      86.94158421      89.09110479
H      61.57293054      87.87510901      87.50562441
C      59.00479248      83.92558102      87.36389494
H      57.77836010      85.55452510      87.65113334
H      58.02780397      82.18892254      87.88734913
H      59.60572544      83.87077895      85.39668985
C      63.98233158      82.84843702      93.68880891
O      63.07337323      81.22894157      95.14200844
N      64.13539943      85.30697095      94.32186722
H      65.03301941      86.55041087      93.18614171
C      63.11116775      86.37655605      96.76528334
H      62.79936291      84.83831883      98.09943012
C      64.97632763      88.26061318      97.79707391
H      63.99555967      88.92957629      99.48082006
H      65.16341053      89.70058463      96.33631547
C      67.51989925      87.30630139      98.79673913
H      68.33815075      85.97593407      97.45881290
C      69.51922968      89.29240375      99.38633374
H      70.14472910      90.31474568      97.71203623
H      71.09148197      88.18124467     100.12143728
H      68.96742961      90.55663065     100.91701205
C      67.29691155      85.60365798     101.11165386
H      68.92774535      84.38289479     101.41023062
H      65.50167154      84.59076468     101.13622031
H      67.25911702      86.97937874     102.64422190
C      60.49767626      87.38755962      96.34198465
O      58.73078217      86.74694240      97.64778553
N      60.27090911      89.10532084      94.49572204
H      61.72410865      89.64956202      93.38456297
C      58.01646562      90.49237996      93.86455345
H      56.53492019      89.06941604      94.02140074
C      57.49679088      92.52950492      95.96214966