 %block lattice_cart
   135.996   0.000   0.000
   0.000 142.663   0.000
   0.000   0.000   160.158
 %endblock lattice_cart

 %block positions_abs
N      87.96201363      42.94025188      77.28031534
H      87.15887995      41.26028519      77.70361403
H      89.72512828      42.55663743      76.66048510
H      86.94345115      43.78873899      75.90459458
C      87.94500610      44.61454939      79.59334034
H      89.18844601      43.86243831      81.05409878
C      88.56483633      47.39433680      78.81099365
H      88.15854518      48.84186715      80.21695003
H      87.38186766      47.73637726      77.15937285
C      91.24635797      47.76283342      77.96439626
H      91.53548609      46.52128324      76.34490081
H      92.64286571      47.51527928      79.45728005
S      91.93610807      51.04150858      76.99307694
C      95.38485859      50.86765375      76.17104599
H      95.94043813      52.38132453      74.88792182
H      95.63241274      49.03083978      75.27153626
H      96.40531080      51.26449628      77.91526338
C      85.36741942      44.71848433      80.54954186
O      83.49092118      44.70714597      79.18893891
N      85.11986527      44.76761722      83.10256211
H      86.69022782      45.02084054      84.16080884
C      82.73314093      45.33642484      84.42726025
H      81.29883865      44.05896986      83.68270808
C      83.00904097      44.69391789      87.37712303
H      84.67577957      45.69547284      88.05742450
H      83.32840471      42.65868265      87.33365932
C      80.75837694      45.19091591      88.96638285
O      78.61164784      45.72192900      88.21616151
N      81.24970577      44.81297066      91.39090171
H      80.00248640      45.24382825      92.76851220
H      83.00148206      44.37644387      92.01451140
C      81.77315996      48.07463826      83.86790126
O      83.32084581      49.63555220      83.30854227
N      79.18423491      48.58864382      83.63546493
H      77.84630868      47.27339431      83.97939511
C      78.19590805      51.26449628      83.77152522
H      78.55684577      52.07707860      81.91203453
C      75.23848637      51.16056133      83.84144509
H      74.68857601      49.81318647      82.38446611
C      73.98937727      50.01727691      86.32643520
H      74.86810001      48.16534513      86.54186400
H      71.99760575      49.59775767      85.99951254
H      74.11409921      51.24559902      87.97427654
C      74.09709167      53.81184735      83.44271284
H      74.66778902      55.13465577      84.91669937
H      72.06374616      53.70413295      83.76018686
C      74.49771365      54.83040983      80.83300080
H      76.53672835      54.74915160      80.54954186
H      73.70213888      56.71824642      80.61568228
H      73.44702582      53.67011788      79.49507457
C      79.33163356      53.08241299      85.87857006
O      80.08941382      55.25937771      85.19637886
N      79.84941857      51.95613611      88.16324917
H      79.05006434      50.23459544      88.35222180
C      81.36308935      53.16934040      90.12667481
H      80.89632695      55.17434002      90.14179262
C      80.75837694      51.95613611      92.69292314
H      81.87898463      52.62698895      94.28596243
H      81.46513457      50.02672555      92.53229641
C      78.01449433      52.15455737      93.36755544
C      76.95813731      54.45624402      94.28785215
H      78.16756215      56.04739358      94.69981249
C      74.48259584      54.53372280      95.17035434
H      73.69457997      56.14754908      96.13789421
C      72.78751134      52.49281838      94.69414331
H      70.79196036      52.74415198      95.04185295
C      73.70780806      50.41411944      93.44503422
H      72.29429277      48.96658908      93.18614171
C      76.33452764      50.14388858      92.81008618
H      76.87687908      48.49793697      91.73105245
C      84.20901718      53.00682395      89.61644871
O      85.71890850      53.31484933      91.41168870
N      85.00837141      52.52305401      87.32232096
H      83.77249040      52.06007106      85.94471048
C      87.53304576      53.15800205      86.29053040
H      88.80672130      53.94790765      87.70215595
C      88.75569868      50.71080647      85.59889056
H      90.57172567      51.30229081      84.82788223
H      87.65398824      49.49193300      84.35734038
C      89.40009536      49.20847405      87.97616627
H      87.68233414      48.63399725      88.95693422
H      90.69455788      50.26294134      89.18370138
C      90.79660310      46.68568942      87.45460180
O      89.74969473      44.81108092      86.40202425
O      93.08317194      46.52317297      88.01774025
C      87.40265464      54.90599889      84.09466842
O      88.50436509      56.89210124      84.16080884
N      85.88142496      54.25215358      82.15769895
H      84.84207549      52.65533485      82.28997979
C      85.66977562      55.78661135      79.75207735
H      87.52926632      55.82818534      78.86768544
C      83.50414926      54.51293581      78.13069218
H      81.76560105      54.66411392      79.22295398
H      84.01815482      52.56462799      77.70361403
C      82.87676012      55.95290727      75.74396784
H      84.54349874      56.08329838      74.53832245
H      82.09063398      57.75759589      76.35056999
S      80.24059192      54.64332693      73.92227168
C      80.82262762      56.47258200      71.07067467
H      79.24092670      56.05117303      69.81967585
H      82.62920598      55.89999493      70.26187181
H      80.82262762      58.52482478      71.24263977
C      85.06317347      58.59285492      80.26041373
O      86.59763124      60.14809968      79.36846291
N      83.22446977      59.29583312      81.78164341
H      82.06417781      57.99570141      82.56210038
C      82.58007309      61.87530953      82.17659621
H      82.52716076      62.86552612      80.37379731
C      79.97603023      62.02459792      83.42381558
H      79.97036106      63.69700569      84.62946097
H      79.86075693      60.42399972      84.71449865
C      77.68757168      62.30805685      81.63991394
H      78.09008337      61.29705328      79.89002737
C      75.06463155      61.57673277      82.78886754
H      74.51661092      62.80316515      84.35167120
H      75.25549390      59.69834482      83.60711903
H      73.62654982      61.25358957      81.35267554
C      77.47025315      65.16532305      80.91614876
H      79.13699175      65.80782999      79.89002737
H      77.34742093      66.34640198      82.59989491
H      75.82997070      65.69066695      79.78987188
C      84.44712269      63.35685496      83.74128960
O      84.80806042      65.70011559      83.46161010
N      85.76048248      62.02081845      85.34377751
H      85.30883789      60.18211476      85.57810358
C      87.65020879      63.12441862      87.08988463
H      86.81683949      64.44155786      88.43725949
C      88.74058087      60.99469707      88.53363553
H      90.04260230      60.06495173      87.23539355
H      87.21368201      59.63976330      88.80764584
C      89.92354955      61.71846224      90.97138247
H      88.58184386      62.81450351      92.08443127
H      91.73201763      62.64631787      90.62934201
C      90.46023182      59.30528174      92.49639161
H      91.55438335      59.83062566      94.15935076
H      91.55627309      58.12042334      91.21704689
N      88.30972327      57.90688427      93.34676845
H      88.10374312      56.22691758      92.46993544
C      86.90943608      58.39632339      95.21192832
N      86.64865385      60.62431072      96.35710246
H      85.51292833      60.93989500      97.85754516
H      87.96957254      61.96979585      96.05285653
N      85.48836189      56.74659232      95.95459076
H      84.56239600      57.23792116      97.54951977
H      85.59796602      54.93623451      95.35932697
C      89.68166458      64.58895652      85.76140703
O      90.36196605      66.62797122      86.83666130
N      90.49424689      63.77826393      83.54097861
H      89.75158445      62.16254793      82.84366960
C      92.26681017      65.22579429      81.87612973
H      93.46489666      66.42766022      83.04587032
C      94.12441114      63.19811796      80.72906586
H      95.05037703      62.36663838      82.36745857
C      92.65987325      61.08918338      79.29287386
H      94.07149880      59.89865580      78.38391550
H      91.43344087      61.84885336      77.82266679
H      91.63186213      59.87408936      80.60245419
C      96.15775666      64.48124212      79.19271836
H      97.07427391      66.01192044      80.22261920
H      95.35651271      65.40720801      77.53542839
C      98.19488162      62.69545075      78.51997580
H      98.92242625      61.35941424      79.91081436
H      99.76146473      63.81794818      77.79054144
H      97.51835961      61.62019649      76.90048035
C      91.05549561      67.11174114      79.93916026
O      92.28570744      68.63108110      78.73162514
N      88.61396921      66.78481849      79.42893415
H      87.60107591      65.48468679      80.39080485
C      87.09840871      68.63108110      78.06266203
H      87.94122665      69.14508666      76.25608367
C      84.57940353      67.27236788      77.31055096
H      83.12620400      68.69911125      77.01575365
H      83.96335275      66.14042183      78.91681832
C      84.77971452      65.97034645      74.73107454
O      85.94945511      67.01725483      73.07000511
O      83.61186367      64.00881054      74.27376077
C      86.67133056      71.15764519      79.51397184
O      87.08707035      73.31760235      78.48029154
N      85.60363519      71.20677807      81.83644548
H      85.30694816      69.55326755      82.74729356
C      84.86853166      73.47633937      83.31421145
H      84.58129326      75.06181975      82.03108729
C      82.34574703      73.21366742      84.48584177
H      81.82796202      74.80103751      85.69526661
H      82.54038884      71.47322948      85.57432412
C      80.12153916      72.69021323      82.52619558
H      78.68534716      71.74535006      83.66003137
H      80.90577559      71.29181575      81.23362278
C      79.49037058      74.99001014      81.05976796
O      81.00404135      76.83816247      80.66859461
O      77.28317024      74.93142862      80.28686990
C      86.96234841      74.25301688      85.23039393
O      87.08518062      76.41297406      86.14313174
N      88.75002951      72.57116046      85.72172278
H      88.64042539      70.79103828      85.03764185
C      90.94589148      73.13618863      87.42247646
H      91.88508546      74.90308273      86.93870652
H      92.37263486      71.66976102      87.19570930
C      90.20133931      73.19288042      90.15880016
O      88.09996365      72.21589191      90.83343245
N      91.85484984      74.06026479      91.86711275
H      93.61418504      74.45899705      91.24350306
C      91.39942580      74.42498198      94.63556179
H      89.36985974      74.13396413      94.83209333
C      93.01703152      72.61273445      96.05285653
H      94.93321400      73.31382290      95.76750786
H      92.78081573      70.76269239      95.17791325
C      92.64853489      72.31604741      98.87988709
H      92.77514655      74.17364837      99.75672010
C      89.99913860      71.21622669      99.36932621
H      89.59095772      69.70066619      98.03328970
H      88.72357334      72.80170707      99.05752137
H      89.85173995      70.50002043     101.29684705
C      94.50046668      70.52647659      99.93813383
H      96.32405257      71.42598631      99.61688035
H      94.10551388      68.67454481      99.13311042
H      94.35684748      70.68521361     101.98848688
C      91.76792243      77.20476938      95.17602352
O      93.90709261      77.88696058      95.53507152
N      89.77993035      78.79780866      95.38578314
H      88.02248488      78.07782295      95.21381805
C      90.02748449      81.50389674      96.34576411
H      91.99468959      81.55113990      96.94858680
C      89.26403506      83.41629977      94.38800765
H      89.30938849      85.32870281      95.14956735
H      87.43289027      82.98922162      93.54518971
C      91.29738058      83.37472579      92.21671211
H      91.86240874      81.43019742      91.83309767
H      93.08317194      84.12305742      92.91780058
C      90.52259279      84.88272739      89.72416311
H      92.12508070      85.65184601      88.68292391
H      89.53804538      86.58537080      90.33643443
N      88.98624529      83.28779839      87.99128408
H      87.93555746      81.94042352      88.84166092
C      88.94467132      83.37283607      85.51574261
N      90.05583040      85.13406099      84.19293419
H      90.02937422      84.89595547      82.29942842
H      91.01959082      86.57592217      84.99039869
N      87.86374786      81.48877893      84.27041297
H      88.21145751      81.36027755      82.39580446
H      87.20990256      79.93353418      85.15858433
C      88.39665069      81.64562621      98.75138570
O      86.16866337      81.35082891      98.69091446
N      89.70056184      81.74389199     100.92835042
H      91.59973679      81.91963653     100.81874629
C      88.59318222      81.51145565     103.36609736
H      86.86786211      80.44565001     103.00515963
C      90.36007632      80.19242668     105.22180860
H      89.42655153      80.25856710     107.05862258
H      92.09673481      81.27523987     105.46180384
C      91.34651347      77.65641397     104.62654481
H      92.52192323      78.00790306     102.97303429
C      92.96411919      76.60761586     106.79973007
H      93.84851111      74.85206013     106.18367929
H      91.86429847      76.23911924     108.50237348
H      94.62329889      77.69609822     107.34964043
C      89.25080698      75.71566505     104.19190776
H      87.90910130      75.79503356     105.75471142
H      89.97457216      73.79948257     103.97647896
H      88.19633970      76.23722951     102.50249243
C      87.66721633      84.01345328     104.46969753
O      86.44267368      83.97376904     106.47847660
N      87.97902117      86.16207210     103.06752060
H      88.84073637      86.05057826     101.37054637
C      86.96423814      88.66973892     103.52672410
H      86.10252294      88.90973417     105.38432506
C      89.13742340      90.61426730     103.36798709
H      89.43977961      90.99788175     101.36676692
H      90.89864832      89.86404595     104.12954679
C      88.56483633      93.14272110     104.54528658
H      88.46090138      92.97453547     106.59563963
H      86.72235317      93.89294245     104.01238376
C      90.60196129      95.20630224     104.01805294
H      90.92699423      95.10047757     101.98848688
H      92.20822866      94.60158982     105.15944763
C      89.98024134      97.91428004     104.76260511
H      89.75725363      97.86892661     106.80917870
H      88.32106163      98.65316304     103.78750633
N      92.18177249      99.59424674     104.14655433
H      92.01925603     101.34413330     104.88921677
H      92.47279034      99.73408649     102.26438692
H      93.78426040      98.84780484     104.86842978
C      84.92711317      89.23476709     101.43479707
O      85.22191048      88.23888132      99.35798785
N      83.08840947      90.88071872     101.88833138
H      83.23013896      91.74432364     103.58530561
C      81.21191124      91.74810308     100.02884069
H      80.26704809      90.00199597      99.47515088
C      79.24281643      93.35626018     101.29306759
H      80.41066729      94.85292343     102.09431155
C      77.60631344      94.77544464      99.26350153
H      76.42712423      93.42806978      98.24304933
H      78.75715676      95.73353589      97.84998625
H      76.46302902      96.28533597     100.07797358
C      77.82552169      92.03534149     103.47003231
H      79.20502190      91.47976195     104.89488595
H      76.80317975      90.38372069     102.78406166
C      75.92445702      93.77955887     104.87220923
H      74.59219997      94.63938434     103.55506999
H      76.80129003      95.23086868     106.04194982
H      74.74715753      92.65895117     106.13643613
C      82.47046897      92.90272587      97.77817665
O      84.26759869      94.39371992      97.95392120
N      81.47458320      91.95408326      95.59365303
H      79.88154392      90.90150571      95.58609413
C      82.43834362      92.66462036      93.03685333
H      83.19234442      94.56757475      93.28629721
C      84.64365423      90.85426255      92.29419089
H      85.61308383      90.27600630      94.01762129
H      85.98535991      91.69519075      90.97516193
C      83.98036029      88.26722722      91.13767839
C      83.49848008      88.05179842      88.57520951
H      83.84052054      89.61838153      87.31098260
C      82.72369229      85.71609670      87.53774976
H      82.41755663      85.57814667      85.52519124
C      82.65566215      83.49566828      88.99850820
O      82.16055385      81.16752547      88.06876286
H      82.15866413      81.17508437      86.25651532
C      82.65188269      83.84148820      91.58365380
H      82.14354632      82.21632357      92.70615123
C      83.30950745      86.19230773      92.67969506
H      83.34730198      86.38505982      94.71115085
C      80.42200564      92.70241487      91.08476605
O      78.22047449      91.89172228      91.71404491
N      80.76782556      93.90050135      88.90024243
H      82.46857925      94.65072270      88.46371566
C      78.69290607      94.05923836      86.92736816
H      76.94868868      93.48476157      87.86278269
C      78.55684577      96.87115113      85.93337212
H      77.16411748      96.56123601      84.44804724
H      80.38232139      97.50798890      85.22283503
C      77.68568194      98.54355892      88.00451216
H      78.58330194      97.90105196      89.74495010
H      75.66367479      98.24309242      88.25584576
C      78.18267996     101.34980248      87.91569502
H      80.19712821     101.65971760      87.61711827
H      77.85008813     102.31923209      89.70148639
C      76.72192152     102.30978346      85.68014880
H      74.70747327     102.26443002      86.10155776
H      77.15088941     101.12870451      84.04742526
N      77.46647369     104.77398657      84.74851372
H      76.99971129     106.25742173      85.85211389
H      76.31940982     104.98374619      83.23673267
H      79.25793425     104.96862838      84.12112459
C      78.95368831      92.30935181      84.60678425
O      81.06073315      91.62527087      83.77152522
N      76.76160579      91.56290992      83.68459781
H      75.12699252      92.18462987      84.44804724
C      76.40444750      90.38372069      81.26385840
H      77.55340110      88.68674646      81.05409878
C      73.71536697      89.26878217      81.50385364
H      72.24138044      90.68040773      81.79865095
H      73.62088064      88.25399913      83.29531419
C      73.09553673      87.54535176      79.31177112
O      71.64422692      88.40895670      77.60345853
O      74.09520195      85.38539460      79.36657318
C      76.77672359      92.04479012      79.06610670
O      76.47058792      94.29356444      79.26830742
N      77.11498460      91.02055845      76.80599403
H      77.38143601      89.16862667      76.43182822
C      77.54962165      92.37360250      74.32100393
H      79.00282118      93.82680203      74.45139504
C      78.29984299      90.72009198      72.02498646
H      78.60219920      91.90306065      70.36769648
C      80.90199613      89.29334861      72.54088174
H      80.55428649      88.50911218      74.41360052
H      82.43645389      90.66528991      72.45206461
H      81.34797154      87.87038469      71.11980755
O      76.58775096      88.68674646      71.53176789
H      77.44190725      87.83447989      70.17872385
C      75.14588978      93.87215546      73.61613601
O      75.56729875      95.98109003      72.72985437
N      72.84609286      92.95185875      74.09990595
H      72.88955656      91.16039821      74.75375125
C      70.54629593      94.33324869      73.96762511
H      70.15134313      95.14772072      72.11758305
C      68.59420865      92.36604360      74.45139504
H      68.42791275      91.86148667      76.44316658
H      69.01750735      90.58592140      73.50464216
C      65.95804044      93.37515744      73.64259218
H      65.77473699      95.28189130      74.40226216
H      64.34988336      92.41895593      74.50430738
C      65.57631573      93.23531769      70.80989244
O      65.54230066      91.08669887      69.72896899
O      64.96593413      95.15150017      69.55133471
C      70.52550894      96.45352160      76.00286035
O      69.55985880      98.52466165      75.54743631
N      71.57808650      96.20407773      78.31399563
H      72.50027294      94.54867748      78.54832169
C      71.71792625      98.22986435      80.25852400
H      70.94880764      99.94006666      79.40814716
H      73.67001353      98.64371440      80.76875011
C      70.58220074      97.50609916      82.84933878
O      70.99605080      98.93473226      84.69749111
N      69.04207379      95.54645297      83.06287785
H      68.97971282      94.50710351      81.46416939
C      68.08776200      94.64316381      85.59889056
H      67.18447283      96.37037366      86.26785368
C      66.01095279      92.73642996      85.16047406
H      65.04530264      92.39816895      86.94626543
H      66.84999126      90.87693925      84.87323566
C      64.05508606      93.33358347      83.09878265
C      62.97227288      91.26433316      81.70038518
H      63.66580244      89.35004040      81.84400438
C      61.14112807      91.71786747      79.82388695
H      60.12067586      90.34970562      78.70516898
C      60.23216972      94.16317331      79.41570607
O      58.21772148      94.48631651      77.82266679
H      57.56387616      96.17762157      77.83778460
C      61.35655687      96.26265925      80.77441929
H      60.62145334      98.06356842      80.15458906
C      63.23116538      95.75621259      82.62635107
H      63.93792303      97.37003888      83.65814164
C      70.18157875      93.68696228      87.44515317
O      72.37933046      93.36759853      86.73461608
N      69.54663071      93.80979450      89.87345148
H      67.93469417      94.69229669      90.38745704
C      71.43257757      93.01421971      91.82175931
H      73.25616347      93.62082187      91.07531742
C      70.78629117      94.41450692      94.20092474
H      72.05996671      93.59625543      95.59743249
H      68.83798335      94.21797538      94.83587278
C      71.58186595      97.07146212      94.06297472
C      69.93024515      99.00654185      94.77351181
H      67.92524554      98.62859660      94.73760701
C      70.85810077     101.41594291      95.20247969
H      69.64300676     102.94473149      95.79585375
C      73.44324638     101.96018409      95.14389817
O      74.11031976     104.42438720      95.64467564
H      72.53806747     105.29744075      95.89034007
C      75.11187470     100.17061326      94.15746104
H      77.01671883     100.67517019      93.62266849
C      74.20102662      97.70074098      93.77573632
H      75.59753437      96.25510034      93.42235750
C      71.67635227      90.14372545      92.06742373
O      69.85276638      88.74721770      91.60444079
N      73.91756768      89.28012053      92.81008618
H      75.21203020      90.64639264      93.13322937
C      74.76605479      86.63261396      92.86677796
H      73.19569222      85.37972541      93.32409173
C      75.83941934      85.88806179      90.32320635
H      77.83308060      86.40584681      90.34021388
C      75.89989058      82.96276546      89.93581245
H      77.11498460      82.62828390      88.30686837
H      74.03851016      82.20876466      89.47471923
H      76.71247289      82.14451396      91.64223531
O      74.74337807      86.93119071      88.06687313
H      75.83752961      86.44364132      86.70438046
C      76.68034754      86.29057349      95.05130158
O      77.84252924      88.15573337      95.94325240
N      76.89199689      83.92841560      95.78073594
H      75.39722338      82.87772778      95.23838449
C      78.98203419      83.04969288      97.35865741
H      80.64310362      84.15329303      96.84087240
C      78.23748203      83.49377856     100.12521673
H      77.43812780      85.38917405     100.01372288
C      76.28728447      81.66452348     101.32519294
H      74.53361845      81.72310499     100.24426949
H      76.21547487      82.35238387     103.26594187
H      76.91467361      79.70487729     101.40456145
C      80.64499335      83.64873611     102.02628140
H      82.03583192      84.84871233     101.09086688
H      81.50103937      81.82703994     102.45713900
C      80.39177002      85.08492810     104.63599344
H      79.50170893      84.05124782     106.18178957
H      79.40533290      86.86127085     104.29584271
H      82.24370181      85.57625695     105.38999424
C      79.37509727      80.24722875      96.82953404
O      77.66300523      79.07748817      95.72782360
N      81.48214211      79.14740803      97.68935952
H      82.82573752      80.34549451      98.32052810
C      81.82796202      76.33738500      97.70825678
H      80.35775495      75.25646155      98.66445829
H      83.45501638      75.73834177      98.81752612
C      82.06228808      75.04859167      95.19303106
O      83.28305128      75.98778563      93.59243287
N      80.96246737      72.73934611      94.83209333
H      79.75115280      72.13841314      96.17757847
C      81.22324960      71.45622195      92.41324365
H      83.06195330      72.00991175      91.67058121
C      81.26860303      68.59328658      92.68536424
H      79.30139794      67.99424333      92.76095329
C      82.15677440      67.63897478      90.10210837
H      80.94545983      68.54226396      88.70182117
H      81.98291958      65.58673201      90.18147687
H      84.13909730      68.08306047      89.77707544
C      82.81628888      67.72023301      94.88311594
H      82.88809849      65.67743888      94.63556179
H      81.83363120      68.08683992      96.65756895
C      85.46757490      68.59328658      95.23838449
H      86.13275856      67.45378160      96.82008541
H      85.59796602      70.59450674      95.71081607
H      86.67699974      68.13786254      93.63400685
C      79.12754312      72.45588715      90.55375296
O      77.53639356      71.12551984      89.68636858
N      79.14077120      74.98812041      90.28730155
H      80.47680771      75.91030685      91.29074622
C      77.51182712      76.73422754      88.78874858
H      77.57796754      75.86117397      86.92358871
H      78.49070535      78.53324699      88.56954033
C      74.67723765      76.80981658      89.91502546
O      72.95947643      77.10839334      88.36922934
N      74.34275610      76.47344530      92.40568474
H      75.95847209      76.76824261      93.37700407
C      71.87288381      76.61517477      93.69636782
H      70.66912814      75.18087250      92.83654234
C      72.37366128      75.59094311      96.34765383
H      73.86654506      76.56793161      97.37755467
H      73.05207302      73.64641474      96.26639560
C      69.92835544      75.78747465      97.82919926
N      67.81375168      74.23789908      97.70447733
H      67.56808726      72.70344130      96.59331825
C      66.06764458      75.38496294      99.15200768
H      64.22894087      74.56482173      99.48648924
N      67.13722966      77.30681460     100.38788869
H      66.42291312      78.50679081     101.68991012
C      69.57686633      77.68287015      99.55262966
H      71.08108848      78.98867103     100.00238452
C      70.80707816      79.26079161      93.41857805
O      71.89556052      81.07303914      94.38422819
N      68.59798810      79.59149371      92.21293266
H      67.99327569      77.97955717      91.38523254
C      67.25628242      82.06703519      92.10332853
H      68.28240381      83.46732238      90.99216946
C      64.62011422      81.60027278      90.91469068
H      63.51651406      80.07337392      91.75372917
H      64.84310192      80.53068770      89.17047330
C      62.99117014      84.02668138      90.54052487
H      63.02896467      85.10004592      92.29986007
C      64.05508606      85.82192137      88.71126980
H      65.80686234      86.71387219      89.32354113
H      62.59810706      87.15984761      88.13490328
H      64.40468542      84.82414587      86.94437570
C      60.27563342      83.15929700      89.77707544
H      59.58021414      81.73633308      91.09232496
H      60.05831491      82.38828867      87.87979022
H      58.92447911      84.68241640      90.10210837
C      66.76684331      83.01945724      94.69981249
O      66.02040141      81.57948580      96.31363876
N      66.67802617      85.64617682      94.98894061
H      67.50383657      86.57025300      93.53763081
C      65.84087741      86.98032360      97.27739918
H      65.20592937      85.42129940      98.46414730
C      68.14256406      88.34848546      98.28840276
H      67.52084411      89.93585555      99.44302553
H      69.35576836      89.12516296      96.81630596
C      70.08331300      86.69497492      99.79640435
H      70.76361446      85.33248226      98.40934524
C      72.30941058      87.99321690     100.95102713
H      73.55662995      86.39072899     101.29306759
H      71.71414679      89.02311775     102.63099382
H      73.08986755      89.35193012      99.61499063
C      68.73593812      85.26256238     101.99604578
H      67.74194208      86.52678929     103.28105968
H      70.17590958      84.14762386     102.95980620
H      67.22226735      84.01156356     101.37243610
C      63.47494007      88.59981906      96.86921830
O      61.58143431      88.18218953      98.19391644
N      63.73950175      90.50466317      95.18547215
H      65.50828558      90.53867824      94.46548643
C      61.77418640      92.36982305      94.64123097
H      60.01107174      91.37771674      94.26328571
C      61.43970484      94.44852199      96.70481211