 %block lattice_cart
   135.996   0.000   0.000
   0.000 142.663   0.000
   0.000   0.000   160.158
 %endblock lattice_cart

 %block positions_abs
N      91.71689982      42.63033676      79.97223047
H      91.14620247      41.18847558      78.85918167
H      91.73768681      42.04452160      81.78825745
H      93.47623502      43.08198135      79.38452558
C      89.99724887      44.78840421      79.63019000
H      90.43755510      46.47970926      80.72245181
C      90.01992559      45.70681120      76.91843274
H      88.22279587      46.64978463      76.54993611
H      89.99724887      44.05141095      75.69200037
C      92.04571220      47.55874298      76.03593056
H      91.82083477      47.76472315      73.99691586
H      93.92976933      46.74427094      76.22301346
S      92.09862453      50.63521742      77.32283417
C      88.82561856      51.64622100      76.36663266
H      88.70278635      51.65189018      74.30872071
H      88.46468083      53.54917540      77.06583140
H      87.37430875      50.57096673      77.35495952
C      87.38753684      44.08731575      80.31238120
O      86.31984147      42.19947916      79.61696192
N      86.16488391      45.59531734      81.83361088
H      87.06817309      47.22426143      82.24179177
C      83.50792872      45.49705158      82.34761644
H      82.59519091      44.39345141      80.86607101
C      83.18478552      43.92668901      84.84394490
H      84.54538846      42.37711343      84.81748873
H      81.26293386      43.20859301      85.01402027
C      83.94445549      45.24949743      87.18342608
O      83.01282042      47.33197583      87.64829875
N      85.68867288      44.04196231      88.64985369
H      86.57117507      45.25138715      89.83471209
H      86.27070858      42.22404560      88.62906671
C      82.34385731      48.15022732      82.18509998
O      83.71390888      49.97759266      82.06415749
N      79.82674186      48.35809721      82.44021303
H      78.74014923      46.78773465      82.47989728
C      78.44535192      50.81474142      82.46100002
H      78.83085609      51.87487788      80.73945935
C      75.53328367      50.42545780      82.43076440
H      75.11187471      49.44846930      80.66576002
C      74.77928288      48.59620273      84.65119282
H      75.60131382      49.28028365      86.41052801
H      75.27628090      46.61954901      84.36395442
H      72.80640860      48.63588698      85.24645661
C      73.79284574      52.72147527      82.18132053
H      73.89489096      53.96113573      83.82160297
H      71.82564065      52.11487312      82.12462874
C      74.41834515      54.16144672      79.67743316
H      72.96136616      55.59574899      79.43176874
H      74.41078624      52.87265338      78.06738634
H      76.22870296      55.14410440      79.67743316
C      79.14077121      52.57029717      84.68898734
O      78.94234994      54.86064546      84.40930785
N      79.88532337      51.54228605      86.95854864
H      80.25759946      49.68090563      87.16452881
C      80.76593583      53.03139039      88.99945306
H      79.60186443      54.73025434      89.08638047
C      80.76971529      51.66511826      91.62050346
H      81.59930514      52.89910954      93.04346737
H      82.07551617      50.08152761      91.45420754
C      78.31118135      50.70891675      92.65985293
C      76.55373588      52.32085329      93.87305722
H      77.07341062      54.25782276      94.25100249
C      74.46369858      51.30040108      95.14106358
H      73.22403812      52.61187114      96.09348564
C      73.76072039      48.75871919      94.73099297
H      72.35665374      47.82330467      95.87994657
C      75.33297269      47.22237170      93.20031466
H      74.80006986      45.26272551      93.00756257
C      77.62899016      48.13699923      92.23844396
H      78.99337255      47.03150934      91.19531504
C      83.38320678      54.09530630      88.35694612
O      83.86130754      56.14187990      89.17708734
N      85.08018101      52.72525472      87.01713016
H      84.47168913      51.01505241      86.42753555
C      87.57273001      53.75326584      86.38029239
H      88.31728218      54.85308655      87.95632414
C      89.24702753      51.44968946      85.42031143
H      91.08762096      52.14699847      84.80992983
H      88.43444521      50.35364820      83.87829475
C      89.78748925      49.58075014      87.65585765
H      87.99035953      48.66990205      88.08671525
H      90.52826197      50.47459068      89.35850106
C      91.46367649      47.47181557      86.78280410
O      93.03781851      46.41734829      88.27568788
O      91.55627308      46.52506269      84.58127294
C      87.23824846      55.75259628      84.11829000
O      88.56483633      57.61964587      83.95010435
N      85.32017625      55.41622499      82.50446372
H      84.29783431      53.80806790      82.59895004
C      84.88553920      56.84296836      80.14419556
H      86.65999221      56.97902865      79.10673581
C      83.05628413      55.20835510      78.58706108
H      81.30261811      55.21024482      79.66798453
H      83.91799933      53.34508495      78.42454462
C      82.52905048      56.41211076      76.01703329
H      84.09563360      56.03794495      74.73390913
H      82.12653878      58.40955147      76.32883813
S      79.77949870      54.68490091      74.87752833
C      80.17634123      55.00426466      71.54594084
H      78.60786839      54.15199809      70.51792972
H      81.88465381      54.10853438      70.82217566
H      80.25382000      56.99792592      71.03193528
C      83.96146303      59.41677560      80.79237169
O      85.34096324      61.26681766      80.27080722
N      82.05850863      59.52449000      82.30793219
H      81.13065301      57.89743564      82.67264937
C      81.07018177      61.92822187      83.45310633
H      80.82262762      63.43244401      82.06793695
C      78.51716152      61.39531905      84.67575926
H      77.96347171      62.70867883      86.16108414
H      78.46424919      59.66244002      85.78502860
C      76.19090843      61.20067724      82.92020351
H      76.62743521      59.93645033      81.35173067
C      73.84764780      60.30683669      84.25435029
H      72.36799210      60.58273673      82.84839391
H      73.51316625      61.70334444      85.73211627
H      74.07630469      58.38309530      84.95354903
C      75.81674262      63.78771256      81.80526499
H      75.11376443      65.08217508      83.24523644
H      74.46558831      63.87841942      80.25190996
H      77.40978190      64.90832026      81.13252242
C      82.84085533      63.32661934      85.27480250
O      83.01093069      65.62263681      85.14063193
N      84.23736307      61.92633214      86.78091437
H      84.05028017      60.05550309      86.45399172
C      86.29905448      62.93733572      88.37206393
H      85.27671254      64.39242498      89.41330313
C      87.62942180      60.88698267      89.99911828
H      88.50436509      59.49047492      88.76323727
H      86.15921473      59.79283113      90.93642253
C      89.50214058      61.79972048      92.08348641
H      88.50058563      63.02615285      93.40251537
H      91.03092917      62.81072406      91.14618215
C      90.79849283      59.77582360      93.57637019
H      92.06083001      60.62809016      94.96342931
H      92.01358685      58.53238368      92.47277003
N      88.94656104      58.40766175      95.07681289
H      88.58751304      56.65777518      94.40218059
C      87.93366774      58.89710086      97.35771255
N      88.34184862      60.95690254      98.45375381
H      87.57273001      61.38587042     100.14883831
H      89.49836113      62.30616713      97.75833452
N      86.58818261      57.20957526      98.56335793
H      85.82662290      57.51382120     100.28867806
H      86.27070858      55.70535312      97.43519132
C      88.42499658      64.18644481      86.85461370
O      89.54560429      65.99302317      87.84860974
N      89.07128298      63.33795770      84.49056608
H      88.24358286      61.72602115      83.89530229
C      90.92321477      64.64375858      82.86918090
H      92.15153687      65.56972447      84.24112221
C      92.69010887      62.97324052      81.43109918
H      93.47623502      61.61641703      82.76713568
C      91.40698470      61.27437656      79.52814478
H      92.86396369      60.31817505      78.43021379
H      90.22212631      62.40443290      78.27903569
H      90.53582087      59.67188865      80.48434630
C      94.93888318      64.48502157      80.20466680
H      94.33795021      65.62641626      78.60028916
H      96.14830802      63.03182203      79.38830503
C      96.44877451      65.94200056      82.12084928
H      98.37062617      66.24435677      81.44054781
H      96.79081497      64.83273121      83.82538242
H      95.70422234      67.83361660      82.44210276
C      89.82339405      66.74702397      81.10417653
O      91.04604698      68.38919613      80.38041135
N      87.33840395      66.64875820      80.83016621
H      86.28393667      65.24091209      81.57282865
C      85.91544004      68.57438931      79.45255573
H      87.22313065      69.23390379      78.00313565
C      83.52682598      67.56905491      78.19021855
H      82.12842851      69.05815925      77.92376714
H      82.80306080      66.22356978      79.57160849
C      83.87831507      66.25758485      75.59184487
O      85.68867288      66.84151028      74.10651999
O      82.26637853      64.66832502      75.05138315
C      85.30694817      71.03481297      81.06449227
O      85.19545431      73.03036396      80.14041611
N      84.90821591      70.93843693      83.62318170
H      84.73058164      69.12996885      84.21277631
C      83.77815958      72.89619339      85.19921345
H      83.06951221      74.29081141      83.86128722
C      81.40655306      71.93621242      86.76390683
H      80.74514885      73.25335166      88.20198856
H      82.13220796      70.27892244      87.74845424
C      79.32029521      71.03670270      84.96677711
H      78.18079024      69.79137306      86.14407660
H      80.01004531      69.71956346      83.54003374
C      77.94646418      73.25524139      83.68176322
O      78.57196359      75.53614105      83.71766802
O      76.12098856      72.57493991      82.27202739
C      85.67355507      74.32482648      86.89618768
O      84.93278236      76.06526441      88.13017896
N      88.01303625      73.24579276      87.07382195
H      88.52326235      71.71133499      86.06092865
C      90.06149957      74.41175389      88.60261054
H      90.22401603      76.42431241      88.19442965
H      91.95311561      73.68987844      88.22277555
C      89.73079746      74.06404425      91.44475891
O      88.37208424      72.39163646      92.09293504
N      90.97990656      75.54369995      93.00945230
H      92.53893076      76.47344530      92.42741659
C      90.81172091      75.43031637      95.82325478
H      88.79727267      75.14118825      96.15584661
C      92.17988277      73.15130644      96.96464947
H      94.14330840      73.27602838      96.35048842
H      91.39942580      71.50157537      96.01033768
C      91.91910053      72.97745162      99.78790058
H      91.92099026      74.82560395     100.69874867
C      89.53993511      71.89652817     100.64772606
H      89.48891250      71.92109461     102.70752774
H      89.46623578      69.91609499     100.08647734
H      88.13775818      73.04170231      99.67073755
C      94.07716798      71.27669794     100.82913978
H      95.93476895      72.11195697     100.51355549
H      94.05071182      69.50224493      99.78034168
H      93.89008508      70.93843693     102.85114694
C      91.61485460      78.04002841      96.81725082
O      93.81638575      78.36695106      97.63172286
N      89.82150433      79.80881224      96.55079941
H      88.43066576      79.37606491      95.31491840
C      89.74213582      82.41285510      97.35582282
H      91.62241350      83.16496617      97.73187836
C      88.61963839      83.99455602      95.05791562
H      88.23035477      85.91073851      95.70420202
H      86.88486964      83.06103123      94.45887238
C      90.70967569      83.95298205      93.01512148
H      91.24824769      82.02357148      92.54080017
H      92.36696567      84.96020617      93.70487158
C      90.05772012      85.05469249      90.52068274
H      91.71501009      85.28523910      89.31692708
H      89.31883713      86.97654415      90.47721904
N      88.11130201      83.52968335      89.01457087
H      87.33651423      81.90640845      89.65140864
C      87.20990256      84.33848621      86.88484932
N      88.30405410      86.31136048      85.70943955
H      87.73524648      86.81213796      83.95766326
H      89.94622626      87.00866949      86.38407185
N      85.45812627      83.04591341      85.79447724
H      84.83262686      83.81692175      84.16364343
H      84.51893229      81.89507009      86.99256372
C      88.35507671      82.78891064      99.91451225
O      85.97780101      82.59993800     100.02978555
N      89.79882761      83.08559767     101.96486530
H      91.69989228      82.99300108     101.81746664
C      88.83317747      83.13851000     104.53300336
H      87.28927107      81.77601733     104.56890816
C      90.86652298      82.34104550     106.45674474
H      90.44322428      83.14039973     108.30678680
H      92.60507119      83.38795388     106.09769674
C      91.46934567      79.52157384     106.71563725
H      92.38586293      79.16441557     104.90527944
C      93.23435005      79.01701692     108.93039649
H      92.38964239      79.41007999     110.76721046
H      94.95967017      80.13573489     108.80756428
H      94.05827072      77.13295978     108.78866701
C      89.24702753      77.79436399     107.05956744
H      88.09618420      78.59371822     108.57134849
H      89.83284268      75.86306370     107.47719695
H      88.28137738      77.58649410     105.25487881
C      87.59729646      85.66507408     105.35503430
O      85.63765027      85.71042752     106.73264478
N      88.65176374      87.66629425     104.36670744
H      89.78559953      87.61905109     102.83413940
C      87.35919094      90.11726928     104.63126912
H      86.47668875      90.37994124     106.47375228
C      89.32450631      92.16762233     104.18151426
H      90.17299342      91.81802296     102.33714138
H      90.74747022      91.99565723     105.65739051
C      88.45334248      95.02488851     104.14371974
H      87.65965742      95.69952081     105.92006247
H      87.28927107      95.41984131     102.49020921
C      90.64542500      96.81256960     103.65050117
H      91.98524096      96.10959142     102.25210370
H      91.79626832      96.79934152     105.36070348
C      89.75914336      99.44873781     103.01177367
H      88.03193351      99.84180088     104.06057178
H      89.09962888      99.35425150     101.06346584
N      91.73012790     101.34035385     103.52955868
H      93.28726238     100.38982152     102.96830997
H      92.14208824     101.67483541     105.36259321
H      91.43722032     102.89181915     102.45808386
C      85.30127899      90.15884326     102.50910647
O      86.02693389      89.45775479     100.41717945
N      82.94856973      90.85426254     103.14783397
H      82.63298543      90.90339542     105.02811165
C      80.92089339      91.36448864     101.44519056
H      80.30295289      89.50121850     100.81780142
C      78.79684102      92.71753268     103.04389902
H      77.97103062      91.55535100     104.53111363
C      79.75682198      95.29700910     104.21363961
H      79.16344792      96.76721617     102.89839009
H      81.81473394      95.29511938     104.28544921
H      78.98959310      95.72786670     106.07690975
C      76.54995643      93.24665605     101.29968163
H      76.03973033      91.45330578     100.42473835
H      77.15844830      94.49198569      99.77467250
C      74.33519719      94.36348430     102.60926197
H      73.57552721      92.94429984     103.89616559
H      72.94057917      95.01732961     101.24298984
H      74.74904725      95.96219276     103.84136353
C      81.83174148      92.72320186      99.11326829
O      83.12620400      94.71497340      99.27767448
N      80.81884817      91.84258940      96.99488509
H      79.84941857      90.22309395      97.28590295
C      81.36497908      92.91784367      94.56847651
H      81.90166135      94.90394603      94.64217583
C      83.22635949      91.09803723      93.11149752
H      85.02159949      91.09614751      94.11683192
H      83.72335751      91.94652435      91.30113971
C      82.44968198      88.41651560      92.53324127
C      81.76182160      87.76267029      90.03313336
H      81.52182636      89.27256162      88.68008932
C      81.19868316      85.17752470      89.36605997
H      80.77538447      84.49722322      87.48956174
C      81.41222223      83.30102647      91.28224245
O      80.49381525      81.00878845      90.75311908
H      79.87209529      80.86705898      89.05614485
C      81.98858876      83.91707725      93.73888666
H      82.39487992      82.60749691      95.25066771
C      82.58385255      86.45875914      94.35493743
H      83.43800884      86.83670440      96.16907469
C      78.98581365      93.37704717      93.03779819
O      76.94301950      93.44507732      94.24911276
N      79.15210956      93.42240060      90.42997588
H      80.88687832      93.11059576      89.69865180
C      77.11498460      94.00254658      88.59505163
H      75.36509803      93.72286708      89.64573946
C      77.27939079      96.67084013      87.69176245
H      75.60320355      96.70674493      86.49367597
H      78.99148283      96.87115112      86.56170612
C      77.10742569      98.66828084      89.92730868
H      78.75904649      98.55489727      91.15185133
H      75.37832612      98.24120270      90.96098898
C      76.98459348     101.26665452      88.85961332
H      75.50682751     101.44995798      87.43475968
H      78.72881087     101.62192307      87.82215357
C      76.73325988     103.19417536      90.93642253
H      78.25826902     102.99764383      92.30647411
H      75.09297744     102.65182391      92.05514051
N      76.61609685     105.73585725      89.84227100
H      75.80162481     106.97551772      91.04413693
H      75.21391993     105.65837848      88.54969820
H      78.25448956     106.31600323      89.05047567
C      77.52316548      92.34525660      86.23289374
O      79.71713773      91.95597298      85.44865732
N      75.60320355      91.89361201      84.84961408
H      73.99126700      92.74965803      85.40708334
C      75.33486241      90.54434742      82.48934591
H      76.62176603      88.97209513      82.16053354
C      72.62688460      89.48610069      82.50068427
H      71.30218646      91.04512490      82.25690958
H      72.20736536      88.59037042      84.30726263
C      71.93902423      87.70786823      80.37663190
O      71.61588103      85.39295350      80.77914360
O      71.79918448      88.59226014      78.20344664
C      75.84886797      92.35281551      80.30104284
O      76.01138443      94.68284805      80.58450179
N      76.08508376      91.36826810      77.90486988
H      75.93201593      89.47476233      77.71967670
C      76.47625710      93.03122725      75.69955927
H      78.06173748      94.31435142      75.98301822
C      76.99215239      91.61960170      73.16543629
H      75.20447130      90.87882898      72.45867865
C      78.51338207      93.10870603      71.24358463
H      77.53828329      94.87371041      70.83162429
H      78.58519167      91.95219353      69.53905149
H      80.46735908      93.59436569      71.68200113
O      78.39054986      89.40673218      73.55471991
H      77.08096952      88.15195391      73.54527128
C      74.29929239      94.97386590      75.48035102
O      74.64511231      97.08091074      74.65076117
N      72.03729000      94.18962948      76.25324908
H      71.76894886      92.46052991      77.01480879
C      69.69024991      95.53889407      75.95089287
H      69.94347324      96.65572232      74.23691111
C      67.46037287      93.86648628      75.64286748
H      65.79363426      95.02866797      75.98490795
H      67.39612217      92.28478536      76.96189645
C      67.36210710      92.92162313      72.98213283
H      69.06286078      91.91061955      72.41143549
H      66.89912415      94.54111858      71.79727444
C      65.06231017      91.28134069      72.37175123
O      65.12089169      89.06091227      73.29393768
O      63.46738117      92.12037917      70.78438113
C      69.31797383      97.43806901      78.12785758
O      67.51517493      98.84213567      78.26202815
N      70.99794052      97.26988337      80.03459143
H      72.28106469      95.88660371      79.75491194
C      71.20770014      98.79489251      82.22667396
H      69.96048078     100.43139549      82.14163627
H      73.14844907      99.40527411      82.55170688
C      70.47448633      97.53444506      84.73623050
O      70.74471720      98.75709798      86.75445820
N      69.29151766      95.28378102      84.69276680
H      69.09309640      94.31057197      83.06193299
C      68.12933598      94.10270207      86.96799728
H      66.68180562      95.48598173      87.45932612
C      66.56275287      91.84258940      86.04770056
H      65.11900196      91.69519075      87.51034873
H      67.75328044      90.16262271      86.11006153
C      65.09443552      91.99187778      83.72144747
C      65.10766361      89.91506856      82.08305476
H      66.39078777      88.35415463      82.36462398
C      63.74517093      90.00955488      79.86640579
H      64.17791826      88.57525261      78.48123640
C      62.35055291      92.27533673      79.11996390
O      61.11845136      92.46619909      76.85040260
H      60.54019511      94.15939386      76.54048748
C      62.33165565      94.27655689      80.75079771
H      61.16002534      95.92439824      80.47489766
C      63.70359695      94.12726851      83.06949189
H      63.71682504      95.66928519      84.40552840
C      69.96992941      93.25421496      89.00890169
O      71.73304406      91.65928595      88.59127218
N      69.36521699      94.04223083      91.33515479
H      68.04051884      95.37070843      91.69231306
C      70.81274734      93.27689167      93.50456059
H      72.71381202      93.97231096      93.12850506
C      69.92835543      94.87748986      95.70420202
H      71.03384532      94.18585003      97.29724130
H      67.88745101      94.73953984      95.93663836
C      70.61243636      97.64026973      95.46609651
C      68.70003333      99.36936931      94.81981011
H      66.72715906      98.84591512      94.87461217
C      69.26128204     102.00553751      94.57036623
H      67.64367632     103.16771920      94.12817028
C      71.83886873     102.77843558      95.05791562
O      72.59286953     105.19728526      94.57981487
H      71.09431657     106.09679498      94.09604493
C      73.73426422     101.02854901      95.62861297
H      75.56729875     101.74475528      96.16907469
C      73.07852919      98.46041095      95.90451301
H      74.54306709      97.13949226      96.42607747
C      70.98093299      90.39127959      93.94297710
O      69.03262516      89.24610545      93.97888190
N      73.12766208      89.34248149      94.49666691
H      74.53361845      90.61237757      94.72721352
C      73.68891079      86.68363657      94.43997512
H      72.01083383      85.61216175      94.96153958
C      74.45047050      86.09782141      91.63562127
H      76.15311390      87.02567703      90.94776089
C      74.88321782      83.35393880      90.97421706
H      76.07374540      82.66607843      92.50678510
H      75.89800085      83.08370794      89.20165378
H      73.10498536      82.34293523      90.73233209
O      72.46436814      86.64395231      89.94998540
H      72.31885922      88.42218478      89.62684220
C      75.76194056      86.11671867      96.43930556
O      77.25860380      87.81558263      96.94764194
N      76.01138443      83.90195943      97.48999339
H      74.58464107      82.64907089      97.30291048
C      77.94457445      83.27457030      99.37971970
H      79.60942333      84.41218554      98.95453128
C      77.16033803      84.09849097     102.05179271
H      76.16067281      85.88995152     101.87793789
C      75.42934873      82.15396260     103.38971894
H      74.76227534      82.67552706     105.26621717
H      76.32507900      80.33415616     103.74687721
H      73.63788818      81.83081940     102.42595852
C      79.43556851      84.45186979     103.70341350
H      80.76782556      85.73688368     102.79634487
H      80.52027141      82.73599830     104.04356424
C      78.85542253      85.58570558     106.20730087
H      78.34897588      84.33281703     107.76254562
H      77.21891955      86.83292495     106.26966184
H      80.47680771      86.75166671     106.69862971
C      78.82140746      80.54391578      99.12271692
O      77.44568670      78.85261073      98.25344282
N      81.17600644      79.96754925      99.94285814
H      82.35141621      81.25067342     100.72898429
C      82.05094973      77.27657898     100.12049241
H      80.66767007      76.03502879     101.00677406
H      83.80083629      77.22555637     101.20330559
C      82.47613815      76.21644252      97.46542695
O      83.56273078      77.34082968      95.74766573
N      81.69001200      73.86940244      97.06480497
H      80.98325436      72.95477490      98.58414492
C      81.76749078      72.56549128      94.75555941
H      83.33785335      73.13051945      93.54802430
C      82.28149634      69.62318741      95.29413141
H      80.66389061      68.77092085      96.24277402
C      82.85219368      68.16998788      92.70331664
H      81.03427697      67.94322072      91.76223293
H      83.43989857      66.21601087      92.97732695
H      84.30539322      69.21878598      91.68853361
C      84.60208025      69.37941272      96.94953166
H      84.74003027      70.60395537      98.60115246
H      86.29338530      69.81782922      95.85726985
C      85.17088787      66.65253765      98.00777840
H      83.49092118      65.47145870      97.87549755
H      85.66977562      66.83206165      99.99954993
H      86.72802235      65.67932860      97.07425360
C      79.28816986      73.02280505      93.23432973
O      77.75560182      71.31638219      92.91874544
N      78.83274582      75.37173486      92.47277003
H      80.05917819      76.79280905      92.81481049
C      76.58208178      76.10116921      91.00445268
H      76.41011668      74.75946353      89.45109765
H      76.99593184      77.91908593      90.13139912
C      74.08008414      76.04636715      92.25923095
O      72.21870372      75.84794589      90.96854788
N      74.16890128      76.53580627      94.81036148
H      75.81107344      76.67186656      95.77412189
C      71.68013172      76.85139056      96.11238290
H      70.60109800      75.18654168      95.56058282
C      71.86721463      76.66241793      98.96397991
H      72.75160654      78.29892092      99.84648210
H      72.98782233      75.01835604      99.50066218
C      69.16112655      76.33927473      99.87482799
N      67.56808726      74.29837031      99.24176968
H      68.06697501      72.71666939      98.29690652
C      65.32687186      74.79347861     100.22820681
H      63.60911064      73.71444488     100.00332938
N      65.38734310      77.18020294     101.19196723
H      63.78674491      78.05325650     101.75132622
C      67.84398731      78.13451473     101.17684942
H      68.42224356      79.95810062     101.88171734
C      70.40645619      79.40063136      95.47176568
O      71.14533918      81.35838782      96.40718021
N      68.45058945      79.26268134      93.90707230
H      68.24460928      77.64129616      92.92063516
C      67.09943514      81.62861868      93.24377836
H      68.51672987      83.04969287      92.78079542
C      65.39112255      81.33004192      90.97988624
H      64.24405868      79.65763414      91.32759588
H      66.50039190      81.02390626      89.27157365
C      63.51273460      83.45031485      90.45454232
H      62.40724470      83.99455602      92.10427340
C      65.01317729      85.90317960      89.71565934
H      66.03551923      85.65184600      87.94687551
H      66.52684807      86.19041800      91.08004173
H      63.71493531      87.49432916      89.56259150
C      61.65513363      82.73221885      88.43064544
H      62.64912967      81.97065914      86.79603218
H      60.62523279      84.40084718      87.80514603
H      60.35122248      81.35082891      89.22622022
C      65.56308765      82.52812841      95.50578076
O      64.61822449      81.00311927      96.95709057
N      65.61411026      84.94697809      96.07080893
H      66.29063228      86.08270360      94.69319844
C      64.31775801      86.38694954      98.21375856
H      63.61477982      84.89028630      99.44208067
C      66.12055691      88.23699160      99.60648686
H      65.11522251      88.87382936     101.28645355
H      66.98605156      89.81869252      98.60682164
C      68.49405316      87.05780238     100.71008702
H      69.60332250      86.19797690      99.20397515
C      70.31008015      89.10626570     101.65495018
H      70.44614044      90.63316456     100.27733970
H      72.08831261      88.11226966     101.95730639
H      69.75828006      90.03979050     103.40672647
C      68.01784213      84.91863219     102.63004896
H      66.88967552      83.42196895     101.77211321
H      67.12778103      85.58003640     104.36481771
H      69.78473623      84.03424028     103.21397439
C      61.77796584      87.54535177      97.27456459
O      59.78430458      86.93874962      98.31580379
N      61.93481313      89.28389997      95.48877322
H      63.67525106      89.72420620      94.84059710
C      59.77485595      90.71820225      94.65918337
H      58.33110505      89.38027602      94.05447095
C      58.45204753      92.21297576      96.69819806