 %block lattice_cart
   135.996   0.000   0.000
   0.000 142.663   0.000
   0.000   0.000   160.158
 %endblock lattice_cart

 %block positions_abs
N      91.07250314      41.76767669      80.21411543
H      90.75691885      41.57681435      82.08683421
H      92.96033974      41.67508010      79.94388457
H      90.16354478      40.37305868      79.28059063
C      90.04260231      44.31880723      79.63774891
H      90.87975106      45.61704919      81.00024158
C      90.68510926      45.07847719      76.92410192
H      89.96512352      43.63283656      75.64664693
H      92.73735202      45.10493337      76.73701902
C      89.82528378      47.64472553      76.29482306
H      87.80516635      47.90928721      75.99624630
H      90.41487838      48.12849547      74.38053030
S      90.97990655      50.05979575      78.26958706
C      89.93677763      52.95863593      76.71812175
H      91.33706482      53.68429082      75.39153388
H      89.44166934      54.30223134      78.19966718
H      88.19633970      52.55234477      75.69200037
C      87.21368202      44.45486751      79.84939825
O      85.90977086      42.90907139      78.64753232
N      86.24047296      46.45419795      81.14764023
H      87.54627385      47.31024397      82.24557122
C      83.52682597      46.66395757      81.56338002
H      82.51393267      45.69074852      80.05537842
C      82.87298067      45.33925943      84.05214957
H      84.17878156      43.78968385      84.41497703
H      80.96246738      44.57581000      83.97656052
C      83.05817385      47.00410831      86.17998140
O      81.14388109      47.82424953      87.15508018
N      85.18222622      47.79590364      87.10405757
H      84.90065700      48.98832093      88.56670574
H      86.87731073      47.43874537      86.30092389
C      82.45157171      49.44941417      81.52558549
O      83.93878632      51.24276443      81.50857796
N      79.96658161      49.89349985      81.61440263
H      78.90644514      48.31179891      81.74668347
C      78.56251495      52.40305638      81.32338478
H      78.89888624      53.00398936      79.38074613
C      75.67501314      52.04211866      81.71077867
H      74.95124796      50.95930549      80.11584966
C      74.94935824      50.51710953      84.08238520
H      75.19124322      51.92495563      85.56771008
H      76.47436737      49.16595521      84.38096195
H      73.12010317      49.58358473      83.92742764
C      74.06496633      54.40805600      81.60495400
H      74.55251571      55.56645823      83.23578781
H      72.06752561      53.89971962      81.65786634
C      74.45236022      55.87259390      79.18043514
H      74.76983424      54.54411631      77.64030819
H      76.14555499      56.98942214      79.53759341
H      72.84231340      57.07445983      78.71745219
C      79.60186443      54.28711353      83.14886040
O      80.22169465      56.43384261      82.43076440
N      80.12153917      53.61248122      85.50345938
H      79.83808022      51.79078507      85.99667795
C      81.21002151      55.28110957      87.41397269
H      80.15177479      57.04800366      87.45176721
C      80.73381048      54.00554431      90.00100801
H      81.79583668      55.21874860      91.28413217
H      81.40844279      52.06101592      90.02557445
C      77.93890527      53.82791003      90.75500881
C      76.50271328      55.96141103      91.39940548
H      77.24915517      57.85869625      91.43908973
C      73.93457521      55.63637810      92.21954670
H      72.89900520      57.26343247      92.89039954
C      72.74971681      53.34414010      92.22710560
H      70.76172474      53.00776880      92.53702072
C      74.05173824      51.25599252      91.32003697
H      73.09742646      49.46075252      91.49956097
C      76.67656809      51.48842886      90.67186085
H      77.70457921      49.83302861      90.06336898
C      84.19956855      55.71196716      87.06626304
O      85.11230636      57.17650505      88.50623449
N      85.50347971      54.55545465      85.34472237
H      84.49436585      53.25343323      84.38096195
C      87.78248964      55.56078906      84.19576877
H      88.84829527      56.75887554      85.48645185
C      89.54749401      53.31957364      83.72711665
H      91.18588673      53.94129360      82.64430347
H      88.63664592      51.91928645      82.52147126
C      90.58495376      52.01377276      86.15352523
H      89.09206996      52.17250978      87.56515079
H      92.21578756      53.21374898      86.52391159
C      91.35785182      49.22453673      85.76991079
O      89.88953448      47.66551252      84.88929833
O      93.55182407      48.50455100      86.17620195
C      87.28549161      56.94028926      81.63141017
O      88.50058563      58.95095807      81.15330941
N      85.47513380      56.14849393      80.04404007
H      84.29216514      54.77088345      80.62985522
C      84.62286724      57.47508182      77.71967670
H      86.23480378      57.56200922      76.44033199
C      82.34952648      56.08046380      76.61040735
H      80.78105365      56.28077478      77.92754659
H      82.69534640      54.06790527      76.33261759
C      81.84119010      57.38626467      74.09896108
H      83.32840472      56.84013377      72.77993212
H      81.91110998      59.43850745      74.25769809
S      78.73259033      56.71352211      72.70245334
C      79.05951298      57.83790927      69.52015423
H      79.94390488      59.68606159      69.30661515
H      77.34553121      57.52799415      68.41844379
H      80.26704808      56.36014328      68.74347671
C      83.80839520      60.30967129      78.29604323
O      85.19923377      62.08601401      77.72912533
N      81.75426269      60.77454395      79.65664617
H      80.78483309      59.34024169      80.45600040
C      80.97947491      63.34268202      80.68654701
H      80.72247212      64.68249796      79.14264061
C      78.28661492      63.17449637      81.93943556
H      77.88410321      64.69383633      83.27358233
H      78.29039436      61.33957212      82.87485008
C      76.09642211      63.33512311      79.98734828
H      76.48948518      61.75531192      78.72690082
C      73.49615870      62.69072644      81.28370053
H      73.67379299      60.71974189      81.85250815
H      72.03162081      62.65104219      79.83617017
H      73.04073467      64.07400610      82.74067951
C      76.05862758      65.82011320      78.66642958
H      77.20569147      66.17538175      76.99213207
H      76.44035231      67.38102714      79.95522293
H      74.10843003      66.01286529      78.03148154
C      82.81439916      64.65415207      82.53091989
O      82.46857925      66.78576336      83.09972751
N      84.83451659      63.27843131      83.43609880
H      85.20868239      61.63247971      82.54225825
C      86.73180181      64.36691368      85.23700797
H      85.99102908      66.00341667      86.24612182
C      87.66532661      62.34112707      87.25901513
H      88.97301721      61.03154673      86.35383622
H      85.75859275      61.72696602      87.74278506
C      88.49302672      63.59968480      89.77991003
H      86.91888470      64.45951027      90.79280333
H      89.96134407      65.00186171      89.42653121
C      89.70434130      61.81200370      91.68664388
H      90.47912908      63.00442100      93.17763794
H      91.36163127      61.07690016      90.70398620
N      87.89398348      59.85991642      92.58237415
H      87.69178277      58.31601002      91.47688426
C      86.75636825      59.66716434      94.87272244
N      86.97935596      61.34146184      96.57347612
H      86.07606678      60.89548644      98.19675103
H      88.57239524      62.36947296      96.80213301
N      85.13120362      57.92105722      95.11838686
H      84.31673158      58.00798463      96.84370699
H      85.04427621      56.39415837      93.97699217
C      88.98813503      65.58767687      83.95766326
O      90.00858723      67.43582921      84.87607025
N      89.70434130      64.57667330      81.75235265
H      89.27915287      62.74930795      81.40086356
C      91.30682920      66.00152694      80.00057636
H      92.71278559      66.91804419      81.19677312
C      92.68254996      63.97574032      78.39997817
H      93.28537266      62.44317229      79.63963863
C      91.02337026      62.80977919      76.19844702
H      90.51692361      64.30266298      74.87374887
H      89.47190495      61.75153245      77.04126495
H      92.06838891      61.32256459      75.22901742
C      95.13163526      64.95650828      77.16787662
H      94.89919892      66.04877010      75.43688731
H      96.37885463      63.43905805      76.54993611
C      96.86262457      66.26230917      79.16153788
H      97.07994310      64.84501443      80.63930385
H      96.00090936      67.99707792      79.86451607
H      98.67298238      66.69127704      78.27147678
C      89.97835161      67.95739366      78.30927131
O      91.13486411      70.02664398      77.88975207
N      87.60674509      67.69283198      77.55716024
H      86.64865384      66.07711599      77.88408289
C      86.11008184      69.72239805      76.41576554
H      87.36863958      70.55387762      75.01169889
C      83.73280614      68.77186571      75.13075165
H      82.37787237      70.32711047      75.15153864
H      82.86353204      67.55299224      76.54426693
C      84.11075141      67.81755392      72.43222248
O      85.59418657      68.94572053      71.04705309
O      82.76148683      65.95239405      71.76892854
C      85.58284821      72.12424019      77.98612811
O      86.18378117      74.23506448      77.16220744
N      84.59074189      71.85400932      80.23301270
H      84.44712270      70.03798235      80.80371004
C      83.80461574      73.72672811      82.01691434
H      83.05061494      75.27252422      80.88307855
C      81.63143048      73.01430129      83.66097623
H      81.22702906      74.45805218      85.07260178
H      82.36275457      71.39480583      84.70788461
C      79.02738763      72.20549843      82.33249863
H      77.78583744      71.70094149      83.89719202
H      79.30328766      70.65781257      81.00591076
C      78.01827377      74.43348574      80.73001072
O      76.60853794      74.13301927      78.82327687
O      78.64377319      76.72761349      81.33283341
C      85.78882837      74.94938102      83.61184334
O      85.42411119      76.99595462      84.54914760
N      87.89020403      73.55098356      84.05781875
H      87.78626909      71.66125725      83.80837488
C      89.78748925      74.20104941      85.99478822
H      90.33362016      76.15313668      85.63196077
H      91.17265864      72.67792999      86.07982591
C      88.94089186      74.31254327      88.76512700
O      86.73747099      73.98751033      89.40196477
N      90.45456264      75.15158175      90.45832178
H      92.25358209      75.71283046      90.15596557
C      89.55883237      75.75629416      93.10960779
H      87.52737658      75.53708592      93.37605920
C      90.85896408      73.88357539      94.98421630
H      92.89986848      74.14435762      94.87272244
H      90.26559000      71.94471619      94.61760939
C      90.13141945      74.14813707      97.79045987
H      90.13708863      76.16069559      98.22320720
C      87.36486011      73.32421639      98.23076610
H      86.04772087      74.22183639      96.92118577
H      86.77526550      73.67570550     100.17151502
H      87.00959158      71.29842980      98.18541267
C      91.68099501      72.57399505      99.67640673
H      93.53859599      73.42626162      99.92396088
H      91.88130600      70.64080503      98.99421553
H      90.79849282      72.65336355     101.53589742
C      90.30716399      78.51151513      93.56881129
O      92.41420883      79.19748578      93.21732219
N      88.72168362      80.00061946      94.77634640
H      87.01904020      79.16913988      95.00122383
C      89.12419531      82.62544931      95.77979107
H      91.04793670      82.86544455      96.47143090
C      88.30783354      84.45470438      93.65195924
H      87.19667447      85.86632993      94.65918337
H      86.64676413      83.70637276      92.68630910
C      90.50747497      85.28240451      91.95876447
H      91.32005729      83.69503441      90.92886363
H      92.10807316      86.16301696      92.91118653
C      89.59662689      87.09465205      90.00100801
H      91.39375662      87.76928433      89.25456611
H      88.62341785      88.63666871      90.95909925
N      88.09618421      85.85499158      88.05270018
H      87.92043965      83.95581664      88.01301593
C      86.82250867      86.89056159      86.17620195
N      86.77526550      89.29807292      85.97022178
H      85.84363043      90.23159773      84.59072157
H      87.77493073      90.19569293      87.32515555
N      85.74725439      85.30697095      84.58316267
H      84.90443645      86.05719229      83.04303572
H      85.96646264      83.41157546      84.61717774
C      87.61052453      82.89379044      98.08336745
O      85.38820639      82.61978013      97.96053524
N      88.79916239      83.28685352     100.23954517
H      90.67188117      83.63645288     100.11671296
C      87.59918618      83.50228232     102.69618938
H      86.10252295      82.09254649     102.56579826
C      89.68166457      82.91457743     104.68040201
H      88.77270622      83.21693364     106.50209817
H      91.33328538      84.09565638     104.33458209
C      90.59818184      80.04597290     104.44796567
H      91.38241826      79.74172696     102.56768799
C      92.59751227      79.56787214     106.41517076
H      93.37985898      77.66869719     106.25265430
H      91.89075463      80.00817837     108.29733817
H      94.12063168      80.93036480     106.14682963
C      88.43255548      77.94648697     104.84102874
H      89.25080698      76.10589353     105.27755552
H      87.27415326      77.95215613     103.13649561
H      87.12864432      78.46238225     106.34903034
C      86.23669351      85.94569845     103.45396963
O      85.07451183      86.03073613     105.47786651
N      86.62975658      88.09998644     102.22564753
H      87.89398348      87.95447751     100.80268361
C      85.35230160      90.58686626     102.47320167
H      84.36586447      90.86654576     104.25899304
C      87.18722585      92.75249263     102.17651464
H      88.28893629      92.41801107     100.46820206
H      88.41176850      92.72036728     103.83380462
C      86.05527978      95.46047042     102.03667490
H      85.03104812      95.97069654     103.74876694
H      84.82317822      95.59086154     100.39072328
C      88.37208424      97.37098373     102.01777763
H      87.75414373      99.24937168     101.43763165
H      89.51158922      96.47714319     100.55323974
C      89.89898310      97.59208172     104.43284786
H      90.68888870      95.80251089     105.07724453
H      88.62341785      98.26860373     105.90116521
N      91.82272450      99.63109640     104.03222588
H      91.10084903     101.39610077     103.97742382
H      92.68443969      99.38921143     102.34470028
H      93.22868087      99.64621422     105.32479868
C      83.35864034      90.85709714     100.39450273
O      83.84241028      89.95569767      98.31580379
N      81.26860303      91.94935894     100.92551582
H      81.14577082      92.83564058     102.61115169
C      79.25793423      92.48037204      99.05090732
H      78.37732177      90.79662588      98.25911200
C      77.13577159      93.94868938     100.43985616
H      76.20413652      92.83564058     101.90250433
C      77.93701554      96.39021578     101.86093035
H      78.55117660      97.98514479     100.71008702
H      79.51493702      95.99526298     103.12704698
H      76.32885846      97.03650217     102.97775860
C      74.66778903      94.29450929      98.69563877
H      74.27283623      92.42556998      97.92652016
H      75.18368430      95.63054580      97.21409334
C      72.27350578      95.25637998     100.16395612
H      70.64834115      95.02961283      98.91862648
H      72.19413728      97.21224672     100.80079389
H      71.92390642      93.95057911     101.71731115
C      80.25382000      94.08474967      96.78701520
O      81.59741542      96.07841093      97.11582758
N      79.71335828      93.17768104      94.55524842
H      78.40377795      91.82274727      94.25667167
C      80.51082279      94.13199284      92.16096518
H      81.25915441      96.03494722      92.41418851
C      82.63298543      92.48793093      91.17641777
H      83.92366850      92.86965566      92.73355226
H      83.37753759      93.10020226      89.35661134
C      82.01126548      89.75727641      90.52446220
C      81.02293862      89.10721057      88.07915635
H      81.05884341      90.56985873      86.65619243
C      80.49381524      86.55419031      87.36672953
H      80.16122341      86.05530257      85.41653197
C      80.74136939      84.61722085      89.17708734
O      80.49759470      82.10010539      88.54591875
H      80.55050703      81.67680671      86.78091437
C      81.60308459      85.33342712      91.67341580
H      81.82796203      84.01439815      93.21354274
C      82.28338607      87.81841721      92.34993782
H      82.80495052      88.31919469      94.25856139
C      78.22614366      94.19057435      90.35438683
O      76.02650225      93.81073935      90.98933487
N      78.48881563      94.79339705      87.91097071
H      80.31618097      95.15622450      87.50656928
C      76.41767558      94.72725662      85.98533959
H      74.78306233      93.70680441      86.70721504
C      75.24037610      97.35964537      85.18598536
H      74.15189374      97.19712891      83.44743715
H      76.85609209      98.62576200      84.99701273
C      73.64544709      98.73536612      87.29303020
H      74.86054110      98.76182230      88.95598936
H      71.84264819      97.84341530      87.73333643
C      73.33364224     101.52271244      86.43320473
H      73.29773744     101.56428643      84.37151332
H      74.97770413     102.62631260      87.00201235
C      70.95636654     102.86063868      87.58215833
H      71.08297821     103.27826819      89.59471685
H      69.40301152     101.51704326      87.44609803
N      70.32330823     105.03193420      86.08360536
H      70.13811504     104.71634991      84.21088659
H      71.65745501     106.39631660      86.06092865
H      68.80774772     105.97490763      86.76390683
C      77.32663394      93.39310984      83.63263033
O      79.31840548      94.03183734      82.69721581
N      75.78272755      91.80196028      82.53091989
H      73.97614920      91.52039106      83.07138162
C      76.31940982      90.45836488      80.12340857
H      78.31496080      90.82686150      79.76436057
C      76.13610637      87.59353979      80.70166482
H      74.18779853      86.93024585      80.73001072
H      76.48192629      87.11732876      82.67642882
C      77.77071962      85.78696143      79.10295636
O      79.24659587      86.78851638      77.55527051
O      77.88410321      83.41535491      79.30137762
C      75.01738839      91.51850135      77.82550137
O      73.91189850      93.58964137      77.86707535
N      75.22903774      90.15222922      75.67499283
H      76.39121941      88.64233789      75.73357435
C      74.38621980      90.97992935      73.14275957
H      75.63721863      91.99660210      71.85963540
C      73.64166764      88.45336527      71.81995115
H      72.06374616      87.50850211      72.74969650
C      72.88577711      88.84264889      69.10441444
H      72.73648873      87.03796026      68.12364648
H      74.15567320      90.13711140      68.12742594
H      70.93557956      89.50594281      69.18378294
O      75.74304329      86.83009035      71.65554496
H      77.08096953      87.85054256      70.97713322
C      71.93902422      92.70335974      72.94055885
O      72.24138043      94.77072032      71.82939978
N      69.70536773      92.16289801      74.01203367
H      69.64111702      90.42246008      74.79060091
C      67.46982149      93.71058387      73.53960210
H      67.77028798      94.64599838      71.73113401
C      65.23805472      91.97392539      73.43188770
H      63.48249897      93.04351048      73.30905549
H      65.23616499      90.83253068      75.14964891
C      65.18703211      90.25616417      71.18500311
H      63.67714078      88.89556122      71.52326412
H      66.97471321      89.26216813      70.94122842
C      64.48405392      91.67534862      68.85497057
O      63.07242837      90.75316218      67.11642236
O      65.27018007      93.85609279      68.38253899
C      67.21470844      95.73448074      75.53137363
O      65.14545813      96.51493772      76.18521893
N      69.42001905      96.45068701      76.70111422
H      71.02061724      95.98203489      75.77325860
C      69.28962793      98.29317018      78.76091590
H      67.84398730      99.69345737      78.33005830
H      71.17935424      99.11142166      78.82705632
C      68.49594289      97.12720903      81.34417177
O      68.59042919      98.61064420      83.16019876
N      67.66635304      94.74615388      81.48023206
H      67.64367631      93.71247358      79.87585442
C      66.49661244      93.40066875      83.63829951
H      64.95270604      94.59119632      84.30537290
C      65.28151843      90.80229506      82.95421859
H      64.71837998      90.10120661      84.80804010
H      66.90857278      89.69113599      82.35895480
C      63.13289960      90.56607927      81.01157994
C      62.42992142      88.26250291      80.03081198
H      63.61666955      86.65245608      80.42954423
C      60.63657114      88.16045768      78.06927607
H      60.03563818      86.49560881      77.05449304
C      59.30809354      90.41490117      77.27559102
O      57.93237279      90.43946761      75.12319275
H      57.02341443      92.00605072      75.01925780
C      59.79753266      92.65611658      78.60784807
H      58.73550648      94.30206820      78.03148154
C      61.69103843      92.76950016      80.42765451
H      62.26929468      94.60820386      81.10039707
C      68.43358192      93.09075363      85.69999092
O      70.49149388      92.26305351      85.14441138
N      67.69091948      93.79184209      88.09238443
H      65.93158428      94.45513603      88.41741736
C      69.19136217      93.37421258      90.33737929
H      70.93935901      94.45513603      90.18242173
C      68.04051884      94.67245456      92.68441937
H      68.72459976      93.86365170      94.45131348
H      66.02607059      94.24537641      92.70331664
C      68.56397304      97.53350020      92.78646459
C      66.54763506      99.39110116      92.69575773
H      64.71082107      98.65410789      92.20064944
C      67.07675843     102.01215156      93.47432497
H      65.57064655     103.38220313      93.37039002
C      69.63544785     102.71512974      93.71998939
O      69.95292188     105.20578903      94.18297234
H      68.61121619     106.42655222      94.10738329
C      71.55163033     100.97280208      93.66518733
H      73.52072515     101.48680764      93.82014489
C      71.00927889      98.37253868      93.38172838
H      72.50027295      97.00059737      93.62172362
C      69.65623483      90.53017447      90.84949512
O      67.86666403      89.04862904      91.21610203
N      72.14500440      89.89711616      91.16885887
H      73.53773268      91.19535815      91.27657327
C      73.05207302      87.27984523      91.32570615
H      71.40045222      86.19703205      91.90963158
C      74.08764304      86.22537793      88.77268590
H      75.96036182      86.95481229      88.32860022
C      74.26527732      83.39456793      88.42686599
H      75.72225631      82.96937951      87.03413770
H      72.40956608      82.74450207      87.81081521
H      74.50905201      82.41568969      90.22210599
O      72.43413252      87.19669726      86.88862877
H      72.13933522      88.97492972      87.09082949
C      75.18935348      87.17968973      93.37605920
O      76.63121467      88.99004754      93.78046063
N      75.07596990      85.08020380      94.82547929
H      73.73804368      83.74038783      94.58737377
C      77.22269900      84.31486464      96.58292476
H      78.81951774      85.48838468      96.02734522
C      76.45735984      85.21626409      99.26822585
H      75.48037134      87.02851162      99.21909296
C      74.28606430      83.45503917     100.28300888
H      72.82530587      82.99394594      98.90728812
H      73.28639908      84.47549138     101.77022349
H      74.83786439      81.63145327     101.06346584
C      78.65133208      85.09343187     101.20708504
H      80.42578509      85.89089639     100.52867330
H      79.16533764      83.16402131     101.71920088
C      78.26204846      86.45781428     103.67317788
H      77.14522021      85.25405862     104.92039725
H      76.89388661      87.97148506     103.38593948
H      80.04028093      87.26283768     104.32891291
C      77.98614842      81.47271627      96.34481924
O      76.47247766      79.98928111      95.27334442
N      80.27271726      80.73383327      97.14606320
H      81.49537019      82.01317798      97.86226947
C      81.14199138      78.26207125      97.25755705
H      79.79839596      77.00729298      98.18541267
H      82.85219369      78.27529933      98.40651065
C      81.70135036      77.18492726      94.62516830
O      83.25848484      78.26207125      93.20031466
N      80.58641183      74.96638857      94.10549356
H      79.23903698      74.39002204      95.33003621
C      80.79239200      73.55665274      91.73766649
H      82.51393267      74.24073366      90.83248759
C      81.39710442      70.66726121      92.14017819
H      79.76627061      69.72239805      92.97165777
C      81.99803739      69.31799661      89.60794494
H      81.71079900      67.33567371      90.08982514
H      83.86319726      69.70539050      88.82181879
H      80.71680294      69.83578162      88.07915635
C      83.48714173      70.16081456      94.15651617
H      83.21124169      71.33811404      95.82325478
H      85.25403583      70.81277013      93.32125714
C      83.66288628      67.36779906      95.07114371
H      85.47513380      66.53820921      95.59837735
H      83.00904096      66.13002832      93.55936266
H      82.37409292      67.15992916      96.66418299
C      78.32629916      74.07065830      90.35060738
O      76.59719958      72.55131834      90.31281285
N      78.03528132      76.33644014      89.38495723
H      79.38643563      77.67058692      89.57959904
C      75.69013096      77.09799985      87.80703576
H      75.41423092      75.78275034      86.24612182
H      76.10587075      78.99906452      87.13429319
C      73.09364700      77.32287727      89.16196953
O      71.23604604      77.51184991      87.85427892
N      73.02561685      77.33799509      91.71876923
H      74.70936301      77.09233067      92.58237415
C      70.63322335      77.70271227      93.10960779
H      69.51261564      76.16258532      92.32348165
C      71.12644192      77.25862659      95.93285890
H      71.94091395      79.01229260      96.63961655
H      72.49460376      75.82810376      96.50733570
C      68.51106069      76.73895185      97.24432897
N      67.03707418      74.58277413      96.89095015
H      67.42068861      73.13524376      95.70798147
C      64.86199919      74.91347622      98.19675103
H      63.38801265      73.50751985      98.34037023
N      64.92436016      77.24350877      99.24743886
H      63.30675443      78.11656233      99.75955469
C      67.22415707      78.35277811      98.77311755
H      67.94792225      79.96282494      99.79545949
C      69.29151767      80.12156194      92.42363714
O      70.09843079      82.15301774      92.94520160
N      67.04841253      79.96093520      91.33137533
H      66.35488298      78.19593083      91.12539516
C      65.44025543      82.06986978      90.74178072
H      66.73471797      83.59109946      90.23911352
C      63.55619831      81.44626009      88.51757285
H      62.48661320      79.73794750      88.95409963
H      64.65979846      80.92469562      86.86028288
C      61.61733910      83.43992135      87.93175770
H      60.31720740      83.89534539      89.46432574
C      62.48283376      86.08364846      87.31570692
H      60.87467667      87.36488291      87.42909050
H      63.36344621      86.24238548      85.45999568
H      63.91713602      86.74316294      88.63662561
C      60.25862589      82.44970476      85.62062241
H      58.51629822      83.54385629      85.49023130
H      59.65202374      80.51462501      85.97967041
H      61.54175006      82.21915816      84.02758313
C      64.14201345      82.90512881      93.07370299
O      62.80219751      81.43303201      94.22832577
N      64.41980323      85.32019904      93.77101200
H      65.56119792      86.48049099      92.77323651
C      63.12534070      86.38222522      96.05191166
H      62.49417211      84.87422362      97.30668993
C      64.88278618      88.16990632      97.43897078
H      63.88312096      88.91634821      99.07736349
H      65.31553349      89.84609355      96.32214253
C      67.33754065      86.81686228      98.38383393
H      68.32019834      85.64145251      97.00622345
C      68.97215391      88.92957630      99.26255667
H      69.40301152      90.24671553      97.73943726
H      70.79573980      88.17746521      99.85404100
H      68.16713051      89.94624905     100.86315486
C      66.84432209      85.07642433     100.59292399
H      65.76906781      83.47582615      99.86537936
H      65.63867670      85.90412446     102.04423380
H      68.56775248      84.34132080     101.45085974
C      60.54208483      87.82408639      95.60971571
O      58.72038867      87.55574526      97.09315086
N      60.54964373      89.60042913      93.75400447
H      62.15780083      89.70814354      92.72977280
C      58.29142080      90.93457591      92.80347213
H      56.73806577      89.57964214      92.76378788
C      57.41080833      93.26838790      94.21509769