 %block lattice_cart
   135.996   0.000   0.000
   0.000 142.663   0.000
   0.000   0.000   160.158
 %endblock lattice_cart

 %block positions_abs
N      88.17933216      39.23733317      81.72967594
H      87.18155667      38.36427961      83.10161724
H      90.04827149      39.22032563      82.12084929
H      88.28515684      38.31325700      80.06104761
C      87.24580736      41.74311026      81.39519438
H      87.91288075      42.90718167      82.95988777
C      88.40420959      42.95253510      79.04059540
H      87.66910606      42.09081990      77.32094445
H      90.41865784      42.65773780      79.34862079
C      87.91477048      45.81924992      79.12563308
H      88.25681094      46.77734116      80.91709362
H      85.92488867      46.21987190      78.77792344
S      89.82339405      47.43307619      76.77103409
C      89.71567965      50.85348082      77.58361641
H      90.76447776      52.15361251      76.37797102
H      90.09173519      51.21252881      79.57727767
H      87.75603347      51.42228843      77.29826774
C      84.35074665      41.79035341      81.53314440
O      82.97502590      40.96643274      79.80215510
N      83.34163280      42.65206862      83.68176322
H      84.64365423      43.00355770      85.03669699
C      80.75270775      43.66307220      84.10884137
H      79.25793424      42.62372271      83.14319122
C      80.08752409      42.98277072      86.83571644
H      80.06673710      40.94375602      87.12484456
H      78.24504093      43.80669140      87.24956650
C      81.80339558      44.17518803      88.71788384
O      81.79772640      46.32002739      89.23188940
N      83.28116156      42.80135699      90.27879778
H      84.03327263      43.56858588      91.85482952
H      83.28494101      40.89462315      90.35438683
C      80.64310363      46.47687468      83.64018924
O      82.61030872      47.66173306      83.41909126
N      78.40566767      47.53323169      84.03136259
H      76.98081403      46.27278423      84.16931261
C      77.77638881      50.19585606      84.02947286
H      78.12031900      51.02733564      82.17754108
C      74.80006987      50.35837251      84.39230031
H      73.93457521      49.39650183      82.78981240
C      74.05551770      49.30201550      86.95098974
H      72.02028246      49.04690246      87.11917538
H      74.80195959      50.50010200      88.45521189
H      74.78684178      47.41606865      87.33082473
C      73.88733206      53.17595446      84.27702701
H      74.66967875      54.11136898      85.93620671
H      71.84264819      53.08335787      84.51891198
C      74.69991437      54.58191083      81.83739034
H      74.38055062      53.52555382      80.10073186
H      76.68601673      55.11670338      81.93565611
H      73.63410873      56.34502547      81.86195678
C      79.19935272      51.89283029      85.90786082
O      79.96847133      53.94696279      85.09905796
N      79.98736859      51.13127059      88.20765774
H      79.84752885      49.25855181      88.54969820
C      81.33852291      52.70919206      89.97644157
H      80.44090291      54.56301356      90.00478746
C      81.38198661      51.65283505      92.70142691
H      82.64810324      52.74887631      93.89951340
H      82.32496004      49.82169024      92.63150704
C      78.78550266      51.29378705      93.81825516
C      77.51371685      53.35169899      94.93319369
H      78.42645466      55.16961571      95.10704851
C      74.93235071      53.11170376      95.51144994
H      73.80985328      54.54789575      96.43363638
C      73.63788818      50.88938562      95.06358480
H      71.71225707      50.67395682      95.70231230
C      74.95502742      48.82958394      94.16407508
H      74.14244511      46.99276995      93.80880653
C      77.49292986      48.89950381      93.47999415
H      78.62865538      47.36693577      92.75811870
C      83.99925756      53.06446059      89.08260102
O      85.07262210      55.08835748      89.08638048
N      85.13309334      51.01221783      88.22466528
H      84.21657608      49.38516347      88.62717698
C      87.63131153      51.15772675      87.12295484
H      88.70656580      52.11959745      88.59127218
C      88.74058088      48.52911745      86.71855341
H      90.46212155      48.63116267      85.59038680
H      87.23446900      47.72976321      85.56582035
C      89.21301245      47.00599804      89.22244077
H      87.43666972      47.04190284      90.26745942
H      90.76825721      47.77133720      90.33548957
C      89.71378993      44.18652639      88.77835509
O      91.38241826      43.16418445      90.08226624
O      88.69900690      43.04324196      86.91319522
C      87.73713620      52.45974818      84.64363391
O      89.77426117      53.27988940      83.94065573
N      85.71701878      52.50510162      83.20555219
H      84.20523773      51.87393302      84.18632015
C      85.58851739      54.36270258      81.04748474
H      87.40076492      54.34380532      80.07049624
C      83.53816434      53.91861689      79.00280087
H      81.72213735      54.30601079      79.89097224
H      83.60430476      51.90038919      78.59650971
C      83.77249040      55.33024245      76.56316420
H      85.55828177      55.15638763      75.55216062
H      83.81028493      57.36358797      76.88819713
S      81.44812703      54.58191083      74.12919671
C      79.72280691      57.62437020      74.46556799
H      78.24315121      57.76232022      73.04071435
H      80.88876805      59.22874784      73.90809873
H      79.03305681      58.01932300      76.36663266
C      85.03860703      57.07257011      82.04526023
O      86.41054833      58.74308817      81.10039708
N      83.30383827      57.70751815      83.74034474
H      82.19645865      56.23542135      84.23734276
C      82.83140670      60.26998703      84.66820036
H      82.31173196      61.47563241      83.08271998
C      80.49570497      60.22841306      86.47477871
H      80.76404611      61.55311119      88.03002347
H      80.38799057      58.38026071      87.37428844
C      78.07874502      60.81044876      84.95354903
H      78.08819365      59.48575062      83.37373783
C      75.78083782      60.28888430      86.50501433
H      74.21992389      60.47218774      85.17653673
H      75.52194532      61.45484543      88.18498102
H      75.92634675      58.32167921      87.10216785
C      77.88977239      63.37669709      83.84994886
H      78.28283546      64.69383633      85.38440663
H      76.05673786      63.66582521      82.95799804
H      79.21258081      63.74519371      82.31738082
C      85.18411596      61.48130160      85.92297863
O      85.72079823      63.72629646      85.68865257
N      86.80361141      59.97707946      87.08516031
H      86.35763600      58.12514767      86.99256372
C      89.36985974      60.70084463      88.02057484
H      89.09962888      62.07467566      89.53046616
C      90.73613186      58.18183946      88.89551812
H      90.82683873      57.03666530      87.18531581
H      89.43033098      57.30311672      90.22399572
C      93.50458091      58.51632102      89.66085728
H      93.50080146      59.66338488      91.37105959
H      94.59117354      59.50653760      88.21899610
C      94.53448175      55.92550624      90.58304372
H      93.14364319      55.36236780      91.99655900
H      96.35050874      56.26565697      91.49767125
N      95.08439211      54.20963475      88.47032970
H      95.58139013      54.98820199      86.80170136
C      95.54926478      51.77188780      88.78591399
N      95.79303948      50.75521504      91.07815201
H      96.21255872      48.91084216      91.34271369
H      95.80815729      51.90605836      92.59938169
N      95.49446272      50.33758553      86.79981164
H      95.85729017      48.46486676      86.90374658
H      95.07872293      50.94607741      85.04047644
C      90.95156066      62.21073596      86.24045265
O      91.83973203      64.22140476      87.00390208
N      91.23501961      61.31878513      83.83105160
H      90.15031671      59.85424725      83.26602343
C      92.80160272      62.52443052      81.79770609
H      94.03559401      63.90393074      82.70666444
C      94.20000019      60.46651857      80.04404007
H      95.22423186      59.41772047      81.48968070
C      92.16098550      58.72797036      78.84784331
H      93.23623978      57.50153798      77.58739586
H      90.91754559      59.87503424      77.67054382
H      91.35407237      57.54122223      80.32560929
C      96.00657855      61.95373318      78.17699047
H      96.97600815      63.52598547      79.08783855
H      94.95400099      62.71151342      76.57450256
C      98.11740284      60.15093428      77.31149582
H      97.35017396      58.97363478      75.80538395
H      98.64841594      58.74119845      78.71556247
H      99.74445720      61.01831866      76.38930938
C      91.19911481      64.25541983      80.09317295
O      92.09106563      65.97885023      78.69855493
N      88.70278635      63.78865743      79.84561881
H      87.95823418      62.10113183      80.34450655
C      87.01526075      65.35902000      78.26580761
H      87.75981292      65.58956660      76.35907376
C      84.41121789      64.21573557      78.01447401
H      83.29816909      64.22896366      79.74924276
H      84.53782956      62.18616952      77.69888971
C      82.68211832      65.15870900      75.92821616
O      83.43611912      64.71273360      73.67188294
O      80.82829680      66.63458525      76.41198609
C      86.58251343      68.00463683      79.42987902
O      86.52015246      69.95672412      78.09006306
N      86.37464353      68.15770467      81.90164103
H      86.17055309      66.51742222      82.85406310
C      86.48046821      70.64647422      83.28303097
H      87.44044917      72.05432032      82.12651847
C      83.77060067      71.42504146      83.99923724
H      84.00492674      72.89713826      85.42220115
H      82.88431903      69.96428302      85.14819084
C      82.11331070      72.27541830      81.81282390
H      80.17067205      72.03731279      82.45911030
H      82.45346143      70.93938180      80.28214558
C      82.38732101      75.07410297      81.19866285
O      80.53349950      76.45927235      80.97000596
O      84.58129326      76.12290107      81.02858748
C      87.96957254      70.53498036      85.70754983
O      89.57583991      72.20549843      86.19320949
N      87.65965743      68.47895813      87.21933088
H      86.30850311      67.17504698      86.88106987
C      88.52326235      68.23329372      89.86872717
H      90.53393115      68.68493831      89.83849155
H      88.30783355      66.23396328      90.31281285
C      87.26470463      69.81310491      91.87372679
O      85.93244758      71.65558806      91.27846300
N      87.49336151      68.83800614      94.13383946
H      88.34940753      67.13347300      94.23210523
C      86.38976134      69.77531039      96.43174665
H      84.43389461      70.16648374      95.92341028
C      86.55605726      67.59645595      98.53690177
H      88.55349797      67.10323737      98.65784425
H      85.61875301      65.95050432      97.72809891
C      85.45056737      67.87046627     101.14283435
H      86.16866336      69.63358092     101.92707077
C      82.60086009      67.94416559     100.86882404
H      81.98858876      69.58255830      99.78034168
H      81.91488943      68.25786016     102.78689625
H      81.94512505      66.25852972      99.88616635
C      86.21779625      65.46673440     102.57146745
H      88.27570820      65.37413781     102.53556265
H      85.01026113      63.93227663     101.91384269
H      86.07606678      65.51019809     104.62371022
C      87.66721633      72.23573405      97.48999339
O      89.97268243      72.66848136      97.39361735
N      86.05527979      74.05365076      98.22887638
H      84.26381924      73.80609662      97.62227423
C      86.43133532      76.51974359      99.42696286
H      88.47790892      76.65769361      99.61215604
C      85.37497831      78.53608157      97.74321672
H      85.32962488      80.25195307      98.88083196
H      83.50603899      78.12601097      96.98354674
C      87.29305052      79.02363096      95.52845748
H      87.43477999      77.32287727      94.37572443
H      89.10718778      79.50551118      96.37505487
C      86.01181608      80.82642986      93.49322224
H      85.54883313      82.50639656      94.59115323
H      84.21279663      80.14801812      92.75622898
N      87.73524648      81.42547311      91.31814725
H      89.48324332      82.15112801      91.57892948
C      87.37430875      81.05886620      88.83882633
N      85.44111873      79.71905025      87.89018372
H      84.91010564      79.81353656      86.05903892
H      84.52649120      78.70615693      89.22433050
N      88.82750829      81.90357386      87.16074936
H      88.55349797      81.80719781      85.27480250
H      90.40165031      82.59521370      87.99222894
C      85.36930913      76.90902722     102.15383793
O      83.31139718      75.91125172     102.71886610
N      86.45023259      78.67781104     103.63916281
H      87.65209852      79.99306055     102.96075107
C      85.90221195      78.76095900     106.32824336
H      84.38476172      77.57043143     107.05011881
C      88.32484109      78.11845206     107.81923742
H      88.00547734      78.24884317     109.85069320
H      89.60796525      79.66046873     107.34302639
C      89.87441666      75.67881539     107.15216403
H      90.31850235      75.42937152     105.15850277
C      92.32350197      75.69582293     108.84157935
H      93.41576377      77.34366427     108.26899228
H      93.56505215      74.06876856     108.62426083
H      92.12130125      75.70527155     110.89193240
C      88.16799380      73.34311367     108.00632032
H      88.11319174      73.23161981     110.06234255
H      89.01459119      71.61401409     107.27688596
H      86.28015722      73.43382053     107.19184828
C      84.95734880      81.39334776     107.08980306
O      84.03327263      81.68814507     109.15716365
N      85.27104337      83.33787613     105.44952062
H      85.80205646      82.66513356     103.74498749
C      84.60396998      86.05908203     105.74809738
H      83.43422939      86.44647592     107.39782845
C      87.15321077      87.27417604     105.95029809
H      86.70345591      89.27539620     106.12982209
H      88.07728694      86.84520817     104.16072727
C      88.91254597      86.51450607     108.08190937
H      90.04449203      84.96493048     107.33357775
H      87.70312113      85.73971828     109.55967535
C      90.49235717      88.66690433     109.11181021
H      89.28104260      90.01049975     110.09824735
H      91.57139089      89.47192774     107.55278601
C      92.38586293      87.60676788     111.05633859
H      93.50080146      86.10065600     110.20029257
H      91.33517510      86.93024586     112.69473130
N      94.13385977      89.58153187     112.02576819
H      95.35840242      89.96325659     110.61036318
H      95.17131952      88.99382698     113.51487252
H      93.29860074      91.19346842     112.61158335
C      83.00148206      86.91890750     103.54278677
O      83.05061495      85.81908678     101.64550155
N      81.61631268      89.03918042     103.91128340
H      81.36308935      89.93491070     105.57991174
C      80.01760422      90.11065523     101.86093035
H      78.76282594      88.58186665     101.28267410
C      78.64755264      92.41045217     102.63193869
H      80.02705285      93.82774689     103.20641549
C      76.99215239      93.59342083     100.37749520
H      75.63721862      95.03150256     100.95764117
H      75.89044195      92.23470761      99.28901284
H      78.35464506      94.52883536      99.14728337
C      76.95246814      91.67345890     104.87126437
H      78.13732653      90.86087658     106.34714062
H      75.51438641      90.26561280     104.42339923
C      75.62021109      93.91656403     106.13738100
H      74.84920275      95.33385877     104.85614656
H      76.97514485      94.99181831     107.25609898
H      74.27094650      93.16445297     107.49987367
C      81.71079899      90.67568341      99.46853684
O      83.94634522      91.48448627      99.67073756
N      80.67144952      90.47537242      97.10637895
H      78.97636502      89.60231887      96.99110564
C      81.64843802      91.30685199      94.52690253
H      82.87487040      92.93579608      94.82547929
C      83.11675537      89.05807769      93.55747293
H      84.35830556      88.44769608      95.08437179
H      84.29972404      89.79885039      92.04380216
C      81.76560106      86.68836089      92.68819883
C      81.63332021      86.07042039      90.11628132
H      82.65755187      87.22693288      88.78402427
C      80.70924405      83.70826250      89.35850106
H      80.60341937      83.36244257      87.34972199
C      79.49792948      82.08687732      91.17074860
O      78.36976287      79.87211808      90.33926902
H      78.84030472      79.40913513      88.64796397
C      79.34108220      82.81820139      93.71432022
H      78.38677041      81.66546834      95.10137933
C      80.38421112      85.18035929      94.42107786
H      80.60341937      85.72082102      96.37694459
C      79.43367878      92.08730897      92.88473037
O      77.16978666      91.78495276      93.49700169
N      80.09130354      93.17390159      90.73989100
H      81.86953600      92.91500909      90.09738405
C      78.32251971      93.76916539      88.68386877
H      76.43090367      93.83152635      89.49645109
C      78.66078072      96.33541372      87.32515555
H      77.24726544      96.74548433      85.88518410
H      80.50326388      96.52060690      86.42375610
C      78.05606830      98.45379691      89.29047092
H      79.20124245      98.19112495      90.98177597
H      76.05673786      98.26482427      89.74022578
C      78.38110123     100.98603017      87.95632414
H      77.43623807     100.95390482      86.12706907
H      80.40121866     101.26381994      87.68420355
C      77.46080451     103.09874419      89.59093740
H      78.49448481     103.20834831      91.36916986
H      75.50115833     102.69812221      90.08415597
N      77.76127100     105.51003496      88.18498102
H      77.13955104     106.96512423      89.25267639
H      76.73325988     105.38720276      86.58249311
H      79.64154868     105.79538364      88.03947210
C      78.04095049      91.43724312      86.92264385
O      79.87209529      90.14656003      86.42186637
N      75.77516864      91.05929785      86.11573071
H      74.32385883      92.09108842      86.80359109
C      75.16289732      89.82152712      83.62507143
H      76.04350978      87.96014669      83.55515156
C      72.23382153      89.31697019      83.63074061
H      71.13967000      91.06307731      83.64963787
H      71.75572078      88.65178653      85.51857720
C      71.37588579      87.48960485      81.72022731
O      71.10187547      88.40612211      79.62830028
O      70.95447682      85.21437436      82.07549585
C      75.95847210      91.48448627      81.24590600
O      76.69546536      93.58397221      81.66920470
N      76.08508376      90.44513679      78.90831455
H      75.48604052      88.71036804      78.37919119
C      76.80506948      92.09486786      76.81260807
H      78.46424919      93.26460846      77.15653826
C      77.56473946      90.58497654      74.39186867
H      78.16189298      91.89077743      72.91410269
C      79.77949870      88.89367150      75.07783932
H      79.32218493      86.91512804      75.43310786
H      80.85853242      89.61365721      76.67654778
H      81.17789617      88.82375161      73.56794799
O      75.74115357      88.92012766      73.57550690
H      76.20791597      88.71792694      71.83506896
C      74.68290683      94.02994761      76.28159498
O      75.58808574      96.06140340      75.51814555
N      72.31885922      93.69924550      77.02992660
H      71.72170570      92.05329388      77.79148630
C      70.42913290      95.78928280      76.76536492
H      70.71259185      97.00059738      75.12319275
C      67.90445855      94.68001347      76.33828677
H      66.53818642      96.22014040      76.25891826
H      67.16557556      93.45925027      77.82172192
C      67.62855851      93.12098926      73.91187818
H      69.00805872      91.59220067      73.93833435
H      68.02351131      94.35687026      72.30939027
C      65.04152319      91.76416577      73.55094046
O      63.06864891      92.92634745      72.89709515
O      65.03963346      89.37555170      73.82873022
C      70.40834591      97.77160571      79.00469060
O      68.61499564      99.21913607      79.20689131
N      72.32452840      97.79239270      80.52025110
H      73.62088065      96.39966441      80.35017573
C      72.86121067      99.47802857      82.71800280
H      72.38877909     101.37153434      82.06604722
H      74.80384932      99.37220390      83.39830427
C      71.19825151      99.01693536      85.11606549
O      72.08264343      99.96179850      86.97933564
N      69.15356764      97.44657279      84.96677711
H      68.46948672      97.04973026      83.23200836
C      67.79485442      96.31084728      87.01901989
H      67.01250773      97.80751051      88.19631938
C      65.77851645      94.62332167      85.92297863
H      64.50295119      94.18490517      87.48011311
H      66.65534946      92.78461798      85.61873269
C      64.18736689      95.59842045      83.70066048
C      63.61289009      93.91089486      81.70510950
H      64.38389843      92.02494799      81.79392663
C      61.84788572      94.68379291      79.91364895
H      61.62300828      93.54050850      78.23935144
C      60.98617052      97.15933438      79.97978937
O      59.46116138      98.00404205      78.08817333
H      59.01896543      99.75770807      78.22990281
C      61.81765010      98.93000794      81.86195678
H      61.00128833     100.80083699      81.82038280
C      63.28407771      97.94546053      83.81593379
H      63.87934150      99.24937168      85.26724360
C      69.73371362      94.85008884      88.76890646
O      71.17368507      93.24571120      87.80136658
N      69.57497661      95.19590874      91.27090409
H      68.57531139      96.73792542      91.78679938
C      71.13400082      94.02049898      93.32503660
H      73.06530111      93.91467431      92.61638923
C      70.97904326      95.54739785      95.71743011
H      71.80863311      94.36631890      97.18574745
H      68.94569775      95.72503212      95.98388152
C      72.46247842      98.04750576      95.46042733
C      71.18313370     100.41722255      95.59837735
H      69.16301627     100.71013013      95.66640750
C      72.73837846     102.67922495      95.55491365
H      71.98815711     104.56139236      95.80435752
C      75.34620077     102.54316465      95.42641226
O      76.81073866     104.69934238      95.27901360
H      75.70146932     106.12230629      95.09193070
C      76.47247765     100.18478622      95.32058758
H      78.49070535     100.02415948      95.57570063
C      75.01549867      97.90010710      95.31869786
H      76.00193580      96.11809519      95.44908897
C      70.56519320      91.29929308      94.02234561
O      68.31830861      90.53206421      94.06958876
N      72.49460376      89.74404834      94.46265184
H      74.22937252      90.50938749      94.26423057
C      72.45491951      86.90189996      94.60816076
H      70.57275210      86.24427521      95.12216632
C      73.08419837      85.98160325      91.93419803
H      75.07974936      86.32742316      91.56570140
C      72.58909008      83.25661791      91.66585689
H      70.58598019      82.95048224      92.02490489
H      73.65489572      82.01128826      92.91496599
H      73.10687509      82.61222123      89.77991003
O      71.45525429      87.23638152      90.21643681
H      72.17901947      88.89934067      90.15974502
C      74.16323210      85.79263062      96.60371175
O      75.97358991      87.04362944      97.40873516
N      73.67568271      83.49661314      97.59203861
H      71.99760574      82.83142949      96.97220838
C      75.31596515      81.92058139      99.23799023
H      77.22458873      82.68781029      99.13027583
C      74.38621980      82.28907803     101.94596804
H      74.22937252      84.33565162     102.13305094
C      71.75005160      81.42358337     102.31635439
H      70.56897265      82.56119861     101.07102475
H      71.03006587      81.44437036     104.24576496
H      71.58186595      79.41480430     101.89305570
C      76.11531938      81.35366351     104.14749919
H      76.11153993      79.29197210     104.14560946
H      75.22147883      81.93003003     105.91061384
C      78.80251020      82.15490747     103.99821081
H      79.60753361      82.25884240     102.10470505
H      80.05917819      80.79997370     104.90716917
H      79.25604451      83.78763100     105.16795140
C      75.45391517      79.08599193      98.31391406
O      73.90433959      78.20537946      96.76055903
N      77.31529559      77.79908830      99.35704299
H      78.39243959      78.44348498     100.79323498
C      77.25671407      75.08733105      98.89406004
H      75.27628090      74.56954605      99.13216556
H      78.40188822      74.07821720     100.27544998
C      78.19212860      74.31065354      96.15584661
O      80.27460699      74.91914540      95.34704375
N      76.52350026      73.15414104      94.62894775
H      74.76416507      72.72139370      95.23743962
C      76.78995167      73.11445678      91.95498502
H      78.17134161      74.52419260      91.36728014
C      77.71591757      70.50474475      91.15941024
H      76.13799610      69.21406167      91.46365618
C      78.41133685      70.58600298      88.33237968
H      80.08563436      71.76519219      88.11317142
H      76.90711470      71.55543257      87.30814802
H      78.79495129      68.78131434      87.41586242
C      79.78327815      69.14414179      92.72410363
H      79.26171369      68.81721914      94.68941899
H      81.46891402      70.32522074      92.76945706
C      80.60530910      66.49852495      91.95687475
H      82.51204295      66.04310091      92.58804333
H      80.61097828      66.01097556      89.95565458
H      79.23147807      65.21918025      92.80158241
C      74.37299172      73.89302402      90.64351496
O      72.71570174      72.31510255      90.17108338
N      74.10654031      76.34966822      90.04258199
H      75.72036658      77.33232592      90.31659231
C      71.90689888      77.32287727      88.76890646
H      71.43446730      75.78275034      87.48767202
H      72.14878385      78.98961589      87.58404806
C      69.65245539      77.60066704      90.28257723
O      67.67580167      78.60789117      89.41330313
N      69.66379375      77.05831560      92.80347213
H      71.37021661      77.07910259      93.65573870
C      67.51895438      77.45893757      94.51178472
H      65.84843632      76.78619500      93.50834005
C      67.67958112      76.14557779      97.14417347
H      68.97026419      77.20382452      98.35170859
H      68.66601825      74.34655833      96.96275975
C      65.14545813      75.70338183      98.36871613
N      63.68469969      73.62657262      97.93974825
H      64.31586828      72.17148335      96.87961179
C      61.59844184      73.79097880      99.52711836
H      60.26429507      72.24896212      99.62349440
N      61.69670761      76.00573804     100.72142539
H      60.74050610      76.74651076     102.19730164
C      63.86989287      77.22839096     100.01466774
H      64.49539228      78.98016725     100.85370623
C      66.94258786      80.27274006      95.00311356
O      68.51106070      81.45192927      96.33348089
N      65.08309716      81.34799433      93.66140788
H      63.85855451      80.31053457      92.62961731
C      64.71271081      84.05408241      93.68408460
H      66.26417611      85.08020379      92.79402350
C      62.50740020      84.31864408      91.69987197
H      60.92380955      83.24338982      92.46143167
H      63.09321536      83.76306455      89.80447647
C      61.55686786      87.04362944      91.03279858
H      61.14679725      88.27384127      92.63339677
C      63.35021813      88.44391663      89.42842094
H      62.83243313      90.42812925      89.22810995
H      63.48816816      87.52739937      87.58971724
H      65.18892184      88.70469887      90.32037176
C      59.11345174      87.13433629      89.59849631
H      59.16069490      86.28584918      87.72199808
H      58.59755646      89.12610782      89.47377437
H      57.74340016      86.13089163      90.76256772
C      63.88690041      85.15579285      96.20686922
O      62.63779131      83.96337554      97.72242973
N      64.68247519      87.48771512      96.70953642
H      65.73127329      88.33053305      95.35649238
C      63.90957712      88.93902493      98.93941347
H      62.87211738      87.63322404     100.14694859
C      66.27551447      90.06530180     100.32080341
H      65.71048630      91.27094719     101.88927625
H      67.19014200      91.37299241      99.01878198
C      68.21626339      88.11699398     101.57558168
H      69.16490600      87.06819588     100.07891844
C      70.23071164      89.44358185     103.22153330
H      69.26695122      90.57741763     104.64449721
H      71.58375568      90.63788888     102.22942698
H      71.53840225      88.06408164     104.01521835
C      66.70826179      86.38978413     103.30468125
H      66.25661720      84.67202291     102.26533178
H      65.05097182      87.15323356     104.26466222
H      67.98571678      85.88333747     104.84102875
C      61.85166517      90.90811974      98.18541267
O      59.90902652      90.89489166      99.47798547
N      62.01985081      92.49737957      96.33537061
H      63.56564693      92.20825145      95.25444716
C      60.04130736      94.23781751      95.44530952
H      58.31787696      93.25515982      94.89350944
C      59.36289561      96.28817055      97.49566257