 %block lattice_cart
   135.996   0.000   0.000
   0.000 142.663   0.000
   0.000   0.000   160.158
 %endblock lattice_cart

 %block positions_abs
N      89.96323380      40.41557752      79.29759817
H      89.95378516      39.64267946      81.04181556
H      91.75847379      40.76139744      78.74957754
H      89.33584466      39.20615268      77.96156167
C      88.53271098      42.77206623      79.20500158
H      89.32072686      44.10054383      80.56560453
C      88.83317747      43.99093970      76.61229708
H      88.01114652      42.62844703      75.30271674
H      90.85518462      44.16290480      76.26458744
C      87.65020879      46.56474694      76.11340933
H      85.62820164      46.89355932      76.34206622
H      88.23413422      46.96725865      74.17832959
S      89.14498230      49.07430349      78.02770209
C      88.42499659      51.65755936      75.86396546
H      89.07317270      53.42823291      76.68977586
H      86.38976135      51.92590049      75.72790516
H      89.06750353      50.91111746      74.05360765
C      85.73402631      42.31853192      79.84750853
O      84.70601519      40.29652476      79.11996390
N      84.46979941      44.14967671      81.03803610
H      85.34474270      45.77106189      81.54259303
C      81.76749079      44.13644863      81.63329989
H      80.86609132      43.09898888      80.09695240
C      81.25159550      42.50939427      83.96711189
H      82.11142097      40.64234468      83.86128722
H      79.23903698      42.20136889      84.28269618
C      82.12464905      43.79251844      86.53524995
O      82.60086008      46.04129275      86.70910477
N      82.44023334      42.41112851      88.51757285
H      82.99392316      43.20292383      90.16352447
H      82.28527579      40.52329192      88.74056056
C      80.59586046      46.78584492      81.61629236
O      81.97536067      48.61321027      81.45188617
N      78.14110598      46.96536892      81.59361564
H      77.16789693      45.35532210      81.28370052
C      76.68601673      49.38799805      81.33472314
H      77.24348599      50.38577355      79.62263110
C      73.76827929      48.81919043      81.20244229
H      73.48293062      47.64378067      79.53570369
C      72.70625312      47.37732926      83.62129197
H      73.45647446      45.46303650      83.74601391
H      70.68991514      46.99938399      83.44365770
H      73.17112578      48.27494926      85.41653197
C      72.12610713      51.15111270      80.86418128
H      72.21303454      52.30573548      82.56682469
H      70.22882191      50.62387906      80.26324832
C      72.91601274      52.63265813      78.56249463
H      71.49493854      54.09530630      78.26580760
H      72.98026343      51.27772437      77.01102933
H      74.69424520      53.60586718      78.92532209
C      77.27939079      51.25693738      83.55326183
O      77.32285450      53.49248361      83.10350696
N      78.13921626      50.30262559      85.68865256
H      78.21858477      48.42045818      85.98533959
C      79.07652051      52.02038681      87.76357205
H      77.51560657      53.30729043      88.15096595
C      79.29761849      50.45947287      90.28635668
H      79.83996995      51.85976007      91.69987196
H      80.69223651      48.94580210      90.18998064
C      76.83152566      49.15934117      90.90051773
C      74.50149311      50.51238521      91.29169108
H      74.70747327      52.54195127      91.38239794
C      72.19224755      49.33697544      91.71498977
H      70.61054662      50.43301671      92.39907070
C      72.06941535      46.65356408      91.50523015
H      70.27795479      45.72381873      91.79813773
C      74.25204923      45.28162278      90.92697390
H      74.24260061      43.29741015      90.45832177
C      76.54806670      46.54207023      90.67186085
H      78.19212859      45.37799882      90.33737929
C      81.55206198      53.40177674      86.99445344
O      81.52182637      55.74692710      86.83949589
N      83.56651024      52.15833683      86.24612182
H      83.46068555      50.25349271      86.26690881
C      85.91544003      53.23737055      85.20866208
H      86.74691961      54.43167758      86.66564106
C      87.96957255      51.36654150      84.48678663
H      89.71190021      52.43423687      84.23356330
H      87.42533137      50.35175847      82.77658431
C      88.43633493      49.38421860      86.51635269
H      86.76014771      48.28250816      86.99067399
H      88.98246585      50.42356807      88.20954746
C      90.32039208      47.25827650      85.77557997
O      89.51158921      45.26650497      84.87607025
O      92.50869514      47.53039709      86.34060814
C      85.47513380      54.79072558      82.76335623
O      86.77904496      56.61998065      82.48367673
N      83.60241504      54.00270971      81.12307379
H      82.81061970      52.30951493      81.50101905
C      82.91455465      55.41055581      78.88752756
H      84.47546858      55.98314289      77.67054381
C      80.99837217      53.78350146      77.33417253
H      79.32029521      53.90444394      78.52092066
H      81.50292909      51.78984020      77.22267868
C      80.47491798      55.11575851      74.76792420
H      82.04150110      54.48081047      73.59251443
H      80.43901318      57.17367046      74.70367350
S      77.20569147      54.27860975      73.65865485
C      76.92979142      55.61275653      70.37242079
H      77.51938602      57.55917463      70.04171869
H      74.92479180      55.44646061      69.93022484
H      78.16378270      54.67356255      69.01748703
C      81.87331546      58.06562128      79.43743792
O      82.86542177      59.93078115      78.52658983
N      79.97603023      58.37742613      81.18921421
H      79.31651576      56.81840192      82.06793694
C      79.09352804      60.80005526      82.12084928
H      78.78928211      61.94333968      80.43521341
C      76.60853794      60.57328810      83.69688103
H      75.93201593      62.38931509      84.39419004
H      76.77294413      59.45268040      85.41842170
C      74.46936776      59.46212903      81.89030267
H      75.39155421      58.19034322      80.55804562
C      72.39066881      58.03916512      83.35673029
H      73.01427849      56.29305800      84.25624002
H      70.72204049      57.72358082      82.19076916
H      71.81997147      59.23536187      84.93465176
C      73.28450936      61.79216157      80.43143396
H      74.63566367      62.71623774      79.17854541
H      72.51917020      63.34929605      81.54259303
H      71.73115433      61.13642654      79.25035501
C      81.14199138      62.33640275      83.45688578
O      81.09474822      64.68911201      83.17153711
N      83.02415877      61.21957450      84.72111269
H      83.01093069      59.31095092      84.77780448
C      84.82695768      62.55750073      86.22722456
H      83.94823494      64.22234961      87.06059386
C      86.34062846      60.78115800      88.18498102
H      88.06972803      61.76381568      88.72922220
H      86.96612787      59.12008857      87.14374182
C      84.71168438      60.13865105      90.50178548
H      82.87487040      59.45457012      89.86116826
H      84.35452610      61.88286844      91.53546577
C      85.93433730      58.10530554      92.13828847
H      87.96390336      58.40199257      91.95120556
H      85.76048249      56.31951417      91.12728489
N      85.08585018      58.05428293      94.76311832
H      83.84052055      56.67289299      95.19586564
C      85.69623179      59.69456537      96.51111515
N      87.60485536      61.20634642      96.37127541
H      88.10752257      62.41388153      97.75833452
H      88.61963840      61.07217585      94.75933886
N      84.40365898      59.71724208      98.51422505
H      84.73625082      61.06083749      99.82947456
H      82.82006834      58.65521589      98.55768875
C      86.62786686      63.98991327      84.51513252
O      87.57650946      66.03459715      85.31259702
N      87.27604299      63.03749121      82.32305000
H      86.43511477      61.38398069      81.87518486
C      89.25080698      64.14676056      80.52969973
H      90.41865784      65.46389980      81.59739509
C      90.91754558      62.05861298      79.29570844
H      91.76603270      61.02493269      80.86418128
C      89.55694264      60.01014966      77.80093493
H      89.27159398      58.37553640      79.01980840
H      90.56983594      59.11063993      76.24757990
H      87.74091566      60.72446621      77.13953072
C      92.91876576      63.14898507      77.65731573
H      92.12697042      64.06928178      75.99624630
H      94.02992482      61.61074785      76.85607177
C      94.98612635      64.75714216      78.68721657
H      94.20188992      66.54104380      79.35428996
H      96.45066424      65.13319769      77.28692937
H      95.82516483      63.74235913      80.27080722
C      87.79760745      65.82105807      78.58517135
O      89.02215010      67.24024253      77.30393691
N      85.23135912      65.67743887      78.31494049
H      84.36586446      64.40754279      79.44499682
C      83.61753284      67.48023777      76.80315944
H      84.86853167      68.00180224      75.25169413
C      81.25159550      66.17443689      75.55971952
H      79.66233567      65.65665188      76.76725464
H      81.68245309      64.34140237      74.72446049
C      80.25570974      67.78448371      73.37141645
O      79.63398978      70.05215529      73.51881510
O      80.19712821      66.65253765      71.30405587
C      82.86731149      70.08806009      77.90864933
O      83.44367802      71.99101448      76.91654302
N      81.58796678      70.10317790      80.03648116
H      81.02104888      68.39108586      80.66198057
C      80.61664745      72.46533579      81.32149505
H      79.94579462      73.87507162      79.97600992
C      78.41133684      71.79637267      83.07705080
H      77.30962640      73.48956745      83.47578305
H      79.19935273      70.91198076      84.76457639
C      76.41200642      69.95766897      82.04714996
H      74.91912262      69.43232506      83.36806865
H      77.24159626      68.22290022      81.30826697
C      74.81707740      71.28047739      79.98923800
O      72.80829833      70.25057655      79.31082625
O      75.61076245      73.19665987      78.85351249
C      82.80306081      73.69365789      82.95421859
O      83.02982796      76.03313907      83.23767753
N      84.42066653      71.99668366      83.85750776
H      84.22224526      70.17309777      83.32649467
C      86.39732025      72.64108034      85.76424161
H      87.36486013      74.38151827      85.23889770
H      87.83162251      71.16709381      85.64329913
C      85.42600093      72.64674951      88.70465576
O      83.10163755      72.57493991      89.13173390
N      87.12864433      72.85461941      90.44320396
H      88.91065624      73.15508589      89.83471209
C      86.54093944      73.16453452      93.13417423
H      84.52082201      73.07004821      93.51589895
C      87.25147655      70.77403074      94.57225596
H      89.28482206      70.66631634      94.26045112
H      86.27259832      69.18477091      93.70109213
C      86.58062370      70.76836156      97.52589819
H      87.71634922      72.17620766      98.50855587
C      83.73658560      71.48267811      98.03045511
H      83.48525199      71.21811642     100.05813144
H      82.41377718      70.34506287      96.93819330
H      83.13943209      73.41208867      97.61849477
C      86.99447377      68.22290022      98.60115246
H      85.47513380      67.06071853      97.83770303
H      86.93778198      68.21723104     100.66095414
H      88.83317747      67.63708506      97.88494618
C      87.70879031      75.53236159      94.30580455
O      90.04827148      75.56637667      94.61005048
N      86.23858323      77.42775709      94.86894299
H      84.37531309      77.57515574      94.48343882
C      86.86597237      79.65574441      96.43552610
H      88.85963363      79.74834100      96.94197275
C      86.22157570      82.02357148      94.83303819
H      86.52771136      83.82259093      95.79112943
H      84.21279663      81.85160639      94.41729840
C      87.70312114      82.10671944      92.23844396
H      87.43477999      80.32659725      91.23688902
H      89.73457691      82.26356672      92.54457962
C      86.52771136      84.18730811      90.46588068
H      86.79983196      86.09593168      91.19153558
H      84.53405011      83.67897173      90.58871289
N      87.57273001      84.17219030      87.81459466
H      88.86908227      85.44019665      87.22688978
C      86.65810247      82.71143186      86.03447248
N      85.10285773      80.89162542      86.44454309
H      84.69278711      79.65385468      85.04992507
H      84.81939877      80.22266230      88.20954746
N      87.16643885      83.43141758      83.69310157
H      87.12486487      81.88373173      82.57627332
H      88.33617944      84.90918356      83.39074536
C      85.42789064      79.67842113      98.87705250
O      83.15643962      80.12250681      98.95642100
N      86.68455865      79.30425532     101.06157612
H      88.54404934      78.87339772     100.99543570
C      85.35986051      79.26268134     103.52388950
H      83.69879108      78.06459485     103.31979906
C      87.25525599      78.32537709     105.64794188
H      86.29527502      78.60505658     107.44885105
H      88.81994939      79.65574441     105.81423779
C      88.35318699      75.63062736     105.35503430
H      89.71567966      75.67220134     103.80923818
C      89.43222070      74.64230050     107.74175863
H      89.89520365      72.63541116     107.70963329
H      88.08862529      74.91631082     109.27999585
H      91.23501960      75.53614105     108.18206486
C      86.19700925      73.77491612     104.84480820
H      84.93845153      73.36673524     106.42461939
H      87.03415802      71.96455832     104.33269236
H      85.11608581      74.29837031     103.17240041
C      84.18634047      81.93664407     104.31568483
O      82.56306556      81.99522558     105.98620289
N      84.98569470      84.00022520     103.11570862
H      86.38598189      83.85660600     101.82691527
C      84.08618497      86.42663379     103.85837106
H      83.06006357      86.31513994     105.64038297
C      86.57306479      87.85526688     104.46686293
H      87.96012390      87.77022920     102.94563325
H      87.34596286      87.04646402     106.19407278
C      85.98347018      90.69552553     104.90338971
H      84.70601519      90.95630776     106.50020845
H      85.10852690      91.44196742     103.19507712
C      88.39854041      92.06935656     105.69329531
H      89.33017548      91.06780161     107.23342225
H      87.89587321      93.96097260     106.33580226
C      90.50180579      92.41895593     103.80923818
H      91.35974154      90.54812688     103.82813544
H      91.97957178      93.70208009     104.45552457
N      89.59095772      93.35814991     101.27700492
H      88.79727267      95.08158030     101.49243372
H      88.43822467      92.21864494     100.26789107
H      91.00069354      93.90617054     100.11104378
C      82.56684501      87.47543189     101.77022348
O      82.92022384      86.80457905      99.54601561
N      80.85097351      89.37271711     102.32958247
H      80.83963517      89.60704317     104.22308824
C      78.90644514      90.46119947     100.53245275
H      77.88410321      88.85115265      99.75388551
C      77.07530034      92.40194839     101.86848925
H      78.21291558      93.89294245     102.71508664
C      75.30462679      93.44696704      99.78412113
H      76.09453239      94.37671239      98.12305170
H      74.02528208      94.95496864     100.36048765
H      74.04039988      91.90306064      99.27767448
C      75.44824600      91.05835298     103.95474710
H      76.64633248      90.34025698     105.47219733
H      74.46369859      89.33870204     103.38971893
C      73.55096077      92.84792380     105.07535481
H      72.03917972      93.33925264     103.76199502
H      74.40889652      94.56190557     105.82935560
H      72.53806747      91.93329627     106.61926120
C      80.17634122      91.65928595      98.27234008
O      82.09252370      93.01610944      98.58414492
N      79.28250067      91.01677900      95.97821233
H      77.85008813      89.75444183      95.92907945
C      80.54105841      91.80479488      93.50456059
H      81.87520518      93.33358346      93.85793941
C      82.26826826      89.77522882      92.62394813
H      83.47580336      89.20831092      94.19242097
H      83.60241504      90.55190633      91.26145546
C      81.14010164      87.35448941      91.60727537
C      80.77349474      86.98599278      88.88417976
H      80.98136464      88.60170878      87.65585765
C      79.87587475      84.73721847      87.83916110
H      79.89288228      84.50856158      85.80959504
C      79.25037534      82.72843939      89.53802506
O      78.55306633      80.42864247      88.80103180
H      78.56251496      80.33982533      86.98878426
C      79.41478152      83.15173809      92.17797272
H      79.10108695      81.50389674      93.33826468
C      80.19712821      85.46287337      93.21354274
H      80.50326387      85.56680832      95.22799099
C      78.51338208      92.63627445      91.61105483
O      76.20413651      92.65517172      92.19686998
N      79.28439041      93.38082662      89.29425037
H      81.16655782      93.42995950      88.99000443
C      77.49670932      94.20096784      87.36106035
H      75.65044671      93.94207534      88.23789336
C      78.17512106      96.94674017      86.78847327
H      77.41734081      97.42295120      84.93276204
H      80.21413576      96.85981276      86.51635269
C      77.36820793      98.78355415      88.73678110
H      78.01071487      98.16372392      90.59249234
H      75.31407542      98.79678223      88.58560300
C      78.64377318     101.21185246      88.02435428
H      78.47747727     101.72396829      86.03636220
H      80.62798581     100.93217297      88.50056531
C      77.60631344     103.39826581      89.65896754
H      77.78583743     102.88992943      91.64695963
H      75.56540903     103.50031103      89.39629559
N      78.55117659     105.92482989      88.85394413
H      78.68912661     106.05900045      86.95476919
H      80.28405563     106.12136142      89.63062165
H      77.41167162     107.32889654      89.46999491
C      77.37198738      92.55123677      85.04614561
O      79.22013971      91.31913521      84.38285168
N      75.10998499      92.29612372      84.04648039
H      73.75505122      93.32791428      84.90630587
C      74.47125748      90.93174132      81.67487387
H      75.24037609      89.02122802      81.74290402
C      71.54974061      90.74276869      81.10984570
H      70.76928363      92.60414911      80.69788537
H      70.51039113      90.16073298      82.79170212
C      71.00738915      88.91162389      79.07083101
O      71.95036258      86.75733589      79.18232486
O      69.85843555      89.75255210      77.15842798
C      75.69957959      92.46619909      79.49790916
O      75.95469264      94.76599601      79.69066124
N      75.89800085      91.44574688      77.20000196
H      75.15722813      89.70719867      76.92221219
C      76.55751534      92.95563820      74.87185914
H      78.10331146      94.27277744      75.21200988
C      76.92601196      91.28134069      72.56639304
H      77.19813256      92.52478060      70.94689759
C      79.32218493      89.65428633      73.05205271
H      80.80373037      90.90150570      73.76258980
H      79.85508775      88.69052591      71.31350450
H      78.96313693      88.18029981      74.44667072
O      74.76983424      89.79601581      72.27726492
H      74.29362321      89.69963976      70.52926808
C      74.24071087      94.69040696      74.06872546
O      74.71125273      96.19273937      72.31694917
N      71.90878860      94.52411104      75.00036053
H      71.48171045      92.95752793      76.00191548
C      70.00205475      96.54233874      75.13075165
H      70.33842605      97.78955811      73.52448428
C      67.34887901      95.33480363      74.69233515
H      65.94103291      96.79556207      75.04760369
H      66.93691867      93.66050612      75.81672230
C      66.93880841      94.22553428      71.98813679
H      68.32019834      92.70808405      71.79538471
H      67.39990162      95.69574135      70.62186467
C      64.20059498      93.48665129      71.55349974
O      62.59432760      95.13071319      71.10563460
O      63.64690516      91.20764136      71.66310387
C      70.03418010      98.33946847      77.48913009
O      68.36177231      99.85313924      77.95967194
N      71.97681876      98.03522253      78.91965291
H      73.27317100      96.69162712      78.52658983
C      72.60987707      99.73030703      81.08527926
H      72.22059344     101.67105596      80.51647164
H      74.65078149      99.72652758      81.37440739
C      71.27384057      99.08591036      83.55515155
O      71.52517417     100.55044825      85.35606073
N      69.93402460      96.88626893      83.77813926
H      69.83386911      95.78455849      82.22289450
C      68.13878461      96.26454897      85.78124915
H      67.60588179      98.12592939      86.48422734
C      65.88623085      94.82268780      84.65686199
H      64.84310192      94.29734388      86.35194650
H      66.73660768      93.23720742      83.65341732
C      64.17602854      96.00943592      82.69343635
C      63.20848866      94.30490279      80.84528402
H      63.81509080      92.35659496      80.87740937
C      61.24884247      95.21008169      79.15019952
H      60.58176908      93.80790477      77.82928082
C      60.64979923      97.74231495      78.90264537
O      58.77897018      98.46041095      77.31716499
H      58.22905983     100.18762080      77.36251843
C      61.99528436      99.50353987      80.52214082
H      61.74017131     101.50287031      80.19143872
C      63.73761202      98.67395002      82.37785206
H      64.59932722     100.08179613      83.57971800
C      69.43702658      94.82268780      87.90530153
O      71.06786039      93.39972388      87.21744115
N      68.72271004      95.09102893      90.24856215
H      67.23360571      96.27588733      90.40162999
C      69.97370886      93.92128835      92.41229878
H      71.98248793      94.34080759      92.22899533
C      69.32553273      95.32157554      94.75366968
H      69.97181914      94.15561441      96.32592198
H      67.29785641      95.50676872      95.06358480
C      70.49149388      97.86325744      94.94642177
C      68.91357240      99.97975091      94.79335394
H      66.91235224      99.86636733      94.41351895
C      69.68458073     102.39671086      95.05413617
H      68.32775725     103.91983027      95.09759987
C      72.33208730     102.94662122      95.18641701
O      73.21458949     105.33712500      95.21665263
H      72.01650301     106.69205877      95.06736425
C      74.10843003     100.85469419      95.30924922
H      76.11531937     101.22886000      95.31302867
C      73.15033880      98.33190956      95.00122383
H      74.34464582      96.68028876      94.89161970
C      69.58442525      91.06402216      92.57292552
O      67.49627767      90.12482818      92.50867482
N      71.62910912      89.70152949      92.83748720
H      73.29017855      90.64072347      92.76567760
C      71.92201669      86.95197770      92.79969268
H      70.13055614      85.94853303      92.97921668
C      73.19380249      86.12616731      90.32793066
H      75.22147883      86.32647829      90.62272796
C      72.65145104      83.30102647      89.65896754
H      73.11254426      82.06136601      91.23877874
H      73.90811905      82.79835927      88.10750224
H      70.76172474      82.95331683      88.92008456
O      72.35476402      87.54535177      88.17175294
H      72.20547563      89.31602532      88.53458039
C      73.62843955      85.94853303      94.92185533
O      75.35564941      87.17307568      95.79490888
N      73.19191277      83.57503678      95.68719448
H      71.71792625      82.76056474      94.78579503
C      74.74526780      82.17474958      97.50889065
H      76.58019205      83.10827438      97.60904614
C      73.65678544      82.19742630     100.30379587
H      72.96136616      84.10416015     100.64961578
C      71.32486317      80.38328904     100.40962054
H      70.13244588      80.79146992      98.78067646
H      70.30819041      80.57415140     102.18974273
H      72.05996672      78.46143738     100.35292875
C      75.58052684      81.69664883     102.23131670
H      76.96569622      80.26045683     101.72675978
H      74.69424520      80.93886858     103.92829093
C      77.24537571      83.93597451     103.07413464
H      78.92156295      82.97032436     103.78467173
H      76.48948519      85.23421649     104.48387047
H      77.83874977      84.98666234     101.40550631
C      75.41801036      79.49133822      96.80024328
O      73.86087588      78.00223389      95.86860821
N      77.66300523      78.66930727      97.48810366
H      78.89510678      79.81826087      98.38383393
C      78.19212859      75.96699865      97.51833928
H      76.86365100      75.08071701      98.82036071
H      79.97414051      75.89518905      98.54824012
C      78.33007861      74.76513271      94.87461217
O      79.34864110      75.97644728      93.15307150
N      77.27561134      72.48234333      94.55335869
H      76.42712423      71.66976101      96.05758084
C      77.12443323      71.07638695      92.17230354
H      78.72125196      71.73212198      91.05169584
C      76.90144552      68.09628855      92.61260977
H      75.29517816      67.48023777      93.74455583
C      76.82207702      66.90576098      89.95943403
H      78.24315121      67.94888990      88.89362839
H      75.13266169      67.22890418      88.82937769
H      77.47970177      64.95367369      89.97077239
C      79.00660063      67.04182127      94.36249634
H      78.42645465      65.12374906      94.84437655
H      78.76282595      68.12274472      96.09726509
C      81.50292909      66.88119453      93.07937217
H      82.05850864      68.64619891      92.17608299
H      81.31206674      65.49413542      91.56759112
H      82.86353204      66.38986569      94.54391006
C      74.76983424      72.25368644      90.84949512
O      72.68924558      71.09528421      90.89862801
N      75.21203020      74.44576896      89.50023053
H      77.04884417      74.94276698      89.35094216
C      73.32041416      75.97266783      87.94687550
H      73.14844906      75.16575469      86.05903892
H      74.21425471      77.82648934      87.91852961
C      70.71259185      76.36384117      89.13173390
O      68.80963746      76.60761587      87.71821862
N      70.48393497      76.61895422      91.56759112
H      72.09020233      76.27124458      92.53702072
C      68.12366680      76.92508989      92.81670021
H      66.56464259      75.87818151      91.96632337
C      68.17090995      75.99345481      95.50956021
H      69.32931218      77.27468926      96.63016791
H      69.00049981      74.10750795      95.60593625
C      65.49127805      75.89896850      96.48654871
N      64.00028398      73.79003393      96.26923019
H      64.63523202      72.11573642      95.61160543
C      61.61544937      74.51190939      96.90417823
H      59.93926213      73.37240442      96.66607271
N      61.57009594      76.98556113      97.77723178
H      60.05642517      78.07404349      98.18541267
C      64.07398331      77.86239414      97.42385296
H      64.73160806      79.79369443      97.46920640
C      67.59832288      79.92030609      92.48599811
O      69.02884571      81.52468373      93.41763318
N      65.39490201      80.64974045      91.34649314
H      64.24405868      79.31559367      90.61138961
C      64.71460053      83.34071072      91.12728489
H      66.48338437      84.39328828      91.10082872
C      63.14234825      83.79046558      88.79914207
H      61.25451165      82.97221409      88.91819483
H      64.07776276      82.68875514      87.33082473
C      62.75306461      86.40962625      87.67664464
H      61.50773497      87.38661476      88.99567361
C      65.40246092      87.70408878      87.33082473
H      65.25317254      89.65806578      86.69209723
H      66.37189050      86.57214272      85.90975054
H      66.33220625      87.63227918      89.16574898
C      61.30553426      86.29246322      85.14252166
H      62.27874331      84.94130891      83.92931736
H      61.29230618      88.12171829      84.19954823
H      59.37234425      85.67830217      85.50534911
C      63.41824828      84.30069169      93.55936265
O      61.94993093      82.92875038      94.70453680
N      63.98894562      86.50033312      94.50989499
H      65.12656086      87.44519627      93.30235988
C      63.09510509      87.84959770      96.82669945
H      62.18425699      86.49277421      98.08336745
C      65.26640061      88.87760882      98.38383393
H      64.25350732      89.91128911      99.85026155
H      66.20559460      90.29868300      97.22543170
C      67.24683380      87.14661951      99.59892795
H      68.57531139      86.28112486      98.28556816
C      68.73215867      88.54501699     101.48298508
H      67.73060372      89.67885277     102.88138256
H      69.91512735      89.95286309     100.55701919
H      69.90945816      87.23732638     102.54879072
C      66.06575485      84.97154453     101.18062887
H      65.46860133      83.53535253      99.82758483
H      64.45948748      85.52523434     102.34659001
H      67.60210233      83.95865122     102.11037422
C      61.12223081      89.87538431      96.22198703
O      58.86400786      89.69019113      97.04779743
N      61.72505350      91.56290991      94.54391006
H      63.39179211      91.52322566      93.61794417
C      60.08855051      93.73042599      93.95998463
H      58.25551599      93.13138275      93.23621945
C      59.56320660      95.57479887      96.14828770