 %block lattice_cart
   135.996   0.000   0.000
   0.000 142.663   0.000
   0.000   0.000   160.158
 %endblock lattice_cart

 %block positions_abs
N      88.69144800      39.26662392      79.68971638
H      87.61430400      38.18003129      78.54832168
H      88.58940277      38.64868342      81.49251528
H      90.55660786      39.05308485      79.33822728
C      87.75036428      42.05774969      79.55365609
H      89.00325284      43.45992661      80.39647403
C      87.91666020      42.82875802      76.79654540
H      86.73558125      41.67791470      75.55877466
H      89.79315844      42.75127925      75.95372746
C      87.25336627      45.61043516      76.66426455
H      85.28994063      45.72003928      77.28220505
H      87.52548685      46.35687705      74.76508961
S      88.84262610      47.78551014      78.56532922
C      87.19856420      50.23648517      77.19149820
H      87.34974231      50.18357283      75.13736569
H      87.76548210      52.03739435      78.01163941
H      85.19923377      50.05318172      77.66015032
C      85.07829129      42.19192026      80.75930148
O      83.66855545      40.31731175      80.53820350
N      84.36586447      44.19125070      82.22572909
H      85.66221671      45.57453036      82.45627570
C      81.97725041      44.48982745      83.51263271
H      80.59586047      43.04985600      83.00240661
C      82.11520043      44.06463903      86.32454546
H      83.19990333      45.53673583      87.27318808
H      83.10919646      42.27695794      86.55698180
C      79.52627538      43.86999722      87.54152921
O      78.31496080      45.79940779      88.08954984
N      78.55684577      41.68547360      88.01018133
H      76.99026266      41.70437087      89.10244314
H      79.38076645      40.08298569      87.37901275
C      81.02671807      47.22426143      82.99862716
O      82.61786763      48.97792745      82.57532847
N      78.54550742      47.57952997      82.70005040
H      77.28317025      46.24160375      83.20649705
C      77.26805243      50.05507144      82.59611545
H      77.92756691      50.89599965      80.83678026
C      74.35031500      49.90200361      82.63013052
H      73.83819917      48.56974656      81.14669536
C      73.39978267      48.70580686      85.22661447
H      71.34753990      48.64722534      85.03953158
H      73.96103139      50.04562281      86.68737291
H      74.16701155      46.88789014      85.81809881
C      73.05396276      52.50415675      81.98762357
H      73.60009365      54.04806314      83.23484294
H      71.04329395      52.20369026      82.32021542
C      73.45080527      53.10697944      79.13602657
H      72.75160655      55.03639001      78.98106902
H      72.43791197      51.77472239      77.93605036
H      75.49359943      53.03139039      78.88847243
C      78.16567242      51.87109843      84.57843836
O      78.59653002      54.10853439      84.01907937
N      78.71936224      50.97914761      86.94626543
H      78.48503618      49.14422336      87.41680727
C      79.66989458      52.72714445      88.94181642
H      78.43968274      54.35230908      89.24228289
C      79.88154392      51.28339355      91.43436542
H      81.40655305      52.06385052      92.57764983
H      80.65822144      49.38799806      91.23405443
C      77.51560657      51.15489216      92.92346975
C      77.27372160      52.81596159      94.96626389
H      78.91778350      53.81751653      95.64656536
C      75.01360894      53.05973628      96.37599972
H      74.86621028      54.52427418      97.79140473
C      72.90278464      51.50260180      95.80530237
H      71.12833163      51.74448677      96.78040115
C      73.22403812      49.57697069      94.01573157
H      71.69335981      48.31274378      93.53952054
C      75.52383504      49.36721107      92.59087793
H      75.72981522      47.93479852      91.15090647
C      82.29850387      53.58696992      88.21805123
O      82.93723137      55.80739834      88.62056294
N      83.88587398      52.00526900      86.93870652
H      83.43044994      50.16089612      86.75918251
C      86.29716476      53.01816230      85.82754744
H      87.17399776      54.23703578      87.23539356
C      88.28704656      50.99615515      85.15669461
H      90.06149956      52.03739435      85.03197267
H      87.85429924      50.16278584      83.32366009
C      88.39665068      48.98737608      87.12012025
H      86.47857848      48.47337052      87.67003060
H      89.27159398      49.92279060      88.73205680
C      90.14653725      46.81419082      86.25273587
O      89.28293232      44.96036931      84.97906033
O      92.49357733      46.95969974      86.79697705
C      86.08551540      54.72269544      83.44271284
O      87.76548210      56.24959430      83.09311347
N      83.86319726      54.33152209      82.22761883
H      82.79928134      52.81218214      82.67737368
C      83.28683073      55.79228053      79.93916025
H      84.97435634      55.81306752      78.75808131
C      81.14577082      54.55073034      78.38958468
H      79.40722261      54.48270020      79.49129511
H      81.69757090      52.56651771      78.40848195
C      80.77349474      55.49370377      75.64381234
H      82.18889975      54.57151733      74.46462313
H      80.81506871      57.54972600      75.73262948
S      77.74426346      54.23892550      74.57989643
C      78.60408893      53.45657881      71.35602335
H      77.40222299      52.09219641      70.39037319
H      80.53538922      52.85564584      70.97429862
H      78.48314644      55.28205443      70.40927046
C      82.67644914      58.47758162      80.58733638
O      83.94823494      60.10463598      79.70861364
N      81.00215163      58.88954196      82.41470172
H      80.01004532      57.30028213      82.78697780
C      80.20090766      61.34429644      83.36712378
H      80.03839121      62.70111993      81.82321738
C      77.63087989      61.09107311      84.59166644
H      77.04317500      62.83340077      85.52141178
H      77.61765180      59.45268040      85.83888580
C      75.40100284      60.46368398      82.71138876
H      75.82808098      58.85174743      81.50385364
C      72.89900520      59.64165303      84.13624240
H      71.28328920      59.79283114      82.87012577
H      72.64956133      60.91721829      85.73495085
H      73.09364701      57.70090411      84.79575689
C      74.60542806      62.84284940      81.19204881
H      76.12098855      63.43811319      79.92971163
H      74.46558831      64.43021951      82.49407024
H      72.95569699      62.82584187      79.95616779
C      82.26448881      62.74647336      84.72583700
O      82.63487516      64.99335795      84.49529040
N      83.61753284      61.53137934      86.53808455
H      83.43611911      59.63598385      86.66469621
C      85.65654754      62.62364115      87.92514365
H      84.80806041      64.12975302      89.04575135
C      87.13998269      60.68667168      89.60322063
H      89.12419532      61.22146423      89.73172200
H      87.37997793      59.12008857      88.28797110
C      85.80016674      59.90999417      92.07120319
H      83.82540274      59.39220916      91.80286205
H      85.71701878      61.56539442      93.29196638
C      87.23635874      57.62909451      93.15968555
H      88.90120762      58.41333093      94.08943089
H      87.75414374      56.31951417      91.65735312
N      85.88142497      56.06818057      95.13633927
H      85.93811676      54.16144672      95.10988309
C      84.67577958      56.84296836      97.12244161
N      84.54916791      59.31284065      97.79140473
H      83.25470538      59.87975855      99.07263918
H      85.83985098      60.44667644      96.95992516
N      83.51359790      55.22347291      98.51894936
H      82.16622304      55.77338327      99.75672010
H      83.70446026      53.39610757      98.00683353
C      87.69934167      63.93889067      86.17525708
O      88.55349797      66.03270742      86.83288185
N      88.19444997      62.95812271      83.91892387
H      87.60674509      61.22524368      83.38224160
C      89.84796049      64.44911677      82.12557359
H      91.14620247      65.56972447      83.26696829
C      91.62241350      62.42521989      80.76308092
H      92.36318622      61.15532381      82.20683184
C      90.58684349      60.53738330      78.80532447
H      91.68477448      58.79883510      78.90359023
H      90.58117430      61.58996086      77.03465091
H      88.61396921      60.13676132      79.24941015
C      93.91087207      63.69700570      79.77286434
H      94.83116878      64.91209972      81.15803372
H      93.42143296      64.81383395      78.11557436
C      96.14452858      61.91121433      79.06799642
H      97.88307678      62.94489463      78.68627172
H      95.58516958      61.35374507      77.16693176
H      96.22389707      60.36352848      80.42293019
C      88.37397398      66.43899858      80.51741650
O      89.36419055      68.46478519      79.85979176
N      85.97213182      66.02136906      79.78231297
H      84.94223099      64.57950789      80.48907062
C      84.69845629      67.85629331      78.21384013
H      85.91544003      68.64808864      76.75497141
C      82.30228332      66.84528974      76.96095159
H      81.31584620      68.46667491      76.16159735
H      81.20246262      65.97790536      78.46895319
C      82.51582240      64.94989424      74.67816221
O      84.27515759      65.35051622      73.07378457
O      81.02671807      63.05638848      74.52320464
C      84.03516236      70.38096767      79.60845815
O      84.49058640      72.27447343      78.37824632
N      83.54383351      70.13908270      82.04809482
H      83.06006358      68.41754203      82.71138876
C      82.90510603      72.27258371      83.71861288
H      82.06228809      73.69365789      82.49029078
C      80.93979065      71.52047263      85.76518648
H      80.38610085      73.24768248      86.74028526
H      81.82607229      70.32427588      87.19004011
C      78.53416906      70.08994982      84.72205755
H      77.23781680      69.74979908      86.28486122
H      78.96502666      68.23234885      83.94349031
C      77.01860856      71.49968564      82.66792506
O      77.09041816      73.89396888      82.80020590
O      75.44068709      70.26569436      81.30543238
C      85.46946463      73.17020371      84.86378702
O      86.07417704      75.41708829      85.10000282
N      87.12675461      71.43921440      85.68770770
H      86.68644837      69.62696687      85.27952681
C      88.79349322      71.78881377      87.83065734
H      89.94244682      73.47067019      87.53397030
H      89.99157970      70.21278203      88.39190605
C      87.26659435      72.44076935      90.25328648
O      84.99703306      71.86818228      90.44036937
N      88.52515207      73.65397364      92.07876210
H      90.39598112      73.93176341      91.82742849
C      87.70123141      74.33427511      94.62989261
H      85.69812151      74.05648535      95.01161733
C      89.11852613      72.64108034      96.46103741
H      91.11974631      72.80737625      96.00372365
H      88.77081649      70.66820607      95.98671610
C      88.50814454      73.17776261      99.25594262
H      88.66688154      75.20354922      99.60176254
C      86.03260306      71.98912476      99.88900094
H      84.41310762      73.07193794      99.21625837
H      85.80394619      71.98912476     101.93557454
H      85.76048249      70.01625049      99.36932620
C      90.84384626      72.24234809     100.65811955
H      91.39186689      70.34317314     100.07608384
H      90.38842222      72.31037823     102.66500889
H      92.40664993      73.49712636     100.18757769
C      88.35885616      77.09138580      95.00783788
O      90.60952019      77.72066467      94.75272483
N      86.65432302      78.66930728      95.89222979
H      84.80239123      78.21388323      95.81286128
C      87.19100529      81.19020218      97.02984503
H      89.19411519      81.39618235      97.45881291
C      86.56928534      83.34449017      95.36499614
H      86.71857372      85.08870756      96.45347850
H      84.57373435      83.30858537      94.86232895
C      88.32673081      83.49377855      93.04441224
H      88.07917667      81.67208239      92.11277717
H      90.32606126      83.73377380      93.48471846
C      87.25336627      85.44208638      91.28507704
H      88.91821515      86.53434819      90.75028449
H      85.80772563      86.45120023      92.34899295
N      86.34629764      84.43108280      88.98905956
H      85.90032222      82.59048938      88.74906433
C      85.77560030      85.89184124      87.00295722
N      86.15165583      88.29935257      86.66091675
H      85.91355032      89.18374448      84.98661924
H      87.11541625      89.35570958      87.92136421
N      84.45657132      84.90351438      85.22094530
H      83.33785335      86.25466870      84.47072396
H      83.53627461      83.26323194      85.55353713
C      85.82095373      81.31681384      99.57341665
O      83.50036981      81.16563574      99.45247417
N      87.04549637      81.74767144     101.70124847
H      88.95411995      81.83270912     101.72203547
C      85.63198110      81.58893443     104.23159201
H      84.10319251      80.22833148     103.98214813
C      87.50658960      80.58737948     106.15533339
H      87.00959158      80.95020694     108.12064876
H      89.36608029      81.46421249     106.04194982
C      88.22090615      77.81515098     105.86431555
H      89.27159398      77.79058454     104.09364199
C      89.78559953      76.95532551     108.10931041
H      91.46934567      78.13073528     108.27749604
H      90.49991608      75.04292248     107.82207200
H      88.52893152      77.27279953     109.70990860
C      86.01559553      76.04825688     105.66022510
H      85.04994539      76.25234732     103.85175703
H      84.64743369      76.34683364     107.17011643
H      86.52960108      74.05837507     105.80573402
C      84.55672681      84.16652112     104.84197360
O      82.54605803      84.37628074     106.02116283
N      85.66032699      86.10915977     103.72892481
H      86.96612787      85.47988091     102.48737463
C      84.74191999      88.75477661     103.45113505
H      83.78193903      89.33114313     105.18023461
C      87.16454914      90.36293370     103.01838771
H      88.13586846      89.59759454     101.37054638
H      88.17933217      90.10404120     104.79095100
C      86.26503941      93.14272111     102.80862809
H      85.17277760      93.59814515     104.49426396
H      85.10852690      93.33358347     101.11732305
C      88.36074589      95.22897896     102.40611639
H      89.50592004      94.54678776     100.83386409
H      89.71567966      95.17417689     103.95758169
C      87.55383276      97.88782388     102.09242183
H      89.16576929      99.09724872     102.51949996
H      86.20078872      98.30923285     103.58530562
N      86.52204219      98.44529314      99.44302554
H      84.80617069      97.79900674      98.91768161
H      87.69178278      97.83302182      98.06352533
H      86.53904973     100.34068863      99.21625837
C      82.63298543      88.89461636     101.33464158
O      83.12242455      87.88739223      99.29562688
N      80.54483785      90.01522406     101.88266221
H      80.35964467      90.68607690     103.65900494
C      78.45291083      90.40450768      99.99104617
H      77.85386758      88.55635535      99.30318579
C      76.42145504      91.69708048     101.59164435
H      76.34964544      90.65395155     103.36609735
C      77.01860856      94.60158982     102.17179032
H      75.90744949      95.26866321     103.77427825
H      76.59153041      95.56912969     100.40300649
H      79.06140271      94.57324393     102.41934448
C      73.77583821      91.44385715     100.14222427
H      73.47348200      89.48043151      99.59798309
H      73.94402385      92.36982305      98.30918974
C      71.46092348      92.40383812     101.68424093
H      69.66001429      92.23943193     100.69780381
H      71.59887349      94.28978498     102.49682326
H      71.20014123      90.98654338     103.15822747
C      79.26360342      92.09770246      97.68180061
O      81.10986603      93.54145336      97.92179585
N      78.19968751      91.61204279      95.35743724
H      76.52538999      90.70119471      95.44247492
C      79.02549791      92.62304637      92.82709371
H      80.05917820      94.40316856      92.84599098
C      80.88876805      90.90150570      91.40979898
H      82.70668475      90.98087421      92.37733884
H      81.03049752      91.67440376      89.50684458
C      80.10453162      88.25588886      91.07909688
C      78.90077597      87.44708600      88.79252804
H      78.51905125      88.88894718      87.39791002
C      78.30740191      84.92808082      88.40891360
H      77.64410796      84.12116769      86.65524758
C      78.64944236      83.18764289      90.37422896
O      77.88032376      80.72910896      89.94715081
H      77.60820316      80.26990546      88.21238206
C      79.77760897      83.98321767      92.63056217
H      80.16311315      82.65474007      94.12911514
C      80.50893305      86.45686941      93.03307387
H      81.24781605      87.01244895      94.85288031
C      76.76727496      92.90272587      91.22460580
O      74.74904725      92.40761757      92.07120319
N      77.03561609      93.93640616      88.88512463
H      78.57763277      95.04945496      88.73205680
C      75.03817538      94.17262195      86.90091200
H      73.39978267      93.27311222      87.76262719
C      74.74526780      96.99587306      85.97305637
H      73.56607859      97.13760253      84.28931023
H      76.51216190      97.85947798      85.36078505
C      73.49804844      98.48875685      87.99695325
H      74.52416983      98.43017533      89.78274462
H      71.66501392      97.71207933      88.52796635
C      73.15789770     101.35736139      87.31098260
H      72.35854346     102.22474577      88.99661847
H      71.72737488     101.37058947      85.82565772
C      75.55973984     102.72174379      86.30186875
H      76.27594612     101.43484017      84.86378702
H      77.02238801     102.86347326      87.74561966
N      75.14777950     105.11602703      85.24362201
H      74.01583344     104.68516943      83.76774577
H      76.85798182     105.91538126      84.95827335
H      74.24071087     106.31789296      86.41525233
C      75.47659189      92.32824907      84.68993220
O      77.59686480      92.17329151      83.93782114
N      73.29395799      91.32669412      83.72995123
H      71.69524953      91.86715585      84.62568151
C      73.13522098      89.94152473      81.27897622
H      74.66589930      88.56580398      81.23362278
C      70.74471719      88.22187379      81.33944745
H      69.06664023      89.32358423      80.87835423
H      70.44425072      87.41496065      83.20838678
C      70.91101312      86.13561594      79.30043277
O      69.43513687      86.28112487      77.52597976
O      72.57775173      84.48588487      79.45916977
C      73.65300600      91.55724073      78.93004641
O      73.28261964      93.87593492      79.05854780
N      74.13488621      90.40072823      76.67938237
H      74.28228486      88.50533274      76.52631454
C      73.99126700      91.86337639      74.23218679
H      75.10809525      93.59247597      74.31722447
C      75.02872675      90.41962549      71.96073577
H      73.97803892      88.75855606      71.35035416
C      75.46336381      91.85014831      69.50031211
H      76.65011193      93.52822528      69.64015184
H      73.61332175      92.38494086      68.77276747
H      76.29484337      90.49521454      68.18884205
O      77.37387710      89.43318836      72.69772903
H      76.91467360      87.73243467      73.13047635
C      71.29273782      92.70997378      73.49141407
O      71.16801589      94.56568502      72.08923716
N      69.31797384      91.66117568      74.62147042
H      69.70536773      89.90561993      75.26019791
C      66.79518920      92.72887105      74.87091428
H      66.27740420      93.47909239      73.02276195
C      64.97538277      90.61048785      75.50964178
H      64.86199919      90.46119947      77.55999482
H      65.59710272      88.77934305      74.80099441
C      62.23527962      90.81079884      74.38336489
H      61.43214593      92.67784843      74.71406701
H      61.05231094      89.44452671      75.37358148
C      62.17102892      90.56135496      71.50531173
O      63.38234348      92.12604835      70.28832797
O      61.09955410      88.58470124      70.63792735
C      66.47015627      95.13827209      76.58489606
O      64.45948749      96.12848868      76.89670090
N      68.39956685      95.72786670      78.09100792
H      70.02473148      94.95307892      77.45417015
C      68.35232368      97.46452519      80.29064934
H      66.86510907      98.85536375      79.97506505
H      70.14189451      98.47741849      80.14136097
C      67.76650853      96.36470447      82.87012577
O      67.94603252      97.62704165      84.84677949
N      67.13345022      94.02333357      83.02130388
H      67.26195161      92.87815942      81.49818447
C      65.49316778      93.22586907      85.17181242
H      64.33287581      94.80568026      85.80865019
C      64.01540180      90.89016734      84.46127533
H      63.57698530      89.89239185      86.20927216
H      65.24183418      89.75633155      83.25374020
C      61.60978020      91.06969134      82.89091275
C      60.11689641      88.89272663      82.65847643
H      60.68192459      87.17874486      83.61089849
C      58.16102968      88.70564372      80.80276518
H      57.25396105      86.88583729      80.61379254
C      57.64891385      90.80323993      79.33822728
O      55.68359849      90.94307968      77.67148868
H      55.41714708      92.62493610      77.04787899
C      58.99439899      93.11437521      79.82199722
H      58.36889958      94.80945972      78.87146488
C      60.98239107      93.22397934      81.56432488
H      62.02363027      94.94552001      81.89691672
C      67.16557557      92.63627446      87.47160934
O      69.17435464      91.44763660      87.13334832
N      66.47015627      93.38082662      89.76006790
H      64.63523202      93.82113285      90.03974740
C      67.82697978      92.60603883      92.10521826
H      69.78095677      93.13705193      91.72916273
C      66.78763029      93.92695753      94.38044873
H      67.56241809      93.16917728      96.13411476
H      64.73538752      93.91183972      94.54674465
C      67.46793178      96.74831891      94.17446857
C      65.56308764      98.49631575      94.19525556
H      63.62989763      97.88782388      93.97415759
C      65.96370963     101.02854901      94.55808301
H      64.55019434     102.47607937      94.83020361
C      68.45058945     101.96018408      94.59209809
O      68.92113130     104.43761528      95.31019409
H      67.43391669     105.39192707      95.72215442
C      70.46881716     100.26698931      94.51461930
H      72.33775647     101.01910038      94.85477005
C      70.03229038      97.66861563      94.13478431
H      71.56107897      96.34769693      94.41635353
C      67.91957636      89.77522882      92.40757447
O      65.99016579      88.46753821      92.39434639
N      70.22315274      88.69808482      92.45292790
H      71.82375093      89.73365484      92.50017106
C      70.88266721      85.96365084      92.76851219
H      69.24049505      85.00744933      93.56219724
C      71.59887349      84.93563973      90.16635906
H      73.25994292      86.11293922      89.85455422
C      71.82186119      82.06514546      89.73928091
H      72.39066881      81.46232277      87.85711351
H      69.98693694      81.23177616      90.16635906
H      73.28261964      81.23555561      90.92980850
O      69.73371363      85.52712407      88.39946495
H      69.73938280      87.33748187      88.29175055
C      73.03506548      85.66129463      94.74894538
O      74.25393897      87.55480040      95.21570777
N      73.34498060      83.42952786      95.80152293
H      72.16957084      82.01979203      95.27806874
C      75.30462679      82.75867502      97.68558007
H      76.88821745      84.06258617      97.50794579
C      74.20102662      83.32937236     100.24237977
H      73.29584773      85.17185552     100.06474549
C      72.28673387      81.29791658     101.22692717
H      70.72204049      81.03713435      99.91356738
H      71.28895837      81.77601733     102.96547538
H      73.10876482      79.41763890     101.37243610
C      76.47247766      83.63739775     102.23793074
H      78.12409845      84.45942870     101.31763403
H      77.08852844      81.71176664     102.62343491
C      75.91122893      85.25500348     104.54717630
H      77.60442371      86.40017762     104.79850991
H      75.30462679      84.21187455     106.21391492
H      74.57330271      86.75733590     104.10120090
C      76.06996595      80.00912323      97.48715879
O      74.59408970      78.55592370      96.66890731
N      78.41889575      79.24567380      98.24304932
H      79.72847609      80.56659249      98.66634802
C      79.28250067      76.65107957      98.54918499
H      77.85575732      75.71566505      99.70758721
H      81.04372560      76.80225768      99.60365226
C      79.81351377      75.29047663      96.14167366
O      81.15332972      76.24856787      94.43525081
N      78.88565816      72.95666463      95.98860583
H      77.73670455      72.32927550      97.37566495
C      78.78172320      71.46945002      93.66802191
H      80.38043167      71.82282884      92.41513338
C      79.10108695      68.67076535      94.24816789
H      77.40033328      67.97912552      95.18169270
C      79.49037058      67.09662334      91.84065657
H      78.91211433      65.16532304      92.26206555
H      81.42734004      67.01725483      91.13767838
H      78.21858477      67.81660906      90.38745704
C      81.28183111      68.16809815      96.06797434
H      80.66011116      68.50257971      98.00305409
H      82.78416354      69.53626001      95.72971333
C      82.49314569      65.54515803      96.38733809
H      80.89443722      64.27715168      96.66890731
H      83.80839520      65.48279706      97.97092874
H      83.31706636      64.84973875      94.63367206
C      76.49704410      72.08361108      92.09954907
O      74.74148834      70.53592523      91.77640589
N      76.42712423      74.45899705      91.21893661
H      77.84441896      75.69109861      91.57987435
C      74.38433008      75.33394033      89.43314525
H      74.09331223      74.00168328      87.88923886
H      75.24415555      77.04603237      88.68292390
C      71.81430230      75.84227671      90.46871527
O      69.95481159      75.92353494      89.07598698
N      71.64233720      76.22400143      92.99716907
H      73.18246415      76.63218231      94.04407746
C      69.22537725      76.18809663      94.36722066
H      68.04996748      74.71033065      93.53952054
C      69.55229990      75.60795065      97.09976491
H      70.22504247      77.42775709      97.79329447
H      71.02628642      74.17931756      97.26984028
C      67.32053312      74.77836080      98.56997197
N      66.13000555      72.45588716      98.43391168
H      66.57598096      71.12551983      97.14133889
C      63.98138673      72.55226320      99.82286053
H      62.56787145      71.08205613      99.89467013
N      63.76217847      74.83127313     100.98126275
H      62.36945018      75.50023625     102.10376018
C      65.87867195      76.08983086     100.26316675
H      66.29630145      78.03246951     100.73370861
C      67.84776676      78.77702168      93.99494458
O      68.56208331      80.78013157      95.07775774
N      65.70670684      78.64285111      92.79874782
H      65.37600475      76.87973646      92.14868197
C      64.04563742      80.81036719      92.28096281
H      64.92247043      82.35238386      91.23216471
C      61.99906383      79.89196020      90.57453994
H      61.36789523      78.07026404      91.30208458
H      62.86077901      79.61606016      88.72638761
C      59.62745729      81.53224264      90.28919128
H      58.82810307      81.94420298      92.14112306
C      60.43248071      83.96998958      88.77741023
H      58.72605784      85.12083291      88.81709448
H      60.94459654      83.44275594      86.85177910
H      61.95182066      84.98288289      89.72794255
C      57.59600152      80.24722875      88.64701910
H      56.02185950      81.47933030      88.15191082
H      56.52263697      78.92253060      89.80164189
H      58.26685435      79.64440605      86.79508731
C      62.89101464      81.94987216      94.69792276
O      61.91213641      80.57604113      96.30041067
N      62.89668382      84.42163417      94.77540153
H      63.51084488      85.44586583      93.28440747
C      61.71560488      85.92396659      96.85787993
H      60.58554854      84.60682735      97.96903900
C      63.69414833      87.26378255      98.46414731
H      62.85133039      88.42785396      99.94002356
H      64.61822449      88.64139303      97.24338410
C      65.84843632      85.46098365      99.69057968
H      66.71393098      84.52745885      98.07108422
C      67.65690441      87.07292019     101.11354360
H      66.52873780      88.15384364     102.45524927
H      68.65656963      88.13116693      99.65845433
H      69.12900120      85.90884878     101.96203070
C      64.77696151      83.48810937     101.52550393
H      63.72627368      82.20876466     100.30096127
H      63.36155650      84.27990470     102.79540002
H      66.29630145      82.54135649     102.54028695
C      59.40635932      87.67007371      96.06419489
O      57.25585077      86.92363181      96.64812031
N      59.87501144      89.52200549      94.38422819
H      61.57387541      89.45586507      93.51495408
C      57.95504951      91.24543589      93.38834242
H      56.22783967      90.22498368      92.91969030
C      56.93459731      93.00099163      95.35743724