 %block lattice_cart
   135.996   0.000   0.000
   0.000 142.663   0.000
   0.000   0.000   160.158
 %endblock lattice_cart

 %block positions_abs
N      89.03537818      41.65807257      82.29470410
H      88.39854041      41.37650335      84.07293657
H      90.93833257      41.80169177      82.34383699
H      88.56483633      40.37683813      80.96055733
C      87.94122665      44.03912773      81.34039232
H      88.59696168      45.54146015      82.58950141
C      89.18466657      44.64006070      78.76091590
H      88.33806918      43.33803927      77.40598213
H      91.19155591      44.21865173      78.95366798
C      88.81428021      47.32536179      77.90864933
H      86.83573675      47.56535703      77.38519514
H      90.03504340      47.59559265      76.27025662
S      89.17899739      49.86137450      80.47678739
C      88.97679666      52.49187353      78.37352201
H      89.51347893      54.19073748      79.40720230
H      87.06250391      52.75454548      77.66298491
H      90.27692837      52.26888582      76.79182108
C      85.12742416      43.74810988      81.20622175
O      84.18445073      42.10215826      79.90042087
N      83.75170341      45.42240739      82.47044865
H      84.67766930      46.91151172      83.22633918
C      80.94923928      45.54712933      82.96555695
H      80.02705285      44.51911821      81.43676836
C      80.19901794      44.38872710      85.50345938
H      80.83585571      42.45364735      85.19921345
H      78.19212859      44.16951884      85.91352999
C      81.39143524      45.74555059      87.81459466
O      82.06984699      48.00566326      87.90341180
N      81.53127499      44.24132844      89.82715319
H      82.29283469      44.95942444      91.42586165
H      81.28561057      42.41018365      89.35283188
C      79.87398502      48.23243042      82.70855417
O      81.23269824      49.97475808      82.16431299
N      77.43056889      48.64628048      82.86351172
H      76.39688861      47.05135147      83.02413846
C      76.18334952      51.07268907      82.95043914
H      76.28728447      51.81913096      81.03425665
C      73.29584773      50.76088422      83.37940701
H      72.44169143      49.62704844      81.88652322
C      73.01805796      49.68751968      85.99667795
H      74.17834990      48.01889134      86.31982115
H      71.04329395      49.11115315      86.11006153
H      73.44891555      51.08780688      87.44798776
C      71.93713451      53.34225037      83.26602343
H      72.65145105      54.51388068      84.80237092
H      69.94158351      53.09091677      83.70632966
C      72.10343041      54.66127933      80.71111345
H      72.02784137      53.33091201      79.14075089
H      73.90056015      55.61181167      80.38041135
H      70.48960415      55.94251377      80.75079771
C      77.43812779      52.87359824      84.89496751
O      77.46647369      55.17339516      84.42442566
N      78.43779301      52.07802346      86.96232810
H      78.56440468      50.18451770      87.17208772
C      79.24848560      53.81846140      89.05803458
H      77.99937651      55.45118493      89.15063117
C      79.20880135      52.19518650      91.48066371
H      80.03650149      53.45185449      92.88850982
H      80.60152964      50.67773627      91.57137058
C      76.78428249      51.07646852      92.47277003
C      75.16289731      52.57313176      93.96943327
H      75.47470216      54.55356493      94.35682716
C      72.72704011      51.54701037      94.49855663
H      71.37588578      52.73375849      95.46231705
C      71.97303931      49.22453673      93.45731744
H      70.03984929      48.59336814      93.61983390
C      73.67946216      47.82991871      92.05514051
H      73.11065455      45.96664857      91.44664864
C      76.12665773      48.66328802      91.71876923
H      77.40978191      47.44441454      90.70398620
C      81.90355107      54.78978072      88.69709685
O      82.48936623      57.11603381      88.90874620
N      83.63076092      53.11359348      87.99600839
H      83.06951222      51.35425829      87.51979736
C      86.11008185      53.80712304      87.01146098
H      87.00203267      54.89560540      88.51568313
C      87.83351224      51.33725075      86.65241298
H      89.48702277      51.83991795      85.53180528
H      86.64865384      49.83869778      85.88140465
C      88.81994939      50.26010675      89.16763871
H      87.16643885      49.49287787      90.12572995
H      89.46245632      51.87204330      90.28068750
C      90.68510926      48.13794410      88.71410439
O      92.89419931      48.40628524      89.35850106
O      89.98402079      46.00822255      87.84672001
C      85.90788113      55.47386165      84.57938322
O      87.32895532      57.30500645      84.19576878
N      84.08429524      54.96363554      82.94665968
H      82.94668000      53.50287710      83.41531181
C      83.51170817      56.32234876      80.52592028
H      85.26915365      56.33746657      79.45255573
C      81.25537495      55.17339516      78.97256525
H      79.63021032      55.33591163      80.22545379
H      81.66733528      53.24776405      78.36596310
C      80.56562485      56.37148165      76.51970049
H      81.99425795      55.69684935      75.19500235
H      80.55050703      58.42750388      76.42143472
S      77.39088464      55.35291916      75.65609557
C      77.73670456      55.48331028      72.25269848
H      79.33919247      54.27388544      71.78971553
H      78.02772240      57.36169824      71.46279288
H      76.21169543      54.52710877      71.24736408
C      82.85030396      59.04922383      81.21756011
O      83.62698147      60.90682480      79.96845101
N      81.60686404      59.51409651      83.38318646
H      80.70357486      58.02877162      84.16931261
C      80.90388585      62.11435991      84.21088659
H      80.83585571      63.55811082      82.74445897
C      78.29984299      62.04255031      85.29369976
H      78.12598818      63.83779031      86.28769580
H      78.22992312      60.67438846      86.83193698
C      75.99248717      61.78932699      83.48712141
H      76.25704885      59.99408699      82.51580208
C      73.41112102      61.35657966      84.94599012
H      73.35064979      59.59346501      86.00990604
H      71.66879336      61.32823377      83.84616941
H      72.85932094      63.01386964      86.03447248
C      75.72036658      64.17983077      81.71833758
H      74.26905677      64.02865267      80.26324832
H      77.53072438      64.35557532      80.75268743
H      75.37076722      65.92215843      82.76146650
C      83.05817385      63.37480736      85.87195602
O      83.68934244      65.63680976      85.40330389
N      84.67577957      61.86113659      87.10972675
H      84.14665621      60.02810206      87.06059387
C      87.12297515      62.61513739      88.42875572
H      86.61085932      64.29888353      89.49645108
C      88.02626433      60.54021789      90.31281285
H      89.94622626      61.01831865      90.87973074
H      88.42688630      58.79789023      89.29047092
C      86.49936547      60.23786168      92.79780295
H      84.51326312      60.44573158      92.29324603
H      87.01715049      61.67972286      94.17541343
C      87.02281965      57.70184897      93.88628531
H      88.86152336      57.85869626      94.80847175
H      86.68077919      56.12203777      92.61449950
N      85.25592555      57.32012426      96.01222741
H      83.93311714      55.96141104      95.79112943
C      85.57528930      58.14782438      98.39517229
N      87.17588749      59.77865819      99.26633612
H      87.62375262      59.82401162     101.12204736
H      88.34184862      60.73108025      98.09281608
N      84.05972880      57.38437495     100.14883831
H      84.13909730      58.11569903     101.91195296
H      82.87109094      55.92928569      99.81813621
C      89.24135836      63.65448686      86.62784654
O      90.77959556      65.03965625      87.49145147
N      88.96923777      63.28221077      84.12584890
H      87.70312114      61.95562290      83.59294608
C      90.48290853      64.54832740      82.13029792
H      91.95878478      65.58767688      83.12429396
C      91.54493472      62.52632025      80.27269695
H      92.57294584      61.11280497      81.36684848
C      89.33017548      61.14115086      78.90831455
H      88.11508147      60.54210762      80.45977985
H      90.09173519      59.55000131      77.84439864
H      88.12075065      62.29388391      77.70455889
C      93.29482129      63.76031153      78.34139666
H      94.80282288      64.86769115      79.19744268
H      92.04004303      64.88658841      77.15842799
C      94.62707835      61.84601878      76.49513405
H      96.01980663      62.72096206      75.25358386
H      93.16065072      60.84635356      75.44633595
H      95.52280862      60.48919528      77.76125068
C      89.02781927      66.64781334      80.76591552
O      90.08795573      68.67171022      80.52592028
N      86.64865384      66.32089069      80.05159897
H      85.81339481      64.63336509      80.36907299
C      85.13876252      68.21439645      78.68721657
H      86.15354555      68.45061224      76.91087384
C      82.72747175      67.02386887      77.77636849
H      81.23647768      67.28843056      79.16909678
H      83.15643962      65.02264871      77.54960133
C      81.89599218      68.03865190      75.17232563
O      81.45757566      70.40647897      74.95878656
O      81.68434283      66.52687085      73.39976235
C      84.60963915      70.65025367      79.89853114
O      84.74569945      72.61745876      78.66453986
N      83.84430000      70.47261939      82.30415274
H      83.79705685      68.63958487      82.83516583
C      83.36808896      72.62690739      83.95955299
H      83.02793823      74.21616722      82.69154663
C      80.87365023      72.28297720      85.41842170
H      80.71869267      73.95349526      86.61083900
H      81.07963041      70.55954681      86.52769105
C      78.40755739      71.94471619      83.90286120
H      76.91278388      71.48929215      85.24456688
H      78.68723689      70.22506525      82.80493021
C      77.64977715      74.15191653      82.02258352
O      75.48604051      74.08577611      81.03236693
O      79.17856573      75.82621404      81.53125467
C      85.39198586      73.06343417      85.92486835
O      85.44489818      75.18937627      86.93587193
N      87.21557174      71.40047501      86.48611707
H      86.99447376      69.81499464      85.44676759
C      89.57961936      71.81999426      87.99789812
H      90.67566062      73.40547463      87.26846376
H      90.72857295      70.12490975      87.80325631
C      89.03537818      71.85589906      90.86083348
O      87.96390336      70.18160154      91.89829323
N      89.78937898      73.82688360      92.14584737
H      91.09706959      75.05709543      91.49956098
C      89.53804538      74.28608709      94.88784025
H      87.68233414      73.49618150      95.30924922
C      91.56761144      72.61934849      96.22198703
H      93.40631514      73.42248217      95.75711436
H      91.52225801      70.72773245      95.40940472
C      91.37107991      72.73273207      99.06413541
H      91.17076891      74.74340086      99.46097793
C      89.03915763      71.40992365     100.07135953
H      89.04671654      69.39925485      99.63672248
H      87.25903544      72.31699228      99.56302315
H      89.24513780      71.52141750     102.11793313
C      93.86362891      71.69905177     100.23198627
H      93.94299741      72.33211009     102.18785300
H      95.55115450      72.47006011      99.33436627
H      93.88063644      69.64113982     100.14694858
C      89.47946386      77.02052107      95.68719448
O      91.51091965      78.15435686      95.97065343
N      87.32706559      78.21482810      96.24088429
H      85.74158522      77.32287728      95.65695886
C      87.30249915      80.81698123      97.21409335
H      89.14498230      81.33854569      97.97376332
C      86.34629763      82.72749453      95.21476291
H      86.13842775      84.67202291      95.85915958
H      84.47924804      82.11522321      94.60438131
C      88.08484584      82.48371984      92.89417899
H      88.16043489      80.53730174      92.22143643
H      90.01803587      83.02418157      93.36094139
C      86.99825321      84.22226805      90.82303896
H      87.66532660      86.11388409      91.30113971
H      84.95167962      83.97849335      90.81548005
N      87.92421911      83.71204194      88.24923172
H      89.27348369      84.84209828      87.51034873
C      86.87164155      82.23994515      86.42753555
N      85.10096799      80.59021407      86.91130549
H      84.71924328      79.27685429      85.58093816
H      84.63042615      80.35399829      88.74434001
N      87.60863482      82.36466708      84.07293657
H      86.39920997      81.66924780      82.77091514
H      88.82372883      83.78007209      83.67609404
C      85.81339481      80.99272578      99.60648686
O      83.54950270      80.40313117      99.39861696
N      87.14187241      81.36500186     101.80612829
H      89.02781927      81.43870119     101.51511043
C      86.32740037      81.25917719     104.48764992
H      84.80617069      79.87211808     104.38371498
C      88.44200412      80.41257980     106.24887485
H      88.03760268      80.79808397     108.23308748
H      90.06527902      81.65035054     105.98809262
C      89.25269670      77.81042667     105.92951110
H      90.23535440      77.60444650     104.13049165
C      90.68321952      76.98461627     108.30489708
H      91.75469434      78.51340486     109.17795063
H      91.79626832      75.25929615     108.12915253
H      89.42655152      76.37801412     109.82045758
C      87.19856420      75.89991337     105.37393157
H      85.62064273      76.20037985     106.66272491
H      88.01492597      74.05554048     105.78967135
H      86.64676412      76.09077572     103.39916757
C      85.21813103      83.89156594     105.30023224
O      83.72146779      83.95959609     107.07090579
N      85.68111398      85.87199912     103.79412037
H      86.92644361      85.79829979     102.35225919
C      84.47357886      88.41368101     103.94340875
H      83.47013419      88.40045293     105.74242820
C      86.55605726      90.47159297     104.12104302
H      88.07539721      90.12388332     102.77555788
H      87.48013342      89.97648467     105.89360630
C      85.83607154      93.30240298     104.21363961
H      84.50570421      93.78806264     105.70841312
H      84.99892277      93.68790715     102.37115645
C      88.26814930      94.81229431     104.62748967
H      89.64575978      94.69135182     103.10248054
H      89.23379945      93.89010787     106.19785224
C      87.95445473      97.55428719     105.25487881
H      86.83951620      98.40655375     103.74687721
H      89.84418104      98.37253868     105.21519455
N      86.78660387      98.00404205     107.70585384
H      86.73369153      99.79739232     108.35969914
H      87.81461498      97.16878302     109.07968487
H      85.07073237      97.16878302     107.72664082
C      82.55172720      88.82942080     101.72487005
O      83.08463002      87.76550489      99.69152454
N      80.60530911      90.45458543     102.21241944
H      80.40499811      91.15945334     103.97553409
C      78.81762801      91.45236092     100.20553010
H      77.88977239      89.69680518      99.64995056
C      76.88254826      93.32507970     101.22031313
H      77.95780253      94.88788336     102.01966736
C      75.40856173      94.53639426      98.95831073
H      76.38932970      96.08785957      98.02478593
H      73.81552245      95.54172866      99.79356976
H      74.88321783      93.13610707      97.54290572
C      74.86998974      92.45580559     103.28200454
H      75.54840148      91.10843073     104.68796091
H      73.52072515      91.35031570     102.18785300
C      73.26372238      94.58174770     104.57268761
H      74.45236022      96.06518285     105.36637266
H      72.19035782      93.65200235     106.06557140
H      71.83508928      95.48314715     103.39349839
C      80.14043642      92.62777069      98.01911676
O      81.95079424      94.13010311      98.36304694
N      79.35620000      91.91912332      95.78357053
H      78.08252447      90.50371831      95.63806160
C      80.20468712      92.74115427      93.24944754
H      81.07396122      94.59497578      93.47432497
C      82.15488467      90.79095671      92.47088030
H      83.41911158      90.24860526      94.00533807
H      83.34730199      91.71503288      91.06870338
C      81.12309412      88.33053305      91.45609727
C      80.88120914      87.85621175      88.83126742
H      81.52749554      89.22815305      87.46877475
C      80.07996518      85.45814906      87.95821386
H      80.01193503      84.92335651      85.99100877
C      79.68879184      83.48149533      89.77046140
O      79.17667600      81.00028468      88.92953319
H      78.81384855      80.72627437      87.17397744
C      79.74548362      84.04274405      92.41040906
H      79.11620476      82.62166986      93.73132775
C      80.52972004      86.45403482      93.32125714
H      80.65633171      86.90945887      95.30546977
C      78.16567243      93.30807216      91.31814725
O      75.97170019      92.47470286      91.51278906
N      78.81195882      94.51938673      89.18086679
H      80.63743444      95.07307654      89.19220515
C      77.13199213      94.95402378      87.03602742
H      75.21391992      94.92567789      87.79380768
C      77.56473947      97.62609679      86.03825193
H      76.50649273      97.62798651      84.27135783
H      79.51304729      98.07585165      85.54503336
C      76.20980570      99.57818407      87.87128645
H      77.53450385      99.68400874      89.44353875
H      74.29173348      99.04150179      88.39663037
C      76.15122418     102.14821185      86.66186161
H      74.93801989     101.96490840      85.00835109
H      78.04661968     102.88331539      86.34438759
C      74.91912262     104.14754229      88.59883108
H      76.55751533     104.60674579      89.75912304
H      73.46781282     103.38031341      89.84227100
N      74.11031976     106.33584536      87.25523568
H      72.60609761     106.06561450      86.11195126
H      75.55407066     107.24480372      86.39729993
H      73.46025391     107.75502982      88.35316666
C      77.29072915      93.00382622      84.94976957
O      79.16722737      92.43312888      83.88018448
N      75.29328843      91.65078218      84.46599964
H      73.93268548      91.66401027      85.80392587
C      74.83219521      89.92357233      82.34005754
H      76.09831184      88.35320977      82.75768705
C      72.02406191      88.92390712      82.18509998
H      70.64267197      90.44702652      82.31171164
H      71.74249269      87.63889322      83.76869063
C      71.55163033      87.20803562      79.94010512
O      72.90278464      85.34098603      80.01947362
O      69.99827530      87.69747474      78.33761721
C      75.36509804      91.43913284      79.87018525
O      75.48981998      93.77672429      79.79270647
N      75.53706313      90.14089086      77.75558150
H      75.71658712      88.24171592      77.77258904
C      75.75060220      91.51472189      75.23090715
H      77.34175175      92.81296387      75.36696744
C      76.24193105      89.69491545      73.06906024
H      76.04162005      90.62844025      71.24358463
C      78.89321707      88.51005705      73.06339107
H      79.37698699      87.61999596      71.26815107
H      78.98581366      87.18913836      74.64131254
H      80.07996518      90.13900113      73.48102058
O      74.64133286      87.60865760      72.82906500
H      75.21769939      86.08553819      73.62652951
C      73.34120115      93.05862829      74.58840020
O      73.54529159      94.78205869      73.02559654
N      71.08675766      92.54840218      75.63530858
H      70.93557955      90.96481153      76.68977586
C      68.93435940      94.30773738      75.30649620
H      68.97404364      94.99937721      73.36574728
C      66.51550971      92.79973578      75.41610033
H      64.77507178      93.75215784      75.96979014
H      66.64590082      91.42590475      76.94488891
C      66.14890281      91.23504240      72.89520542
H      67.84965648      90.08041962      72.73646841
H      65.88056167      92.49737957      71.29082778
C      63.86044424      89.63633394      72.70623279
O      62.02929945      90.21270046      71.29271751
O      63.92280521      87.59353979      73.91943709
C      68.95514638      96.63210075      77.07150058
O      67.02762555      97.97002698      77.12630264
N      70.94124874      96.81540420      78.59084053
H      72.15256331      95.34519713      78.46989805
C      71.45147484      98.81851409      80.43710314
H      70.88644668     100.69690205      79.81160373
H      73.47159226      98.95835384      80.81693813
C      70.06819517      98.28183182      82.90697543
O      70.19291712      99.74070053      84.74378941
N      68.79451964      95.96691708      83.21122137
H      68.66979770      94.60442441      81.88085404
C      67.27706941      95.40188892      85.48078267
H      66.58731932      97.24626180      86.08360536
C      64.99805948      93.73704003      84.91764423
H      64.15524154      93.39499957      86.76579656
H      65.73883220      91.91912332      84.29214482
C      63.12345097      94.82363266      83.09972751
C      62.38078853      93.47058862      80.93410116
H      62.83432285      91.49015545      80.73001072
C      60.76696227      94.50615864      79.13319198
H      60.00540256      93.39310985      77.60251367
C      59.86178336      96.97603093      79.28059064
O      58.38968657      97.96246807      77.38330542
H      58.05709474      99.72936217      77.61574175
C      60.61389444      98.46702500      81.45566562
H      60.02429982     100.41533282      81.60873345
C      62.29575085      97.42956525      83.31704604
H      62.79274888      98.63899009      84.88362915
C      68.72082031      94.07341132      87.64640902
O      70.20236574      92.24982543      87.42531104
N      68.38066958      94.93701624      90.04825117
H      67.19581118      96.38643633      90.40918889
C      69.77717732      93.99404281      92.31592274
H      71.75194132      94.30962711      91.82270417
C      69.18569299      95.55306702      94.73288270
H      69.85087665      94.83875047      96.54701996
H      67.12589130      95.51716222      94.66485255
C      70.16457123      98.24214756      94.58170459
C      68.58287029     100.35108213      94.70453680
H      66.57598096     100.20557320      95.03901836
C      69.72426499     102.76615236      94.63083748
H      68.44681001     104.34596356      94.81792038
C      72.36799210     103.07417775      94.40407032
O      73.35064979     105.49680688      94.38139360
H      72.14122494     106.82150503      94.64406556
C      74.04606906     101.07673703      94.22643604
H      76.00760499     101.24681240      93.69164350
C      72.77050380      98.64276954      94.47210047
H      74.06118687      97.06484807      94.37572442
C      69.45403412      91.13299717      92.64284539
O      67.38478381      90.13900113      92.34048918
N      71.44202620      89.83853465      93.39306674
H      73.14089017      90.67379368      93.63117226
C      71.72737489      86.99638628      93.40440510
H      69.86410473      86.17624506      93.72187912
C      72.51350102      86.07231011      90.84571567
H      74.33897665      86.90567941      90.38462245
C      72.71003256      83.10355007      90.51879302
H      73.58497585      82.68970001      88.70087631
H      70.93368983      82.05853142      90.55658755
H      74.22181362      82.42513832      91.74333567
O      70.69936377      86.63355882      89.05236540
H      70.74282747      88.42312964      88.75945782
C      73.63221900      86.38222522      95.50767049
O      75.26683226      87.92802135      96.19742059
N      73.73426422      84.08998721      96.32403225
H      72.43224279      82.84654729      95.69097394
C      75.60887272      83.18480830      98.13061061
H      77.38332573      84.16746599      97.77156261
C      74.73770889      83.76873373     100.92929528
H      74.18212936      85.75294636     100.98031789
C      72.51917020      82.05286224     101.57369195
H      72.85176203      80.04975235     101.22976176
H      70.85054187      82.85221647     100.67040277
H      72.05996672      82.10955403     103.58247102
C      77.10742570      83.46637752     102.67918184
H      78.61164784      84.22604750     101.49054399
H      77.51749630      81.50295188     103.14972369
C      77.05640308      84.91957706     105.17740003
H      76.61420712      86.91323832     104.90149999
H      78.91211432      84.97626885     106.07124057
H      75.82241181      83.97660363     106.53044407
C      76.17201117      80.36155719      97.60526669
O      74.72826027      79.06709467      96.25789183
N      78.19968750      79.17291934      98.57469629
H      79.49981920      80.18014346      99.54412589
C      78.65889099      76.51029496      98.26289145
H      77.02994691      75.61645442      99.15106282
H      80.20090767      75.98306132      99.52144917
C      79.06896160      75.53708591      95.59270817
O      79.88532337      76.86745324      93.89951339
N      78.19968750      73.14280268      95.25822661
H      77.13010241      72.29053611      96.58670421
C      78.27905601      71.91070112      92.82236939
H      79.91366926      72.58722314      91.76979184
C      78.29795327      68.96650752      93.22866055
H      76.36854270      68.52620129      93.80313735
C      79.01226981      67.38858605      90.85516430
H      80.97569545      67.76275186      90.36005601
H      77.69324085      67.82511283      89.33393462
H      78.87431979      65.40626315      91.39184658
C      79.77760897      68.04432108      95.60593625
H      79.84752884      65.99018858      95.72120956
H      78.99904173      68.80777051      97.35393309
C      82.57440391      69.03453767      95.62294379
H      83.65532736      68.57344445      97.31235911
H      82.45535116      71.08867017      95.48688350
H      83.42478076      68.39958963      93.85793941
C      75.99437690      72.74218070      91.11972599
O      74.30874103      71.25874554      90.52446220
N      75.76005084      75.19126600      90.57548481
H      77.10364624      76.26463054      91.40318493
C      74.00827454      76.30431480      88.70843521
H      73.67190325      74.79253375      87.35350144
H      74.96447605      77.91625134      87.85427892
C      71.37021660      76.94115256      89.94998540
O      69.67135265      77.74239652      88.57804410
N      71.00549943      76.81832035      92.32159192
H      72.53428802      76.26085109      93.31936741
C      68.66979770      77.26807522      93.81258598
H      67.19203174      76.31754288      92.73544198
C      68.79451964      76.36667577      96.46198227
H      69.91134789      77.53830608      97.73376808
H      69.69213964      74.51663370      96.59804257
C      66.19803570      76.13990861      97.59014888
N      64.35366280      74.34466861      97.35771255
H      64.57098133      72.86312318      96.17663360
C      62.35622210      74.75095977      98.85626551
H      60.60822525      73.70027194      98.86949360
N      62.98739068      76.93170393     100.18096366
H      61.68914870      77.84444174     101.23921039
C      65.31742322      77.82176503      99.45908821
H      66.42669258      79.39968650     100.12049242
C      67.98571678      80.06864961      93.71809967
O      69.14411902      81.66735807      94.96153958
N      66.06386513      80.88501138      92.19120081
H      65.04719237      79.46393719      91.42586165
C      64.78829986      83.29630215      92.10049394
H      66.16024117      84.81942156      91.91152131
C      62.75117490      83.15646241      90.01234637
H      61.71938433      81.38578885      90.21832654
H      63.64879489      83.36622203      88.16986321
C      60.70271157      85.09721133      89.92730868
H      59.71816417      85.38067028      91.71498977
C      61.72694323      87.61432678      89.01457087
H      60.20949300      88.87288450      88.41363791
H      62.86077902      87.31763975      87.32137610
H      62.91369135      88.59509474      90.38462245
C      58.66747634      84.26951121      88.19820911
H      57.77741524      82.65946439      89.12228527
H      59.35722644      83.63456316      86.36328486
H      57.08199595      85.58476072      88.23789336
C      63.76784765      83.77251319      94.71587516
O      62.25606661      82.34576982      95.72687874
N      64.42547240      85.96648544      95.69097394
H      65.73316302      86.99071710      94.74800051
C      63.21793729      87.28173495      97.81691604
H      62.47716458      85.89089638      99.14728336
C      65.15490677      88.91823794      99.37594025
H      64.15146209      90.32230459     100.50221713
H      66.21126378      89.94435932      97.93218934
C      66.81219674      87.27606577     101.04078913
H      67.48115986      85.57909154     100.08458762
C      69.27451012      88.69147078     101.72487005
H      68.97971282      90.57741764     102.49587839
H      70.41779454      88.70469886     100.01088829
H      70.15134313      87.39511853     103.06468601
C      65.13223005      86.49182935     103.25554837
H      66.39456723      85.47515659     104.52922390
H      63.66580244      85.08587297     102.92295654
H      64.40468542      88.03006657     104.41584032
C      60.82176433      88.49115979      96.95520084
O      58.80164690      87.84487339      97.78479069
N      61.03530340      90.26561280      95.29602114
H      62.73605708      90.39222446      94.44186484
C      58.89046403      91.91534387      94.43430594
H      57.27474804      90.67946286      94.10927301
C      57.80009195      93.58964138      96.56402749