 %block lattice_cart
   135.996   0.000   0.000
   0.000 142.663   0.000
   0.000   0.000   160.158
 %endblock lattice_cart

 %block positions_abs
N      88.35602157      39.69937124      80.99740699
H      87.96106877      38.67324986      79.43649306
H      87.47918856      38.96426771      82.52430585
H      90.17204856      39.32142598      81.45283103
C      87.83067765      42.46215111      80.87079533
H      88.61680380      43.57708964      82.41470172
C      88.79065862      43.37488892      78.16659697
H      87.92516397      42.14467709      76.75875087
H      90.82400413      43.04985600      78.10423600
C      88.11224687      46.07341810      77.53353866
H      86.07512191      46.30774416      77.73195992
H      89.06088948      46.47970925      75.75152675
S      89.15915525      48.49604723      79.84467394
C      89.18561142      51.14166407      77.86802022
H      90.46873559      52.61943005      78.51241689
H      87.18628098      51.61598537      77.74896746
H      89.95284030      50.39711190      76.10679529
C      84.99230873      42.93269297      81.24118168
O      83.37848246      41.37555848      80.85567752
N      84.36114014      45.23437961      82.18037566
H      85.64048486      46.56663667      82.65658669
C      81.82701716      45.86554820      82.76052164
H      80.56279025      45.08887069      81.32999882
C      81.03711156      44.75060968      85.37212340
H      81.34135750      42.71348471      85.42503574
H      79.03211194      45.18902618      85.51574260
C      82.40149396      45.94680643      87.68514841
O      82.14260145      48.13888896      88.22183068
N      83.87925993      44.48793772      89.11378150
H      84.44428810      45.18146728      90.80319683
H      83.90004692      42.59821141      88.85677873
C      81.17128213      48.61509999      82.61312299
O      82.73975497      50.29884613      82.35612021
N      78.63148996      49.14422336      82.74729356
H      77.41072676      47.67779574      82.75485246
C      77.65828091      51.79172992      82.48084215
H      77.91717342      52.56651771      80.58922611
C      74.75755102      51.75204567      82.97972989
H      74.09803654      50.30640504      81.67203928
C      73.92418172      50.76371881      85.47605835
H      74.32291397      48.74927056      85.62156728
H      71.89650538      51.08119283      85.64424399
H      74.97486955      51.84086280      86.88201473
C      73.24765970      54.07073985      82.30131815
H      73.19096791      55.50882158      83.77719440
H      71.26911625      53.51893977      82.15391949
C      73.92796117      55.49559349      79.92782190
H      75.80634912      56.30061690      80.17726577
H      72.55979932      56.96580057      79.46483895
H      73.65017140      54.06318095      78.47273264
C      78.84502904      53.66444870      84.58410753
O      78.69007148      55.89243602      84.17214720
N      79.78422301      52.75171089      86.74595443
H      79.62170655      50.85631540      86.92169898
C      80.68940192      54.29372756      88.98150066
H      79.58769148      56.03605522      88.99850820
C      80.38893543      52.95202188      91.54963872
H      80.94262524      54.25404331      93.04630196
H      81.79678154      51.44968946      91.62333805
C      77.73009051      51.92779022      92.25261691
C      76.07846971      53.46602743      93.66046301
H      76.59058554      55.38976882      94.11210760
C      73.85048239      52.62131977      94.55241383
H      72.66751372      53.86853914      95.65412427
C      73.36860218      50.01727691      94.17446857
H      71.84737250      49.32752681      95.34798861
C      74.96731064      48.37132529      92.95181565
H      74.67440306      46.35309759      93.02929443
C      77.22175413      49.28595283      91.82553876
H      78.57479817      48.01227729      90.97894138
C      83.56934482      55.14977358      88.61489376
O      84.39704494      57.30406158      89.21582673
N      84.74097513      53.47925552      87.25618054
H      83.88114966      51.80495800      86.94437570
C      87.06722822      54.05373232      85.86345225
H      88.37869829      54.98536739      87.14846614
C      88.56956064      51.69346415      85.11701035
H      90.24952733      52.31329438      84.09655814
H      87.42249677      50.54451055      83.84900400
C      89.20639841      49.99460020      87.41869700
H      87.65682283      49.67145700      88.73394652
H      90.68983357      50.99048596      88.44859784
C      90.24574788      47.44535940      86.49462083
O      88.61113462      45.76539271      86.18281599
O      92.58522906      47.16379018      86.30375848
C      86.93305766      55.81306751      83.63735465
O      88.40326473      57.47791640      83.32554981
N      84.96774229      55.54850583      82.14258114
H      83.87925993      54.06507068      82.65658669
C      84.53499496      56.96391084      79.71617255
H      86.27921235      56.63509846      78.67493335
C      82.25409530      55.55228528      78.41415112
H      80.73097590      56.11164427      79.68404720
H      82.50164945      53.50760141      78.46139428
C      81.72119248      56.23258676      75.73829866
H      83.36147492      55.72047093      74.60446287
H      81.44151299      58.26593227      75.54554658
S      78.97164070      54.59986322      74.27754022
C      79.43462365      55.96424562      71.13870482
H      81.09758280      55.14032495      70.24675400
H      79.34958596      58.02215757      71.15949180
H      77.86615081      55.40299690      69.92927997
C      84.01720995      59.79850031      80.30387743
O      85.10569231      61.50114372      79.20405672
N      82.34480217      60.25014490      82.11045579
H      81.67205960      58.84607825      83.21783541
C      81.65694179      62.91276927      82.68304286
H      81.36781366      63.71779268      80.80843436
C      78.99620714      63.01103504      84.05309444
H      78.71463792      64.80816476      85.01685486
H      78.80912424      61.45390056      85.39102067
C      76.90805957      62.53104456      81.90825507
H      77.44852129      61.11941900      80.50796788
C      74.45708454      61.59374031      83.23484294
H      74.76510993      59.66621947      83.88679852
H      72.88672197      61.66366018      81.90636535
H      73.83536458      62.57639799      84.93370690
C      76.44885607      65.05193947      80.60056446
H      78.03622617      65.47334843      79.35523482
H      76.25232453      66.60340476      81.93849069
H      74.72542567      65.00847575      79.47428758
C      83.78288389      64.06550232      84.17592665
O      84.09468873      66.28215129      83.84900400
N      85.31545193      62.76159117      85.68959743
H      84.80522583      60.97202035      86.11100639
C      87.20139879      64.17132700      87.31098260
H      86.10535753      65.63019571      88.27096357
C      87.99508384      62.34207193      89.35944593
H      89.61835875      61.23847176      88.73394652
H      86.31133770      61.19878751      89.67503022
C      88.74719492      63.80660982      91.80097232
H      87.04644123      64.64564830      92.60599573
H      90.18527664      65.22957374      91.41546815
C      89.90181769      62.06617188      93.91746579
H      90.44227942      63.17922068      95.56341741
H      91.61202001      61.29516355      93.06330950
N      88.03476810      60.20101201      94.79240908
H      87.64548448      58.85174743      93.50172600
C      86.87447614      59.83629484      96.89189501
N      86.93116793      61.44067247      98.66256856
H      86.74786448      60.58651618     100.36143252
H      88.29744005      62.77292953      98.68713501
N      85.66694103      57.78783151      97.26795055
H      84.71262924      57.54027736      98.90256381
H      85.77276570      56.64643682      95.74294141
C      89.25553129      65.57539365      85.84644471
O      90.05299580      67.57472409      86.71004963
N      89.41048885      64.95934288      83.48239709
H      88.40515445      63.43811319      82.92114838
C      91.35501723      66.04215605      81.70605436
H      92.57200097      67.35173638      82.72839629
C      92.84601129      63.83873517      80.59300556
H      93.84378678      62.88442338      82.12179415
C      91.39092203      61.75814650      79.10579095
H      92.55310371      60.06873117      78.91681832
H      90.81266578      62.51214729      77.27653588
H      90.05488552      60.98902789      80.46828362
C      95.11368286      64.77037024      78.95650257
H      94.49952181      65.45067171      77.11212969
H      96.29854126      63.09796245      78.74107377
C      96.81443655      66.72056779      80.33033360
H      97.59111406      66.19900333      82.16525785
H      95.69949802      68.42699065      80.62135145
H      98.17692922      67.36874392      78.92815668
C      90.29110131      67.67865903      79.64814240
O      91.55910767      69.52114219      78.98673819
N      87.90815643      67.42732544      78.99429710
H      86.89148368      66.16309853      80.00152122
C      86.39637538      69.33783874      77.61101744
H      87.51698309      70.01247104      76.01986788
C      83.81122979      68.21156185      76.81544266
H      82.58290768      69.68176894      76.06144186
H      82.90794061      67.22512473      78.38202577
C      84.27799219      66.33128417      74.63469849
O      86.26409454      66.73757534      73.30244144
O      82.49220082      65.05760864      73.78810111
C      85.89559791      71.78314459      79.01697381
O      85.70284583      73.82971818      77.90770447
N      85.71796364      71.53559044      81.57566324
H      85.52332183      69.75546825      82.23517773
C      85.50442456      73.71822434      83.29909364
H      84.80711555      75.26402046      82.12746333
C      83.39926945      73.11351192      85.34755696
H      83.29155505      74.63852105      86.72894690
H      83.96240789      71.35795617      86.26407422
C      80.71018891      72.55226321      84.21372117
H      79.42517501      72.04203709      85.74062004
H      80.80467522      71.03670270      82.82288261
C      79.31746061      74.83883203      83.12145937
O      77.58836104      74.43632034      81.53597899
O      79.89004769      77.01768648      83.76585604
C      87.97618658      74.78402997      84.51796711
O      88.40326473      77.03658375      84.52741574
N      89.13269908      73.13240917      85.91825431
H      88.56956064      71.35606644      85.50062479
C      91.03943293      73.75601886      87.83632652
H      92.40948451      74.98812041      86.91602980
H      92.12413584      72.15353094      88.54497388
C      89.77709576      74.78025052      90.26273510
O      87.53965980      75.17898277      90.38367759
N      91.25864119      74.78780943      92.47371489
H      93.12380106      74.44009979      92.26962445
C      90.44416915      75.57393558      94.90579265
H      88.49775104      74.91442109      95.06452966
C      92.19216598      73.99790382      96.74638608
H      94.07244367      74.84072176      96.80496760
H      91.96161937      71.99290421      96.33253602
C      91.50808506      74.40608471      99.54507075
H      92.13358447      76.24100896     100.23482086
C      88.66026751      74.07727234      99.99860507
H      87.58690296      75.70054723      99.32586250
H      88.35224212      74.03569835     102.03384031
H      88.06689344      72.34061385      99.05941109
C      92.99529967      72.31226795     100.93968877
H      94.96061503      72.27636315     100.32741745
H      92.04665706      70.49246152     100.76205450
H      92.97451268      72.56171183     102.98437264
C      90.60101643      78.42553258      95.40468040
O      92.63814139      79.54614029      95.45948246
N      88.48830241      79.63495742      96.13033530
H      86.84235079      78.68253535      95.96592912
C      88.17271812      82.31080988      96.79740869
H      89.99252456      83.24055522      97.06763956
C      86.79888709      83.77723749      94.69225358
H      85.96362806      85.54035214      95.35365779
H      85.33434919      82.42230373      94.17635830
C      88.49019214      84.22888208      92.41702310
H      89.37647378      82.44120100      91.91057645
H      90.01142182      85.52334461      92.92535948
C      87.36013580      85.17185552      89.82809805
H      88.79065862      85.45531446      88.37300879
H      86.43416991      86.97087497      90.21927140
N      85.53277046      83.46732238      88.65835746
H      84.90727105      81.96687969      89.65802268
C      84.98663955      83.50322718      86.27163313
N      85.58379307      85.47421173      84.92614799
H      85.05277997      85.48743981      83.09500320
H      86.40771374      87.05402292      85.61211865
N      83.78666334      81.69286937      85.12645898
H      83.37659273      81.94042352      83.28019638
H      82.87014608      80.42864248      86.22627970
C      86.67416515      82.36939140      99.23515564
O      84.32145589      82.23900029      99.30885496
N      88.06500372      82.39584756     101.34597993
H      89.89614851      82.75300583     100.93779904
C      87.21273715      82.55458458     103.89522072
H      85.62158759      81.30736520     104.28450435
C      89.17616279      81.86861393     105.83785937
H      88.28988115      81.93853379     107.69546034
H      90.71440001      83.23299632     105.72636552
C      90.23629925      79.22299709     105.61487167
H      90.92415963      79.03969363     103.68168165
C      92.37735916      79.20221009     107.48003154
H      93.83244842      80.61572537     107.12854245
H      93.29954560      77.35972695     107.43656784
H      91.80666182      79.38173409     109.45101608
C      88.38625719      77.17453377     106.28383478
H      89.16293470      75.28858690     106.56729373
H      86.95573437      77.17642348     104.80039963
H      87.35635635      77.88129140     107.92411722
C      86.29999934      85.15484799     104.77394346
O      85.09624368      85.20965004     106.69579512
N      86.32078633      87.15984760     103.20169117
H      86.73652612      86.69308520     101.39889227
C      84.96207311      89.67318359     103.39255353
H      84.14571134      89.68452196     105.28416956
C      86.96896246      91.70463939     102.97114456
H      87.75130915      91.18307492     101.13811003
H      88.54499420      91.61204280     104.29206325
C      85.97685614      94.53166995     103.25271378
H      84.48775181      94.93796110     104.61709618
H      85.36269509      95.23086868     101.41401008
C      88.43539007      96.24187226     103.49270902
H      89.79410329      95.90172152     101.98092797
H      89.39726077      95.61448312     105.20102161
C      87.59257214      98.99898296     103.88955155
H      86.74219530      99.23519873     105.75093196
H      86.31133770      99.51487823     102.36265268
N      89.73174233     100.69784691     103.85175702
H      91.01486649     100.14415709     105.15188872
H      89.02687441     102.41749785     104.28072489
H      90.63503150     100.63548593     102.16990060
C      83.04022145      89.80735416     101.30251622
O      83.63359551      89.10815543      99.08775698
N      80.84246975      90.75410704     101.99226633
H      80.71207863      91.08858860     103.86498510
C      78.77321944      91.33614275     100.26505648
H      78.13449194      89.54279249      99.47704060
C      76.55846020      92.40194840     101.79006561
H      76.06902108      91.21331054     103.40011243
C      76.97042053      95.03433714     103.00893908
H      78.88849274      94.96441727     103.74971180
H      75.81201830      95.53511461     104.63788317
H      76.80979380      96.43840379     101.50849639
C      74.07347010      92.30557235     100.38788869
H      73.74276799      90.27789601     100.23293113
H      74.19819203      93.43184923      98.66823774
C      71.67918686      93.63782940     101.60109298
H      71.81335743      93.15216974     103.59664397
H      70.03890442      92.78745255     100.68835517
H      71.69808412      95.65605711     101.19669155
C      79.56690449      92.92351285      97.87266297
O      81.27521707      94.47119871      98.03706915
N      78.50109885      92.44541209      95.61821947
H      77.16695207      91.08102969      95.53696124
C      79.44029282      93.43184923      93.19181089
H      80.17161691      95.33669335      93.46771093
C      81.62670617      91.85581748      91.98994495
H      83.30667286      91.80101543      93.17858280
H      82.14638090      92.67028952      90.17202824
C      80.79333686      89.14406023      91.46838049
C      79.84280453      88.43730258      89.11567123
H      79.72942095      89.85081786      87.64735389
C      78.96030234      85.92963577      88.68481363
H      78.00977001      85.44775556      86.94437570
C      79.13604689      84.07203480      90.64068037
O      78.06646180      81.76845843      90.30430908
H      77.32190963      81.56436798      88.66213692
C      80.31145665      84.76556436      92.91591085
H      80.47586284      83.36716688      94.39178710
C      81.02766293      87.37338668      93.37889379
H      81.62103699      87.92329703      95.25350230
C      77.17073152      93.48287185      91.34932773
O      75.14683464      92.36415386      91.79530314
N      77.49576445      94.85859260      89.27440824
H      79.14171607      95.73542560      88.87378626
C      75.55123607      95.13071318      87.25240109
H      73.72576045      94.42773499      87.89301831
C      74.78589692      97.77821975      86.87445582
H      73.60859742      97.85191907      85.18504050
H      76.47909169      98.94796034      86.94059624
C      73.10215077      99.02165966      88.76985132
H      73.83536458      98.86859183      90.68792352
H      71.32391831      98.00498691      88.55064306
C      72.83947881     101.83546214      88.17836698
H      72.37460614     102.02821424      86.18092627
H      74.72731540     102.63670611      88.35033207
C      70.77211823     103.02787946      89.70904529
H      70.97809839     102.47041018      91.68002984
H      68.91073781     102.45529237      89.03252327
N      70.97620867     105.83601275      89.79030352
H      69.49844269     106.52387312      90.78618929
H      70.77022850     106.63536698      88.06687313
H      72.61460138     106.44450463      90.55753241
C      76.43373826      93.57168898      84.97528088
O      78.47086323      93.92128834      84.01907936
N      75.03912024      91.73487500      84.13246294
H      73.30435149      91.65739622      84.92803772
C      75.68918609      90.19285833      81.92337288
H      77.74520832      90.16073298      81.78920232
C      74.54023250      87.55480040      82.17848594
H      72.55601987      87.45842436      81.63235503
H      74.38338521      86.98977224      84.15324993
C      75.96697586      85.53657269      80.80465491
O      77.86615081      84.75989519      81.78164341
O      75.04100997      84.96209590      78.75052240
C      74.88227296      91.46086468      79.49318484
O      74.48543043      93.79089723      79.33255811
N      74.80668391      90.18529942      77.39936809
H      74.94274420      88.28801420      77.52220030
C      74.54401195      91.13394203      74.77075879
H      75.89327654      92.65517171      74.44005668
C      74.92951612      88.92863142      72.85268658
H      74.31346534      89.73554456      71.05744658
C      77.77544394      88.22565324      72.59757353
H      77.74709805      86.62883450      71.29933155
H      78.64093859      87.58692575      74.35501900
H      78.97730988      89.60515344      71.65271037
O      73.42718370      86.70442356      73.22874212
H      74.50999687      85.47988090      74.01108881
C      71.93807936      92.36793331      74.11691348
O      71.87193894      94.00443630      72.41804953
N      69.94063865      91.84447912      75.57389247
H      70.05024278      90.49710426      76.91937761
C      67.61060611      93.26177386      75.36602258
H      67.49722253      94.08569453      73.48007572
C      65.29569137      91.37204755      75.19405748
H      63.57793015      92.43407373      75.59278973
H      65.47521537      89.89806103      76.62080085
C      64.98577626      90.19096860      72.55788928
H      64.37161520      88.23321214      72.74686191
H      66.86983339      90.32513918      71.74152751
C      63.32281710      91.55913046      70.64170679
O      61.20065445      90.82024746      69.91605189
O      64.12028161      93.49232047      69.50976073
C      67.24966838      95.60881394      77.18960847
O      65.54702497      97.09602856      76.75308169
N      69.01656248      96.08502497      79.07366560
H      70.54157162      94.94174055      78.98484847
C      69.04490838      98.22608489      80.80087545
H      68.48743911     100.03455297      79.98451369
H      71.03667991      98.51899246      81.22417415
C      67.68430543      97.84247045      83.32366008
O      67.45564855      99.54700358      84.89213292
N      66.73566282      95.57479887      83.88679852
H      67.04179849      94.08758427      82.73028602
C      65.73410788      94.98142480      86.44359822
H      64.66263306      96.58013327      87.17681203
C      63.67430620      93.05201424      85.83132690
H      62.99211500      92.56257512      87.71160458
H      64.60594127      91.31724549      85.22661448
C      61.52946683      93.73987462      84.15324993
C      61.16852910      92.43785320      81.84967356
H      62.48566834      90.98465365      81.28653512
C      59.19754456      93.17295673      80.25096510
H      58.84605547      92.17140179      78.50863744
C      57.29081071      94.87937958      81.03520152
O      55.11384600      95.06079331      79.69160611
H      54.05370954      96.38360173      80.33978223
C      57.69332241      96.22297499      83.41058749
H      56.17209273      97.43617928      84.03230745
C      59.74367546      95.73920506      84.84111031
H      60.16697416      96.77855453      86.54564345
C      67.64840063      93.88160410      88.38056770
O      69.65906943      92.81390873      87.68703814
N      67.16841015      94.31057196      90.82398382
H      65.64340101      95.41795158      91.12822975
C      68.79357478      93.53767390      92.88189577
H      70.72298534      94.09703289      92.42647173
C      68.20586989      94.90205631      95.32909135
H      69.06569537      93.92884725      96.92591008
H      66.25378261      94.45230144      95.80341265
C      68.91640699      97.77255057      95.40468040
C      67.07581356      99.72841730      95.52373316
H      65.06892421      99.42606109      95.73538251
C      67.86004998     102.25498139      95.36310642
H      66.58637444     103.84802067      95.39523177
C      70.39795242     102.90882669      95.55774823
O      70.95731141     105.41460378      95.34420916
H      69.47387625     106.44450463      95.19114133
C      72.30657599     101.03799764      95.63900646
H      74.25677355     101.64459978      95.65034482
C      71.47320669      98.49631575      95.62577838
H      72.91317814      97.05256485      95.66168318
C      68.80680286      90.72765087      93.50739518
O      66.79802379      89.51066714      93.81164112
N      71.05935663      89.59003563      93.43558558
H      72.53145342      90.69741525      92.93480811
C      71.94374854      86.84615303      93.14645746
H      70.39606269      85.57814667      93.63967602
C      72.44074656      86.33214747      90.31564744
H      74.34370096      87.07669964      90.05486521
C      72.36704724      83.60527240      89.28763633
H      73.60859742      82.55458458      90.55186323
H      73.08892269      83.36527716      87.37523330
H      70.42818804      82.90796339      89.21393700
O      70.67196273      87.43007846      88.66402664
H      70.84581755      89.14783969      88.10844711
C      74.14905915      85.97309947      94.92280019
O      75.45863948      87.65495590      95.75239004
N      74.52511468      83.59015460      95.69380853
H      73.35537410      82.20687494      95.08909611
C      76.30901632      82.88150723      97.74416158
H      77.98331384      83.99455602      97.28306836
C      75.40194769      83.61850048     100.41812431
H      74.24543519      85.31925417     100.30852018
C      73.34403574      81.76845843     101.54251147
H      71.65462042      82.27868453     100.48048528
H      73.33458711      82.22388247     103.55129054
H      73.80701869      79.77290744     101.32330321
C      77.74709805      84.14384440     102.16234170
H      79.15305443      85.17374524     101.06630043
H      78.62771051      82.36183249     102.70280342
C      77.15372399      85.58570558     104.75504620
H      75.78556214      87.04835374     104.28072489
H      78.80534478      86.58159134     105.47881138
H      76.60570336      84.33659649     106.29895259
C      77.35781443      80.21699312      97.83486844
O      76.31090605      78.42742230      96.87110802
N      79.65572162      79.73889236      98.98949122
H      80.89160263      81.19020217      99.08586726
C      80.67617383      77.23311527      99.28617825
H      79.23431266      76.00668290     100.09876056
H      82.33913299      77.30114542     100.49938254
C      81.46229998      76.11628702      96.72748882
O      83.37848246      76.84572138      95.57475577
N      80.21130116      74.17175865      95.66546263
H      78.79778588      73.45555237      96.73126827
C      80.72152726      73.06815848      93.20125952
H      82.27677202      73.94499149      92.17324841
C      81.43017463      70.27514299      93.59621232
H      80.20941143      69.24146269      94.89445430
C      81.42828491      68.65186809      91.11311194
H      82.06890213      66.72434725      91.46460104
H      82.68684263      69.50224493      89.72227338
H      79.53666887      68.57816876      90.30241936
C      84.01909968      70.09939844      94.94169745
H      84.94506557      71.86251309      95.46704137
H      85.32490056      69.36051545      93.53007190
C      84.09657846      68.54604341      97.43424646
H      82.87392554      69.38697163      98.86476928
H      86.05244519      68.53281533      98.08053286
H      83.65438250      66.58828696      96.97882242
C      78.17606592      73.47633937      91.87656137
O      76.42995881      71.93054324      91.91435590
N      77.81512820      75.72511367      90.65957763
H      78.88471329      77.27090981      90.98461055
C      75.64005321      76.16164045      89.00039793
H      75.59847923      74.45710732      87.84199570
H      76.09169780      77.81137152      87.85333405
C      72.95853157      76.44320967      90.25139674
O      71.01967237      76.35439254      88.86433763
N      72.74688222      76.78147068      92.70615123
H      74.32291397      77.08382689      93.73794179
C      70.19575170      76.87973645      93.89667880
H      69.04301865      75.39063212      93.06330950
C      70.29968665      76.22967060      96.69914292
H      71.26344707      77.78680508      97.64589581
H      71.35604366      74.50812993      97.10543408
C      67.65595954      75.98967536      97.93880339
N      65.81725583      74.35317237      97.19803067
H      65.94197777      73.04926122      95.80908183
C      63.78202060      74.62907241      98.73437816
H      61.96977306      73.71822434      98.50572128
N      64.29413643      76.44131995     100.44458048
H      63.05258624      77.15563649     101.70691765
C      66.61472034      77.45232352      99.97970780
H      67.60871638      78.88473608     101.03795454
C      68.96365015      79.41763889      93.70770617
O      70.02756606      81.33571111      94.60532617
N      66.66007377      79.51212521      92.69292314
H      65.94197777      77.93798319      91.88412028
C      65.19364615      81.84971666      92.43969982
H      66.53535183      83.40496142      92.29608062
C      63.57415070      81.92152626      90.01896041
H      62.25890119      80.33982534      90.11911590
H      64.44531453      81.66452348      88.17080807
C      61.77702098      84.24022045      89.75439872
H      60.75278932      84.72965956      91.47215994
C      63.32848628      86.54190709      88.87189654
H      63.94264733      86.60615780      86.90847090
H      64.85160569      86.89717565      90.21360222
H      62.25890119      88.27100667      89.19881919
C      59.61706380      83.99833548      87.88923885
H      60.30114473      83.67141283      85.97494610
H      58.51157391      85.73499395      87.88356967
H      58.35094717      82.48088524      88.47127456
C      63.79146923      82.58104074      94.86232895
O      62.23244502      81.08248778      95.72593387
N      64.29413643      84.81847669      95.87144280
H      65.63206266      85.92585632      95.07964747
C      63.06770405      85.62916928      98.20525480
H      62.71243550      83.86227518      99.20303029
C      65.05380640      87.18630376      99.77561736
H      64.12217133      88.35226490     101.19480182
H      65.81347638      88.63383412      98.52272882
C      67.05880602      85.60271312     101.19858128
H      68.07358905      84.32147867      99.94569273
C      68.98254741      87.40929148     102.12076772
H      70.40740105      86.22443308     103.01838772
H      68.30791511      88.69619510     103.58152616
H      69.56458311      88.35982380     100.38788869
C      65.96276476      83.94353341     103.19035281
H      64.68530977      85.02445686     104.39221875
H      67.54068623      83.01756753     104.13521597
H      64.84971596      82.29191262     102.66878835
C      60.31248308      86.84237357      97.85376570
O      58.37740334      86.26033788      99.10476452
N      60.52413243      88.73965879      96.24749834
H      61.96599361      88.62816494      95.00027897
C      58.30748347      90.26088848      95.61066057
H      56.65586267      89.03634582      95.53129206
C      58.04670124      92.37738196      97.76305884