 %block lattice_cart
   135.996   0.000   0.000
   0.000 142.663   0.000
   0.000   0.000   160.158
 %endblock lattice_cart

 %block positions_abs
N      89.69016835      41.19886907      80.93504602
H      91.53454123      41.25556086      80.44371717
H      88.73963602      39.85149422      79.97128560
H      89.73930123      40.74155530      82.78886754
C      88.52987639      43.70275644      80.55143158
H      89.26875938      44.95564498      82.01030030
C      89.30844364      44.74021619      77.98329351
H      88.57711955      43.35693653      76.64158783
H      91.34745833      44.72320866      77.69794484
C      88.41271336      47.39717139      77.37291193
H      86.40393429      47.24221383      76.95150295
H      89.29143610      47.93007420      75.58712055
S      88.91349084      49.84436695      79.73506982
C      88.03476810      52.66194890      77.98140380
H      88.08579071      52.21219403      75.97262473
H      89.43883475      54.13215597      78.31588536
H      86.07890137      53.17595445      78.36501824
C      85.65371295      43.57425506      80.70827887
O      84.55200251      41.63350612      80.08466917
N      84.63892992      45.58492384      81.81376876
H      85.84646503      46.89639391      82.49784969
C      81.91016512      45.85515471      82.35612020
H      80.78199851      44.74777510      81.03520152
C      81.49253560      44.55502301      84.89213291
H      81.89315758      42.54813367      84.66158630
H      79.47430790      44.70809085      85.27007818
C      82.92305842      45.79090402      87.04075173
O      83.12336941      48.02645024      87.06720791
N      83.51454276      44.26967433      88.96827257
H      84.75987240      44.92162991      90.25706593
H      82.73030634      42.53868504      89.16102466
C      80.63459986      48.54801470      82.16525785
O      81.82323771      50.44529993      81.90258589
N      78.26110361      48.90517299      82.41470172
H      77.16884180      47.34803849      82.57154901
C      76.83247052      51.34103020      82.39580446
H      77.20852605      52.23865019      80.57977747
C      73.93552008      50.78356093      82.56776956
H      73.73520909      49.22831618      81.23362277
C      73.15506311      49.81602107      85.11701035
H      71.56013410      48.52155853      84.96205280
H      72.60326303      51.33158157      86.39446534
H      74.70652841      48.77856131      85.98628446
C      71.95130745      52.76777356      81.74762834
H      71.64328206      54.19640665      83.19893814
H      70.11827293      51.91361728      81.35456526
C      72.65995482      54.47986561      79.47428758
H      74.18118450      55.62503976      80.26041373
H      71.21053474      55.92550624      79.25696905
H      72.99632610      53.41028051      77.74707774
C      77.65828092      53.34980926      84.41403217
O      77.26332812      55.59291441      84.18915473
N      78.51621666      52.36526187      86.57020988
H      79.10203182      50.56246296      86.35667082
C      79.25887910      53.90916825      88.66402665
H      77.78489258      55.33402189      88.86811708
C      79.50643325      52.42762283      91.15657565
H      79.49320517      53.69751891      92.77607109
H      81.19773830      51.25410279      91.26995923
C      77.29734319      50.74009724      91.82364903
C      77.56568433      48.05101669      92.05608538
H      79.39493940      47.25544190      91.61766886
C      75.40005797      46.43719041      92.41702309
H      75.90083544      44.45864696      92.44347927
C      73.02467200      47.61260018      92.79496836
H      71.31257996      46.61860414      93.29196638
C      72.79034593      50.24498894      92.54552448
H      71.00455457      51.23331580      92.59087791
C      74.99754627      51.72275492      92.23938882
H      74.84069898      53.75421070      92.35466213
C      81.76087674      55.23575613      87.77207583
O      81.87803977      57.49397907      87.57365455
N      83.82823733      53.79578468      87.20893738
H      83.64871333      51.89849947      87.25618053
C      86.30188907      54.79733962      86.51540783
H      86.71573913      56.26376724      87.90435666
C      88.46184625      52.85092152      86.52485645
H      89.01364633      52.19140703      84.65213768
H      87.76075778      51.31268430      87.70026623
C      90.67282603      54.03955938      87.76829636
H      89.97362730      54.69718414      89.59188227
H      91.35123778      55.53622261      86.52674619
C      92.75341470      52.22353238      88.53174580
O      93.32600178      51.99487551      90.79752765
O      94.28220329      51.31079458      86.99728803
C      86.13937261      56.33368711      83.85845263
O      87.71162490      58.04577915      83.51641216
N      84.22130040      55.87826307      82.32966404
H      83.19328929      54.30223134      82.65469696
C      83.49942495      57.47319209      80.11112535
H      85.06789779      57.43539756      78.77697857
C      81.36025476      56.12392749      78.69005116
H      79.59525039      56.20518572      79.75018762
H      82.16338845      54.29089297      78.20628122
C      80.90672045      57.46563318      76.16159735
H      82.46574466      57.21052013      74.83689921
H      80.58735670      59.46118416      76.56410905
S      77.96063713      56.50943167      74.69139029
C      78.91872837      56.70407348      71.42405349
H      77.42395485      55.92928568      70.23541564
H      80.67617384      55.65527538      71.20295551
H      79.17573115      58.60324842      70.67005269
C      82.84180019      60.16416236      81.13913647
O      83.96996680      62.01987359      80.24151646
N      80.85002866      60.26620758      82.74729355
H      80.17161691      58.65616076      83.51452244
C      79.88815797      62.71151342      83.88112935
H      79.33446816      63.92093826      82.30887705
C      77.46930828      62.53009969      85.47983780
H      77.17829043      64.36880340      86.36611945
H      77.61481721      60.93328097      86.77052087
C      75.26966686      61.58523655      83.76963549
H      75.68918610      59.83346024      82.77185999
C      73.05679734      61.12036387      85.63101590
H      72.43507739      62.92505250      86.40769342
H      73.43474261      59.68228215      87.05586955
H      71.53745739      60.30967129      84.50284930
C      74.60070374      63.76976016      81.81943793
H      76.04823410      64.19683830      80.41915073
H      74.34748042      65.60090496      82.73406547
H      72.92829595      63.60535397      80.62891035
C      81.84402470      64.22707392      85.28897545
O      81.98575417      66.60057018      85.02441376
N      83.41060781      62.80788947      86.78563869
H      83.07990571      60.92761178      86.82343321
C      85.69906638      63.93983552      87.83632651
H      85.14726629      65.59145632      88.93614722
C      87.19195016      62.01420442      89.66180213
H      88.47129488      63.28976968      90.64823927
H      88.29366061      60.69895491      88.52040744
C      85.61780815      60.70651381      91.62900723
H      84.22319013      59.48953006      90.72949751
H      84.54255387      62.12380855      92.66835669
C      87.26375976      58.92450189      93.16346499
H      88.66404696      59.95062328      94.27273433
H      88.31822705      57.85869625      91.74994971
N      85.72930200      57.28799891      94.70170222
H      85.33812865      55.50409726      94.14990213
C      84.90916078      57.72263596      96.98260188
N      85.12836903      59.80133490      98.24115959
H      84.17216752      60.00542534      99.87955231
H      86.23196920      61.21485019      97.59109374
N      83.69973594      55.94251378      98.23738015
H      83.10825160      56.52643921      99.95514137
H      83.78477362      54.19829638      97.46637180
C      87.62091804      65.12847337      86.03163789
O      88.26153526      67.31677644      86.59288660
N      88.29744006      64.09668282      83.82632728
H      87.53965981      62.38459077      83.45405120
C      89.91504578      65.23996723      81.88557836
H      91.32289188      66.47584824      82.74162437
C      91.12636035      63.29165940      80.16025823
H      89.67316081      62.09357292      79.32688892
C      92.68160510      64.63714454      78.05888258
H      93.62646826      63.41071215      76.70205907
H      94.09889984      66.01475501      78.63902855
H      91.40037066      65.72184745      76.86457555
C      92.95372569      61.77987836      81.88935781
H      91.85579471      61.16382757      83.51830190
H      94.53164716      62.92694222      82.54698257
C      93.78898472      59.30433688      80.61190282
H      95.62768843      58.72608063      81.33566799
H      93.93260392      59.82401161      78.62391074
H      92.22051188      57.96830037      80.66481515
C      88.30877842      67.34134289      80.48529115
O      89.28576692      69.45783636      80.07333082
N      85.91827463      66.93127229      79.86546093
H      85.26064987      65.13981173      79.84089449
C      84.40460385      68.88902874      78.54265251
H      85.53843964      69.68649325      77.02142283
C      81.95173910      67.65692719      77.85290241
H      80.54956217      69.16303906      77.73951883
H      81.43962327      66.33222904      79.34389647
C      81.71741304      66.52498113      75.28098489
O      83.25942971      67.39614496      73.61802574
O      80.09980731      64.93383156      74.67627247
C      83.94162091      71.27953253      80.08655891
O      84.60302512      73.33366502      79.16437246
N      82.91738924      71.11323662      82.38635583
H      82.44495767      69.38980621      83.05909840
C      82.38637615      73.36956983      83.92081359
H      81.41505683      74.74340086      82.73028601
C      80.42106079      72.76107795      85.82565772
H      80.07335114      74.60167139      86.68170373
H      81.07112664      71.56677092      87.37145384
C      77.89071725      71.73495657      84.80709523
H      76.92128765      71.02819892      86.48328248
H      78.25543443      70.20994744      83.47483819
C      76.08602862      73.62846233      83.58255259
O      76.71341776      75.99439968      83.46349982
O      74.02622694      72.96327867      82.80209561
C      84.72018815      74.70560633      85.15291515
O      84.76932103      76.92036558      86.02785843
N      86.71384941      73.21461228      85.45716108
H      86.43794937      71.45149763      84.77685962
C      88.70184149      73.53964519      87.19948874
H      89.62213820      75.33110575      86.76485170
H      90.09079033      72.05432032      86.87256609
C      87.94028178      73.39602600      90.06998301
O      86.12425480      72.19416007      90.83910163
N      89.36702515      74.75851866      91.70837574
H      90.95061580      75.68826401      91.18492155
C      88.73207711      75.28386259      94.39745627
H      86.68550351      75.29331121      94.63934124
C      89.99252456      73.43571026      96.16624010
H      92.01642144      73.69838221      95.88278116
H      89.68071972      71.46094626      95.66735235
C      89.36135597      73.81743496      99.05941108
H      89.78465467      75.70149209      99.77939682
C      86.56267130      73.27319378      99.36743648
H      85.36458482      74.13679871      97.92935475
H      85.74253008      73.59066781     101.23070663
H      86.16393905      71.26252500      99.17090494
C      90.69928220      71.60078601     100.58442023
H      90.45739723      69.83011244      99.56018857
H      89.71095534      71.26441471     102.35887324
H      92.72884826      71.91637030     100.73181887
C      89.42938612      78.10144451      95.21003859
O      91.64981454      78.88001175      94.94736664
N      87.60391050      79.55464406      96.15112229
H      85.77087598      79.03685904      96.28907231
C      88.04610646      82.13789992      97.22637657
H      90.06433416      82.34954927      97.57786566
C      87.28076730      84.18069407      95.31208380
H      86.81589463      85.96459570      96.23238052
H      85.57812389      83.61944536      94.29730077
C      89.41804776      84.67958182      93.37889380
H      90.13992321      82.80119386      92.94992591
H      90.90904182      85.72271073      94.34265422
C      88.34846267      86.07419984      91.05264070
H      87.98752494      88.06030219      91.46271130
H      86.71384941      84.96493048      90.47627417
N      90.04354717      86.07231010      88.82087393
H      91.12636035      87.61621651      88.52985607
C      90.52164793      84.29029819      87.12200996
N      89.40292995      82.18325336      87.07476682
H      89.77709576      80.93225453      85.68581797
H      88.31444759      81.72027041      88.57143006
N      92.31877765      84.57942632      85.48172752
H      92.42082287      83.08276308      84.30064859
H      93.28064835      86.22726766      85.44015355
C      86.45306718      82.32498283      99.72837420
O      84.11925518      82.30797528      99.54129130
N      87.62280776      82.95237196     101.85620603
H      89.52009298      82.75017124     101.88644165
C      86.40015484      82.92213635     104.41300573
H      84.85057926      81.59176902     104.14277487
C      88.04610646      81.56153339     106.43123343
H      86.88770423      81.31019979     108.11497958
H      89.62024848      82.70292808     107.10964519
C      88.95884427      78.88190148     105.96825048
H      90.37046982      78.81387133     104.46969752
C      90.26275542      77.92003080     108.40599743
H      92.24129887      78.47372061     108.25481932
H      90.35724174      75.86211883     108.34552619
H      89.40481968      78.65702405     110.12564837
C      86.88392478      76.93926283     105.33708190
H      85.66316158      77.55531361     103.79695495
H      85.56111636      76.67281142     106.89421638
H      87.76831669      75.17803792     104.73614893
C      85.01309573      85.34854492     105.24637503
O      83.85847295      85.39578808     107.18901368
N      85.22285535      87.33086783     103.72892480
H      86.45495690      87.11732875     102.28517390
C      84.13248326      89.80074013     103.98592758
H      83.20462764      89.95758740     105.81896210
C      86.25275619      91.89455688     104.24482009
H      87.17683235      92.20825145     102.42879311
H      87.65871256      91.28606501     105.61865112
C      85.05089025      94.29828875     105.31251546
H      84.20429286      93.91278457     107.15121916
H      83.64682360      94.98992857     103.97269951
C      86.96140355      96.49226100     105.54684152
H      88.43350035      95.91589447     106.86776022
H      86.08457055      98.08530028     106.51627111
C      87.99508385      97.32185085     103.07130005
H      86.43039046      97.80940023     101.82219095
H      89.00041825      95.70802457     102.27383554
N      89.76008822      99.48936693     103.34531036
H      90.73707673      99.79550259     101.73337383
H      90.88447538      99.36842444     104.88354759
H      88.80010726     101.08240621     103.77238851
C      82.19929325      90.29962786     101.75038136
O      82.85880773      89.55507571      99.65467488
N      80.16216828      91.67534862     102.11320882
H      79.89004769      92.49360011     103.81585222
C      78.28567005      92.28950968     100.17812907
H      77.51277199      90.45080598      99.66601324
C      75.95185806      93.90900512     101.19858128
H      76.76066092      95.78928280     101.42912788
C      74.02055776      94.26805312      99.13311042
H      72.20453078      95.09764298      99.63766735
H      73.92796117      92.49926930      98.08431232
H      74.67251334      95.78928280      97.90667803
C      74.81046336      93.02083376     103.78183714
H      76.35436976      92.82997141     105.13299145
H      74.24543519      91.05929785     103.50971656
C      72.66562400      94.75749224     104.86842978
H      73.51033166      96.63588019     104.76638456
H      72.28956846      94.20002297     106.81484787
H      71.09526143      94.55907097     103.55318027
C      79.48753599      93.48570643      97.89722940
O      80.89727182      95.30551288      98.17879862
N      79.23998184      92.37832682      95.66546264
H      78.00221110      90.93079646      95.55018932
C      80.12248403      93.37421258      93.24094378
H      81.01443485      95.21858546      93.45637257
C      82.17094735      91.42023557      92.23938882
H      83.88303939      91.43346365      93.38267325
H      82.84368992      92.08163978      90.40635431
C      81.40182874      88.71981666      91.78207506
C      80.69129165      88.02628712      89.33298975
H      80.64782794      89.34342635      87.77396555
C      79.99020319      85.50917166      88.68859309
H      79.63493464      84.99516611      86.74595443
C      80.16216828      83.67991660      90.52351734
O      79.89571687      81.31775870      89.74117064
H      79.23998184      81.13445524      88.05931423
C      81.01065539      84.31675437      92.99149990
H      81.05033965      82.86733427      94.42769190
C      81.64938289      86.77906774      93.56975614
H      82.35425080      87.43291306      95.37255505
C      77.80567957      93.68412770      91.47971885
O      75.87626900      92.69202137      92.02773948
N      78.03244673      95.19968819      89.41802743
H      79.70485451      96.09541846      89.20448837
C      76.12004370      95.40755810      87.41491755
H      74.27567082      95.52283139      88.32576564
C      76.59058555      98.06829275      86.08832968
H      75.59281006      97.99459341      84.28931023
H      78.62015161      98.23269892      85.77274539
C      75.60036896     100.35297185      87.65869224
H      76.61515199     100.41344309      89.45204251
H      73.57458235     100.05439509      87.90057720
C      75.99721149     102.84741059      86.41336261
H      75.02589216     102.62442289      84.61056369
H      78.00410083     103.31039354      86.38312698
C      74.69141060     104.86374857      87.90435666
H      75.61926622     105.02626502      89.73739119
H      72.74121305     104.26470532      88.19915396
N      74.77455856     107.15787631      86.34344272
H      76.53956294     107.71723529      85.88801868
H      73.91473309     108.47123609      87.42814563
H      73.65584058     107.11819206      84.79764661
C      76.08224917      93.08697417      85.56109603
O      78.01732892      92.34809119      84.54820273
N      73.87693856      92.07408087      85.24551174
H      72.41995958      92.79784606      86.24517696
C      73.19285764      90.34309157      83.10634156
H      74.59503456      88.83508997      83.07232648
C      70.61338122      89.20358660      83.39357996
H      69.50222215      90.91567864      83.12334910
H      70.55479971      88.29651798      85.24173229
C      70.18630307      87.08520340      81.61345776
O      69.07136455      87.48960485      79.58389170
O      70.88361208      84.90823869      82.15202977
C      73.55379536      91.61109792      80.52875486
O      73.20041654      93.93168184      80.32844388
N      74.16795642      90.22970800      78.45572509
H      74.19441258      88.32675360      78.59745458
C      74.48732016      91.46180954      76.00286034
H      75.80067995      93.03217212      76.22773778
C      75.41706551      89.71003326      73.97896346
H      75.13738601      90.76639027      72.23285634
C      78.23464744      89.33964690      74.09801622
H      79.27777637      91.11221019      73.97707374
H      78.88849275      88.21525974      72.50308721
H      78.59369544      88.37777621      75.88380758
O      74.43062837      87.32519866      73.89392577
H      72.61838084      87.33086783      73.94305866
C      72.09492665      92.72036728      75.01642320
O      72.17240543      94.31151683      73.25141884
N      69.90095440      92.14966993      76.12002337
H      69.98788181      90.96292181      77.61290716
C      67.47832527      93.29484407      75.48696505
H      67.39706704      93.42901464      73.43283256
C      65.38450851      91.66778971      76.49796864
H      65.17285917      91.70936370      78.54643197
H      66.02890519      89.82719629      75.84034389
C      62.74834031      92.05707334      75.18649858
H      61.93008881      93.92412293      75.47373698
H      61.56348191      90.53962311      75.92160211
C      62.98077664      91.61109792      72.48607967
O      62.81637045      89.40767704      71.64137202
O      63.06581433      93.53672904      71.06689521
C      67.13628480      95.95557873      76.81733238
O      65.31836809      97.38043236      76.18238435
N      68.67074257      96.56029115      78.77508884
H      70.23921541      95.51716222      79.07744505
C      68.39673226      98.77882984      80.39080484
H      67.34226497     100.05250537      79.16437246
H      70.27700994      99.18701072      81.12590837
C      66.70542721      98.10797700      82.73784492
O      66.23299563      99.78227451      84.30820748
N      65.89473462      95.76093692      83.04020113
H      66.00433874      94.64032921      81.49818447
C      64.71554540      94.69324155      85.28519600
H      63.32470683      95.97447598      86.10344749
C      63.55714317      92.04195552      84.67292467
H      62.94676157      91.22937322      86.46627494
H      65.27301466      91.08386429      84.06254306
C      61.41230380      91.56763423      82.83611070
C      60.61105985      89.11665920      82.12935305
H      61.80158742      87.59542952      82.78130863
C      58.57015543      88.64611734      80.46072471
H      57.99000945      86.71103759      80.16970686
C      57.30781825      90.82119232      79.57822253
O      55.04581585      90.51316694      78.34801069
H      54.31638150      92.13644185      78.00408050
C      58.13929783      93.34397695      80.07522055
H      57.17175796      94.98614912      79.34011702
C      60.08571593      93.65767153      81.85156328
H      60.66964136      95.50015469      82.51107777
C      66.76400872      94.21325107      87.43759427
O      68.96931933      94.45702575      86.84233048
N      66.12150177      93.49326533      89.83187750
H      64.24689327      93.27216735      90.10777755
C      67.89784451      93.01138513      91.87089220
H      69.87071878      93.19468857      91.30775375
C      67.46131773      94.81796349      94.05541582
H      68.06036097      93.92412293      95.81286128
H      65.45820784      95.12976832      94.42580216
C      69.03357002      97.28216660      93.79085413
C      67.75422531      99.53283064      93.58109451
H      65.71899007      99.56117653      93.43369585
C      68.96742960     101.80995083      93.50361573
H      67.92430068     103.56172714      93.42802668
C      71.60548754     101.94223168      93.54707944
O      72.87538362     104.09462995      93.41290886
H      71.61682589     105.34751850      93.04063278
C      73.05868707      99.73881080      93.84754592
H      75.09770176      99.82762794      93.90423770
C      71.74343756      97.32752003      94.00250347
H      72.77711785      95.57007455      94.09698979
C      68.36271718      90.20703127      92.82520399
O      66.56369773      88.78028792      93.25606158
N      70.64172712      89.48704556      93.48093901
H      71.98910198      90.61899161      92.74205603
C      71.36927175      86.81875200      93.97226786
H      69.72898931      85.69625457      94.51650903
C      72.28389928      85.60176825      91.38712226
H      73.44230151      83.92558102      91.68758874
C      70.14661882      84.47927082      89.74872955
H      68.93530425      83.18858775      90.80130711
H      71.16140185      83.44181108      88.28797110
H      68.92963508      85.92302173      88.92669860
O      73.68607621      87.13622602      89.74117064
H      74.76699966      88.34565086      90.54997350
C      73.66528922      86.49938826      95.76939757
O      75.10526067      88.29273853      96.17001956
N      74.05268311      84.22982695      96.92591008
H      72.87160416      82.78040687      96.54040592
C      76.16728685      83.67802686      98.53595689
H      77.83969464      84.77973730      98.05029723
C      75.69296555      84.21848859     101.25905252
H      74.66306471      85.99294160     101.43857651
C      73.65206113      82.34010063     102.54973559
H      72.11949309      81.93003003     101.23448608
H      72.71475688      83.33220696     104.09175225
H      74.69896951      80.64501613     103.06563088
C      77.96063713      84.65879483     102.99193154
H      79.54989695      85.49783331     101.98092797
H      78.51621666      82.75961987     103.56451861
C      77.44852129      86.02695668     105.41834013
H      76.80601435      87.93180079     104.97047499
H      79.09825237      86.33876151     106.61075744
H      76.10303616      84.91768733     106.51438139
C      77.13671645      80.87934219      98.13533492
O      75.63060458      79.38078924      96.98071215
N      79.37982159      80.20470990      99.05752136
H      80.68562247      81.58609983      99.22003782
C      80.26610323      77.61389512      99.35231866
H      78.86203658      76.69737786     100.54851543
H      82.10480693      77.58176979     100.28017428
C      80.78199851      76.22494628      96.84087239
O      82.58479741      76.79753336      95.49916672
N      79.16061333      74.47317000      96.10954832
H      78.03811590      73.74373564      97.47204099
C      79.11525990      73.21272254      93.79652330
H      80.67428411      73.51885820      92.48505324
C      79.27021746      70.33277964      94.11966650
H      77.66017064      69.50885898      95.10610364
C      79.54800723      68.92304381      91.64790448
H      79.28722500      66.93127229      92.11277717
H      81.39804929      69.18571578      90.78429956
H      78.14394058      69.38413704      90.21360222
C      81.61158836      69.77531039      95.72971333
H      81.08435472      70.47072966      97.59487319
H      83.26698861      70.72017353      94.94547690
C      82.33157409      67.00308189      96.22104217
H      80.88026428      66.03365229      97.31708342
H      84.03799695      66.98229489      97.37755466
H      82.89282280      66.20939682      94.40501517
C      76.74554311      74.04420212      92.35088268
O      74.95786201      72.61178957      91.86333329
N      76.78522736      76.37990385      91.44003459
H      78.32535430      77.50051154      91.55719762
C      74.71786677      77.38901770      89.88290012
H      74.57802703      76.33832986      88.11600601
H      75.16006273      79.38267895      89.61266925
C      72.06658076      77.33232591      91.16413456
O      70.30724556      77.83877255      89.74495010
N      71.85871086      76.93359366      93.68313972
H      73.35915355      76.86367379      94.86232895
C      69.52867832      77.06587450      95.00216869
H      68.12083221      75.74873525      94.27840352
C      69.98788181      76.47439016      97.82353008
H      71.22943200      77.81987530      98.77028297
H      70.85904564      74.60923030      97.88022187
C      67.81658628      76.40824975      99.64333651
N      66.21220864      74.28230763      99.95892081
H      66.34259975      72.62312794      99.02539602
C      64.32626178      74.97016802     101.39889227
H      62.76345812      73.77964044     101.95636153
N      64.60216182      77.39657661     102.16612115
H      63.18675681      78.47183087     102.86343016
C      66.88306148      78.31876304     101.07196962
H      67.78824038      80.14045921     100.92268123
C      68.22476716      79.64724065      94.61477480
O      69.34348514      81.60121764      95.28751736
N      65.81536611      79.76818313      93.84376646
H      64.97065845      78.24884317      93.05764031
C      64.38106384      82.18514308      93.70581645
H      65.50923045      83.62511452      92.76095328
C      62.03402376      81.87144851      91.86333329
H      60.68097972      80.45604350      92.50772997
H      62.87873142      81.02485112      90.18903578
C      60.45043311      84.28462902      90.95815439
H      59.97800153      85.31075040      92.68158479
C      61.94331690      85.67357785      89.05331026
H      62.30614435      84.67391263      87.29019561
H      63.80658704      85.90979365      89.89990764
H      60.83593728      87.35732400      88.62623211
C      57.86150806      83.48338506      89.86022339
H      56.62751678      85.12933667      89.75817818
H      57.31348743      81.85255125      90.99405918
H      58.17520263      82.81253222      87.93648200
C      63.55903289      83.14701378      96.31741820
O      62.77479647      81.73727794      98.02762053
N      63.52501782      85.65279086      96.67646620
H      64.15996586      86.67135334      95.19492077
C      62.60094165      86.98882736      98.84020283
H      61.95654498      85.66412923     100.28395374
C      64.73066321      88.50816732     100.05151740
H      64.11272270      89.40389759     101.80140396
H      65.22577150      90.06152235      98.79484941
C      67.14195398      87.05496779     100.83953328
H      67.74666640      85.69436484      99.41656936
C      69.25655773      88.78784681     101.38944363
H      69.58725983      90.16923675      99.89844958
H      70.96109086      87.64078295     101.56140873
H      68.95231179      90.09931687     102.94846785
C      66.80180325      85.27106614     103.21869871
H      65.22388178      83.95203718     103.15633773
H      66.41251963      86.45781428     104.85898115
H      68.66318367      84.46604274     103.57963642
C      60.38240296      88.76517011      98.30352056
O      58.32638073      88.38155565      99.38066456
N      60.65830300      90.37521692      96.41001479
H      62.20976831      90.22025937      95.31208380
C      58.54558899      91.90967468      95.46893109
H      56.77302570      90.89867111      95.73916195
C      58.36795471      94.42112095      96.93157926