 %block lattice_cart
   135.996   0.000   0.000
   0.000 142.663   0.000
   0.000   0.000   160.158
 %endblock lattice_cart

 %block positions_abs
N      90.34212393      41.38595199      82.25596472
H      89.56166696      40.60171556      83.81120947
H      92.22618105      41.44453351      82.54509284
H      90.21362253      40.29935935      80.68938160
C      89.41426831      43.91251607      81.58133242
H      90.20795336      45.11249228      83.05531895
C      90.63881095      44.74210592      79.05287861
H      90.33645474      43.26056048      77.65259142
H      92.68727428      44.95186554      79.03965053
C      89.46340119      47.18552204      78.02297777
H      87.46596048      46.74332608      77.77731335
H      90.07189306      47.53512141      76.08600830
S      90.04921635      50.00499370      79.98073423
C      88.64514970      52.34069542      77.99463188
H      86.63259118      51.90416865      78.01352914
H      89.17616279      52.36715160      76.00663980
H      89.00608742      54.15861214      78.89792106
C      86.44928771      43.90684689      81.61912695
O      85.30411358      42.35160214      80.25096510
N      85.22474507      45.76822731      83.03453196
H      86.31889661      46.91529118      84.09466842
C      82.54889261      46.15751093      83.21216623
H      81.59080137      45.28256765      81.61156804
C      81.59836028      44.60226618      85.56109604
H      82.25598503      42.66151725      85.35133642
H      79.56879421      44.78745935      85.25496037
C      82.24464667      45.68696908      88.09143957
O      82.19362407      47.93574339      88.38623687
N      82.79455703      44.19597502      90.02651931
H      82.52432617      44.86304841      91.79530314
H      82.60369467      42.29868980      89.97549670
C      81.70418495      48.93351889      83.21216623
O      83.15171530      50.82891438      83.57121423
N      79.10392153      49.30768470      83.33688817
H      77.92095287      47.82047009      83.52019162
C      77.90205561      51.79645424      83.85278345
H      77.98142411      52.70730233      82.00841057
C      75.03156134      51.59236381      84.17025747
H      74.23409684      50.48309445      82.63013053
C      74.43251810      50.26388621      86.81209486
H      72.48232053      49.60059227      86.78374896
H      74.62715990      51.55456928      88.40513414
H      75.77611350      48.70864145      86.95193460
C      73.61804606      54.09058199      84.09466842
H      74.28511945      55.30189655      85.62156728
H      71.63572316      53.66350385      84.45371642
C      73.87882828      55.34913971      81.51330227
H      73.84103375      54.15483269      79.83522531
H      75.63438403      56.42628372      81.52275091
H      72.41429040      56.77399336      81.25440977
C      79.07557565      53.46697231      85.81809882
O      79.38738049      55.77054869      85.32676997
N      79.98831345      52.56557285      87.99884298
H      80.52121628      50.73631779      88.13112382
C      81.03333210      54.18317857      89.94904054
H      79.61603738      55.62503976      90.34021388
C      81.33568831      52.78667084      92.49072243
H      82.33535354      53.90727854      93.90234798
H      82.40716314      51.09347606      92.01073194
C      78.85069822      51.99865495      93.73227261
C      77.51466172      49.87460259      92.92158003
H      78.53700364      48.78800995      91.53452091
C      75.05612778      49.29445661      93.89856853
H      74.07158037      47.51433442      93.73605207
C      73.81268787      51.01977672      95.42546739
H      72.13083144      50.46230747      96.44025042
C      75.12793738      53.11170376      96.29096204
H      74.28889890      54.49876288      97.53440196
C      77.47686719      53.70696755      95.24405366
H      78.39716390      55.45118494      95.76939758
C      83.56934482      55.34913971      89.35566647
O      84.13248325      57.55634005      89.81298024
N      85.00931627      53.70129836      88.25584576
H      84.22696957      52.02133167      87.79286281
C      87.52643172      54.24742928      87.19570930
H      88.64514970      55.28299930      88.58276841
C      88.77932027      51.72464465      86.45115713
H      90.53676574      52.20652486      85.49306589
H      87.81555985      50.78734040      84.89024320
C      89.72418341      49.95019164      88.57898896
H      88.19350510      49.21319838      89.74306037
H      91.05266101      50.94418768      89.79975216
C      91.21328776      47.75810912      87.67758951
O      93.54143058      47.96030983      87.66247170
O      90.15126156      45.73610196      87.00106749
C      87.19761933      56.07290490      84.82410277
O      88.71884902      57.84546818      84.73339591
N      85.41371770      55.68551100      83.09311347
H      84.34035316      54.11514844      83.24618130
C      84.65782718      57.49019963      81.18637962
H      86.09779863      57.59413458      79.71806228
C      82.43739876      56.42061454      79.90892463
H      80.77066015      56.55667483      81.11457002
H      82.67361455      54.43073273      79.43460333
C      81.63993426      57.55822978      77.33700712
H      82.98730912      56.88170776      75.93483020
H      81.60780890      59.60858282      77.53353866
S      78.44629679      56.80044953      76.30521656
C      78.61070298      57.89082160      73.13803525
H      78.95274344      59.92227740      73.16638115
H      76.80790407      57.41839003      72.26498170
H      80.07335114      56.96863517      72.01553783
C      84.17783669      60.17928017      82.17848594
O      85.24931151      61.93483592      81.24685086
N      82.67172482      60.51187199      84.05120471
H      81.84402470      59.03221630      84.93370690
C      82.02921788      62.94583950      84.93748635
H      81.92717266      64.38014177      83.46349983
C      79.52155106      62.70017508      86.32076601
H      79.12659826      64.38392122      87.44326344
H      79.71430314      60.92572207      87.35066685
C      77.31624045      62.39025996      84.36678901
H      77.80756928      60.76698505      83.19893815
C      74.88038323      61.65137697      85.76140703
H      74.34181124      63.12725322      87.09366408
H      75.19596753      60.01865344      86.97839077
H      73.40639671      61.30366732      84.36300955
C      76.68318214      64.75808703      82.88524358
H      76.20697111      66.28687561      84.18159583
H      75.04856888      64.29510408      81.71928244
H      78.25354470      65.58011798      81.83644547
C      84.03988666      64.24408146      86.61934277
O      84.32145589      66.55332703      86.33777355
N      85.55922663      62.80788948      87.85522378
H      85.44395332      60.90682480      87.71160458
C      88.07256263      63.66771495      89.07031780
H      87.69083791      65.16059872      90.43847965
C      89.29710528      61.48508106      90.59910639
H      91.33045078      61.70995849      90.83343245
H      89.05711004      59.81834245      89.41235826
C      87.91571534      61.01453920      93.14078828
H      86.00142259      60.35313499      92.76662247
H      87.57934406      62.64726274      94.35021312
C      89.24986211      59.13426152      94.83209333
H      90.79943770      59.94873356      95.91679623
H      90.22307117      57.89082160      93.50739518
N      87.49808583      57.45618456      96.23427025
H      87.63414612      55.56645824      95.99238528
C      86.40960347      58.08546341      98.45469867
N      86.82912271      60.22652333      99.68680023
H      86.53432541      60.24164114     101.57274709
H      87.99508384      61.46996325      98.82697475
N      84.90727105      56.52454948      99.50538650
H      84.37625795      56.95918654     101.28550869
H      84.72963678      54.77277319      98.76839324
C      89.74308069      64.97162610      87.07665654
O      91.09045554      66.74418938      87.73806075
N      89.67505053      64.14014653      84.69938084
H      88.36547020      62.80788948      84.30442804
C      90.97329251      65.24374669      82.46761406
H      92.63814140      66.16215367      83.26129911
C      91.99752418      63.08001006      80.68371242
H      90.45928696      61.90460030      79.97695478
C      93.29576616      64.24219174      78.34612097
H      91.96917828      64.89225760      76.90992898
H      94.86234927      63.13859157      77.59778935
H      94.49574236      65.76531114      79.04154026
C      93.71717512      61.26020362      82.16336813
H      92.56066261      60.24542059      83.53341970
H      95.27997878      62.15026472      83.17059225
C      95.00029928      59.18339441      80.59678501
H      96.36090223      60.09046303      79.34389647
H      93.66237306      58.00420519      79.56877390
H      95.94705217      57.99853601      81.99140303
C      89.49174709      67.36968878      81.17504126
O      90.73518700      69.14225208      80.30009798
N      87.02943370      67.06922231      80.82355217
H      86.33590414      65.34579190      81.25818922
C      85.42127661      68.87202121      79.39113962
H      86.40582402      69.66381653      77.76597500
C      83.01376529      67.36212989      78.74485323
H      81.41127737      68.53376019      79.30799167
H      82.71140908      65.75208306      79.99396232
C      82.70762962      66.59679073      76.02742679
O      83.87548048      67.83267174      74.32856283
O      81.15805405      64.85446307      75.48318561
C      84.82601281      71.34756268      80.76497065
O      84.67483472      73.35256230      79.61034788
N      84.37247851      71.13024416      83.27641692
H      84.09279901      69.46917473      84.17214720
C      83.48808659      73.14847185      84.86000757
H      82.69440153      74.60734057      83.63924438
C      81.57379384      72.37746352      86.99728803
H      81.39615955      74.07443775      88.15002109
H      82.44495767      70.95638934      88.20860260
C      78.87904411      71.48740242      86.06187351
H      77.72631105      70.92237425      87.67381005
H      79.17951059      69.77531039      84.95638362
C      77.32190963      73.28264243      84.39891435
O      78.22897826      75.37267973      83.78853275
O      75.26021822      72.63068685      83.35011625
C      85.63292596      74.20104941      86.45304686
O      85.58001361      76.50462579      87.07287709
N      87.41493786      72.69115809      87.24862163
H      87.19572962      70.86757220      86.73839553
C      89.40292994      73.56799109      88.97961094
H      90.35157256      75.25551670      88.27663275
H      90.91093154      72.16770390      89.09866369
C      88.63948052      74.07632747      91.66869148
O      86.83290215      72.93115332      92.52662723
N      89.88481015      75.80731678      92.94614647
H      91.44761381      76.56698676      92.15813060
C      89.39348132      76.35533741      95.68624962
H      87.41493786      75.94337708      96.08687160
C      90.83723222      74.46939055      97.29062726
H      92.88002637      74.72450360      97.26795055
H      90.41393353      72.62879711      96.46859632
C      89.89047934      74.63001729     100.13088591
H      89.99630400      76.59722238     100.73370860
C      87.10502274      73.77019182     100.49560309
H      86.84613024      71.77653055     100.05340713
H      85.81056023      75.11000777      99.61499063
H      86.38125758      74.05931993     102.40233694
C      91.32100216      73.02186020     101.99982523
H      91.25675145      71.07922154     101.31952376
H      90.63314177      73.20138420     103.93490498
H      93.28064834      73.63980069     102.13588553
C      90.01898073      79.03118987      96.41568398
O      92.24507833      79.63023311      96.12655585
N      88.15004140      80.48249968      97.38322385
H      86.41527265      79.69826326      97.24338410
C      88.46373596      83.08465280      98.07108423
H      90.49708149      83.40401655      98.14856301
C      87.20328851      85.16524148      96.44214015
H      86.95573436      86.90945887      97.50794579
H      85.27009849      84.71926606      95.88278116
C      88.94372646      85.58098126      94.14423295
H      88.94939564      83.79707963      93.11433211
H      90.89392401      85.93436009      94.70359194
C      87.91571534      87.71448227      92.46048681
H      88.35413184      89.57208325      93.23527459
H      85.88425955      87.40645689      92.31686761
N      89.11002237      87.69558502      89.92447409
H      90.36291092      89.07697494      89.51818294
C      88.41460309      86.19892178      87.88923885
N      86.58534802      84.60210303      87.93459229
H      86.30377879      83.45881862      86.43225987
H      85.61402869      84.29974682      89.54841856
N      89.33867926      86.40490195      85.73873031
H      88.63381134      85.47893605      84.22505953
H      90.38936709      87.97337479      85.45527136
C      87.19761933      83.28496380     100.62410448
O      84.85246899      83.11110898     100.86220999
N      88.62058325      83.78196182     102.66122944
H      90.51408902      83.97849336     102.53650751
C      87.73619134      83.87644814     105.24070586
H      86.29055071      82.47616093     105.67156346
C      89.85835399      83.06386582     107.01326914
H      89.28576691      82.90134936     108.98614341
H      91.07722745      84.72304553     106.94145954
C      91.24352338      80.42391815     106.54461702
H      92.38113861      80.54108120     104.83252498
C      92.77609141      79.86266944     108.82929613
H      93.90047858      81.53507723     109.26015373
H      94.13291491      78.39057264     108.35119537
H      91.64225563      79.35433306     110.47335802
C      89.10057373      78.46238225     106.58052182
H      87.92705369      78.81954053     104.92701129
H      87.95350987      78.81198162     108.25481933
H      90.08323142      76.67848061     106.88665748
C      86.34913223      86.29151837     105.86809500
O      85.44206360      86.65812526     108.02427272
N      86.14882123      88.06219191     104.10498035
H      87.17494262      87.80896860     102.51761024
C      84.46885454      90.23348746     104.48859479
H      83.49942495      90.10876552     106.30273205
C      85.99575341      92.74304399     104.51316123
H      84.68239362      94.32852438     104.54717630
H      87.19572962      92.81674333     102.84075344
C      87.72107353      92.90178101     106.86776022
H      89.37269432      91.71881233     106.53705811
H      86.64392953      92.16667746     108.46457895
C      88.54499420      95.56440538     107.48570072
H      89.13647854      95.80251090     109.44534691
H      86.78187955      96.59430622     107.20791095
C      90.39125680      96.36186989     105.46747302
H      89.63914573      95.75715747     103.64766658
H      92.24885778      95.57007455     105.86809500
N      90.59534724      99.19645936     105.43912712
H      92.24885778      99.81062041     104.71158249
H      90.41960271      99.91644508     107.19846232
H      89.14781690      99.89754781     104.40922628
C      82.35614053      90.27128197     102.38910885
O      82.91360979      89.49838392     100.23293113
N      80.26421350      91.70936371     102.75571576
H      79.73886959      92.22147954     104.51883041
C      78.42739952      92.28195078     100.71292161
H      77.57702268      90.44135735     100.35576334
C      76.33358277      93.97136610     101.87699302
H      77.37293224      95.54361840     102.70847260
C      74.39850302      94.77072033      99.83419888
H      75.27911549      96.19179451      98.63233294
H      72.86782471      95.71936293     100.83575382
H      73.70119401      93.13799679      98.78729050
C      75.07691476      92.61832205     104.06151664
H      76.36759783      91.58842122     105.29172847
H      74.15094887      90.98748825     103.21113980
C      73.03034117      93.92979211     105.51660590
H      71.46375805      94.05451405     104.18623858
H      73.41395562      95.84030542     106.18745874
H      72.28767873      92.89044265     107.13043217
C      79.54800723      93.65767153      98.43013223
O      80.97664031      95.52094167      98.63044322
N      78.95463317      92.75816181      96.14167366
H      77.67528845      91.34464653      96.10576886
C      79.83524562      93.61231810      93.70770617
H      80.97853004      95.30551288      93.96848840
C      81.62859590      91.66212054      92.35844158
H      83.38604136      91.53928834      93.42613695
H      82.04811514      92.60698369      90.57831940
C      80.88215400      88.97115028      91.91813535
C      80.19618335      88.22848784      89.61455898
H      79.99587236      89.54751680      88.06876285
C      79.69918533      85.61499635      89.20259864
H      79.22486403      84.94792295      87.33365932
C      79.71619286      83.86322004      91.09799413
O      79.24943047      81.36500187      90.54052487
H      79.27966609      81.07398402      88.74906433
C      80.53444436      84.51517563      93.53763080
H      80.84813893      83.05063774      94.92657964
C      80.98041977      87.20047672      93.90612743
H      81.65694179      88.05841247      95.62955783
C      77.59214049      94.30584766      91.98616550
O      75.75154706      92.87532484      91.92002508
N      77.76032613      96.17289726      90.39312622
H      79.30234281      97.28972551      90.52918651
C      76.02933683      96.47525347      88.23505877
H      74.06591119      96.12187464      88.75095405
C      76.00666012      99.28149704      87.37334357
H      74.94841338      99.18323126      85.60833919
H      77.93229123      99.95423960      87.10122298
C      74.74999211     100.99925826      89.33676921
H      75.77044432     100.85752878      91.12067085
H      72.87916307     100.16210950      89.53519047
C      74.69896951     103.75069977      88.40891359
H      76.68318214     104.26092587      88.63568075
H      73.60481797     104.67477594      89.88856929
C      73.81646731     104.17777792      85.81053991
H      72.01177869     103.22535586      85.50818370
H      75.21297507     103.29716545      84.57843835
N      73.36482272     106.84796120      85.25496037
H      72.34437052     107.03315438      83.65436219
H      75.01644352     107.79282435      85.10756172
H      72.33870134     107.78337572      86.56454071
C      76.56979856      94.50804838      86.14124201
O      78.55401119      94.43623877      84.90158155
N      74.71030787      93.02272349      85.42692547
H      73.02656171      93.14177624      86.31509684
C      74.59692429      91.83219591      82.99295798
H      76.32224441      90.71725739      82.84366960
C      72.20831023      90.04640455      82.88902303
H      70.62660930      91.20291704      83.52397107
H      72.40673149      88.59320501      84.33466366
C      71.63383343      88.98059890      80.28120072
O      69.67796670      89.77050450      79.11712931
O      73.13805557      87.46881785      79.13791630
C      74.39472357      93.83341608      80.95772274
O      73.51222138      96.00660133      81.35645499
N      74.78400719      92.99626732      78.69572034
H      75.13927573      91.12921772      78.51052716
C      74.93329557      94.58363743      76.56032961
H      76.39594374      96.01038078      76.80977348
C      75.72509090      93.03028240      74.19628199
H      74.09236736      91.87754935      73.69550452
C      76.51121704      94.55151208      71.92483096
H      78.11181523      95.75148828      72.41427008
H      74.92384694      95.79117254      71.48263500
H      77.10648083      93.35342560      70.35824785
O      77.87370971      91.63188493      74.47785121
H      77.09892192      90.15033949      75.18460885
C      72.44074656      95.88376913      75.88380759
O      72.38783423      98.06073384      75.07500473
N      70.36393734      94.57985798      76.29009875
H      70.47165175      92.96036252      77.29165369
C      67.86193970      95.63999444      76.00852952
H      67.94130820      96.64343910      74.21139980
C      66.06103053      93.34586669      75.68727605
H      65.56214279      92.86398647      77.62802497
H      67.05313684      91.65645137      75.04854856
C      63.54202535      93.74837840      74.12636212
H      62.08504636      94.94079569      74.96540060
H      62.60472110      91.91912333      74.24730460
C      63.85194046      94.29828875      71.36547197
O      65.20498450      92.69202139      70.15415741
O      62.77857592      96.11809519      70.39037320
C      67.13628480      97.61286871      78.10045655
O      65.05947559      98.74481477      77.95683735
N      68.66696312      97.96057835      80.14703015
H      70.25811266      96.90800079      80.08088973
C      68.21531853      99.47046966      82.36745857
H      66.89439984     100.98414045      81.90825507
H      69.99733044     100.37564858      82.86823604
C      67.17974851      98.12309480      84.80520551
O      66.91518683      99.54605872      86.65713730
N      66.63361760      95.61353827      84.64268905
H      66.66952240      94.54206344      83.06287785
C      65.65851883      94.25293532      86.71382909
H      63.98989049      95.23748273      87.41302782
C      64.96120982      91.63188493      85.82376799
H      64.23366519      90.50938749      87.39035111
H      66.75456009      90.69080121      85.45149191
C      63.26045613      91.37110269      83.45972038
C      63.23022051      89.08075440      82.17470648
H      64.19398093      87.49905348      83.03453196
C      61.76568262      88.84264888      79.97695478
H      61.71088056      86.95481230      79.20027727
C      60.20476869      90.59442517      79.07933478
O      58.95943904      89.98215386      76.88725226
H      58.16953344      91.52606024      76.35245971
C      60.13295908      92.93579608      80.32844388
H      58.93865206      94.44001822      79.63302459
C      61.73733673      93.37799204      82.36934829
H      62.00945732      95.25260053      83.12712855
C      67.71832051      93.84475443      88.64512938
O      69.88205713      93.33452834      87.93648201
N      67.12683617      94.06018324      91.08098660
H      65.45631810      94.72914635      91.71404491
C      69.16963032      93.51972151      92.98016154
H      70.94030387      94.23403806      92.20726348
C      68.96931933      94.94457515      95.50672562
H      70.70597781      94.38899561      96.46859632
H      67.25722728      94.33608327      96.47804495
C      68.97120905      97.79806189      95.27239956
C      66.65062513      99.06984769      95.07775775
H      64.94231254      97.97380642      94.87177758
C      66.57692582     101.70601590      95.07208857
H      64.72310429     102.55639274      95.01161733
C      68.89373028     103.10063392      95.45003383
O      68.68586038     105.64231581      95.51428453
H      66.96431971     106.17899808      95.32342217
C      71.27100598     101.88742963      95.72971333
H      73.01144391     102.93055854      95.95459076
C      71.18785802      99.19267991      95.47837973
H      72.99254665      98.23836812      95.43869547
C      69.42474336      90.60009436      93.38078352
O      67.54257596      89.28673456      93.46960066
N      71.83414441      89.74782778      93.42235750
H      73.37616109      90.86843549      93.36755544
C      72.34437052      87.01906300      93.73983152
H      70.59448396      86.24805466      94.50517068
C      73.09270214      85.89656557      91.09043523
H      74.71408732      86.93969448      90.36855978
C      73.25332888      83.05630691      90.73327696
H      74.25299410      81.99239099      92.18269704
H      74.29267834      82.74450208      88.98339039
H      71.38061010      82.20781980      90.58587830
O      71.13116623      86.55419031      89.39724045
H      70.59448396      88.23415701      89.82620833
C      74.47409208      86.59198485      95.68813935
O      75.62871485      88.41935019      96.37977918
N      74.72542567      84.27329066      96.72181964
H      73.48009604      82.87300347      96.35332301
C      76.51877595      83.82542553      98.84020284
H      78.15149948      85.03862982      98.50761101
C      75.27533603      84.30163656     101.36865664
H      74.20953039      86.06286148     101.40456144
C      73.33647683      82.23427596     102.18312869
H      74.28133999      80.47305105     101.68802039
H      71.69430467      82.48183012     100.96614494
H      72.73554386      82.38545408     104.14844405
C      77.58836104      84.36966671     103.29806721
H      78.89983110      85.63767305     102.33997597
H      78.46519405      82.51584518     103.48892957
C      77.15372398      85.52806893     105.82841074
H      75.97453477      87.19291782     105.54873125
H      78.98297906      85.95892653     106.67689786
H      76.02366765      84.27518038     107.00948969
C      77.51277199      81.09855046      98.61910486
O      76.19374302      79.42992212      97.60999101
N      79.83146617      80.67525176      99.67357214
H      80.81601357      82.21348897     100.22726195
C      80.91805880      78.20915892      99.81719134
H      79.65194218      77.10555876     101.01149837
H      82.80211594      78.34521922     100.63544284
C      81.29600407      76.93926283      97.20369985
O      82.33157408      78.05420137      95.49916672
N      80.46452448      74.53175151      97.06952928
H      79.53666887      73.81932470      98.57942061
C      80.62704095      72.91036633      94.80563716
H      82.15582954      73.52830685      93.57164588
C      80.98230950      70.14758646      95.37255505
H      79.24754074      69.43326992      96.22293189
C      81.78922264      68.78887325      92.96693346
H      83.32368039      69.65625762      91.89734836
H      80.23019842      68.88335957      91.62333805
H      82.39582478      66.83678597      93.19936979
C      83.02699337      69.80176656      97.46448208
H      82.56967959      71.03575783      99.04996246
H      84.79388746      70.49340639      96.66323813
C      83.44840233      67.12591410      98.44525004
H      84.84491008      67.43204976      99.92868519
H      84.48586208      66.13758724      96.96370461
H      81.77788428      66.13002833      99.12177206
C      78.14016111      73.48484314      93.42046777
O      76.46586361      71.92770866      93.26173076
N      77.71875216      75.72983799      92.35277241
H      78.97353043      77.16225055      92.49261215
C      75.50966210      76.28541753      90.59343721
H      75.46619838      74.80009266      89.16669384
H      76.15027932      78.00884794      89.66180214
C      73.03034117      76.67848061      91.86333329
O      71.11604842      76.54053058      90.53863515
N      72.73176442      76.98839573      94.39745628
H      74.26433246      77.28508275      95.49349754
C      70.29212775      77.18870671      95.58609413
H      69.10160017      75.62212360      94.97382280
C      70.63038875      77.20382453      98.53595690
H      71.50722176      78.91780629      99.26728098
H      72.03256568      75.82999349      99.15956658
C      68.23232607      76.83910735     100.12332700
N      66.59393334      74.91536595     100.04017905
H      66.76211899      73.22217119      99.17468440
C      64.63428717      75.41614344     101.54818064
H      63.15841092      74.04609186     101.87888275
N      64.96687900      77.75751433     102.49115407
H      63.92752952      78.75906928     103.74026317
C      67.25911701      78.58521445     101.68802039
H      67.98477192      80.42202844     102.20769513
C      69.15829196      79.68692490      94.79807825
O      70.11638319      81.58609985      95.76372840
N      66.90573819      79.72282970      93.58298424
H      66.01567710      78.14490822      92.97827182
C      65.55647360      81.96971429      92.90268276
H      67.04557793      83.23205147      92.24505801
C      63.68942401      81.31586898      90.77296121
H      62.57259575      79.63968174      91.20570853
H      64.91396665      80.95115180      89.15724521
C      61.92819909      83.48716451      90.18714605
H      60.97955647      84.11266392      91.90301754
C      63.40785478      85.65279087      88.97394176
H      65.17285917      86.12144299      89.92636382
H      62.16819433      87.29685277      88.90780134
H      63.70832126      85.43169288      86.94815515
C      60.00445769      82.49694793      88.39190605
H      58.99912330      80.97571824      89.34810757
H      60.75278932      81.71271151      86.64012976
H      58.53236089      83.84432279      87.88356968
C      64.11461243      82.82387058      95.24594339
O      63.11116775      81.27618473      96.71426074
N      64.02390556      85.32964767      95.63711674
H      64.79869335      86.35387934      94.22549118
C      62.79558345      86.70158897      97.78573556
H      62.35716695      85.39011892      99.31263442
C      64.70420703      88.65745570      98.82130557
H      63.80469731      89.65145175     100.38599896
H      65.18041806      90.06719154      97.39834166
C      67.21754304      87.57842199     100.05151740
H      68.13406029      86.28773890      98.73437816
C      69.12238715      89.64200311     100.87354835
H      68.47421103      90.66812451     102.53650751
H      69.22632211      91.03095196      99.35609812
H      71.03479019      88.92957630     101.13811003
C      66.55424910      86.10821491     102.55351504
H      65.35616262      87.29874248     103.73459399
H      68.27201032      85.63011416     103.58341588
H      65.63773183      84.33943109     102.03195058
C      60.20476869      87.98282342      97.02984503
O      58.26590948      87.39322881      98.08431231
N      60.33138034      89.63066475      95.16468516
H      61.98111142      89.88388808      94.24060899
C      58.10150330      91.03095196      94.10643842
H      56.63696540      89.64389285      93.69258836
C      56.90719626      92.82430222      96.14167366