 %block lattice_cart
   135.996   0.000   0.000
   0.000 142.663   0.000
   0.000   0.000   160.158
 %endblock lattice_cart

 %block positions_abs
N      87.53871494      40.93997658      81.62479613
H      86.66755111      40.71320942      83.30665254
H      89.36985974      40.83037245      82.15580922
H      87.15510050      39.35449620      80.63080009
C      86.65243330      43.14339745      80.33978223
H      87.07006282      44.65328879      81.67392901
C      87.61052454      43.69708727      77.64125306
H      87.14376214      42.30057952      76.20128161
H      89.61552416      44.16384967      77.73384965
C      86.91699498      46.30490957      76.66615428
H      84.91199537      46.38994726      76.19750216
H      88.07539721      46.62805278      74.99563622
S      87.40832383      48.91084216      78.94327449
C      87.69367250      51.52433365      76.88347281
H      87.78059991      53.18729281      78.09667710
H      86.00236745      51.60559189      75.70806304
H      89.38875700      51.20685964      75.75908565
C      83.88776370      43.07347758      80.30765689
O      82.72558202      41.59004243      78.78075802
N      82.68778750      44.48510314      82.08777907
H      83.59485613      45.59248275      83.35011625
C      79.80784459      44.55691273      82.23139827
H      78.84030472      43.92574415      80.52497541
C      78.92156295      42.58592820      84.35923010
H      79.63021032      40.74722449      83.76207659
H      76.94868868      42.06058427      84.09088896
C      79.53761373      43.28512694      87.11256134
O      81.06640232      44.85737923      87.70971485
N      78.22803340      42.16073977      89.02118492
H      78.69668552      42.69931177      90.79185847
H      76.61987630      41.20075880      88.64701911
C      78.81006910      47.39339193      82.73217575
O      80.35208577      49.15272713      83.01563469
N      76.34775572      47.87716187      82.75296273
H      75.12888224      46.42774179      82.51296749
C      75.33675214      50.43207185      83.15736417
H      75.59375492      51.31457403      81.31299128
C      72.43035307      49.99932452      83.22350459
H      71.83130983      49.13571959      81.45283103
C      71.65556528      48.19841535      85.32110079
H      72.09776124      46.27278423      84.73528564
H      69.62977867      48.27778385      85.68203852
H      72.29996195      48.70675172      87.21082711
C      70.79573981      52.42951256      83.40869777
H      70.68613568      53.29122776      85.27574736
H      68.89845459      51.66417340      83.17815116
C      71.23415631      54.49120396      81.43393377
H      71.38722414      53.77310797      79.51019238
H      73.05963193      55.34724998      81.84589410
H      69.76961842      55.93306515      81.58133242
C      76.47814683      51.84180767      85.43448437
O      76.81829757      54.12270734      85.29842408
N      77.33041340      50.50388144      87.39413056
H      77.20758119      48.61226541      87.16925313
C      78.33007862      51.62448914      89.82242887
H      77.18679420      53.29122776      90.21738167
C      77.85386759      49.79145463      92.02396003
H      78.48125672      50.84592190      93.67936028
H      79.06140270      48.12471601      91.89356891
C      75.05329319      49.08469699      92.52473750
C      73.31852444      50.91017260      93.34109927
H      74.10087113      52.57502149      94.22549118
C      70.80329871      50.23743004      93.56975615
H      69.56363825      51.56401791      94.50328095
C      69.90000954      47.79401392      92.83087316
H      67.92146609      47.39717139      93.13322937
C      71.61399130      46.06302461      91.85199493
H      70.75794528      44.34337367      91.16224483
C      74.21236498      46.63183223      91.79530314
H      75.61643163      45.27122928      91.20948799
C      81.10041739      52.36526187      89.31220277
O      82.27771689      53.46319286      90.83532218
N      82.19267920      51.56212818      87.19570930
H      81.08529958      50.71742052      85.88990841
C      84.82884741      52.20652485      86.38312698
H      85.82095372      53.21374898      87.88356967
C      86.20267844      49.74799092      85.65369263
H      87.99413898      50.25065813      84.77119044
H      84.94978989      48.76533323      84.34600202
C      86.81306004      48.18896671      87.95159982
H      85.08207073      47.39339193      88.73583624
H      87.73524648      49.36626621      89.36889456
C      88.23413422      45.92507458      86.85366883
O      87.03982719      44.02400992      86.03541734
O      90.48668799      46.32947602      86.32076601
C      84.84585494      54.08113335      83.97750539
O      86.77526551      55.36992670      83.60144985
N      82.90699575      53.96963950      82.51485722
H      81.70701954      52.51266052      82.80776480
C      82.63109571      55.34158080      80.16214796
H      84.27893705      55.10725474      78.94894367
C      80.24626110      54.49687315      78.64280800
H      78.53794851      55.27544039      79.49129512
H      79.97225078      52.45974819      78.75241213
C      80.40121866      55.08457802      75.68160687
H      81.55206198      53.59925314      74.83689921
H      81.30072838      56.93650982      75.64381235
S      77.27561134      55.01465815      74.18305391
C      78.25826902      56.01054393      70.99319589
H      76.97136540      55.53055344      69.45873812
H      79.88910283      54.80111908      70.63792734
H      79.07274106      57.89838050      71.10280002
C      82.57062446      58.12514767      80.73284531
O      84.12586922      59.61803146      79.99963150
N      80.80373036      58.94528888      82.30698732
H      79.54895209      57.56578868      82.70571958
C      80.46168990      61.53610366      83.07232648
H      80.29728371      62.60190930      81.31677074
C      77.94457445      61.77987836      84.31954585
H      77.78205799      63.70550946      85.03197267
H      78.00504569      60.46462885      85.90313650
C      75.70902822      61.18272485      82.47706269
H      76.31752009      59.77676846      81.10134194
C      73.27317100      60.26053840      83.54475806
H      72.46247842      61.78932699      84.66158631
H      73.43190801      58.47285730      84.55576164
H      71.79162557      60.04321987      82.13313250
C      75.43501791      63.51842656      80.84622889
H      74.95124797      65.11335557      82.05565373
H      73.92512658      63.40504299      79.44972114
H      77.07907980      63.86613620      79.65570131
C      82.47991760      62.63025519      84.85055894
O      82.98447453      64.88658842      84.76741098
N      83.87642535      60.95973713      86.21305161
H      83.27738211      59.14937932      86.18281599
C      86.21590652      61.47185296      87.62278744
H      85.89654277      63.13670184      88.79630748
C      87.07951145      59.26276291      89.20637809
H      89.11285696      59.47441225      89.47093978
H      86.76959633      57.45051538      88.27663275
C      85.94378593      59.00953958      91.88978946
H      84.00114728      58.32734839      91.92758398
H      86.05905924      60.91438370      92.66457725
C      87.55950193      57.30878589      93.43936503
H      89.54749401      57.77743803      93.18803144
H      87.35541149      55.39071370      92.71182040
N      87.05494500      57.17083588      96.15490175
H      86.04961061      55.66661373      96.76906280
C      87.95634446      58.71663201      97.98226709
N      89.24324808      60.81422820      97.49282798
H      90.16354479      61.72885574      98.89311517
H      89.62875224      61.40571255      95.71837497
N      87.30816833      58.20640589     100.33686608
H      87.71068004      59.52354513     101.65967450
H      86.24803187      56.62092552     100.41623458
C      88.23980340      62.55655588      86.03352761
O      89.74024610      64.00786568      87.14468669
N      88.35696643      62.04444004      83.58822177
H      87.12486488      60.76131588      82.89469221
C      90.10307355      63.39370462      81.83833520
H      91.34273401      64.72785140      82.80020589
C      91.88319573      61.48697077      80.54576240
H      92.63152735      60.45706993      82.16525785
C      90.22590576      59.48953006      78.90359024
H      89.49269195      60.45518021      77.23496190
H      88.70467608      58.66560939      80.02230821
H      91.64697995      58.11191959      78.33478262
C      94.08283716      62.41293667      78.96784093
H      93.33261582      63.55244164      77.42582426
H      95.09950992      60.82556657      78.13069217
C      95.95366621      63.79243687      80.67993297
H      97.83961307      63.93038690      79.85979175
H      96.42609779      63.28221078      82.61879217
H      95.17509897      65.68783237      80.88591314
C      88.67444046      65.02831789      79.97884451
O      89.78370980      66.71773322      78.88091352
N      86.15165583      64.62580619      79.24752042
H      85.33529406      63.00064156      79.82010750
C      84.60019052      66.01664475      77.41637563
H      85.70757014      66.29821398      75.70239386
C      82.12842851      64.57478357      76.43371794
H      80.63365499      64.83367607      77.82455651
H      82.39865937      62.53954833      76.26931175
C      81.34230236      65.41571178      73.84290317
O      82.88242931      65.78231869      72.09679606
O      78.97636502      65.33067410      73.55566477
C      84.12964867      68.73218146      78.33289289
O      84.52838092      70.52931119      76.94961323
N      83.26037457      68.99296369      80.67048434
H      82.78983272      67.46984428      81.71550299
C      82.82573752      71.39102639      82.04053591
H      82.46857924      72.88013072      80.66481516
C      80.42767483      71.12457498      83.67325945
H      80.13854670      72.55509779      85.12456926
H      80.59775019      69.47295418      84.89213292
C      78.07307584      70.84489547      82.11612497
H      76.57641260      69.88491451      83.15547444
H      78.50204371      69.40492402      80.70827886
C      77.06396199      73.41870271      81.17882072
O      74.76416507      74.07632747      81.70605436
O      78.38677041      74.93804267      79.95616779
C      85.20679267      72.16014499      83.56176560
O      85.93433730      74.39002204      83.53341970
N      86.42188669      70.24963170      84.72772673
H      85.86630715      68.44305334      84.46505477
C      88.11319174      70.42537623      86.96516269
H      89.48135359      71.93715729      86.67036538
H      89.38119810      68.80777051      87.07287709
C      86.86219292      71.25496609      89.46527060
O      84.63231587      71.90125248      89.50306512
N      88.37775342      71.47228462      91.53074146
H      90.19000096      70.95449960      91.24917224
C      87.54249439      72.09022512      94.11588705
H      85.48269271      72.08266621      94.18013775
C      88.57617469      70.15703511      95.95459076
H      90.59440239      69.90570150      95.62955783
H      87.68044441      68.35801566      95.51239480
C      88.20389860      70.79387286      98.88177682
H      89.16576930      72.57966423      99.24649399
C      85.45245709      70.88080028      99.76427900
H      85.35230160      72.32077172     101.23070662
H      84.67955903      69.03642740     100.24993867
H      84.30161377      71.67637505      98.25060823
C      89.35474193      68.72273283     100.63544283
H      91.10651822      68.10479233      99.74727147
H      88.33806917      66.93883120     100.46536747
H      89.55505292      69.33311442     102.59130957
C      88.23980340      74.86623307      94.43147135
O      90.49235717      75.62212360      94.04029800
N      86.44267368      76.45360318      95.07586802
H      84.65499259      75.79975788      94.93602827
C      86.83006757      79.14079399      95.60310166
H      88.82372883      79.53952624      95.93191404
C      85.81150509      80.56942709      93.24283350
H      85.33151461      82.50450684      93.76061851
H      84.06161852      79.73416805      92.54930394
C      87.69745195      80.54108120      91.10933249
H      87.59162728      78.78363573      90.03974740
H      89.60796525      80.48627913      91.88223055
C      87.18344639      82.65568494      89.34999729
H      85.18978513      82.72938426      88.83410201
H      88.17177326      82.24750406      87.58877237
N      88.01870542      85.13689558      90.33076525
H      88.22468559      85.37500109      92.21104293
C      87.84485060      87.23827124      89.11189178
N      87.07762172      87.55196581      86.72516744
H      87.02659911      89.31885991      86.00140227
H      86.28771612      86.06286148      85.83132690
N      88.49680618      89.19791743      90.44603856
H      87.95445473      90.91000948      89.79975216
H      89.06561380      89.06941604      92.26395527
C      85.40521393      79.81542629      98.00116435
O      83.03927659      79.98550166      97.98982600
N      86.74880934      80.05164207     100.12521673
H      88.64231511      80.14423866      99.90222903
C      85.62253246      79.73227833     102.57997121
H      84.09374387      78.35844729     102.44202119
C      87.49903069      78.83654806     104.61331672
H      86.94723060      79.44503993     106.50115331
H      89.33206521      79.60566667     104.06907555
C      87.97335199      76.09455518     104.77961264
H      88.69900690      75.64102087     102.90689386
C      90.01992559      75.43126125     106.73547937
H      90.53771060      73.44137943     106.88665748
H      89.77993035      76.39313194     108.54205773
H      91.69044365      76.23061548     105.83407992
C      85.64142972      74.58844330     105.45802439
H      85.05561457      74.88513034     107.41200139
H      85.90977086      72.54753888     105.52605453
H      83.88965343      75.06843378     104.48670506
C      84.33184939      82.22860679     103.42467887
O      82.74447928      82.24561432     105.13488119
N      84.88931865      84.38478452     102.18879786
H      86.51070383      84.35643862     101.17779429
C      83.82918219      86.79796501     102.55162532
H      82.93912110      86.65434581     104.40355710
C      86.09496404      88.74249338     102.75382603
H      87.13620324      88.78028792     100.97748330
H      87.47446425      87.99605149     104.08608308
C      85.47135435      91.36921297     103.74215289
H      84.45279187      91.33519789     105.53361344
H      84.28838568      92.36887818     102.38343967
C      87.92799856      92.86587621     104.24293037
H      89.32450631      92.30084804     102.84075344
H      88.63475620      92.41423162     106.12320805
C      87.50281014      95.71369376     103.97458923
H      85.78504892      96.09352874     105.04417432
H      87.22502037      96.08974929     101.96769989
N      89.64953923      97.13665768     104.96102637
H      91.39375662      96.65855691     104.34497559
H      89.57961936      97.07051725     106.86776022
H      89.44355906      98.97914083     104.50749205
C      81.99425794      87.58409116     100.53339761
O      82.11897988      86.50694716      98.49627265
N      80.22925356      89.37366198     101.01716755
H      80.07807546      90.07286071     102.78595138
C      78.47369782      90.49993886      99.12744124
H      77.32474422      88.93335575      98.44147059
C      76.72759070      92.61454260     100.34631471
H      77.88977239      94.09041885     101.18913264
C      74.85487193      93.68790716      98.31863838
H      73.41490048      94.77449978      99.31263442
H      74.01961290      92.13644185      97.24905328
H      75.89044195      94.85575801      96.97315324
C      74.98715277      91.22748350     102.34753487
H      76.15878308      90.15978813     103.66467411
H      74.35787391      89.55507571     101.32519294
C      72.77239353      92.57107889     103.62310014
H      73.51883542      94.27750177     104.50371260
H      71.93146532      91.43724312     105.12165310
H      71.26061248      93.00004677     102.29084308
C      79.72658636      91.80951920      96.80874705
O      81.52938527      93.22114476      97.08275737
N      78.86865062      90.95725262      94.60532617
H      77.58174700      89.54940652      94.58075973
C      79.80973432      91.86810071      92.16191005
H      80.86609133      93.62932563      92.30552925
C      81.84685929      90.10876551      90.96382356
H      83.22446977      89.87066000      92.47560462
H      82.87676013      90.91189919      89.37267401
C      80.91711394      87.39133907      90.23060976
C      80.21980493      86.90567942      87.68514841
H      80.28216590      88.38533512      86.28108176
C      79.40344316      84.51706535      87.01240584
H      78.94046022      84.17880435      85.05464938
C      79.37131782      82.51773492      88.95126504
O      78.45480055      80.09510578      88.59221704
H      78.09575255      79.78708040      86.84044075
C      80.03839120      83.17913913      91.47593940
H      80.04595011      81.62011491      92.79307864
C      80.87931941      85.52617921      92.09954908
H      81.61820240      85.85310186      93.97415758
C      77.61387235      92.33486311      90.33454470
O      75.44635626      91.57141369      90.84099135
N      77.91811828      93.73704004      88.24828685
H      79.45824523      94.84819910      88.05931422
C      75.77327892      94.16222845      86.58910715
H      74.02150262      93.89388732      87.64168471
C      75.72603576      96.79083776      85.70660496
H      74.12543757      96.97603094      84.42348080
H      77.51749630      97.22736453      84.79197743
C      75.41801037      98.88276479      87.67192033
H      77.03939555      98.80528600      88.94370614
H      73.73615395      98.43489965      88.76985132
C      74.93046098     101.49814600      86.60611469
H      73.73804368     101.28460692      84.94126581
H      76.72192153     102.19545501      85.87290088
C      74.01016427     103.35007778      88.67347527
H      75.42556927     103.21023805      90.16257961
H      72.20547564     102.55639274      89.27251851
N      73.91945740     105.84073707      87.60955936
H      75.59375492     106.55694335      87.03130311
H      72.98971206     107.13142014      88.66402664
H      72.92735109     105.91254667      85.98061528
C      75.76572001      92.23281789      84.44804724
O      77.65544632      91.50905271      83.33310871
N      73.46025391      91.46558900      83.69593617
H      71.97114957      92.00416100      84.75985208
C      72.99538124      89.92735179      81.43204404
H      74.14811429      88.25683373      81.06732686
C      70.20047602      89.00705508      81.52464063
H      68.93057994      90.62466080      81.62101667
H      70.12110751      87.94880833      83.29153473
C      69.13844983      87.45558977      79.18704918
O      69.86221501      85.33342712      79.22673343
O      67.63044823      88.47226252      77.61857634
C      73.63599846      91.50149380      79.00374573
O      74.16890128      93.73515030      79.00941491
N      73.51316625      90.29395869      76.79087622
H      72.98782233      88.46092416      76.76442005
C      73.79851492      91.70369453      74.31722447
H      74.97770414      93.34586669      74.71973618
C      74.67345820      90.02750729      72.17427483
H      74.94368906      91.34842597      70.61714035
C      77.04317500      88.48360088      72.80922288
H      76.89010717      87.01717326      74.24919433
H      78.52283070      89.79507094      73.38558940
H      77.79339634      87.54251719      71.13870482
O      72.83286477      88.28517963      71.41838431
H      72.73837846      87.03984998      72.73363382
C      71.41557004      93.10965089      73.52353942
O      71.64611665      95.17701149      72.30655568
N      69.09687585      92.52761520      74.54966081
H      68.92302103      90.95347317      75.61168700
C      66.81975565      94.23592779      74.71784645
H      66.89912415      95.59842045      73.17394005
C      64.34799363      92.61454260      74.46462313
H      62.68692420      93.81451882      74.25675323
H      64.02296070      91.37677188      76.07844940
C      64.28185321      91.01583415      72.03821454
H      65.65946369      89.48326611      72.03254536
H      64.79207931      92.37076791      70.57178692
C      61.65702336      90.11254497      71.25964730
O      60.68759376      91.02717251      69.18472781
O      60.56665128      88.48738034      72.59190435
C      66.84432209      95.72503212      77.17449066
O      65.01128756      97.00815629      77.68093731
N      69.01372789      95.86865131      78.61446211
H      70.50094250      94.80095594      78.07022093
C      69.37277589      97.54294882      80.59678501
H      69.02128680      99.47802857      79.98073423
H      71.37399606      97.39366046      81.05031933
C      67.75894962      97.19334947      82.90036139
O      68.28618326      98.14010235      84.93559663
N      66.03173977      95.50582386      82.94760455
H      65.58198491      94.83119157      81.22039469
C      64.94514714      94.24159697      85.29653435
H      63.71304559      95.51716222      86.34533246
C      63.10266399      92.26116379      84.37056846
H      62.01040218      91.62243629      85.99762281
H      64.05886550      90.59064573      83.63924438
C      61.26018083      93.01516459      82.32777431
C      60.64790951      91.12921772      80.53442404
H      61.44159456      89.25271950      80.65536653
C      58.82621334      91.69613562      78.63335937
H      58.23094955      90.25805389      77.31433041
C      57.73962071      94.09041885      78.58422649
O      55.94060126      94.54584289      76.91370843
H      55.06565798      96.13132327      77.01386392
C      58.62779208      96.10486711      80.04876438
H      57.84166593      97.97569616      79.81443832
C      60.41358344      95.53039030      81.94415987
H      61.13356917      96.97414120      83.19326897
C      66.93502895      93.12854817      87.19192984
O      68.91924158      92.31218639      86.30753793
N      66.63078301      93.33263860      89.72227338
H      64.90924234      93.87310032      90.34399333
C      68.64145181      92.44824668      91.48916748
H      70.34220549      93.27027764      90.66902626
C      68.48271480      93.90711541      94.03273910
H      69.68458074      93.04351048      95.46515164
H      66.57976040      93.93357158      94.81508579
C      69.12900120      96.67178499      93.89478908
C      67.03329472      98.30828798      93.71526508
H      65.14545813      97.53350019      93.70392672
C      67.40179135     100.93500757      93.52818217
H      65.71237603     102.04994608      93.27117939
C      69.88867118     101.83073784      93.59999177
O      70.50850141     104.35919165      93.41857805
H      69.04018406     105.40610001      93.21070815
C      71.99571602     100.13376361      93.78518495
H      73.85331698     100.97847126      93.79274386
C      71.63666802      97.49759539      93.80786167
H      73.20136140      96.18612533      93.81353084
C      68.76050457      89.46247912      91.85577438
O      66.88400634      88.13589125      91.89356891
N      71.09431657      88.45714471      92.13923333
H      72.50972157      89.72704079      91.98616550
C      71.80674339      85.79641007      92.02584975
H      70.00772394      84.86855445      92.39812584
C      72.64767159      84.91579760      89.30842331
H      74.67156848      85.23894080      89.10433287
C      72.16390166      82.13412048      88.87567599
H      70.27417535      81.34232514      89.06653835
H      73.29962717      81.01729223      90.18336660
H      72.70247366      81.75428548      86.92358871
O      71.38722414      86.18569368      87.22972437
H      71.22848713      87.97148505      87.50562441
C      73.82497109      85.19169765      94.04218773
O      75.45958435      86.75261159      94.31052887
N      74.05929715      82.93347471      95.13255981
H      72.93679972      81.53507723      94.47682478
C      75.81674262      82.18136363      97.06008065
H      77.69324085      82.97126922      96.74071690
C      74.88699728      83.02607130      99.76427900
H      74.57708216      85.04618873      99.51861458
C      72.27917496      81.85444097     100.50694145
H      71.60454267      82.85221648     102.17556978
H      72.35665374      79.79463929     100.45213938
H      70.88266722      82.54608081      99.16334604
C      76.86554073      82.56308835     101.85998549
H      78.70235470      83.19992612     101.18157374
H      77.14899967      80.53919146     102.10376018
C      76.05484814      83.63645289     104.49615369
H      75.27439117      85.44870042     103.90655908
H      77.81040388      83.60054809     105.57329769
H      74.66400957      82.46293285     105.46369356
C      76.08130431      79.29953101      96.85787994
O      74.52039037      77.85578011      95.85065581
N      78.19401832      78.43970554      97.79896364
H      79.39777398      79.72849887      98.53028772
C      78.65133209      75.77141198      98.30918974
H      76.98081403      74.95693994      99.19925084
H      79.95713297      75.53897564      99.88144204
C      79.47336304      74.41269876      95.87522225
O      81.24970577      75.05898515      94.52028849
N      78.28472519      72.11857101      95.50294617
H      77.06018254      71.68393396      96.89945391
C      78.40755740      70.53120091      93.14078828
H      80.02894257      71.16236950      92.04096756
C      78.78928211      67.73062652      93.85132537
H      77.19246338      67.19394425      95.03807350
C      78.66456018      66.02987283      91.56097708
H      79.06707188      64.06077801      92.01073194
H      80.12909807      66.61001881      90.23249948
H      76.80129003      66.22829409      90.70871051
C      81.25159550      67.39047577      95.28751737
H      81.14199137      68.32966975      97.11866217
H      82.84085533      68.29187523      94.33509531
C      82.14543604      64.59935001      95.86955307
H      80.62231664      63.43338887      96.62355387
H      83.64965819      64.59935001      97.27550945
H      82.81628888      63.75464236      94.11399733
C      75.98870772      71.15859005      91.54963872
O      74.15189374      69.71672888      91.55341817
N      75.90555976      73.32421640      90.28541182
H      77.47214287      74.40891931      90.16635906
C      73.79851492      74.05365076      88.57898896
H      73.20892031      72.57210532      87.27507780
H      74.40322734      75.82432432      87.71727376
C      71.22092823      74.93048376      89.83754668
O      69.35198890      75.26685506      88.48450264
N      70.96014600      75.27441395      92.39245666
H      72.50027294      75.08733105      93.49983628
C      68.52995796      76.00762776      93.41668832
H      67.03896390      75.08922078      92.33387514
C      68.53184768      75.15158174      96.26828533
H      69.56552798      76.50273606      97.43046701
H      69.31041493      73.24673763      96.33253602
C      65.89756920      75.09677969      97.34920878
N      63.94737165      73.37712874      96.83898267
H      64.20059498      71.59133737      96.21537299
C      61.75150967      74.36734533      97.50605606
H      59.90524707      73.51696849      97.32275261
N      62.21449262      76.57265594      98.66445829
H      60.90302256      77.76696297      99.37121593
C      64.85633001      77.06587451      98.55296444
H      65.77851645      78.87812203      98.74382680
C      67.90634828      78.80631243      93.05764032
O      69.14222928      80.51651474      94.13667404
N      65.81442125      79.36189197      91.74239081
H      64.59743750      78.10900342      90.97327220
C      64.95270605      82.04341361      91.44003460
H      66.59865767      83.28118434      91.40601952
C      63.53541131      82.48183012      88.92669860
H      62.30330976      84.09376665      89.28196715
H      62.26740496      80.89823946      88.56765060
C      64.99994921      83.09788090      86.55509208
H      66.73471796      83.92747074      87.29397506
C      65.60088217      80.60533188      85.05275966
H      66.66290836      79.25984676      86.19604408
H      66.76495358      81.08154291      83.42192585
H      63.81320108      79.81542629      84.40080408
C      63.55052912      84.89312090      84.90536101
H      63.43903527      86.68458144      85.91447486
H      61.67403089      84.21092970      84.39891435
H      64.74483615      85.20114628      83.25562993
C      63.23305510      82.82765004      93.70014727
O      61.50017607      81.39334776      94.29541105
N      63.56942639      85.15201340      94.59209809
H      64.58987860      86.27262110      93.42991640
C      62.26362550      86.21592931      96.86354911
H      61.60600075      84.76084005      98.16368082
C      64.36878062      87.69558502      98.32808701
H      63.44659418      88.90312012      99.72081530
H      65.60088217      88.87666395      97.17535396
C      66.09410074      86.00805941      99.91167766
H      67.12022213      84.81942156      98.57186170
C      68.10665926      87.65401103     101.25716279
H      69.58442524      86.53340332     102.15478279
H      67.04841253      88.81052353     102.59130957
H      68.95514638      88.70469887      99.70191804
C      64.84310192      84.39045369     101.87132384
H      63.04597220      85.12366750     102.56485340
H      65.93536373      83.74227756     103.49459875
H      64.41791350      82.64434657     100.86598944
C      59.90335734      87.82975558      96.32497711
O      58.00607212      87.44803086      97.49660743
N      60.23972862      89.81585793      94.78673990
H      61.99150492      89.89522644      94.03651855
C      58.50873932      91.93802059      94.35966175
H      56.61712328      91.12543827      94.32186722
C      58.48795233      93.89388732      96.54040591