 %block lattice_cart
   135.996   0.000   0.000
   0.000 142.663   0.000
   0.000   0.000   160.158
 %endblock lattice_cart

 %block positions_abs
N      90.09645951      39.68047399      79.74735303
H      92.00130363      39.59921576      79.87963387
H      89.67694027      38.80553070      78.10329115
H      89.23474431      38.76017727      81.17787585
C      89.48418818      42.39412097      79.76436057
H      90.27220406      43.34087385      81.41409164
C      90.64259041      43.70370131      77.42865885
H      89.80922111      42.80797103      75.77136887
H      92.67026675      43.37110948      77.58739585
C      90.12102595      46.58553393      77.16787661
H      88.09145989      46.80285246      76.88441767
H      90.81833496      47.15812101      75.31783455
S      91.43816519      48.99115553      79.16909678
C      89.79977248      51.77472239      78.38675008
H      89.69016835      52.32841220      76.40631691
H      90.80321715      53.32429797      79.29948789
H      87.97996604      52.03172517      79.32216461
C      86.64015008      42.79852240      79.64152835
O      85.36269509      41.28863108      78.42832406
N      85.62536705      44.64100556      81.05882309
H      86.82345353      45.61799406      82.17754107
C      82.91172007      45.07564261      81.58983618
H      82.01410007      44.49927608      79.82672153
C      82.35047135      43.08765053      83.68743240
H      83.51643249      43.33142522      85.36739908
H      83.15927421      41.34532287      82.94288022
C      79.59525039      43.01395120      84.46788936
O      77.95307822      43.27095398      82.90697542
N      79.00565578      42.33742918      86.83571643
H      77.16884180      42.57175525      87.29680965
H      80.33980255      42.19192026      88.19253992
C      82.12181447      47.78928960      82.09250339
O      83.53155030      49.59208850      82.63674457
N      79.63871409      48.14266842      81.92053830
H      78.64660778      46.51561406      81.82794171
C      78.47086323      50.69757839      81.80715471
H      79.03589140      51.56685250      80.02703252
C      75.54934635      50.40656054      81.77502936
H      74.93707503      49.51460972      80.02136334
C      74.35692905      48.70202740      83.85750776
H      75.26021823      46.87088261      83.58916662
H      72.38972396      48.35053831      83.35862001
H      74.35692905      49.41634395      85.79069778
C      73.94496871      52.86320475      81.80904444
H      73.99410160      53.63610281      83.71766802
H      72.05146295      52.23770534      81.29314915
C      74.69141061      54.59608377      79.71144823
H      76.60192391      55.31040032      79.99490718
H      73.45552960      56.24392512      79.72845578
H      74.49487907      53.50004251      77.98045894
C      79.03778113      52.31896357      84.07860574
O      79.15305443      54.66600365      83.79136734
N      79.38927022      51.46291755      86.30659307
H      79.15683388      49.60153713      86.65997188
C      80.20752171      53.01060340      88.49678586
H      78.95841262      54.58852487      88.93142291
C      80.13193266      51.40433603      90.94020199
H      81.91583430      51.57441140      91.95309528
H      79.84658399      49.45602820      90.33926901
C      77.81323847      51.85409089      92.63339677
C      78.07213098      53.58319047      94.63272720
H      79.84658399      54.58285569      94.77256694
C      76.19752248      54.10475493      96.36938568
H      76.45641498      55.41622499      97.91329208
C      73.90906391      52.81407186      95.93285890
H      72.44263629      53.19768630      97.29913102
C      73.57458235      51.06796475      93.91274147
H      71.82847524      50.03050500      93.70487158
C      75.58903060      50.38010437      92.30458438
H      75.27911549      48.91178703      90.92130472
C      82.80778512      54.20113098      87.87695564
O      83.03833173      56.44234638      88.07537689
N      84.65971691      52.75360062      87.27413293
H      84.73152651      50.87143321      87.57648914
C      87.04266179      53.60964664      86.39163075
H      87.91571534      54.74348243      87.87128645
C      88.94183673      51.41378466      85.83605121
H      90.90337264      52.04117380      85.89085327
H      88.74908465      50.90355856      83.84805913
C      88.54688393      48.93446374      87.22311032
H      86.64203981      48.16723486      87.05492468
H      88.89081412      49.32563709      89.21488186
C      90.37991846      46.98048673      85.96644232
O      92.76664279      47.36599090      86.14029715
O      89.54843888      45.14367276      84.74567913
C      86.84613025      55.20079620      83.96144271
O      88.42972090      56.90910878      83.93309681
N      85.14726630      54.74537215      82.16809244
H      84.08524011      53.17123013      82.34761644
C      84.86569707      56.21746895      79.81727290
H      86.47007471      56.21368950      78.52470010
C      82.74920360      54.90599889      78.43399324
H      80.96530196      55.09497152      79.44310710
H      83.08557489      52.89910955      78.11273977
C      82.39960424      56.23825594      75.87530381
H      83.97185653      55.83007506      74.60918718
H      82.09157885      58.26782200      76.03404082
S      79.86170180      54.73403380      73.94211379
C      80.27177241      55.65810996      70.84485238
H      82.23897750      55.44268116      70.27982420
H      79.93729085      57.68578630      70.71635098
H      79.03211195      54.55639952      69.62219944
C      84.27610246      58.88009333      80.56749425
O      85.47418895      60.54683193      79.55460094
N      82.52621590      59.20701598      82.36462398
H      81.96685691      57.54594655      83.12051450
C      81.59269110      61.56350469      83.10539669
H      81.41883628      62.64064869      81.35739985
C      79.16061334      61.09296284      84.56804485
H      79.17195169      62.65198705      85.91541971
H      79.31368117      59.41488587      85.75479298
C      76.68318214      61.00981488      82.99768229
H      77.02900205      59.71535236      81.43487863
C      74.44763591      60.27660107      84.62284692
H      72.77711785      60.21990928      83.41909125
H      74.08669819      61.67499854      86.09494371
H      74.78022774      58.49836861      85.60739433
C      76.17106631      63.60062966      81.70699922
H      77.74709805      63.84440435      80.40497779
H      76.05390328      64.98201959      83.23011862
H      74.46275372      63.59685020      80.55426617
C      83.54288866      62.82584187      84.72489214
O      83.70162567      65.10674153      84.69465652
N      85.12836903      61.55027661      86.22344510
H      84.83735118      59.66810920      86.33871841
C      86.96896246      62.65009732      87.92608851
H      85.94284107      63.77637420      89.31314762
C      88.30688869      60.40132301      89.26590447
H      89.93961222      59.61897631      88.28513651
H      86.95951383      58.87253442      89.56070177
C      89.38592242      61.31595054      91.73010758
H      87.97240713      61.96034722      93.08315162
H      90.65392877      62.85229804      91.20665339
C      90.90337264      59.16922145      92.81670021
H      92.05232624      59.92133253      94.34926825
H      92.24885778      58.44734600      91.43342055
N      89.36891488      57.13398621      93.97510244
H      88.88703467      55.51638049      93.08126189
C      88.14815168      57.24548007      96.24655347
N      88.06311400      59.38276053      97.29913102
H      87.31667210      59.32228928      99.05657650
H      89.06277922      60.88131349      96.67174189
N      86.95762410      55.42000445      97.29157213
H      86.15449042      55.57685173      99.01878197
H      87.22596524      53.80806790      96.30513498
C      88.97018263      64.11274549      86.52769104
O      89.81678001      66.21223142      87.45554666
N      89.72607315      63.17544124      84.38852085
H      89.12136073      61.40854713      83.99167833
C      91.56666658      64.42644006      82.84083500
H      92.72317908      65.58295256      84.09183382
C      93.47529016      62.57072882      81.49346015
H      94.27464439      61.44823139      83.02602819
C      92.07500296      60.69045113      79.69633042
H      91.23407475      61.69011635      78.10329115
H      90.51030957      59.70779345      80.60717850
H      93.45450317      59.34307627      78.97634469
C      95.60123226      63.57228376      79.75113248
H      94.82077529      64.26770304      77.97667947
H      96.89947424      62.00381092      79.44499682
C      97.32277293      65.70956422      80.87929909
H      96.14736316      67.26858843      81.53125467
H      98.80809781      66.14231155      79.51869614
H      98.30165116      64.92910725      82.51391236
C      90.35913147      66.39553487      80.98134432
O      91.52509260      68.45533655      80.69788536
N      88.02720920      66.14420127      80.27269694
H      86.92927821      64.68344283      80.82260730
C      86.92738848      68.08872965      78.80060015
H      88.36169075      68.59706603      77.41165132
C      84.57845867      66.84528974      77.44377665
H      83.47296878      68.37029887      76.60662790
H      83.45407152      65.92310330      78.90075564
C      85.13025876      65.06138810      75.20445098
O      87.10124330      65.50547378      74.04415902
O      83.35958520      63.61952692      74.52225977
C      86.22063084      70.48301289      80.23301269
O      86.10346781      72.52769676      79.32216461
N      85.88236983      70.26947382      82.82193774
H      85.32301084      68.70100098      83.75357281
C      84.88270461      72.37840838      84.36206468
H      84.36680933      73.92798396      83.10539669
C      82.83802074      71.49779592      86.08738481
H      82.43172958      72.82816324      87.60672476
H      83.37092356      69.84806485      87.19665415
C      80.44562723      70.67576497      84.64930308
H      79.44029283      69.54570864      86.04581083
H      80.83869030      69.33783874      83.13185286
C      78.81857287      72.85272968      83.54381319
O      78.82046260      75.16386497      84.41308730
O      77.40694732      72.38407756      81.74668347
C      86.90849122      73.60484076      86.00045740
O      86.75731311      75.84983562      86.65430270
N      89.00419770      72.30659878      86.52013213
H      89.18750115      70.56805057      85.75290325
C      91.06021993      73.04359204      88.31348241
H      91.64792481      74.97678206      87.92230906
H      92.64003113      71.72456308      88.21332691
C      90.32511639      73.37429415      91.14996161
O      88.24263800      72.67131596      91.85671924
N      92.02775980      74.44198951      92.73922143
H      93.79843336      74.84072177      92.15151656
C      91.44383437      74.99945878      95.38105882
H      89.42749639      74.64796968      95.61160544
C      92.81577567      73.05304067      97.00622345
H      94.75463487      72.90186257      96.32214252
H      91.79532346      71.31449247      96.59615284
C      92.65892839      73.14752699      99.83136428
H      93.75307992      74.78402998     100.43418698
C      90.00386292      73.48956745     100.93685419
H      88.71506957      71.94377133     100.49087877
H      89.18372170      75.27535882     100.32647258
H      90.28165269      73.45177293     102.97775859
C      93.94583201      70.84395061     101.08803228
H      95.77508708      70.48301289     100.20930955
H      92.97829214      69.04871062     100.78756580
H      94.18393752      71.25591095     103.09114218
C      92.24885778      77.68664959      96.25789183
O      94.51086018      78.32159763      96.02356577
N      90.52353766      78.96221485      97.45975776
H      88.74908465      78.25734694      97.48243448
C      90.66715686      81.57192689      98.33281132
H      92.64947976      81.92530571      98.75988947
C      89.74497041      83.52023472      96.33915006
H      89.48040873      85.37972541      97.18952690
H      87.87981054      82.85316133      95.77412189
C      91.40792957      83.61661076      93.91841065
H      91.90114814      81.74578171      93.21543246
H      93.21639765      84.34226567      94.58359431
C      90.18716637      85.39295350      91.79813773
H      90.07189307      87.35259968      92.42741659
H      88.33712431      84.73154929      91.17641777
N      91.93516321      85.66129463      89.53613533
H      92.54554481      87.36204832      88.91819483
C      92.58900852      83.79235531      88.03380291
N      91.45517273      81.62483923      88.12450977
H      91.69138852      80.36061233      86.71477394
H      90.13236431      81.39996180      89.48133327
N      94.31999782      84.08715262      86.38407184
H      95.08911643      82.68875514      85.33527374
H      94.91715133      85.88617207      86.18376085
C      89.24419294      81.93853380     100.71386647
O      87.05966932      81.25256315     100.99543569
N      90.43661025      82.97977300     102.61682088
H      91.98618582      83.97565876     102.11226394
C      89.57489505      83.11205384     105.17928975
H      88.01965029      81.76656870     105.31535004
C      91.78398511      82.31647906     106.94807358
H      90.95628498      82.24277973     108.83213071
H      93.35812713      83.63172857     106.75721122
C      92.67593593      79.52913275     106.54934133
H      93.51308468      79.36661629     104.67473282
C      95.07021916      79.40063136     108.14804979
H      96.23429057      81.08815696     107.95340798
H      96.30987963      77.86428387     107.56601408
H      94.24440877      78.95654568     109.98108431
C      90.89392401      77.24067418     107.04822907
H      89.14214772      77.46555161     105.98620288
H      90.56322191      77.36728585     109.07779513
H      91.72162414      75.40386021     106.62304065
C      88.43161063      85.73877341     105.75565627
O      87.22596524      86.09404196     107.75309699
N      88.68294423      87.55857985     104.14938891
H      89.65048410      87.23543665     102.53745236
C      87.07667686      89.90373021     104.24387522
H      86.06189383      89.92451720     106.03722550
C      88.83034288      92.23943193     104.07757931
H      89.60513067      92.04290039     102.17651464
H      90.36102119      92.04856957     105.44196171
C      87.43194541      94.70552477     104.52922390
H      86.56456103      94.65261243     106.39627349
H      86.21685139      95.17795635     102.93051544
C      89.45962174      96.92217373     104.61426158
H      90.75786372      96.64438397     103.03822984
H      90.51786848      96.88059975     106.37926597
C      88.28043252      99.52432687     104.37993552
H      87.05400014      99.75865293     106.02021797
H      87.44517349     100.04022215     102.56957771
N      90.32322667     101.48964223     104.55379034
H      91.22084667     101.25342644     106.22052895
H      89.49174709     103.17905756     104.24387522
H      91.64603509     101.48586278     103.17617986
C      84.99797792      89.88105349     102.16517629
O      85.25498069      88.56013480     100.25655270
N      82.89282280      91.20575164     102.56390853
H      82.70385017      91.85392776     104.34969990
C      81.07301636      91.68574212     100.50977604
H      80.00343127      89.94908364     100.22064790
C      79.03400167      93.65294721     101.38471931
H      79.93540112      95.38960569     102.02533653
C      77.25387949      94.22931374      99.06224567
H      78.22897826      95.45196666      97.72053999
H      75.53989772      94.97953508      99.92396087
H      76.87215477      92.40572785      98.17974349
C      77.39371923      92.62682582     103.63916280
H      78.75432218      91.93896545     105.02244246
H      76.39783347      91.02622764     102.80768323
C      75.71753199      94.56379529     105.13015686
H      76.81357325      96.20785719     105.70841312
H      74.87471406      93.72475681     106.81012356
H      74.21330985      95.12504401     103.83947379
C      82.43550904      92.67784843      98.20808938
O      84.13248326      94.21230620      98.31391405
N      81.55300685      91.71408801      96.01789658
H      79.89382714      90.79001185      96.21253839
C      82.39771451      92.57580321      93.53668593
H      83.17628175      94.45608090      93.85793941
C      84.52176689      90.58970086      92.91874543
H      85.78599379      90.63883374      94.54579979
H      85.77654516      91.44385715      91.52412741
C      83.82634760      87.92518676      92.21765697
C      83.04400091      87.41496065      89.77991002
H      83.19139956      89.00611021      88.51190367
C      82.54133371      85.01500824      88.94843045
H      81.87992950      84.66540887      87.05114523
C      82.59991523      82.98733190      90.51879301
O      82.23897750      80.50045207      89.75534358
H      81.90449594      80.46265755      87.97333167
C      83.05722899      83.44653540      93.17952766
H      83.36903383      81.86483447      94.42863675
C      83.90760583      85.88995152      93.86549831
H      84.53877442      85.93908440      95.80624724
C      80.03177717      92.75154776      91.83971171
O      77.94362959      92.50210389      92.88284063
N      80.29822858      93.43373896      89.30936817
H      82.01598979      93.84191984      88.58182354
C      77.99654193      93.88916300      87.67475491
H      76.21264029      93.49987938      88.62717697
C      77.96819603      96.63115588      86.62973626
H      76.99687671      96.68217849      84.81370927
H      79.82390727      97.52499643      86.69020750
C      76.38838483      98.31112257      88.38718173
H      77.19340824      98.34513765      90.28068750
H      74.45141536      97.60814439      88.47788859
C      76.14461014     101.14004286      87.76168232
H      77.81890765     102.30033482      88.06403853
H      74.69896951     101.93750737      88.99189415
C      75.09581204     101.38759701      84.96866683
H      73.24010080     100.49375647      84.92331341
H      76.34303140     100.31234274      83.73278582
N      74.92762639     104.03699330      84.11640026
H      73.85804130     105.04421743      85.33716346
H      74.11504408     104.35068787      82.41942604
H      76.65294652     104.84957562      84.18820986
C      78.10047687      92.10715109      85.32960456
O      79.94673948      92.11659972      84.01057559
N      75.86304092      90.92796187      84.82882709
H      74.65928526      91.28512014      86.26501908
C      75.20163671      89.49176987      82.48934592
H      76.69641022      88.11604911      82.14541572
C      72.57113768      88.22376351      82.81059938
H      71.04045937      89.59570482      82.68965690
H      72.48610000      87.28645926      84.64174418
C      71.69430467      86.32836802      80.81126894
O      72.82625073      84.31014032      80.65820111
O      70.17496472      87.01433867      79.12752280
C      75.25076959      91.23031808      80.17632090
O      74.81802227      93.56979925      80.56182508
N      75.61737650      90.14750490      77.91053906
H      76.16917658      88.32391901      77.85006781
C      75.47753675      91.64227842      75.57105789
H      76.78522736      93.22964852      75.68255173
C      76.09736698      90.08325421      73.24102533
H      75.58147170      91.04134545      71.49302849
C      78.98297906      89.71853703      72.89142596
H      80.15838883      89.01744857      74.43155291
H      79.61414765      91.64983732      72.55505469
H      79.44785174      88.69052591      71.16799557
O      74.88794214      87.78156756      73.32795274
H      75.96886559      86.61560642      74.20100630
C      72.84136854      92.77044502      75.01169889
O      72.68263153      94.29734388      73.26937123
N      70.86471482      92.05990793      76.39875800
H      70.94786278      90.38372069      77.30960608
C      68.38917335      93.33547319      76.26080798
H      68.14161920      94.08002536      74.35596386
C      66.29157714      91.33425303      76.71245258
H      66.00622847      90.78245294      78.67587821
H      67.07203411      89.62027126      75.88286272
C      63.77068224      92.09014355      75.33295236
H      63.27179450      94.03656165      75.79026613
H      62.40441012      90.71064334      76.02459219
C      63.98800077      91.59314553      72.45111973
O      64.62105908      93.46964376      71.16610584
O      63.76879252      89.44830617      71.55161001
C      68.20209045      95.36503925      78.17321101
O      66.10260451      96.36848392      78.51903093
N      70.22220788      96.13226813      79.44877628
H      71.92485128      95.43873858      78.93666045
C      70.04646333      97.90672114      81.51991631
H      69.01278303      99.59235701      80.94166006
H      72.00233006      98.53411028      81.66164578
C      69.23577074      96.79178262      84.02380367
O      69.83481398      97.83869100      86.00234713
N      67.93563904      94.54678776      84.05592902
H      67.50478144      93.55090199      82.48367673
C      67.26100674      93.11248549      86.37084376
H      65.87772708      94.29923361      87.33082472
C      65.98733121      90.51222208      85.84927929
H      65.34293453      89.76389046      87.65774737
H      67.44242047      89.17240612      85.27669222
C      63.91430144      90.44608166      83.98411942
C      63.23777942      88.07069568      82.87296035
H      64.32059260      86.47765640      83.54570293
C      61.08727088      87.79101619      81.17598612
H      60.22933513      86.08270360      80.46544903
C      59.82682343      90.05490831      80.48434629
O      57.82938271      90.06246722      78.90075564
H      57.36451004      91.78778734      78.58895080
C      60.57326532      92.40950730      81.50668823
H      59.83249261      94.06679727      80.57694288
C      62.47621972      92.46619909      83.37373782
H      62.86172389      94.30679252      84.16931261
C      69.46442762      92.72320187      88.29269542
O      71.50344232      92.36793332      87.58971723
N      68.96365015      92.96886629      90.77768552
H      67.24777866      93.53767391      91.39373630
C      70.82881002      92.54934705      92.82614884
H      72.71853633      93.07847041      92.20442888
C      70.59448396      94.49576515      95.00878273
H      71.66784850      94.03845138      96.70575696
H      68.71798573      94.04601029      95.73254791
C      70.80991276      97.24531693      94.61194021
C      68.68586038      98.91016581      94.33981962
H      66.73377310      98.31490203      94.42296758
C      69.04490838     101.55011347      93.78801953
H      67.44619992     102.80300202      93.56881128
C      71.50533204     102.46852046      93.57070101
O      71.91351293     105.03287907      93.11527698
H      70.30913529     105.85868947      92.94142215
C      73.53111865     100.81689966      93.83148325
H      75.43596277     101.47074497      93.49322223
C      73.32135903      98.20529790      94.30013536
H      75.02022298      97.08091074      94.16218534
C      71.15951213      89.84514869      93.76534282
O      69.34537487      88.48076629      94.45320320
N      73.58592071      89.01555884      93.68597431
H      74.93329557      90.26655766      93.16629958
C      74.33614206      86.35860364      93.94675654
H      72.68074181      85.24933430      94.47021073
C      75.23187233      85.25689320      91.38428767
H      76.97042054      86.20931527      90.82681840
C      75.83658475      82.37884003      91.17830750
H      76.97042054      81.78546597      92.79213377
H      76.71908694      82.07648382      89.34149352
H      73.98465296      81.49822757      90.98177596
O      73.41206589      85.81058301      89.53046615
H      72.32736299      87.08047910      90.23911352
C      76.58491637      85.98632756      95.71365065
O      78.13071249      87.66062507      96.10671372
N      76.72664584      83.91707725      97.28212349
H      75.31502029      82.64340171      97.11204813
C      78.91872837      83.23866550      98.96964909
H      80.41917106      84.49911295      98.33848050
C      78.26677279      84.00022521     101.68140634
H      77.61103776      85.94664331     101.53778714
C      76.27689098      82.37884003     102.97775859
H      74.76510993      81.83837830     101.68707552
H      75.63060458      83.51267582     104.56890815
H      77.15561372      80.66674799     103.71286213
C      80.74798344      84.31391977     103.29523261
H      82.21252133      85.02634659     102.03289544
H      81.34135750      82.53568731     104.14749919
C      80.47586285      86.04679880     105.53644802
H      79.45352091      85.09437674     107.05011880
H      79.44407228      87.73432440     104.96197122
H      82.43739876      86.55513518     105.89738576
C      79.68784698      80.42675275      98.72776412
O      78.28944951      78.81859566      97.85660029
N      81.96874664      79.81259170      99.31924845
H      83.11014133      81.09760559     100.14694858
C      82.82857211      77.17642349      99.82947456
H      81.23175337      76.33927473     100.82347060
H      84.58979703      77.01390703     100.88961102
C      83.27643725      75.68731915      97.27267486
O      84.96018339      76.41864324      95.77979107
N      81.87048087      73.55381815      97.10448922
H      80.40972243      73.22878522      98.28745789
C      81.87048087      72.02502956      94.85760464
H      83.41060781      72.52391731      93.58392910
C      82.25787476      69.20366817      95.63995132
H      80.71018891      68.36462969      96.70953641
C      82.60180495      67.52370148      93.35149276
H      84.21941068      68.11896527      92.21954669
H      80.91616908      67.62763643      92.17230354
H      83.07045708      65.59240119      93.88817503
C      84.76176213      68.77092085      97.20842416
H      84.51987716      70.17309777      98.69563877
H      86.50786924      69.06382843      96.15773633
C      84.94884503      66.23679786      98.59359355
H      85.56678554      64.80438532      97.24621869
H      83.14982558      65.70200532      99.44208066
H      86.44361855      66.57505887      99.96931430
C      79.27399691      72.49935086      93.47054551
O      77.57135351      70.99512872      93.37605920
N      79.03778113      74.63852105      92.34237890
H      80.30200803      76.00101372      92.78079542
C      76.97608972      75.34905814      90.69075811
H      76.62838008      73.74090105      89.44920792
H      77.61859666      77.00634812      89.65329836
C      74.44007701      76.12762539      91.94553638
O      72.40295204      76.22589115      90.70209646
N      74.38905440      76.83249330      94.30958400
H      76.08224917      77.06115018      95.15807111
C      72.11760337      76.97989195      95.90073356
H      70.91573743      75.47566981      95.16940947
C      72.70152880      76.41675351      98.61249082
H      73.77300362      77.99089553      99.40239641
H      73.77489334      74.66308749      98.74288193
C      70.35070926      75.91975549     100.06758007
N      68.58759461      73.91475587      99.74254715
H      68.59893297      72.61273444      98.34414967
C      66.39929154      74.35317238     101.08425284
H      64.73444266      73.26091057     100.63449798
N      66.60905116      76.58493915     102.36737700
H      65.18608725      77.43531599     103.31412988
C      69.13561525      77.55625848     101.77967211
H      69.92552084      79.38929300     102.20297082
C      70.83447920      79.54425056      95.52467803
O      71.87004922      81.52090428      96.25411237
N      68.74822135      79.51023549      94.26234084
H      67.86193971      77.88696058      93.79368872
C      67.26289647      81.86105502      94.00344834
H      68.40618089      83.54669089      93.68975377
C      65.27301466      81.75334062      91.86238842
H      64.11839188      83.41441005      92.25167204
H      64.32626178      79.95054172      92.17419326
C      66.31425386      81.99711531      89.15819007
H      67.54635542      83.64495666      89.07126266
C      67.94130822      79.76912799      88.25301116
H      66.76400872      78.10427911      88.54780847
H      69.62694409      79.66519304      89.43220039
H      68.88806110      79.93920336      86.43320472
C      64.13350969      82.17474959      87.15130072
H      62.92030540      80.52501852      87.37239870
H      64.81381117      81.99144613      85.21622098
H      63.20943353      84.01534302      87.25712540
C      66.07803807      82.74166748      96.46765145
O      65.12939546      81.03524462      97.80746740
N      66.01945655      85.15484798      97.04590770
H      66.97376834      86.28301459      95.83648286
C      65.16718999      86.24333034      99.38160942
H      64.51523441      84.68997531     100.56835755
C      67.48777390      87.61149219     100.62126988
H      66.65251487      88.87382937     102.01588790
H      68.56113845      88.75477661      99.28712310
C      69.61560573      86.02601181     101.69274470
H      70.52645381      84.92052192     100.21119927
C      71.62438480      87.74188330     102.80579350
H      72.48987945      88.87382937     101.31668917
H      73.08325351      86.61182697     103.71664158
H      71.14817377      89.13650132     104.24765469
C      68.44586514      84.35360403     103.76955392
H      69.89717495      83.17441481     104.64071775
H      67.14384371      83.05536205     102.84547775
H      67.58792939      85.58003640     105.17928975
C      62.93731294      88.08014432      98.70697713
O      60.83971673      87.70786823      99.65373001
N      63.16974927      89.91506856      96.96275974
H      64.74011184      89.85270760      95.87805684
C      61.22900035      91.54968183      96.10482399
H      59.48100351      90.46308920      96.12561098
C      60.90585715      93.82491231      97.86793864