 %block lattice_cart
   135.996   0.000   0.000
   0.000 142.663   0.000
   0.000   0.000   160.158
 %endblock lattice_cart

 %block positions_abs
N      89.15632067      38.74600433      81.15519914
H      88.58940277      38.28491111      82.91642407
H      91.06494424      38.80080639      81.17031696
H      88.43066576      37.55736647      79.84939825
C      88.31161300      41.25934032      80.44088260
H      89.16387957      42.74655492      81.58605673
C      88.99191448      41.79224314      77.56660888
H      88.03193351      40.44486828      76.33828676
H      91.01203190      41.47098967      77.31338555
C      88.36641507      44.52100794      76.61985599
H      86.32362092      44.61360452      76.38175048
H      89.50780976      44.68730385      74.91154341
S      89.57772963      47.18930149      78.42454462
C      87.02470938      49.25855180      77.50424790
H      85.38631667      48.48376402      78.47745695
H      86.80172168      49.27177989      75.45578457
H      87.29682997      51.09158632      78.40375762
C      85.48269271      41.45965130      80.99079296
O      84.22035554      39.65685240      80.24624078
N      84.53593983      43.48354819      82.19454862
H      85.76804139      44.70998056      82.98067475
C      81.92244834      43.75377905      83.10350696
H      80.55428649      42.74655492      81.94132529
C      81.89788190      42.83537207      85.91730945
H      83.43989857      43.72543316      86.95476919
H      82.20968674      40.80958546      86.12706907
C      79.44123769      43.28890637      87.36672954
O      79.05384380      45.40351012      88.30781323
N      77.77071963      41.39540061      87.92797825
H      76.14933445      41.86216302      88.82370851
H      78.22992312      39.59638116      87.48767202
C      80.86042215      46.48443357      82.84272474
O      82.35330594      48.27778385      82.70666445
N      78.37543205      46.94174734      83.03547683
H      77.33797230      45.38839232      83.42287072
C      77.21325037      49.41917854      83.19799328
H      77.85764704      50.13727454      81.38007658
C      74.22748279      49.21697783      83.34917139
H      73.44324637      48.07747285      81.82038280
C      73.18057442      48.13038520      85.76235189
H      71.12077273      48.12471602      85.82282313
H      73.79662519      49.04501273      87.50090010
H      73.70024915      46.13861366      85.85305875
C      73.15033879      51.84936658      82.90319598
H      73.89489096      53.10981403      84.35450579
H      71.12644191      51.89472000      83.27736178
C      73.49804844      52.95863592      80.17632090
H      72.27728524      54.54033684      79.67554343
H      73.20703058      51.56212817      78.68910630
H      75.45958435      53.58035587      80.11773940
C      78.36409369      51.42984734      85.02346891
O      78.98581365      53.54067163      84.26757837
N      78.89699651      50.79678902      87.35161172
H      78.39621904      49.09225589      88.04703100
C      80.00437613      52.73564821      89.14874144
H      78.79117184      54.39671764      89.05992430
C      79.88532337      51.66984258      91.83215280
H      80.60341937      53.17028527      93.04913656
H      80.93223175      49.91239710      92.06269941
C      77.17734557      51.24087470      92.78457488
C      75.62210081      53.21752842      93.68408460
H      76.13799609      55.18473352      93.50645033
C      73.14655934      52.60714683      94.72721352
H      71.82375092      54.03011075      95.34893347
C      72.29807223      50.11081837      94.71209570
H      70.30063151      49.76499845      94.95209096
C      73.94780330      48.13416464      94.00911752
H      73.28450936      46.20853354      93.89762366
C      76.29295365      48.70864144      93.01323175
H      77.44379698      47.10048436      92.50300565
C      82.81061971      53.48964901      88.45521188
O      83.52115680      55.59291441      88.74434001
N      84.24681170      51.92117617      86.98311508
H      83.98036029      50.09570055      86.49178625
C      86.67133056      52.70163315      85.87573547
H      87.85051978      53.71452645      87.22877951
C      87.99224926      50.16939989      85.10283741
H      89.87063721      50.77978149      84.52269143
H      86.96990732      49.07524835      83.68932213
C      88.29649519      48.33636537      87.24578705
H      86.45590176      47.66362279      87.87128646
H      89.19222547      49.15839630      88.90874620
C      89.89898311      46.10081913      86.47666843
O      88.79160349      44.29990996      85.55826144
O      92.19311085      45.93452321      87.25901513
C      86.25181132      54.36837175      83.47011387
O      87.93933692      56.07290488      83.00902066
N      84.38854118      53.75987987      81.98100953
H      83.26793347      52.28778309      82.44021303
C      83.65343764      55.21307941      79.81727292
H      85.20301322      55.33213217      78.46611859
C      81.37064826      53.92806552      78.56627409
H      79.58296716      54.35325395      79.49979889
H      81.78071887      51.95519126      78.99335224
C      81.26671331      54.67828687      75.73546407
H      82.85786286      53.67295246      74.89264613
H      81.27238249      56.72863992      75.57483733
S      78.20157723      53.69373945      74.40320703
C      78.23370258      54.14538405      71.10752433
H      76.43279340      53.67106275      70.22880159
H      79.73603499      52.85848042      70.53682699
H      78.72314169      56.09747133      70.66721811
C      83.03549714      57.83412981      80.57316343
O      84.02004455      59.58968556      79.23901666
N      81.67678392      58.25364905      82.62729593
H      80.90766531      56.75698581      83.52869538
C      80.91333449      60.77265422      83.55893101
H      80.84908379      61.99908661      81.90542048
C      78.22047449      60.70462407      84.66631062
H      77.81418333      62.56033532      85.45999568
H      78.20724641      59.24197591      86.11573071
C      76.06618649      60.12825756      82.70666445
H      76.82774620      58.71285255      81.41787109
C      73.82497109      59.06812109      84.00301669
H      72.56830309      58.25175932      82.59139113
H      72.92924082      60.54588707      85.12362439
H      74.46369858      57.58090648      85.27669223
C      75.48604052      62.49797435      81.07961008
H      76.89766607      62.77765385      79.60562357
H      75.23848637      64.19872804      82.21533560
H      73.62466010      62.35435515      80.20844625
C      82.89943684      62.10869073      85.28047168
O      83.20746223      64.38014175      85.06882233
N      84.39798981      60.65549119      86.79981163
H      84.14098703      58.76954434      86.93209248
C      86.46346067      61.79499617      88.44576326
H      85.61308383      63.11591485      89.77613057
C      87.71823894      59.65960542      89.94620595
H      89.52859675      60.40604733      90.58871290
H      88.29082601      58.14215520      88.67630986
C      86.27259831      58.95095806      92.31025356
H      84.24870143      58.71663200      92.01545626
H      86.53527027      60.46651857      93.68030515
C      87.35352176      56.65872004      93.67652569
H      89.16387957      57.20107149      94.49477719
H      87.40076492      55.07701911      92.35749673
N      85.52426669      55.58535550      95.51900885
H      84.95356935      53.76743878      95.38672800
C      84.73247137      56.28266450      97.75644479
N      85.28049200      58.48230593      98.84492715
H      84.70223575      58.65805049     100.65528496
H      86.65054357      59.56511912      98.07391882
N      83.44934720      54.73686838      99.03389979
H      82.32496004      55.33969108     100.45119453
H      83.38320678      52.86037015      98.68996959
C      88.55538770      63.41071215      86.90374658
O      89.76670226      65.00753090      87.91097070
N      88.82183911      62.55655587      84.51513252
H      87.58028892      61.22051937      83.95199408
C      90.36763523      63.71495810      82.42509522
H      91.67910529      64.89603704      83.48712142
C      92.05894028      61.85546740      81.05126420
H      92.62585818      60.65738092      82.62918566
C      90.50747498      60.24164113      79.30515707
H      91.64886967      58.57301279      78.90831456
H      90.06149957      61.19406319      77.53259379
H      88.83695692      59.50086841      80.25946887
C      94.39842146      62.94394976      79.86829552
H      93.81449603      64.01542457      78.21100554
H      95.45099901      61.23941663      79.38452559
C      96.11618268      64.53887877      81.42731973
H      97.92276103      64.81855827      80.47867711
H      96.63018823      63.38236627      83.05059463
H      95.22990104      66.33600850      81.90353076
C      88.99380420      65.54043372      80.55426617
O      90.32039207      66.69694621      78.99524197
N      86.48424766      65.82767211      80.80371005
H      85.56962012      64.66549043      82.00746571
C      84.98758442      67.52464635      79.33539271
H      86.10630240      68.19738892      77.74046370
C      82.66511078      66.14325641      78.25068979
H      81.61253322      67.84023063      77.74235341
H      81.72213735      64.95083911      79.63963863
C      83.09407865      64.82044799      75.77892777
O      85.15765979      64.94705966      74.60918720
O      81.31584619      63.43338888      75.13075165
C      84.31295212      69.92837822      80.80748949
O      84.54916791      72.07321758      79.95900239
N      83.38887596      69.81310491      83.13374258
H      82.92400328      68.14069713      83.93498655
C      82.94479027      72.15069636      84.54725787
H      82.45913061      73.68515412      83.26224398
C      80.49192552      71.90503193      86.17809168
H      79.94390489      73.79475824      86.78469383
H      80.90010640      71.13402361      88.04514127
C      78.11842927      70.62946668      85.13307303
H      76.97892430      70.34411800      86.82626781
H      78.57952249      68.83044723      84.24490167
C      76.64444275      72.18660116      83.02413846
O      77.00538047      74.50907480      82.74823842
O      74.80762877      71.15670032      81.85250815
C      85.36741941      73.06721362      86.10628207
O      85.35041187      75.12701531      87.20232334
N      87.10029844      71.36834966      86.36895404
H      86.77904496      69.59956584      85.73400600
C      89.25647616      71.82944289      88.10561252
H      90.03504340      73.70972056      87.79002823
H      90.69644761      70.41403788      87.70688026
C      88.31728218      71.49685106      90.88728966
O      86.61274905      70.04743097      91.35216232
N      89.33395494      73.15225131      92.48410838
H      90.84951544      74.13112953      91.86427815
C      88.35507671      73.68893358      95.06358481
H      86.30094421      73.63980070      94.95964985
C      89.38497755      71.51385859      96.69630833
H      91.44288950      71.50063051      96.69063915
H      88.82561856      69.74129531      95.81002670
C      88.68766854      71.61590382      99.42129368
H      89.78559953      73.03886773     100.43040754
C      85.90410168      72.43415531      99.89183553
H      85.85874825      74.48639807     100.07135953
H      85.22946939      71.57810929     101.63983237
H      84.59074189      71.97306209      98.37249558
C      89.25269671      69.17437742     100.75544045
H      88.86152336      69.58822748     102.73587364
H      91.26336550      68.73218146     100.65717469
H      88.08862530      67.69472172      99.91829171
C      89.12419532      76.31376343      96.03112468
O      91.11218740      76.62367854      97.05535633
N      87.40076492      78.20537947      95.84026232
H      85.73213659      77.84255202      94.98988547
C      87.60485536      80.73005382      97.01378236
H      89.57017073      80.93036481      97.60148725
C      87.25525599      83.03740964      95.21854237
H      87.15321077      84.86477500      96.16151579
H      85.60552492      82.67836165      94.04124287
C      89.50969949      82.84843702      93.52156813
H      89.79504816      80.95493124      92.76189815
H      91.13297439      83.62511453      94.52312308
C      89.15254121      84.48494000      91.07437255
H      90.90809696      84.32998244      90.00856692
H      88.83317747      86.42190948      91.69798225
N      87.13809296      83.67424742      89.09582910
H      87.18722585      81.83554372      88.58938245
C      85.73213659      85.23894080      87.86561728
N      85.75859275      87.62566514      88.51001396
H      84.39421036      88.74627283      87.78435905
H      87.01526075      88.29084880      89.78368948
N      84.12397949      84.50761671      86.07604645
H      83.49659036      86.08364847      85.19921344
H      83.81595410      82.62355959      86.07604645
C      86.07417705      80.71115656      99.43074232
O      84.04650071      79.60188720      99.69719373
N      87.23635873      82.03585471     101.29023301
H      88.75569869      83.06764527     100.77055827
C      86.45401204      82.06042115     104.00954916
H      84.86664193      80.78107643     104.29489784
C      88.60641031      81.29697171     105.81990697
H      88.00547734      81.39901694     107.78711207
H      90.19944959      82.57064725     105.52699940
C      89.13931313      78.46238225     105.40983637
H      89.97268243      78.19782056     103.54278677
C      91.24068879      77.80475749     107.42050516
H      92.69199860      79.26551593     107.45829969
H      92.00980740      75.97739215     106.85547700
H      90.25803111      77.87467736     109.22897324
C      87.01337103      76.47250044     105.72731038
H      85.56395094      76.89768885     104.32702319
H      86.25559077      76.68792923     107.63026478
H      87.82406361      74.58088439     105.63093435
C      85.34285297      84.57942632     104.75032189
O      83.82729246      84.48871946     106.52288517
N      86.21779625      86.68269171     103.75065666
H      87.64831907      86.32931289     102.53745238
C      84.89120838      89.12799756     103.84514298
H      83.86886644      88.95792219     105.62526517
C      86.72424290      91.26716774     103.85270189
H      87.94500610      91.27661638     102.19163246
H      87.94311637      90.96103208     105.48542541
C      85.76615166      93.97892499     104.20419098
H      84.63420560      93.91089486     105.92384193
H      84.60585970      94.61198332     102.62249006
C      88.00925679      95.77983418     104.52166501
H      88.98624530      95.64944306     102.71130720
H      89.29805014      95.22992382     106.03155632
C      87.22879983      98.56151131     104.97519931
H      88.83884664      99.56117653     105.78211246
H      85.90977086      98.58607774     106.55690024
N      86.25748050      99.90888616     102.57713662
H      84.43011516      99.53283064     102.18407355
H      87.46879507      99.79928204     101.10503983
H      86.18756063     101.78727413     102.91728736
C      82.93912110      89.40767704     101.74376731
O      83.67422463      88.75761120      99.62727385
N      80.76593584      90.47726214     102.42973797
H      80.39743920      90.49237996     104.30245675
C      78.76093622      90.91945810     100.58536510
H      78.24882039      89.05618795      99.86726909
C      76.22114405      91.91156442     102.02155708
H      75.64099807      90.51127722     103.41806483
C      76.69735508      94.42112096     103.59191965
H      75.14022060      94.84252993     104.87315410
H      77.03561609      95.92345338     102.22375781
H      78.28283546      94.40222370     104.90527945
C      73.91945740      92.31785557     100.26978080
H      73.52261488      90.80796425      98.92996483
H      74.28228486      94.03183734      99.18696762
C      71.34753989      92.76572071     101.64361182
H      69.73560335      92.77138989     100.36048766
H      71.39100360      94.44568740     102.83602912
H      71.05463231      91.15378417     102.88894147
C      79.56029045      92.31407612      98.15895650
O      80.80373036      94.30773738      98.30446543
N      78.87809925      91.22181431      95.95742535
H      78.08063474      89.49271474      96.09348565
C      79.53761373      92.28384050      93.46676607
H      80.42578510      94.13577229      93.60093663
C      81.29316948      90.34876076      92.19309053
H      83.08840947      90.42812926      93.20409412
H      81.99047849      91.24449103      90.47532931
C      80.42956455      87.66534938      91.62428291
C      79.28628013      87.01906299      89.26212503
H      78.84786363      88.58186665      88.02813375
C      78.67022935      84.48682973      88.98433526
H      77.79528607      83.91991184      87.22877951
C      79.18234519      82.52907327      90.68886838
O      78.65511154      80.17258456      90.17108337
H      78.05984776      80.05731126      88.46088106
C      80.41444674      83.19614666      92.90929680
H      80.70546459      81.68814506      94.25478195
C      80.94545984      85.77373335      93.40062565
H      81.64843802      86.25561356      95.25633688
C      77.02616746      92.47848230      91.89073432
O      74.94557879      91.74904795      92.62205841
N      77.26616270      93.76916538      89.77802030
H      78.95746775      94.56096070      89.38117779
C      75.15344869      94.20758189      87.85427891
H      73.52828406      93.16634269      88.56859547
C      74.58842052      97.01004601      87.76357205
H      76.13043719      98.01915985      86.84138561
H      74.52605955      97.82451805      89.65329836
C      72.23193181      97.68089885      86.25557045
H      70.63889252      97.19901864      87.47066447
H      72.12610713      96.66233637      84.46788937
C      72.16390166     100.54950339      85.32582512
H      70.63133362     100.57973901      83.94821463
H      73.88355260     100.94445619      84.26379893
C      71.64422692     102.47702423      87.50278982
H      73.22781757     102.36930983      88.81425988
H      69.93780406     101.99325429      88.55158792
N      71.37966524     104.96957323      86.34816704
H      72.94435863     105.14720750      85.27102304
H      71.33809126     106.29805083      87.71632890
H      69.89623008     105.21712738      85.17275729
C      75.73359466      93.15500433      85.15008056
O      77.94079500      93.47436808      84.31860099
N      73.92701631      91.76038630      84.08616466
H      72.35287429      91.32385953      85.07449152
C      74.31063075      90.18246484      81.83172115
H      76.15311391      89.26594757      81.82227253
C      72.32074894      88.12077343      81.91486912
H      70.40645619      88.87855368      81.95077391
H      72.61176679      87.14756438      83.70632966
C      72.39633800      86.20081150      79.69444069
O      70.96581518      86.65056636      77.89353153
O      74.27472595      84.72871470      79.43743792
C      74.02528208      91.82085755      79.44877628
O      73.09742646      93.96380719      79.51491671
N      74.70747328      90.64733751      77.22834787
H      75.35564940      88.87666395      76.95055810
C      74.55251572      92.14966992      74.83973380
H      75.57296793      93.92412293      75.07217013
C      75.76760974      90.55852038      72.67032799
H      74.54495681      89.07319550      71.93900392
C      76.58019205      92.38021654      70.46312767
H      74.83408494      93.04162075      69.59196384
H      77.37576683      91.13866635      69.02693566
H      77.75749155      93.93735102      71.11697297
O      77.90489020      89.30941128      73.50747675
H      78.25071011      88.19258303      72.12230736
C      71.93713450      92.76383098      74.10651999
O      71.38911387      94.69891073      72.91221296
N      70.15323286      91.11787937      74.94177903
H      70.76739391      89.63633394      75.97356958
C      67.48304958      91.61865684      74.49202417
H      67.08242760      92.31218639      72.59284922
C      66.05630622      89.28862428      75.00980916
H      66.04307813      89.12232838      77.06394167
H      67.03707417      87.62566514      74.29549262
C      63.38045376      89.33019827      73.98179805
H      62.19937481      90.89300193      74.61485638
H      62.21638235      87.74093844      74.57706185
C      63.34076950      89.67601819      71.10563461
O      62.82487422      91.84920345      70.25903721
O      64.11177784      87.99983094      69.64298645
C      66.59109876      93.89766676      76.25891827
O      64.99239030      95.44724235      75.64475721
N      67.87611265      94.36064972      78.40375762
H      69.23293615      93.04728993      78.67020903
C      67.57942562      96.63399047      80.11584966
H      66.34354461      97.97191670      79.15397898
H      69.48238002      97.36153510      80.40686752
C      66.26417611      95.96880680      82.67264936
O      65.41757872      97.73192146      84.05214958
N      65.94103291      93.48948589      83.03925627
H      66.38133914      92.42179051      81.51991632
C      64.95648550      92.43123915      85.36739909
H      63.58265447      93.78239346      86.09683345
C      63.67714079      89.84987301      84.70221543
H      62.68503447      89.39633869      86.45021227
H      65.14167868      88.50816733      84.16175370
C      61.74961995      89.65712093      82.54225825
C      61.38301304      87.46692813      81.07016146
H      62.51117965      85.79452034      81.38574576
C      59.90524707      87.42913360      78.94610907
H      59.59344222      85.70570321      77.89920070
C      58.76196265      89.63066475      78.31494050
O      56.87979524      89.64389284      76.51781076
H      56.67570480      91.33897734      75.90742916
C      59.08699557      91.97770483      79.53381396
H      58.07221254      93.67278934      79.01980840
C      60.66491704      91.93802059      81.64652799
H      60.91625064      93.75026811      82.54792744
C      66.98038238      91.96636648      87.43475967
O      69.09498613      91.21992459      86.79036301
N      66.40023640      92.51249738      89.77235113
H      64.61066559      93.08697418      90.10872242
C      68.11232844      91.96636648      91.97766173
H      70.01339311      92.64666795      91.56759112
C      67.21092899      93.29106463      94.38895250
H      68.29752162      92.52950492      95.96498426
H      65.24939308      92.81863304      94.79335394
C      67.63044823      96.15966916      94.33604017
C      65.60655135      97.72814201      93.35905166
H      63.91902576      96.82674256      92.64662485
C      65.80119316     100.40021502      93.18330712
H      64.10799839     101.42066722      92.67875019
C      68.08965173     101.41877750      93.86927778
O      68.28051409     103.94534158      93.51589895
H      66.54952478     104.43478069      93.27212425
C      70.26094726      99.99770331      94.61194022
H      72.05996671     100.87453632      95.01067246
C      69.97937804      97.28783578      94.86327381
H      71.54218170      96.02927804      95.22799099
C      68.30319080      89.14689482      92.39529124
O      66.32086790      87.82219668      92.26301041
N      70.59920827      88.24360564      93.03590847
H      71.82942010      89.65523119      93.41196401
C      71.46848238      85.45814906      93.19653521
H      69.85654583      84.23549612      93.58203937
C      72.28484414      84.74383251      90.53769028
H      74.08008414      85.65846004      90.11439158
C      72.63633324      81.89601495      90.16730392
H      73.41301075      81.70137315      88.27001870
H      71.03762478      80.64690587      90.52257248
H      74.17268073      81.24216965      91.37105958
O      70.39133838      85.45625933      88.71599412
H      69.88111227      87.13811575      89.16007980
C      73.70213888      85.24460998      95.03712864
O      75.25738363      86.98693764      95.31869785
N      74.11220949      83.06953499      96.27678909
H      72.78751134      81.74105739      95.92530000
C      76.22870296      82.31931365      97.89628455
H      77.93512582      83.34921449      97.36905090
C      75.67123370      82.88623155     100.69118977
H      74.90589454      84.79863457     100.67796167
C      73.95914166      80.98894633     102.13872011
H      71.98059821      81.04752783     101.56424332
H      73.80796355      81.26295664     104.17395536
H      74.79251096      79.10866865     102.00077009
C      78.15244434      83.30008161     102.21997835
H      79.58674662      84.19392215     101.04267886
H      78.79495129      81.49539298     102.97964832
C      77.66111550      84.91579761     104.50087801
H      79.42989933      84.87989280     105.55912475
H      76.21358515      84.12778173     105.74053847
H      76.97325513      86.76961911     103.92640121
C      76.80129003      79.38267896      97.58447970
O      75.41045146      77.90491299      96.43552610
N      79.08218969      78.69859804      98.31391407
H      80.24248165      79.98172220      99.12082720
C      79.73981445      76.13045998      98.67107234
H      78.28094573      75.07977215      99.67451700
H      81.28372085      75.86022911     100.00710883
C      80.21224603      74.66214263      96.28245827
O      81.23647769      75.55220372      94.52312308
N      79.11242531      72.35100734      96.21253841
H      77.97669980      71.63669080      97.57125163
C      79.24092670      70.83922630      93.88061613
H      80.66011116      71.49118188      92.53513100
C      79.90044118      68.03676218      94.33226072
H      78.19401832      67.22040041      95.14862249
C      80.43901318      66.70828457      91.84916035
H      80.47869744      64.67304934      92.17230355
H      82.38165183      67.19772369      91.37294931
H      78.94234994      67.18071615      90.51690330
C      82.10008261      67.69850117      96.16151579
H      81.48403183      68.52431157      97.94730716
H      83.92177878      68.52620128      95.67396641
C      82.68589777      64.90170622      96.67174189
H      83.36619924      63.84345948      95.04279782
H      81.01348998      64.04943966      97.51833928
H      84.18256101      64.64092399      98.06447019
C      76.69735508      71.20961266      92.58237415
O      75.08541854      69.58255829      92.64662485
N      76.39499887      73.46405615      91.53357605
H      77.66678468      74.86623307      91.78113020
C      74.37110199      74.13490899      89.83660183
H      74.45613968      72.77808549      88.29080570
H      74.51472119      76.06809901      89.14307227
C      71.89367080      74.21238777      90.95720952
O      70.00016503      73.88735484      89.59471686
N      71.78028722      74.81710019      93.43842018
H      73.43379774      75.08922078      94.34359908
C      69.36710672      75.49929139      94.77067723
H      67.95359143      74.18971105      94.04313260
C      69.46159303      75.31976739      97.59581807
H      70.55763429      76.84855598      98.43674628
H      70.46503770      73.59066781      98.08714690
C      66.73093851      75.08166187      98.60115246
N      65.34954857      72.82721838      98.43485655
H      65.65190478      71.21906129      97.45408858
C      63.22927565      73.25807597      99.71231153
H      61.84032681      71.80109699     100.05057254
N      63.33510032      75.51251946     100.93307474
H      61.85166517      76.45927236     101.67384744
C      65.53663148      76.76729773     100.27922942
H      66.16968979      78.51340486     101.12204737
C      68.59609838      78.23183564      93.98266136
O      69.57308688      80.11589276      94.89917861
N      66.39267750      78.27529933      92.57670497
H      65.82009043      76.61422991      91.83215280
C      65.06797935      80.42391816      91.74711512
H      66.49094327      81.71649095      91.01201158
C      63.12534070      79.68125572      89.65140865
H      62.28630222      77.87845682      90.18620119
H      64.13823401      79.24661866      87.91475017
C      60.96727325      81.45381900      89.17708733
H      60.20382382      82.00183963      91.01012187
C      61.96693847      83.87833785      88.17175294
H      62.71527009      83.71960085      86.25934992
H      63.24817291      84.69658935      89.56259151
H      60.38145810      85.13878530      87.80514603
C      58.72794757      80.59021408      87.40830350
H      57.23506379      81.99806018      87.58593778
H      57.77741524      78.84032751      87.93742687
H      59.29297574      80.19904073      85.46755459
C      63.81320108      81.51617997      94.14328808
O      62.42236252      80.13856949      95.50389103
N      64.02107098      84.00494952      94.84815600
H      65.00561838      85.22193327      93.75400446
C      62.74739544      84.99138665      97.01000290
H      62.00851245      83.54574602      98.27800926
C      64.48216420      86.63355882      98.70508741
H      63.49950651      87.92046244      99.98065266
H      65.42891708      87.93369053      97.41629407
C      66.34354461      84.65879483     100.08269789
H      66.81408647      83.08465281      98.84114770
C      68.78129156      86.10632518     100.59292399
H      69.31608410      86.83009036      98.74099220
H      70.00772394      84.80430374     101.61148647
H      68.34854423      87.72771035     101.78723102
C      65.25506226      83.57976110     102.43351743
H      63.71304559      82.25128351     102.12738176
H      64.60499641      85.17280038     103.56924294
H      66.80652756      82.85221646     103.57491212
C      60.30775877      86.40679167      96.13128018
O      58.21772147      85.57531209      96.59048366
N      60.51562867      88.54785158      94.72154434
H      62.22016180      89.12421810      94.08281684
C      58.41425301      90.00105111      93.61983390
H      56.94026648      88.56107966      93.63495171
C      57.45805149      91.89644661      95.54168556