 %block lattice_cart
   135.996   0.000   0.000
   0.000 142.663   0.000
   0.000   0.000   160.158
 %endblock lattice_cart

 %block positions_abs
N      89.00136310      41.05336015      80.54765213
H      90.84384626      41.46532049      80.26230346
H      88.70089662      39.77779489      79.16059302
H      88.86341308      40.16896824      82.23328800
C      87.53115603      43.24922213      80.13002261
H      88.25114176      44.42085244      81.66448038
C      88.01681569      44.62305316      77.69794485
H      87.38186766      43.49110709      76.10112611
H      90.06338930      44.85548949      77.79054144
C      86.75636825      47.23276519      77.76408527
H      84.72491246      46.89261446      77.70928321
H      87.04738610      47.88661050      75.83089525
S      87.37619847      49.56468746      80.06388219
C      90.50180581      50.22798140      78.79020666
H      90.20322905      51.44496515      77.15559340
H      91.65453885      48.62360376      78.21006068
H      91.62052377      51.32024321      80.13191234
C      84.73436109      42.89206385      80.40592266
O      83.46446502      41.51634310      79.11712931
N      83.55139242      44.53234629      81.94227015
H      84.50570421      45.84381635      82.94949427
C      80.93034202      44.54935383      82.52619558
H      79.85508775      43.64417493      81.02197343
C      80.66578035      42.91852002      84.93937608
H      81.96591204      41.31981156      84.89024320
H      78.71369305      42.26089526      84.86000758
C      80.80939954      44.10148869      87.56042648
O      80.54672758      46.34837328      88.02340942
N      80.69223650      42.50466996      89.45582197
H      80.66955979      43.11505156      91.26429005
H      81.36875853      40.73210668      89.25740071
C      80.03650147      47.38205357      82.85311823
O      81.49348047      49.14516822      83.25185048
N      77.52316548      47.72409404      82.93626619
H      76.67656809      46.04979652      82.58666682
C      76.06618649      50.15617180      83.17059225
H      76.76538523      51.16717538      81.51897145
C      73.16167716      49.72153475      83.14035663
H      72.83853396      48.79367913      81.32999882
C      72.09965096      47.97542763      85.15858433
H      72.27917496      48.83903256      87.01996475
H      72.86121066      46.06491433      85.10756172
H      70.13433559      47.70708650      84.59733562
C      71.67635227      52.13471525      82.72839629
H      71.92390642      53.57846615      84.17781638
H      69.63166839      51.89472001      82.67548396
C      72.36421265      53.45185449      80.18104522
H      72.09398178      52.29345226      78.49918881
H      74.28984377      54.17939912      80.27364181
H      71.12077274      55.07701912      79.94671916
C      76.98459349      51.88338165      85.38913094
O      77.05451335      54.13593542      85.20771722
N      77.54962165      50.87426780      87.66436142
H      77.56096000      48.96753395      87.70593540
C      78.44913138      52.29534199      89.94715081
H      77.43245862      54.06223609      90.24572757
C      78.13732653      50.68529517      92.30174980
H      78.54550742      51.93629399      93.88723017
H      79.64910758      49.29256687      92.41324365
C      75.49548914      49.70263748      92.51717860
C      73.47915117      51.22197744      93.17858281
H      73.63788819      53.12682156      93.89478908
C      71.09809601      50.21475332      93.24094377
H      69.48804920      51.26733087      93.92502470
C      70.62566444      47.72976321      92.31119843
H      68.73026895      46.97387269      92.23749910
C      72.59853871      46.18018764      91.57420517
H      72.23760099      44.36038120      90.72382832
C      75.03439592      47.21386793      91.78207506
H      76.71436263      46.14428284      91.33987910
C      81.22702906      53.17784417      89.67314049
O      81.82418258      55.11859310      90.88634479
N      82.89187793      51.95897070      88.09143957
H      82.47046897      50.14483344      87.67758951
C      85.35797077      52.86981879      87.30153397
H      86.10063321      53.91483744      88.91347052
C      87.14187241      50.53600679      87.17492231
H      86.37653325      49.12627096      85.88423924
H      87.07951145      49.68562995      89.04953081
C      89.93110845      50.81568628      86.64012976
H      90.56983594      52.14983306      88.07443203
H      90.33550988      51.69251929      84.81843360
C      91.34651346      48.35904208      86.99917776
O      93.16443018      47.85070570      85.43259465
O      90.73046268      46.83970212      88.72071843
C      85.29749953      54.58946973      84.91103019
O      86.55227780      56.46407823      84.69560139
N      83.47769310      54.17184021      83.33310871
H      82.31929086      52.74131740      83.83955537
C      83.09974783      55.40016232      80.93315630
H      84.84585494      55.05623213      79.89380683
C      80.81506871      54.30979024      79.41192662
H      79.18045545      54.48742451      80.65347680
H      81.05506396      52.26699609      79.30232249
C      80.15744396      55.57779659      76.82867075
H      81.38198661      54.67072796      75.43783218
H      80.24626109      57.63381882      76.84756801
S      76.96002705      54.76332455      75.73262948
C      77.48537096      55.55323015      72.37647555
H      78.97636501      54.37215120      71.58845968
H      78.03528131      57.51287634      72.05711181
H      75.84508851      55.12426228      71.20862469
C      82.37976210      58.22530316      81.41125705
O      83.16021907      59.82968080      79.96939588
N      80.95490846      58.66182993      83.46349983
H      80.75081803      57.21807903      84.69560139
C      80.17256177      61.19784265      84.22316981
H      79.89288228      62.50364353      82.65658669
C      77.58363672      60.87658917      85.42503574
H      76.95435786      62.67938808      86.19982353
H      77.75938127      59.82590134      87.18626067
C      75.21203020      60.01298425      83.78475330
H      75.54651175      58.20829562      82.84933878
C      72.93868944      60.03188151      85.36645423
H      72.47381677      61.99341742      85.78786320
H      73.24104565      59.18339440      87.22027574
H      71.45903374      59.02843684      84.34033284
C      74.89833563      61.98018934      81.71550299
H      76.29673310      61.83279069      80.20750139
H      74.94368907      63.88881292      82.48651133
H      73.06341138      61.64759751      80.84244943
C      82.30039360      62.38270104      85.87479061
O      82.22291483      64.68249797      86.16769818
N      84.41310762      61.02020837      86.46627494
H      84.39043090      59.17205604      85.99006391
C      86.81117031      61.93672564      87.62089772
H      86.22724489      63.48063203      88.85488900
C      87.83351225      59.74086366      89.20259864
H      88.79349321      58.31789975      88.06498340
H      86.09307431      58.92639162      89.94526108
C      89.49269194      60.86714054      91.30208458
H      88.32673081      62.24097157      92.29986007
H      91.10462849      61.87247494      90.49895089
C      90.66432226      58.88481764      93.24661295
H      92.36318621      57.98530791      92.51150942
H      89.29427068      57.35413933      93.39401161
N      91.01014217      60.08479385      95.72215442
H      89.43977961      60.03377124      96.80685733
C      92.92254521      61.35468993      96.48182440
N      95.04092840      61.72129684      95.21192832
H      96.49412793      62.77576412      95.86010444
H      94.96155989      61.32445431      93.34676845
N      92.90364794      62.21451540      98.85154120
H      94.46078242      63.02331827      99.60365227
H      91.41265388      61.82145233      99.97781808
C      88.87097199      63.02142854      85.74062004
O      90.33173043      64.52187123      86.72894690
N      88.58751305      62.46584900      83.29153474
H      87.33651423      61.13737140      82.73028602
C      89.99346943      63.66015603      81.17504127
H      91.29738058      65.08311995      81.89691672
C      91.23501960      61.49830913      79.62357596
H      92.50869514      60.64037338      80.99551727
C      89.28104260      59.42149991      78.97539984
H      90.15787561      57.67350307      78.32533399
H      87.93744720      59.99975616      77.52597975
H      88.03382323      58.77332379      80.47962198
C      92.79404382      62.29010446      77.28787424
H      91.69233338      63.32000530      75.88758704
H      93.71056107      60.63281448      76.47340220
C      94.95778044      64.15337460      78.18549424
H      96.20688953      64.42738492      76.57355769
H      96.15964639      63.32756420      79.64247323
H      94.38330364      65.98073994      78.94327449
C      88.40798904      65.31555628      79.30043276
O      89.43788989      67.16937780      78.28564973
N      85.91732977      64.79588155      78.81477310
H      85.11419609      63.11780458      79.23618207
C      84.29027540      66.37380302      77.23685163
H      85.36175023      66.73285102      75.51342123
C      81.88654353      64.90359595      76.47718165
H      80.57129402      64.49730479      78.01163942
H      82.51960185      63.11024568      75.68538633
C      80.50515361      66.22073519      74.27376077
O      81.66922501      66.36624411      72.25553307
O      78.25071012      66.66860032      74.42115942
C      83.68934244      69.04965548      78.32911344
O      83.67989381      70.93371261      77.02898173
N      83.17911634      69.16870823      80.76875011
H      83.36241978      67.48685182      81.65503175
C      82.76715601      71.45905653      82.20872156
H      82.95801836      73.07666225      80.94827411
C      80.09886245      71.60456545      83.38413133
H      79.95335352      72.91981497      84.96394252
H      79.55462127      69.76775148      84.14191158
C      77.91433882      72.15447581      81.38669061
H      76.06051731      71.62724217      82.11801470
H      78.03339159      71.24362773      79.54231773
C      77.91055937      75.08166187      80.85189807
O      79.87020556      76.00762776      79.84278421
O      75.94713373      76.39502166      81.19960771
C      84.68333849      71.74818465      84.41781162
O      85.93244757      73.70594111      84.66914522
N      85.04616594      69.72050832      85.87668033
H      84.14098703      68.09912314      85.43259465
C      86.54471890      69.85089943      88.21049233
H      88.55349797      70.24585223      87.98939435
H      86.43889422      67.97818066      89.06275890
C      85.63009136      71.50252023      90.27785291
O      83.58351776      72.59100259      90.15313098
N      87.12675461      71.71227985      92.40379502
H      88.68955826      70.61623859      92.44347927
C      86.28960584      72.50029572      94.89256457
H      84.23547335      72.66281219      94.92846937
C      87.25147655      70.44238377      96.67268676
H      89.30938850      70.47828857      96.64812032
H      86.57117507      68.56399581      96.17190929
C      86.19889898      70.60490023      99.31074469
H      86.86030320      72.41714777     100.03073042
C      83.31328690      70.44049404      99.59609336
H      82.97691563      70.67482011     101.61432107
H      82.63865462      68.51486293      99.30885496
H      82.40054910      71.90881139      98.47548566
C      87.33462449      68.55643691     100.98504220
H      86.27070858      66.81788870     100.68079627
H      87.06061418      69.19705413     102.92201168
H      89.32828577      68.13691767     100.68835517
C      87.40076493      75.16292010      95.17980297
O      89.76481254      75.53897564      95.02295569
N      85.73213659      76.92792448      95.95270103
H      83.89910206      76.40069083      95.87522225
C      86.11953048      79.57732077      96.86354912
H      88.13019927      79.83621327      97.23960465
C      85.46946463      81.50484161      94.88122621
H      85.65465780      83.42102409      95.61066057
H      83.52493626      81.21760321      94.26328571
C      87.16076967      81.36878131      92.50584024
H      87.31194779      79.44692965      91.78207506
H      89.08073161      82.08120813      92.71559986
C      85.97591128      82.67269247      90.15124125
H      85.61308382      84.65879482      90.55375296
H      84.15799456      81.80719782      89.71471447
N      87.59540673      82.46293285      87.85333406
H      89.34340357      83.18858775      88.09332930
C      87.32895532      80.83020931      86.03541734
N      85.45056736      79.22394195      85.86345225
H      85.49214134      77.92569997      84.46505478
H      84.33373911      78.80631243      87.35444631
N      88.85585418      80.84154767      84.27608214
H      88.62530757      79.76251395      82.71894766
H      90.36763523      81.96782455      84.57465890
C      84.68144875      80.18014346      99.19736111
O      82.39487991      80.67336203      99.19736111
N      85.98724963      79.97416329     101.35731829
H      87.77115127      79.33543580     101.12677168
C      84.86475221      79.75495504     103.85175702
H      83.09029921      78.71371584     103.76293988
C      86.51448328      78.30175551     105.59975386
H      86.00047772      78.71560557     107.55373087
H      88.22279586      79.44692965     105.45235521
C      86.96990733      75.41047425     105.35030999
H      88.00547735      75.14969202     103.59097479
C      89.09018024      74.44482410     107.26838220
H      89.55316319      72.51163408     106.72225129
H      88.38342260      74.18593160     109.18834413
H      90.76069831      75.63724140     107.12854245
C      84.57562408      73.82310414     105.45046548
H      83.64398901      74.14246789     107.25893356
H      85.19734403      71.85778878     105.41456068
H      83.34163280      74.19726995     103.84230839
C      83.88020479      82.37600544     104.85709142
O      82.31173195      82.47616093     106.55406565
N      85.08585018      84.35643861     103.75160153
H      86.48235793      83.82731524     102.56485340
C      84.73625082      87.10221095     103.88577209
H      83.57784858      87.40645688     105.56195933
C      87.26092517      88.36265840     104.37521121
H      88.44767329      88.06219191     102.71792123
H      88.14531708      87.47070758     106.00793474
C      86.93211279      91.27472664     105.07440995
H      85.42978038      91.63377464     106.43690262
H      86.68644837      92.30273776     103.30751584
C      89.42466180      92.08541923     106.12887723
H      91.06872369      91.90400551     104.89866540
H      90.04638175      91.24260130     107.90144051
C      89.23001999      94.91811898     106.46335879
H      87.81650470      95.17890121     107.94112476
H      88.62530757      95.91967392     104.76638456
N      91.74335598      95.80440062     107.26460274
H      92.29137661      95.07874571     108.94456943
H      91.74902517      97.69979611     107.48381099
H      93.06805413      95.41700672     105.94557378
C      83.41155267      87.95636724     101.47826077
O      83.84241027      87.17024109      99.38444402
N      81.66544556      89.71948189     101.88266220
H      81.95079423      90.65111696     103.52294464
C      79.83052131      90.64166833      99.99104616
H      78.58141222      89.03162151      99.69624886
C      78.11087036      92.87532483     100.91134288
H      79.36753837      94.46836411     101.27794978
C      76.11531937      93.49137561      98.94224806
H      77.12065377      94.31907573      97.34731905
H      75.01549866      95.11465051      99.57719610
H      74.97392468      91.82841645      98.52083909
C      76.75215714      92.24037679     103.36987681
H      78.22614368      91.64889245     104.67945715
H      75.65989533      90.52639502     103.02972608
C      74.80195959      94.17545653     104.54717630
H      73.04640384      93.73326058     103.56640835
H      75.55973984      96.06707257     104.24670982
H      74.68668629      93.62365645     106.52949921
C      81.12687356      91.46936845      97.52873278
O      82.99392316      92.88288374      97.57219648
N      80.03650147      90.71347793      95.44436465
H      78.51716153      89.56074488      95.43302630
C      80.82262762      91.58086231      92.96504373
H      82.04717027      93.22870365      93.12189102
C      82.40054910      89.50405309      91.92947371
H      83.58162805      88.86721532      93.49038765
H      83.67233490      90.24104635      90.48572281
C      81.06829204      87.35354454      90.61233447
C      80.96624682      87.12866711      87.92892311
H      81.71646817      88.63477899      86.77241060
C      79.92311790      84.91579760      86.90847090
H      79.76249117      84.74194278      84.88268429
C      79.17289655      82.82953975      88.57520951
O      78.27716628      80.59777298      87.67192033
H      78.22047449      80.88123192      85.88045978
C      79.35620001      83.03740965      91.17547291
H      78.92534241      81.38389912      92.29041144
C      80.39932893      85.28429423      92.10143881
H      80.63932417      85.42413398      94.12344596
C      78.40755739      92.28195077      91.29452567
O      76.26838721      92.11565485      92.11844634
N      78.85353280      93.22303447      89.05708972
H      80.67711869      93.17579132      88.49206155
C      77.04128528      94.01671952      87.15980450
H      75.07596990      93.68979687      87.68136896
C      77.25860379      96.87965489      86.31320711
H      76.03406114      97.08752478      84.66914522
H      79.25793423      97.00248710      85.83321663
C      76.39121943      98.77694011      88.44103894
H      77.79150662      98.70324078      89.94904054
H      74.60731778      98.02293931      89.14212740
C      76.26082830     101.51893299      87.33176959
H      75.43501790     101.49058709      85.44582273
H      78.15622379     102.32395640      87.26184972
C      74.59219997     103.01181677      89.09677397
H      75.70902822     103.11575172      90.82398382
H      72.90845382     101.94790086      89.61833843
N      73.97992865     105.58562401      88.06498340
H      72.93302026     105.29460616      86.49462084
H      75.67501315     106.29805083      87.55853675
H      72.95191754     106.71568035      89.21204727
C      77.12254350      92.47281313      84.85433840
O      78.96124721      91.49771435      83.74695878
N      74.95124798      92.45013641      83.53152998
H      73.45269500      93.34397696      84.30820749
C      74.42401433      90.73048547      81.33755773
H      75.30084733      88.94658383      81.87990918
C      71.54029198      90.26183334      81.25252004
H      70.70125350      92.11565485      80.93693575
H      70.86754941      89.47570719      83.03453196
C      71.00549942      87.98849259      79.44972114
O      69.58442525      88.30407688      77.57322291
O      72.37555101      86.09687655      79.57255335
C      75.28761925      91.92668222      78.79209638
O      75.74115356      94.25104559      78.76375049
N      75.20447129      90.43946761      76.68127209
H      74.45991912      88.68202214      76.72473580
C      75.38966447      91.67723835      74.13392102
H      76.89955579      93.07374609      74.22840734
C      75.67123369      89.98593330      71.81333711
H      75.86398578      91.35031570      70.28076907
C      77.97103061      88.12833233      72.05144263
H      78.10142174      86.93969448      70.37336566
H      77.62710043      86.93591503      73.69550452
H      79.65666649      89.29240374      72.25553307
O      73.47726144      88.58186665      71.21618360
H      73.56229913      87.93935970      69.52109909
C      73.00671959      93.31752079      73.60668738
O      73.15033879      95.12976832      72.05144263
N      70.79385009      92.92256799      74.88981155
H      70.40645618      91.25204993      75.72507058
C      68.48838398      94.64788811      74.97295951
H      68.56964221      96.15022053      73.56889286
C      66.06764458      93.08697418      74.37769572
H      64.43303131      94.33041409      74.25108405
H      65.62544861      91.62243629      75.75530620
C      66.05441648      91.78306302      71.81333711
H      66.58165013      89.82530656      72.17805429
H      67.55296945      92.76950016      70.79855408
C      63.50895514      91.85298290      70.37147593
O      63.28029826      93.19846803      68.42694756
O      61.50206580      91.04606976      71.34846444
C      68.32775724      96.04439586      77.56188455
O      66.33787544      96.47714318      78.57666758
N      70.57086237      96.74548432      78.66926417
H      72.16012220      96.13510272      77.80943870
C      70.55574456      98.64654899      80.78575764
H      69.14978819     100.08085126      80.32844388
H      72.33019757      99.67456011      80.97473028
C      69.86977391      97.66578103      83.48428682
O      70.91290283      98.78449901      85.15102543
N      68.16146133      95.90077666      83.72428206
H      67.38667353      95.29417451      82.08966880
C      67.03518444      95.36220466      86.08266050
H      66.48338436      97.20657754      86.81776404
C      64.54074571      93.65956125      85.75951730
H      63.57698529      93.14744542      87.50562441
H      65.25506225      91.91912332      84.92236854
C      62.51495910      94.82174293      84.05498417
C      61.51529388      93.32318997      82.06699208
H      62.20315426      91.41456639      81.84400438
C      59.74462033      94.27372230      80.31521579
H      58.90747157      93.17390159      78.81477310
C      58.98872980      96.84186036      80.66103571
O      57.15380555      97.86987148      79.11901904
H      56.85900825      99.61219914      79.53475883
C      59.97138748      98.32529552      82.63013053
H      59.33643944     100.24147800      82.93815592
C      61.75717885      97.29539468      84.29308968
H      62.37511935      98.49915034      85.82376800
C      68.93057993      94.14144146      87.98939435
O      70.50850141      92.65611658      87.43759427
N      68.29752163      94.83686074      90.37422896
H      66.86888853      96.08408011      90.58020913
C      69.77906705      93.98270445      92.61355464
H      71.75950022      94.10175721      92.05608538
C      69.32364301      95.70991430      94.94169746
H      69.53340263      94.70269018      96.72748882
H      67.33943038      96.25793493      95.03051459
C      70.84487269      98.04372630      94.77918099
C      69.61277114     100.37186912      95.27617901
H      67.61155098     100.31895678      95.66357291
C      71.18691315     102.57717972      95.58987358
H      70.21559383     104.33840465      95.93002432
C      73.79284574     102.50914958      95.25917148
O      75.29706788     104.59540742      95.47649000
H      74.25204923     105.95978982      96.06230516
C      74.90589453     100.23958827      94.57698028
H      76.92412225     100.28305198      94.27462407
C      73.45080527      97.94923998      94.40501518
H      74.31818965      96.19557396      93.82108975
C      69.57308689      91.11787936      92.70804095
O      67.43769615      90.30340732      93.09354512
N      71.57619677      89.76861477      92.57387039
H      73.15411825      90.83442041      92.46048681
C      71.72737488      86.85276707      92.33009569
H      69.89056091      85.97782379      92.66457725
C      72.45302978      86.26128274      89.59755144
H      74.29929240      87.15134383      89.39724045
C      72.64200242      83.45881861      89.07598698
H      73.43379774      82.30797529      90.58965776
H      73.49048953      82.82009112      87.31098260
H      70.67290759      82.86544455      89.17047330
O      71.29462756      87.42535414      87.50373469
H      71.22848713      89.21492496      87.78530391
C      73.56796830      85.97593406      94.27273434
O      75.29706788      87.29118358      95.05319131
N      73.42623883      83.51362068      95.02484541
H      71.96170094      82.41757942      94.47871451
C      75.37076722      82.40246160      96.80685733
H      77.26805243      82.99961512      96.27206478
C      74.66023011      83.21504392      99.50727623
H      73.63599845      84.99327638      99.34098031
C      72.60231816      81.51429024     100.86220999
H      72.45114005      82.01695744     102.85398153
H      72.91979219      79.47905500     100.79795930
H      70.72770966      81.81475672     100.05907631
C      77.01860855      83.49094396     101.19291210
H      78.49826426      84.33565162     100.03262014
H      77.67056414      81.57098203     101.55573955
C      76.57452287      85.05752707     103.60420287
H      78.33763752      85.75672581     104.40733656
H      75.92823648      83.65157070     104.96480582
H      75.13644114      86.51072661     103.34720010
C      75.49737887      79.39212759      96.80874705
O      73.85898617      78.08443698      95.88278116
N      77.53072438      78.46049252      97.87455269
H      78.70802388      79.68314544      98.74193707
C      78.26015874      75.76952225      98.01817189
H      76.86176127      74.43915492      98.73626789
H      79.83430076      75.60700578      99.33531113
C      79.14833011      74.76985703      95.57853522
O      80.91522421      75.74684553      94.47871451
N      77.96158198      72.60989985      94.94358718
H      76.87876882      71.79353808      96.28718259
C      77.56662918      71.69338259      92.39623611
H      79.13132257      72.26030048      91.18114209
C      77.66489495      68.77564516      92.39623611
H      76.23437214      68.03109299      93.67936028
C      77.01860855      67.89314297      89.71849393
H      77.16033803      65.84278992      89.58999254
H      78.12031899      69.00808150      88.38434715
H      75.16289732      68.58667253      89.15724521
C      80.32940905      67.81566419      93.16346499
H      81.07963040      69.02886849      94.64690015
H      81.52182636      67.97629093      91.49105721
C      80.38799058      65.02264870      94.15557131
H      80.08374463      63.61858205      92.67780533
H      78.94612939      64.87336033      95.61821948
H      82.16811276      64.91871376      95.18547215
C      75.21203020      72.93682250      91.27373868
O      73.20136141      71.83700179      91.60444079
N      75.41234119      75.24228860      90.18147687
H      77.15655857      76.01140721      90.26651456
C      73.48293062      76.30431479      88.46560538
H      72.98026343      74.91158650      87.03319284
H      74.28606430      77.88034654      87.41302782
C      70.85999050      77.04886696      89.54841856
O      69.20647998      77.66302801      88.13868273
N      70.37811029      76.85422515      92.03340866
H      71.88233243      76.52163332      93.15779582
C      67.94981198      77.43437113      93.20314925
H      66.45125902      76.48950797      92.15246142
C      67.86288457      76.46494153      95.98293665
H      69.05719160      77.56098279      97.25472246
H      68.48838398      74.50340562      96.07553324
C      65.37222529      76.38368330      97.22637657
N      63.75650929      74.35978642      97.07897792
H      64.18925662      72.57399505      96.56308263
C      61.77796584      74.98150637      98.50761101
H      60.18492656      73.78908907      98.95358642
N      62.01607135      77.40035605      99.20492002
H      60.72538828      78.50395622     100.07419412
C      64.25728677      78.34332948      98.45280895
H      64.79018958      80.30675512      98.63044322
C      67.44903450      80.24061470      93.45070339
O      68.45814835      81.61633546      94.96815362
N      65.58387464      81.14201415      92.03151893
H      65.10955333      80.02140645      90.56320159
C      64.40657515      83.72149057      91.83687712
H      65.86166440      85.10854969      91.40035034
C      62.32976592      83.36622202      89.74683982
H      60.95215544      81.98294236      90.39690567
H      63.07809754      82.54041163      88.01396079
C      60.95593489      85.78318198      89.08732534
H      60.00540256      86.27262109      90.84666054
C      62.44692895      87.98660286      88.09899848
H      63.80942162      88.54029267      89.54274938
H      61.53986032      89.80640930      87.76451692
H      63.33699005      87.55952471      86.29053039
C      58.91314075      85.39956754      87.22216547
H      57.54308917      86.92835612      87.04075174
H      57.91536525      83.69125495      87.78908336
H      59.92981350      84.93280514      85.49306589
C      63.41824828      84.53218316      94.47871451
O      62.01985081      83.19803638      95.69947771
N      63.81698053      86.86788488      95.40657013
H      64.84688137      88.11888370      94.40312546
C      62.61511459      87.77684324      97.76872802
H      61.78363502      86.28206973      98.91768162
C      64.73727725      88.86343587      99.56963720
H      63.84910588      89.64578256     101.25527307
H      65.89001029      90.22025936      98.53784663
C      66.76306385      86.96426092     100.48993391
H      67.12211185      85.90979364      98.75705488
C      69.18947245      88.40423237     101.29306759
H      68.53373741      90.01616892     102.39477803
H      70.07386435      89.12043865      99.57341665
H      70.59542881      87.32519865     102.34186570
C      65.96559935      85.23138190     102.63666300
H      67.31486394      83.69503440     102.88799660
H      64.13445455      84.34510025     102.30785062
H      66.05252676      86.32931288     104.37899066
C      60.58554853      89.62688530      97.35676768
O      58.45015780      89.30752155      98.35454318
N      61.14868698      91.54684723      95.83931745
H      62.97416259      91.77172466      95.32531190
C      59.51218399      93.77483456      95.55207905
H      57.52419191      93.28917489      95.77884621
C      59.91847515      95.84975405      97.62510882