 %block lattice_cart
   135.996   0.000   0.000
   0.000 142.663   0.000
   0.000   0.000   160.158
 %endblock lattice_cart

 %block positions_abs
N      91.44194464      43.08859539      83.88207420
H      91.79532346      41.23855332      83.57215910
H      90.80888633      43.49299681      85.63762995
H      93.19561066      43.84448592      83.87829475
C      89.62969711      44.27912296      82.23801232
H      89.60324094      46.30679930      82.59706032
C      90.34401365      44.13550376      79.48090163
H      90.27031433      42.16451923      78.88752756
H      92.28854203      44.79312853      79.31838516
C      88.72451820      45.59437248      77.47779173
H      86.97652136      44.57392026      77.09039784
H      89.63347656      45.39028203      75.64286748
S      88.15949004      49.01855656      78.09384250
C      91.16793433      50.47175610      77.18299443
H      91.00163841      52.49376324      77.52503488
H      91.57044603      50.04467795      75.20823042
H      92.63625167      49.71208612      78.41320626
C      87.02187480      43.28134748      82.76146651
O      86.63826035      40.97777109      82.40430823
N      85.37781290      44.96509362      83.52113648
H      85.93717189      46.56758152      84.39985922
C      82.64526866      44.60604561      83.44554743
H      82.09346857      43.33048036      81.92620747
C      81.94229047      43.61204958      85.99289850
H      82.89660226      41.79980205      86.21966566
H      79.95996756      43.06024949      86.08171563
C      82.18984461      45.34681833      88.27568788
O      83.65627223      47.21197820      88.45521188
N      80.57601834      44.93296826      90.23155462
H      81.06545746      45.86838280      91.81892473
H      79.68217780      43.25489131      90.38840190
C      81.47174862      47.21764739      83.01280010
O      82.93250706      49.10548397      82.95232886
N      78.92250782      47.56157758      83.13185286
H      77.83969464      45.99688418      83.00902065
C      77.64127338      50.04845739      82.73312060
H      78.39149473      50.60781639      80.89819635
C      74.81424281      49.62704844      82.57060415
H      74.07913928      48.18518726      81.29692861
C      73.73142964      49.07335862      85.20110318
H      74.21142012      50.66450817      86.41808692
H      74.53645305      47.42929673      86.14596633
H      71.69052522      48.82202503      85.32393538
C      73.52355974      51.92117617      81.64652797
H      73.87882829      53.48397983      82.94288022
H      71.56391356      51.36937610      81.33472314
C      74.67440307      52.99832018      79.23145776
H      73.13427612      54.17561966      78.53792820
H      74.98620791      51.47520076      77.88408288
H      76.38271565      54.05845663      79.68121262
C      78.46519405      52.06668511      84.63796473
O      78.70896875      54.24364981      83.98411943
N      79.30045308      51.39772199      86.94343084
H      79.25509965      49.54201074      87.39129596
C      80.27555186      53.19485171      88.80670097
H      79.02644277      54.82379579      88.63662561
C      80.33791283      52.16684059      91.56192194
H      81.34702668      53.38949351      92.87528174
H      81.26387872      50.32813690      91.55625276
C      77.74898778      51.85314603      92.68819883
C      76.73231502      53.73153398      94.24722304
H      77.85670218      55.36992670      94.71020598
C      74.37582631      53.46508257      95.45097870
H      73.67095840      54.79167044      96.83425836
C      72.83191991      51.25221305      95.04657726
H      71.13494568      50.93473904      96.13128017
C      74.04890366      49.32280250      93.66896678
H      73.04356926      47.57102620      93.37605921
C      76.31846496      49.61193062      92.32537138
H      77.03089178      47.92440502      91.42208220
C      82.89660226      54.29089298      88.07726663
O      83.16116394      56.50187275      87.87128646
N      84.70884979      52.67706669      87.49901037
H      84.24208739      50.82891437      87.42153160
C      87.16738372      53.36870654      86.44832254
H      88.35980103      54.47419643      87.71065972
C      88.77365109      51.04245343      86.01179577
H      87.85146465      49.54390048      84.94410040
H      89.08356620      50.22987113      87.87884535
C      91.42115765      51.66039394      85.04992506
H      92.25452696      52.75643521      86.58249310
H      91.14714734      52.86981879      83.40586318
C      93.19183121      49.42106827      84.67197981
O      95.23462535      49.56090801      83.49845977
O      92.67971538      47.41795837      85.76235189
C      86.69873160      54.96741499      84.06159820
O      87.83445711      56.97241460      83.77435981
N      85.02632381      54.24176008      82.43454386
H      84.25531547      52.52588859      82.75579733
C      84.26476411      55.40016232      80.08561404
H      85.94095135      55.44173629      78.88752756
C      82.17283708      54.00176484      78.64564259
H      80.30011830      54.14160460      79.49035025
H      82.68684263      52.00621385      78.66642959
C      81.99331308      54.61970534      75.88097300
H      83.67516950      53.76176960      75.05705233
H      82.43550903      56.53399810      75.26303250
S      79.01510441      53.63326822      74.49202415
C      79.92595249      54.70285331      71.40988055
H      78.62015161      53.84869701      70.06439540
H      81.70418495      53.79200522      70.91288253
H      79.76154630      56.73997827      71.14153941
C      83.35958520      58.01743326      80.48434629
O      84.03799695      59.65771569      78.96311662
N      81.70418495      58.56923335      82.27391712
H      81.08435472      57.09713654      83.31893577
C      80.59302588      61.01453919      82.71233362
H      80.21508062      62.10491128      81.00591076
C      78.04567481      60.71785216      84.07104684
H      77.82268710      62.25042020      85.42976006
H      78.15338921      59.04733411      85.26913332
C      75.77044433      60.46651857      82.24746095
H      76.28067043      59.07379026      80.81882785
C      73.67284812      59.37236703      83.86317695
H      74.29834753      57.60547293      84.71733323
H      72.01555814      58.87536900      82.74445897
H      73.28167477      60.61391722      85.45999568
C      75.36037372      62.92127305      80.71300317
H      74.96920037      64.55399657      81.91297938
H      73.80134951      62.73796959      79.37885641
H      76.91183902      63.23496762      79.39964339
C      82.39204533      62.76631549      84.25435029
O      82.29377956      65.04721514      83.87451531
N      83.93595173      61.57767764      85.83983067
H      83.98886406      59.66716433      85.82093341
C      85.67449994      62.94017030      87.54247408
H      84.73152651      64.39525957      88.65552288
C      86.84235080      60.88603781      89.36605997
H      88.05933454      59.61992118      88.29080570
H      85.31545194      59.84668833      90.27690804
C      88.46184625      62.07656538      91.42964111
H      87.22596524      63.11969430      92.70709609
H      89.96417867      63.24630597      90.64729440
C      89.78654439      60.07345548      93.12283588
H      91.11691172      60.97485493      94.40973949
H      90.78620961      58.93772997      91.72632814
N      88.22374073      58.19695726      94.47210046
H      88.04988591      56.63604333      93.38739757
C      86.67794461      58.22152370      96.43363638
N      86.33968360      59.94117465      98.17785376
H      85.21718617      59.50086841      99.65561974
H      87.35257690      61.55878037      98.16273596
N      85.10758204      56.37526109      96.94575221
H      84.35736070      56.30912068      98.70130796
H      85.40048962      54.74064784      96.00655823
C      87.85524410      64.11935952      86.02880330
O      88.65837778      66.17349203      86.64674380
N      88.64137025      62.98741347      83.86506667
H      87.75886806      61.38303582      83.33027413
C      90.29299104      64.24219174      81.96967118
H      91.54398986      65.16626790      83.31704604
C      91.98807555      62.53576888      80.24624078
H      92.98963049      61.28099060      81.53692385
C      90.20039445      60.95595767      78.46611859
H      91.24163365      59.93739519      77.00913961
H      88.86435795      62.18239005      77.49290955
H      89.13269909      59.57456774      79.55838041
C      94.05165668      64.05132937      78.84028441
H      93.32033260      65.24563640      77.33039308
H      95.26297125      62.68694697      77.88408288
C      95.71083638      65.65948647      80.43521342
H      96.31554880      64.53320958      82.05281914
H      94.46550674      67.19205451      81.01913885
H      97.22072771      66.56466538      79.36562831
C      88.84924014      66.31144205      80.34450655
O      90.10212869      68.14447657      79.58861603
N      86.36802949      66.00530638      79.82294209
H      85.63292596      64.32722942      80.36151408
C      85.11325122      67.76086213      78.12407814
H      86.36425004      68.60179034      76.72001149
C      82.64526866      66.50608385      77.06016222
H      81.27710680      68.02353409      76.80504916
H      82.11236584      64.99808226      78.35840420
C      83.09313379      65.27398231      74.54304676
O      85.20017863      65.54988235      73.51692537
O      81.50009451      63.79432660      73.55849935
C      84.42728057      70.15136591      79.52436533
O      84.14193190      72.26407993      78.31683021
N      83.82823733      70.03798234      81.93376638
H      83.69595649      68.28620605      82.68020827
C      83.17439202      72.12235046      83.65719678
H      82.42795013      73.71350002      82.58194251
C      81.06545746      71.50063051      85.43164979
H      80.74987316      73.20894310      86.53524995
H      81.82512744      70.07010769      86.70343560
C      78.53133447      70.44049405      84.54725787
H      77.50899254      69.89247341      86.24990127
H      79.03967085      68.77753489      83.44743716
C      76.98553835      72.20738815      82.82760692
O      76.86648559      74.55442823      83.32649468
O      75.98587313      71.33055513      80.92087308
C      85.44584305      73.19382528      85.29369976
O      85.50442457      75.45393796      85.39385526
N      87.27509812      71.77275110      86.17053277
H      87.14470701      69.87168643      86.10628207
C      89.27064911      72.51919299      87.88262481
H      90.00764237      74.34466861      87.27413293
H      90.64825959      70.99796330      87.70121108
C      88.38814692      72.80265194      90.62083824
O      86.12425480      72.90658689      91.16696914
N      90.17960747      73.23728899      92.36316589
H      92.00130363      73.45838697      91.84349117
C      89.61457930      73.89302402      94.94453205
H      87.56044680      73.89491374      95.08059234
C      90.59345753      71.82755316      96.75300012
H      92.62113386      71.87290659      96.39584186
H      89.77331631      70.03609262      96.15395688
C      90.21929172      72.20927787      99.48743409
H      91.30777407      73.85522949     100.07513898
C      87.59824132      72.85934373     100.37371574
H      87.29966456      72.42092722     102.36359755
H      86.17149796      71.92014975      99.21909297
H      87.20517825      74.87568169     100.22253763
C      90.81455551      69.76964120     100.88961103
H      89.54276970      68.16337384     100.68363086
H      90.93549799      70.10979194     102.91728735
H      92.78554005      69.25563564     100.58158563
C      90.61991370      76.58399429      95.82514450
O      92.84223184      77.10933821      95.91018218
N      88.91538056      78.29608633      96.71331588
H      87.06533850      77.82743420      96.64717545
C      89.34434844      80.69036956      98.16084623
H      91.30777407      80.70170793      98.77689700
C      88.53743530      83.00906375      96.61127065
H      88.57145037      84.74383251      97.71865028
H      86.53621513      82.72560481      96.20875894
C      89.93394304      83.25283845      94.21131824
H      90.85612949      81.45759845      93.79368872
H      91.40226039      84.67580236      94.46265184
C      88.22752018      83.91235293      91.96254393
H      87.52454200      85.82664569      92.27245903
H      86.72140831      82.52907327      91.71876923
N      89.66938136      84.05219268      89.61928330
H      90.29299104      85.81719706      89.25078667
C      90.10779787      82.27396022      87.92419879
N      89.45773201      80.03274481      88.40040982
H      90.00386292      78.80631243      87.04358633
H      88.36169075      79.45259883      89.84982991
N      91.43249601      82.82387058      85.93242726
H      91.88792005      81.44059091      84.70032570
H      92.31688793      84.50194753      85.71888818
C      87.91004616      80.42580788     100.69874866
O      85.64615404      80.07620852     100.58158563
N      89.17805252      80.50139694     102.94374353
H      91.06777883      80.74706135     103.05712711
C      87.89492835      80.29352703     105.39660828
H      86.28488153      79.02741040     105.17551031
C      89.78654439      79.30897963     107.44507160
H      88.82845315      79.92880985     109.16283282
H      91.46651108      80.49950721     107.43184351
C      90.56889109      76.34777850     107.44885106
H      91.91248649      76.10589352     105.90872411
C      92.11657694      75.83944211     109.79400141
H      93.28064835      74.16892406     109.48597602
H      90.82400414      75.39535643     111.33412836
H      93.34111959      77.47216565     110.08690899
C      88.38436747      74.57143577     107.66994904
H      87.35257690      75.06654406     109.38204108
H      89.16104498      72.66470192     107.65672095
H      87.06344878      74.66781180     106.09202756
C      86.58534802      82.91268771     106.08446865
O      85.56678554      83.11299870     108.22174911
N      86.74408503      84.93280514     104.43662731
H      87.47918856      84.65879483     102.69618938
C      85.69717665      87.41590552     104.86370546
H      84.38570659      87.13055684     106.42650912
C      87.87225164      89.24516059     105.75376655
H      87.04266179      91.02906223     106.36792761
H      89.10057374      89.59475996     104.13805056
C      89.50308545      88.21903920     107.99876142
H      90.92793909      86.95292257     107.21452500
H      88.35035239      87.16079246     109.33857737
C      91.00163841      90.47915187     109.18173008
H      89.71284507      91.90778495     109.91494390
H      92.15626119      91.44669174     107.77577371
C      92.74396607      89.75160724     111.26987766
H      91.86902279      88.85020779     112.90071147
H      93.58300456      91.51850134     111.91427434
N      95.10612396      88.19636248     110.71051868
H      96.16059125      88.02628712     112.29221960
H      96.24751866      89.05429822     109.44251232
H      94.65258965      86.54663140     109.86581102
C      84.27043328      88.29273853     102.54501128
O      84.48208263      87.19102808     100.46820206
N      82.67361455      90.23348745     102.93240517
H      82.39393506      91.08386429     104.61993077
C      80.70640946      90.77394917     101.10503983
H      79.78800247      88.99949616     100.60426236
C      78.59369544      92.37832681     102.15761738
H      79.26454828      94.27183258     102.61304143
C      76.50932732      92.95469334     100.16395612
H      75.05423806      94.11309557     101.05023777
H      75.49832374      91.24071156      99.63105330
H      77.24254113      93.80884963      98.43674626
C      77.31246100      91.26527802     104.60859240
H      78.79022698      90.94780400     106.00887961
H      76.37326702      89.47759692     104.21174989
C      75.45486003      92.97737006     106.04856385
H      76.34492113      94.73481553     106.65138656
H      75.03534079      92.12699321     107.87781892
H      73.80890842      93.32696942     104.86181574
C      81.83079661      91.88510824      98.64272644
O      83.30856259      93.75026811      98.60493191
N      81.06545746      90.72103684      96.60182201
H      79.93729085      89.19035851      96.77189739
C      81.74386920      91.17457115      94.01667642
H      82.73408579      92.97925978      94.03557369
C      83.64304415      89.22815304      93.04157765
H      85.09435396      88.88422286      94.46076211
H      84.55578196      90.04640454      91.38428767
C      82.50920836      86.67135334      92.38584262
C      82.24653640      86.07419983      89.83849154
H      82.82101320      87.41590552      88.41363791
C      81.62292672      83.60432754      89.00890170
H      81.63993426      83.24527954      87.00012263
C      81.46418971      81.66546835      90.88539993
O      80.83491085      79.23339058      90.52446219
H      80.85002866      78.77418709      88.76701673
C      81.48686643      82.43080750      93.46865580
H      81.14482596      80.92658536      94.80658202
C      81.97063636      84.98949692      94.28690728
H      82.28433093      85.46948741      96.24466374
C      79.39304967      91.65645136      92.33293027
O      77.32379936      91.72070206      93.30047015
N      79.80878946      92.02116854      89.81581483
H      81.61725754      92.08352951      89.20732295
C      77.87181999      92.49548985      87.93553714
H      76.07846972      91.93046168      88.77646535
C      77.64505283      95.27905670      87.27224322
H      76.05957245      95.52283139      85.97778068
H      79.41572639      95.77227527      86.34249786
C      77.04034041      97.02516381      89.49078191
H      78.62204134      97.08185561      90.81170060
H      75.37171208      96.35242125      90.49044713
C      76.50176841      99.66511148      88.44765297
H      75.40005797     100.77060137      89.79502783
H      75.43029359      99.42133678      86.70532531
C      78.72597628     101.33751926      87.95821387
H      79.75587712     100.42856090      86.42375610
H      79.95807784     101.22602541      89.60605521
N      78.07024125     104.03226899      87.41397269
H      77.69607544     104.96012461      89.04102705
H      76.76821982     104.22691080      86.03258276
H      79.63115519     104.81083623      86.64107463
C      78.19118374      90.76450054      85.50156965
O      80.17350664      89.77050449      84.96677711
N      76.04823410      90.68702176      84.13340781
H      74.68007225      91.80007056      84.85717299
C      75.50588265      89.15067427      81.81471362
H      76.90805957      87.64645213      81.70321977
C      72.87727334      87.92991106      82.09250339
H      71.71320193      89.63255448      82.10006230
H      72.58058631      87.01150408      83.91230983
C      71.99855061      86.19703204      80.04026062
O      70.70408808      87.12677738      78.31683021
O      72.68452126      83.94447828      79.90042087
C      75.37549153      90.77583890      79.42987901
O      75.34336618      93.03217212      79.68310234
N      75.43596277      89.60420859      77.17921498
H      75.26399768      87.70503364      77.14142044
C      75.25265932      90.87032522      74.66587897
H      77.01388424      91.89833633      74.38242003
C      74.86715515      89.21114551      72.30561081
H      74.67629279      90.51694640      70.72390988
C      77.25954866      87.61243705      71.71412648
H      77.85292273      86.66190472      73.44133632
H      78.70518929      88.73871394      70.77304278
H      76.59814445      86.07608956      70.50848108
O      72.77333840      87.46314867      72.70056362
H      73.46875768      85.90790392      73.32606302
C      73.16262202      92.89989128      74.71123241
O      73.60670770      95.00882584      73.90998846
N      71.03101074      92.19124391      75.65987501
H      71.00644429      90.39222446      76.29482305
C      68.72743436      93.75026811      75.89609081
H      68.25689251      94.74048471      74.15376314
C      66.48810868      91.99093292      76.32316895
H      64.73066321      93.06429747      76.34962513
H      66.70542721      91.14433553      78.18832882
C      66.02701546      89.81774766      74.47501662
H      65.00278380      88.40045293      75.56727842
H      67.89406506      89.00138589      74.18021932
C      64.71365567      90.54718202      72.03349022
O      65.65095992      92.40289326      70.93744897
O      62.74456085      89.54184762      71.33429148
C      68.73310354      95.82140816      78.05982744
O      66.79802379      96.87965489      78.78926180
N      70.94786278      96.10864656      79.12563307
H      72.36704724      95.09008406      78.35651447
C      71.59414918      97.92656326      81.21378066
H      70.54157162      99.68211901      80.98134432
H      73.62749469      98.26482428      81.19488338
C      70.55857916      97.05917889      83.77813925
O      70.61716067      98.51993733      85.62629159
N      69.42096392      94.75182306      83.84616940
H      69.15640223      93.65578180      82.30604247
C      68.12650139      93.76538593      86.04770056
H      66.74322173      95.10898134      86.76957601
C      66.38984291      91.50527326      85.38440662
H      65.28057357      90.96292181      87.03602743
H      67.86571916      90.08986825      85.12362440
C      64.47555016      91.66401027      83.23011863
C      63.69320346      89.45680993      81.92809720
H      64.71554540      87.71448227      82.21533559
C      62.00567786      89.62877503      80.01947363
H      61.82993332      87.96770559      78.84784330
C      60.64885437      91.70558424      79.43743792
O      58.76101779      91.67912808      77.64408764
H      58.26024031      93.38744066      77.30204719
C      61.42742161      93.89010785      80.53347917
H      60.44098448      95.58708209      79.97412019
C      63.38517807      93.97514555      82.48178701
H      63.93319870      95.69668621      83.43231934
C      69.87260851      92.81296387      88.15852485
O      71.63572316      91.32574926      87.76546178
N      69.35860295      93.46680917      90.48666768
H      67.54635541      94.00160172      90.75878825
C      70.92707579      92.61643233      92.69008856
H      72.90939869      93.00193650      92.28568712
C      70.46031339      94.27939149      95.09004097
H      71.82658551      93.41767628      96.36938568
H      68.62727887      94.20380243      96.02545550
C      71.23699090      96.91933914      94.75933887
C      69.42852282      98.80906546      94.09415521
H      67.45564855      98.30450853      93.98077163
C      69.99922017     101.35830625      93.54424484
H      68.37783499     102.45434752      92.97165777
C      72.47665137     102.17088856      93.92974901
O      73.08325351     104.55761290      93.52912704
H      71.63194370     105.60074183      93.23244001
C      74.18307423     100.47580407      94.86894299
H      76.11437452     101.11075211      94.70831625
C      73.71442210      97.84908449      95.27523414
H      75.27155658      96.67178500      95.86860821
C      70.67196274      89.88199834      93.50645031
O      68.62349941      88.82375162      93.98455107
N      72.97364939      88.81997217      93.75400446
H      74.53267359      89.91979287      93.78801954
C      73.34970492      86.03262586      93.89762366
H      71.57714164      85.02918118      94.21698742
C      74.54401195      85.46759769      91.37861849
H      76.36759784      86.42001975      91.28413217
C      74.99187709      82.61411096      90.91941499
H      75.82146694      81.70137315      92.56725635
H      76.44696635      82.44970477      89.47188465
H      73.27222614      81.58798957      90.43942451
O      73.10781995      86.25372383      89.24133803
H      72.77900758      87.99605149      88.85205441
C      75.30746138      85.52806892      95.99144043
O      76.86270614      87.14567464      96.70197751
N      75.09392231      83.43047272      97.28779268
H      73.57458235      82.39301298      96.77945630
C      76.73042530      82.43836640      99.33625600
H      78.41795089      83.61566590      99.43263203
C      75.40383742      82.85977537     101.97998311
H      74.91250858      84.80808320     102.43729688
C      73.04923844      81.04563812     102.28233932
H      73.62938442      79.21071387     101.54534605
H      71.62816425      81.86955879     101.03889940
H      72.57491713      80.94359289     104.28355948
C      77.20285687      82.16813554     104.17395536
H      77.63371447      80.15368729     104.14560947
H      76.08602862      82.37411571     105.89360631
C      79.45730037      83.72715975     104.48009101
H      81.12025952      82.78418631     103.71286213
H      79.95429839      84.21659887     106.41895021
H      79.21352567      85.43736207     103.35570386
C      77.67906791      79.74928585      98.53123258
O      76.33925195      78.34521921      97.35960228
N      79.90516550      79.19181660      99.58192041
H      80.84246975      80.67147231     100.34159039
C      80.85380811      76.67281143      99.83514374
H      79.34391679      75.63157222     100.77055827
H      82.60747413      76.80131282     100.90661857
C      81.34891640      75.48228384      97.30668993
O      83.15360503      76.38368329      96.03490412
N      80.07713060      73.34689312      96.74922068
H      78.83180096      72.67415055      98.03045511
C      80.22641897      72.01841552      94.41729840
H      81.98575417      72.60423067      93.52156813
C      80.62704095      69.17437742      94.90484779
H      78.80723451      68.39392045      95.47365541
C      81.31490133      67.62102239      92.49922620
H      79.77666411      67.81188475      91.14051298
H      81.14671569      65.64625838      93.06047491
H      83.09124407      68.33911839      91.74522540
C      82.78132895      68.75674790      96.96275974
H      82.38448642      70.06443850      98.50477641
H      84.50475935      69.61090420      96.22765621
C      83.10258242      65.99396803      97.86415919
H      84.46696482      65.20217270      96.54135077
H      81.39049038      64.85446307      97.74699616
H      83.68650785      66.33033932      99.81057730
C      77.83780492      72.71383479      92.72032418
O      76.22775810      70.98662495      92.37261453
N      77.69985489      74.95316048      91.68475416
H      78.98297906      76.27785863      92.17230355
C      75.82146694      75.69771265      89.98022101
H      75.67028883      74.09333501      88.69520712
H      76.57357801      77.24350877      88.84260577
C      73.15128366      76.30809425      90.79091361
O      71.45052998      76.37990385      89.25645585
N      72.69963907      76.58588402      93.37605921
H      74.25299410      76.60856073      94.48343883
C      70.26189213      76.68037032      94.65162446
H      68.88617137      75.72416881      93.45164825
C      70.29779693      75.35756190      97.19897554
H      71.63950261      76.48761825      98.28178872
H      71.15195322      73.50374040      96.93063439
C      67.80146847      75.28764204      98.59548328
N      66.34259975      73.16169994      98.70130796
H      66.65440459      71.55354285      97.72242972
C      64.27523917      73.77397126     100.05813145
H      62.66330262      72.53809025     100.26033217
N      64.37350494      76.12479080     100.80268362
H      62.99967391      77.13579437     101.65872964
C      66.56747718      77.21516288      99.87671771
H      67.09093137      79.18236796      99.99388076
C      69.35671322      79.48661390      94.81792037
O      70.53401272      81.10988880      95.94608699
N      67.26289647      80.22927635      93.57825992
H      65.97977230      78.90079875      93.09826944
C      66.42574771      82.82576030      93.24188863
H      68.07358906      84.04274405      93.03779820
C      64.88373104      83.15268295      90.71343483
H      63.99178022      84.98571748      91.00067322
H      63.65162948      81.52184915      90.45454233
C      66.36716620      82.89190072      88.22277555
H      68.19831099      83.82353579      88.39285091
C      66.60905116      80.13290031      87.26657404
H      67.60682666      78.99339534      88.66119206
H      67.98288219      80.14612838      85.73022655
H      64.77034746      79.41102485      86.68453833
C      65.01412216      84.43769685      86.16864304
H      63.37950889      83.33976586      85.56582035
H      66.39173264      84.84965718      84.69087706
H      64.38106384      86.36332796      86.53713968
C      64.99522489      83.51551041      95.68530476
O      64.51334468      82.01695744      97.38605843
N      64.76278856      86.05908202      96.07647811
H      65.79835858      87.06819587      94.82925873
C      63.59493769      87.36677263      98.27989899
H      62.77290675      85.94569843      99.52333889
C      65.64718047      89.16012290      99.60459714
H      64.78546527      90.25994361     101.11826790
H      66.47110114      90.52828475      98.30257570
C      67.83359381      87.57086306     100.67040277
H      68.87861247      86.64867663      99.15484226
C      69.81591672      89.40200787     101.61904539
H      70.56235861      90.72670602     100.23009654
H      71.49966286      88.24549536     101.89683514
H      69.17718922      90.61143270     103.15917233
C      67.17974851      85.73593881     102.71697637
H      68.96365015      84.78351676     103.11570862
H      65.90040380      84.33376190     101.91762214
H      66.06858944      86.53907251     104.25332386
C      61.29892022      89.03162151      97.50889065
O      59.25801581      88.88611259      98.66540316
N      61.93764772      90.61899161      95.55869309
H      63.61761441      90.52450529      94.65729364
C      60.25201185      92.51060766      94.57414569
H      58.40952869      91.72637124      94.09982439
C      60.13673854      94.71402853      96.42229801