 %block lattice_cart
   135.996   0.000   0.000
   0.000 142.663   0.000
   0.000   0.000   160.158
 %endblock lattice_cart

 %block positions_abs
N      91.64981453      42.96954263      81.23834710
H      93.41103946      43.65551328      81.51046769
H      91.73674194      41.37461362      80.19521817
H      91.09423500      42.66529669      83.03925627
C      89.95850948      44.85548949      80.03648116
H      89.91126633      46.54112536      81.21944983
C      90.76920207      45.56035740      77.28503965
H      90.32511639      43.83692700      76.24946963
H      92.80632704      45.79657319      77.08850811
C      89.68071972      48.01889133      76.01514357
H      87.74563997      47.65417416      75.40476197
H      90.77109180      48.53856607      74.34651523
S      89.70717588      50.67584653      78.14108567
C      92.77609142      52.07613373      77.77069931
H      92.78554005      53.86192509      78.80060015
H      93.21072847      52.29534198      75.76947915
H      94.16881971      51.02166645      78.86107140
C      87.29021593      43.68763863      80.24435106
O      86.96518300      41.45020267      79.53759342
N      85.46663004      45.25233201      81.29881834
H      86.08457054      46.94552679      81.92809720
C      82.77754949      44.66840658      81.77502937
H      81.97063636      43.56858587      80.22923325
C      82.72274743      43.22654541      84.24112221
H      83.81500924      41.48043829      84.17498179
H      80.79711632      42.58025901      84.59072158
C      83.36147492      44.61549425      86.56548557
O      83.95862844      46.79812814      86.66375134
N      82.92872760      43.69519753      88.84071606
H      83.19706874      44.70431138      90.43753479
H      82.74731387      41.80358149      89.01835033
C      81.41127737      47.27811862      81.79581636
O      82.64526865      49.09603533      81.09472790
N      78.91683864      47.27433917      82.30604246
H      78.06646180      45.62649782      82.76146651
C      77.44663157      49.63460733      82.15675409
H      77.79434121      50.54545542      80.34450655
C      74.54590167      49.17729356      82.27202739
H      74.10181599      47.79779336      80.80748950
C      73.57647208      48.37415988      84.81748873
H      74.37393658      46.52222809      85.22944907
H      71.54501629      48.03022969      84.79292229
H      73.91662281      49.89916902      86.15919442
C      72.84136854      51.42795760      81.25724436
H      72.63727810      52.82068590      82.76146651
H      70.86093536      51.01977672      80.86229156
C      73.72576045      52.50321188      78.68532685
H      73.94874816      51.05190207      77.23968622
H      75.55690525      53.42728804      78.88185839
H      72.43696711      53.93184497      77.95211304
C      78.32913375      51.67929120      83.88018448
O      78.36125910      53.90727853      83.31326659
N      79.41572638      51.00276918      86.10061290
H      79.35336542      49.19808055      86.72233286
C      80.33224365      52.79800918      87.97711113
H      78.96219207      54.33624640      87.99033921
C      80.59869506      51.66795285      90.55658755
H      81.41694655      53.05501196      91.84160144
H      81.87992950      50.05979575      90.45454233
C      78.31779540      50.53978624      91.55625277
C      76.42428963      52.08180291      92.64095567
H      76.81735270      54.07168472      92.87906119
C      74.21519957      50.99332055      93.62928253
H      72.83191991      52.20841457      94.51367445
C      73.65773031      48.40817496      93.13228451
H      71.83225469      47.55590839      93.46676607
C      75.47942647      46.97954186      92.04191243
H      75.13360656      45.00855732      91.63562127
C      77.68284735      48.04912696      91.10271845
H      79.10581127      46.83403294      90.28824641
C      82.72085770      53.92995524      87.16263909
O      83.01565501      56.28077478      87.18531580
N      84.67105526      52.48809407      86.34816705
H      84.50853880      50.58702939      86.38407185
C      87.10691248      53.41028051      85.35039155
H      88.16515921      54.42884299      86.79414246
C      88.78120999      51.19174181      84.68520789
H      90.52731710      51.75865971      83.74790364
H      87.53399062      50.09570055      83.46822415
C      89.64292519      49.66106350      87.01335071
H      88.05555509      48.93162914      88.10183307
H      90.87691647      50.82891436      88.17931185
C      91.19250077      47.35181795      86.12895880
O      90.38936708      45.19941968      85.48456212
O      93.45828262      47.91306666      85.93431699
C      86.73274667      55.00709924      83.03547682
O      87.97240713      56.99698105      82.99201312
N      85.05089025      54.16806076      81.24212655
H      84.03610722      52.58824956      81.58416701
C      84.49531071      55.55700960      78.92154264
H      86.29244044      55.39260341      77.92565687
C      82.38637615      54.13782514      77.62330066
H      80.85191838      54.23609090      78.99335224
H      82.92872760      52.16684059      77.36440816
C      81.57379383      55.31512463      75.00225027
H      83.08935434      54.70096358      73.74747199
H      81.32434996      57.35035987      75.21767906
S      78.46897350      54.01121347      74.18777822
C      78.31968512      54.64994097      70.68422564
H      79.79745110      53.58413533      69.72235495
H      78.50676803      56.64738168      70.21368379
H      76.63593898      53.95263196      69.72424467
C      83.59580099      58.24420041      79.43365847
O      84.52554633      60.09235275      78.40564735
N      81.78355345      58.46340867      81.14197106
H      81.37726230      56.96485570      82.25313013
C      80.81979303      60.98430357      81.79392663
H      80.68373274      61.77798862      79.89853114
C      78.15527893      60.71785216      82.88051926
H      77.75087750      62.46584900      83.89530229
H      78.14772003      59.06056218      84.09939274
C      76.15783822      60.48163637      80.80748950
H      76.87593422      59.27410126      79.30137763
C      73.88827692      59.21174029      82.10195202
H      72.31791435      59.05489300      80.77914360
H      73.09459187      60.34368635      83.62885088
H      74.40984138      57.41083111      82.95043914
C      75.63816348      62.92694222      79.48846053
H      74.26244273      62.64537300      77.98045893
H      77.43718293      63.46362449      78.64186314
H      75.04100997      64.40281847      80.79615114
C      82.52999535      62.61702710      83.46066524
O      82.32212545      64.84879388      83.28303097
N      84.10980654      61.47374268      85.05559425
H      83.90193665      59.60291363      85.37117854
C      86.10724726      62.94961893      86.34816705
H      85.27009850      64.61824727      87.21555143
C      87.24297277      61.59090571      88.69142768
H      88.79254835      62.69072643      89.48889218
H      87.97051740      59.89582121      87.77680014
C      85.43639442      61.06556180      90.78146498
H      83.79233252      60.03755069      90.08415597
H      84.39893467      62.77954357      91.25767601
C      86.78565900      59.70495885      93.04535710
H      88.54121475      60.61958639      93.61605445
H      87.38848170      57.84546816      92.40285016
N      85.13781766      59.39693347      95.31302868
H      83.79800170      58.05144833      95.49633213
C      84.79199774      60.83501519      97.27456459
N      85.75386844      63.01575935      97.51078038
H      85.54032936      64.03621156      99.10948884
H      87.00297753      63.45228613      96.13505962
N      83.12525914      60.27187675      98.86382442
H      82.76054196      61.55311119     100.23009654
H      82.14449118      58.63915321      98.74666139
C      88.28610170      63.80755468      84.47922772
O      89.47284982      65.61602276      85.13118330
N      88.44672843      62.74174904      82.26257876
H      87.37336389      61.21862963      81.85061842
C      90.00953209      63.89448209      80.26513805
H      91.65170426      64.74296920      81.17409640
C      90.92604936      61.83468041      78.26202815
H      89.55599778      60.30211237      78.10896032
C      91.34178914      62.79277165      75.55594007
H      92.99907912      64.00786567      75.67877229
H      89.83945673      64.01542457      74.85296189
H      91.76319811      61.27532142      74.22746248
C      93.16537504      60.63092475      79.59050575
H      92.44349959      59.55567048      81.19299367
H      94.33511562      62.21262567      80.20088735
C      94.73384788      59.02276766      77.89164180
H      95.99996451      57.90027023      79.06516184
H      95.92059600      60.04133014      76.54993612
H      93.53576139      57.71318732      76.84662315
C      88.65270860      66.06577762      78.93288100
O      89.88481016      68.04432107      78.39997818
N      86.14126233      65.68972209      78.39430900
H      85.35513619      63.95306361      78.31116104
C      84.69940115      67.66826554      77.02992660
H      85.40237934      68.06888752      75.13642083
C      82.01787952      66.52876057      76.46111898
H      80.69507110      68.07077724      76.12285797
H      81.43395409      65.52531590      78.16376239
C      82.01032061      64.64470344      74.30305153
O      82.49975973      65.51964672      72.24136012
O      81.39049038      62.42994420      74.56005431
C      84.43294974      70.10223303      78.54737683
O      84.98097038      72.08833538      77.54960133
N      83.60902907      69.97562137      80.93977034
H      83.05155981      68.24652179      81.51802659
C      82.91738924      72.15636553      82.45533084
H      82.37881724      73.67381576      81.17031695
C      80.67239438      71.56866065      84.12017973
H      80.39082516      72.74596014      85.78691833
H      80.99931703      69.60523501      84.65308255
C      78.22708853      71.62157298      82.39674933
H      76.62460062      70.89969753      83.47011387
H      78.64282832      70.31388238      80.86040184
C      77.56001514      74.28419736      81.31393615
O      78.30645704      76.28919698      82.35328562
O      76.25421426      74.37301450      79.46578382
C      85.16994301      73.17681774      84.07482629
O      85.27009850      75.42559205      84.63418528
N      86.81211517      71.30220924      84.83638600
H      86.49842060      69.50885897      84.26001947
C      88.65837778      71.80487644      86.90752604
H      89.86213344      73.37901846      86.34627732
H      89.67882999      70.02664398      87.11539593
C      87.42249677      72.42659639      89.38306751
O      85.10947176      72.07510730      89.81014565
N      88.78120999      73.31476776      91.38617740
H      90.52731710      74.02530485      91.08193146
C      87.95350987      73.59066780      93.99966889
H      85.92016435      73.34122393      94.19997988
C      89.11191210      71.47228461      95.65695887
H      91.16604460      71.57244010      95.54546501
H      88.38058801      69.70728023      94.88217108
C      88.49964077      71.54031475      98.55957848
H      89.29899500      73.21083281      99.45719848
C      85.53277046      71.67448532      99.06980459
H      84.62003265      73.33366502      98.26289145
H      85.19073000      71.51952776     101.09370147
H      84.59168675      70.06065905      98.20053048
C      89.37269433      69.04965547      99.76522387
H      88.28232224      67.47551345      99.00366417
H      89.14025799      69.14414179     101.80990774
H      91.36446586      68.93816162      99.25877722
C      88.59979626      76.16447504      95.19964510
O      90.79754797      76.94871146      95.39995609
N      86.62881172      77.41736359      96.12939044
H      84.89026351      76.66147306      95.88183630
C      86.81778435      79.67180708      97.61471533
H      88.79443807      79.82487491      98.17407432
C      85.70662528      82.04719305      96.13694935
H      85.43072524      83.75928509      97.24621870
H      83.82256815      81.76940329      95.34893348
C      87.39415088      82.40435133      93.80880653
H      87.30533374      80.68470038      92.67875020
H      89.35379706      82.66702328      94.38706278
C      86.56078157      84.54352151      92.14962683
H      85.73308145      85.94002926      93.41763319
H      85.14537656      83.97660362      90.76634717
N      88.52231749      85.90979364      90.60572043
H      89.94717113      86.75828075      91.55436304
C      89.10624292      85.42413397      88.21143719
N      87.86280300      83.83676387      86.81681917
H      88.48452296      83.53818711      85.03669699
H      86.35480140      82.86544455      87.46688503
N      91.11313226      86.31230534      87.08138086
H      91.23785420      85.72082101      85.27102305
H      92.40759479      87.49905347      87.82593303
C      85.43828414      79.62456392     100.16017667
O      83.20651737      79.05197685     100.21497873
N      86.73085694      80.47683049     102.24454479
H      88.63192161      80.56186817     102.10281532
C      85.40804852      80.50895583     104.80134449
H      83.75642772      79.27874400     104.88260273
C      87.25242140      79.38834813     106.66083519
H      86.08268082      79.19559605     108.34458133
H      88.88325521      80.60911133     106.96319140
C      88.18594620      76.73706211     106.11659401
H      89.17805252      76.54619976     104.32135401
C      90.09834923      75.84700102     108.06112238
H      91.67627070      77.16225053     108.21419022
H      91.05833020      74.06687883     107.67183876
H      89.18183197      75.79975786     109.90549527
C      86.05622465      74.84922553     106.38115569
H      85.27954713      74.84166662     108.28788954
H      86.75731311      72.91792523     106.24320567
H      84.52932579      75.09111049     105.02244247
C      84.41027303      83.01851238     105.76888437
O      83.16872284      83.10921924     107.76632508
N      84.92049913      85.11988804     104.26277250
H      86.09401917      84.77973730     102.79445515
C      83.72808183      87.59731923     104.62937940
H      82.49220082      87.45370003     106.26966184
C      85.85213421      89.56641405     104.84669793
H      87.07289740      89.61176748     103.18751822
H      87.07667686      88.85020778     106.33958171
C      84.95451421      92.34242201     105.61392681
H      83.79233252      92.33108365     107.31468049
H      83.73753046      93.04162074     104.10592521
C      87.24108305      94.22647914     105.77833300
H      88.17082839      94.56285042     103.97175464
H      88.75475382      93.72948112     107.08224415
C      86.24141783      96.79650693     106.76854959
H      84.97341147      96.56218086     108.37670668
H      85.05844915      97.90577627     105.49676378
N      88.29555033      98.61631337     107.49042504
H      89.62213820      98.74481475     106.12604264
H      89.03065386      98.26293454     109.21763489
H      87.82689820     100.46635543     107.54900655
C      82.09724802      88.22848782     102.37304618
O      82.57345905      87.43291305     100.21497873
N      80.10925594      89.77050449     102.74343254
H      79.63304491      90.39978336     104.48387047
C      78.32535430      90.59820462     100.71953566
H      77.52033089      88.87099477      99.93718897
C      75.90839435      92.15344937     101.62660429
H      76.80790407      93.78428318     102.50910648
C      74.19630231      93.23248310      99.45719848
H      75.33013809      94.25860449      98.07580855
H      72.79412538      94.55151207     100.19230202
H      73.34214601      91.72637123      98.34225996
C      74.24543519      90.59253544     103.32924770
H      75.45108058      89.77239422     104.78622668
H      73.12671721      89.16390235     102.35225919
C      72.13839035      91.99849182     104.68796092
H      72.90561924      93.73704003     105.48353569
H      71.44864025      90.93268618     106.31123582
H      70.61527094      92.47281312     103.38216003
C      79.50832297      91.82652672      98.39895175
O      81.22041501      93.35531531      98.69752850
N      78.69196121      91.06874647      96.09348564
H      76.98175889      90.22592854      96.17096442
C      79.74642849      92.01738908      93.70298186
H      81.02955265      93.61798727      93.88628531
C      81.47930752      89.89900588      92.75622898
H      82.68117345      89.44358184      94.36627579
H      82.71896798      90.78528752      91.37294931
C      80.51365737      87.52739936      91.86049870
C      80.30389775      87.26283768      89.19598460
H      80.98230950      88.81997216      88.06592827
C      79.71619287      85.01973254      88.01112620
H      79.57824285      84.91390787      85.97778069
C      79.27966609      82.97126922      89.56637096
O      78.63337969      80.73761272      88.57237492
H      78.34047211      80.78863533      86.78091437
C      79.32879897      83.02796101      92.12883984
H      79.11525990      81.33854569      93.25511672
C      79.82957645      85.35232437      93.40062565
H      79.79745110      85.60365797      95.42452253
C      77.66961927      92.66556521      91.83971171
O      75.43218332      92.37454735      92.23088506
N      78.54078310      93.35720504      89.53235589
H      80.30956693      94.06207295      89.63818056
C      76.86837531      94.01671952      87.42342132
H      74.87660378      93.81451880      87.90341180
C      76.95152327      96.73414596      86.53524995
H      75.80634913      96.80406583      84.82315791
H      78.96975097      97.10453232      86.35950541
C      76.09736698      98.60875446      88.60827972
H      77.10081165      98.24403728      90.37139437
H      74.19441258      98.16844823      89.26779420
C      76.51877595     101.52838161      88.00923648
H      78.51432693     101.63609601      87.50845900
H      76.30901632     102.58095917      89.76668195
C      74.80101473     102.77182153      86.01557522
H      72.84325827     102.14632212      86.15163551
H      75.45863948     102.24836734      84.13529754
N      75.07880450     105.71601512      86.02691358
H      73.71064264     106.46056729      84.92520313
H      76.82113216     106.31316864      85.53558473
H      74.88983186     106.32828645      87.82593303
C      77.18206988      92.20447199      85.07449151
O      79.32124007      91.56763422      84.55670650
N      75.22998260      91.80385001      83.64585842
H      73.55190563      92.37643708      84.35639551
C      75.41139633      90.61521216      81.19488339
H      76.63782870      88.96926054      81.35739986
C      72.67318290      89.67412845      80.60528878
H      71.17651966      91.07819510      80.76969497
H      72.22909722      88.26817208      82.04148078
C      72.34626025      88.69525022      77.85384727
O      73.80134951      87.04362942      77.09228757
O      70.87794290      89.81774765      76.41576555
C      76.39594374      92.46903367      79.08972828
O      76.77955818      94.76505114      79.61129274
N      76.62649035      91.63755409      76.73701902
H      76.30523687      89.76672504      76.52914913
C      77.25010003      93.14366596      74.54493650
H      78.99620714      94.10931611      75.05894205
C      77.57891241      91.53739860      72.18466833
H      75.69296555      91.09142319      71.48169014
C      78.86959548      92.82997140      70.07006459
H      78.48598104      91.79062192      68.33340611
H      80.88593345      92.98114950      70.46123793
H      77.88315834      94.63466002      69.96612964
O      78.98675851      89.35665443      72.71568143
H      79.05289893      88.72359612      71.01681747
C      75.25832849      95.27149779      74.17832959
O      75.82146694      97.18768027      73.10496505
N      73.00388500      95.00126693      75.26492222
H      72.62782947      93.32507969      76.09829153
C      70.84203810      96.72280760      75.10996466
H      71.41462517      98.27427290      73.87975284
C      68.47610076      95.53605948      73.81739187
H      66.70164775      96.39021577      74.42777347
H      68.55924872      93.65956125      74.66209953
C      68.96553987      95.35842520      70.99225103
H      70.92707579      94.87276554      70.59162905
H      68.94853234      97.25004124      70.17966871
C      67.30447044      93.43090436      69.80550290
O      65.47521537      94.44568739      68.60363697
O      67.44619992      91.08197456      70.02660088
C      70.03890442      97.79995160      77.69133081
O      68.03768425      98.81473463      77.94455413
N      71.67729713      97.53161046      79.54515232
H      73.26844669      96.59241648      79.07272074
C      71.50155258      99.00181753      81.82983143
H      70.46220311     100.77438081      81.68999169
H      73.39127890      99.39677033      82.54792743
C      70.05402223      97.65066322      83.98222970
O      70.08614758      98.33474414      86.15919442
N      68.48365966      95.75337800      83.32838440
H      68.32870211      95.12220941      81.53314440
C      66.88117175      94.48348192      85.33149429
H      65.77946131      96.05573421      86.07982591
C      64.97632763      92.72036727      84.01435505
H      63.62517331      92.14211102      85.45999568
H      65.81914556      91.01205468      83.23011863
C      63.47966439      93.94679965      81.77313964
C      63.47777466      92.73359535      79.44877628
H      64.72499403      91.15378416      79.10673582
C      62.02079567      93.61987699      77.50613763
H      62.05859020      92.60131451      75.73924353
C      60.65074410      95.92156364      77.76503013
O      59.44698843      96.89855215      75.76947915
H      59.01613083      98.65410789      75.91309835
C      60.75656877      97.17256246      80.12529830
H      59.97044262      99.04528124      80.35017573
C      62.14173816      96.16155888      82.15675409
H      62.35338750      96.85319872      84.06726739
C      68.37783499      93.16445295      87.51790764
O      70.24866404      91.76983493      87.07760141
N      67.66729790      93.62554617      89.79124839
H      66.25567234      94.85953746      90.15029639
C      69.14884332      92.79406660      91.91908022
H      71.11793814      92.85642756      91.32381643
C      68.78979533      94.65544701      94.02045588
H      69.76867356      93.82396744      95.63050270
H      66.79424434      94.69702099      94.53068198
C      69.52678859      97.31996111      93.83904215
C      67.62383419      99.17189290      93.23999891
H      65.63395238      98.73536612      93.11527698
C      68.36649663     101.72491315      92.80158241
H      66.94920190     103.18567159      92.66741184
C      70.93841414     102.41466325      93.07559272
O      71.63950261     104.75036498      92.35938645
H      70.35448871     105.55727811      91.36916986
C      72.77144867     100.63265134      93.79179900
H      74.73109485     101.12775964      94.08659630
C      72.08736774      98.05506465      94.07525794
H      73.56135427      96.64532882      94.19809015
C      68.87483301      90.00294083      92.82047967
O      66.80180324      88.89745094      93.05102628
N      71.01211347      88.87477422      93.27590371
H      72.55224041      90.00294083      93.34204413
C      71.45808888      86.07608955      93.06992354
H      69.77623246      84.94792294      93.44597908
C      72.30468627      85.59609907      90.22210599
H      74.05835229      86.57875675      89.76668195
C      72.56546850      82.79363495      89.59093740
H      73.24954942      82.61978013      87.65585766
H      70.60960176      82.23049651      89.90652170
H      74.02244749      82.02640606      90.82870814
O      70.32992227      86.43891700      88.47977833
H      70.83069974      88.16045768      88.20198856
C      73.42151452      85.45814905      95.19586565
O      74.58936538      87.20425616      96.21442813
N      73.57458235      83.03551991      95.86104931
H      72.12894172      81.87711768      95.40184581
C      75.43974222      82.10766430      97.68274547
H      77.17451098      83.11299869      97.21031390
C      74.73676403      82.46104312     100.54757056
H      73.83347485      84.28273928     100.88961103
C      72.96231102      80.38990308     101.49999263
H      71.04234909      81.03429975     101.12771654
H      73.07002542      80.17825373     103.54467650
H      73.58214126      78.50584594     100.94630282
C      77.35025552      82.52151436     101.92329132
H      78.38204609      84.21659886     101.37527069
H      78.54834201      80.86989356     101.63794265
C      77.09514247      82.88812126     104.86748492
H      76.45074580      81.20815457     105.86903986
H      76.12949233      84.68714071     105.13582605
H      78.96786125      82.95426168     105.71975148
C      76.13516150      79.25606729      97.16685019
O      74.55346058      77.82743420      96.18986169
N      78.39716390      78.41891853      98.04368320
H      79.57257367      79.59810775      98.97531827
C      79.06423729      75.70149209      98.25344282
H      77.41639594      74.57899466      98.76366892
H      80.59491560      75.49740165      99.61782522
C      79.76154630      74.44860355      95.74388628
O      81.31490133      75.41992287      94.33415045
N      78.71652765      72.09022511      95.19775537
H      77.83213573      71.23795854      96.65851381
C      78.56345982      71.17937703      92.58804333
H      80.25476487      71.77464082      91.57703976
C      78.44251733      68.23896288      92.62961731
H      76.54523211      67.64558882      93.17574822
C      78.62582078      67.44716756      89.84794018
H      80.33791282      68.16337383      88.95598936
H      76.95152327      68.08778478      88.83693660
H      78.49542967      65.42705013      89.47188464
C      80.51932655      66.84812432      94.12817028
H      80.24531623      64.85824251      93.66329761
H      79.89193741      67.18260587      96.06136030
C      83.33123930      67.71172924      93.70298186
H      83.56934482      69.71483913      94.11872165
H      83.63359551      67.54732305      91.67341580
H      84.61814292      66.50797358      94.77256695
C      76.18240466      72.33399980      91.40507466
O      74.09992626      71.31732705      91.45609727
N      76.37137729      74.54497959      90.28446696
H      78.17039674      75.18181736      90.21832654
C      74.53645304      75.75629416      88.64040507
H      74.49865852      74.63946591      86.91130549
H      75.38305043      77.60444649      88.30970296
C      71.68674576      76.01329694      89.56259151
O      69.87260850      76.18526203      88.15285568
N      71.05746690      75.81109622      91.96254392
H      72.37271641      75.09488995      93.14551260
C      68.55735899      76.13234969      93.05480573
H      67.08904164      75.13268447      92.00978708
C      68.44964459      74.95882965      95.74577600
H      69.69119478      75.95471542      97.05346661
H      69.30380088      73.08611088      95.71931983
C      65.86071954      74.85489471      96.83236863
N      64.19965011      72.80454166      96.61882956
H      64.53980085      71.14725168      95.73632737
C      62.05292102      73.36956982      97.89817427
H      60.51657353      72.02597442      97.96620442
N      62.25512174      75.74495580      98.61060109
H      60.91152633      76.93737310      99.25688749
C      64.61161045      76.73895184      98.03423457
H      65.02168106      78.67781104      98.52367368
C      67.73343832      79.02552068      92.98677559
O      68.89939945      80.58265516      94.43052649
N      65.61505512      79.57732076      91.65073908
H      64.86294405      78.28096851      90.46777041
C      64.46988097      82.18514307      91.84727062
H      65.94197777      83.57976109      91.50334043
C      62.54236013      82.39490269      89.58904768
H      61.05892498      80.99083604      89.85549909
H      63.50423083      81.74294712      87.88640427
C      61.21577226      84.97059966      89.03724759
H      59.83249260      85.34854492      90.51690329
C      63.28502258      86.74883212      88.24356254
H      62.51968342      88.56674883      87.65396793
H      64.40752001      86.19703204      86.60705955
H      64.46610152      87.01150408      89.91030115
C      59.62084325      84.36777697      86.64296435
H      58.48700747      85.97971351      86.04203139
H      58.35850608      82.76528905      86.92642330
H      60.86995235      83.81975633      85.09905796
C      63.28880203      82.96371031      94.39084224
O      61.62395315      81.62389436      95.39239718
N      63.84060211      85.24460997      95.39995609
H      65.06325504      86.29907726      94.38139360
C      62.65196426      86.35387932      97.49566257
H      61.81859496      84.77973730      98.52934286
C      64.46799125      87.71448227      99.34192518
H      63.43998013      88.31730496     101.02189187
H      65.13317491      89.45114075      98.45753326
C      66.55046964      85.88333747     100.35292875
H      67.70698215      85.09721132      98.84303743
C      68.20020072      87.59353978     101.96486530
H      67.19486632      88.61021254     103.44641073
H      69.00144467      89.16012290     100.89528021
H      69.64395162      86.47860126     102.92484627
C      65.34293453      84.08242829     102.13872012
H      63.69698291      84.82131128     103.13271616
H      66.55613882      83.68369604     103.75632584
H      65.03868859      82.27396021     101.19952614
C      60.30303445      87.82597612      96.50166653
O      58.05048069      87.60109869      97.31802830
N      60.87184207      89.74593805      94.97476767
H      62.63117727      89.91223397      94.25478194
C      59.19754456      91.85487262      94.21320796
H      57.29270044      91.07252592      94.24155386
C      59.25423635      93.89199758      96.19742059