 %block lattice_cart
   135.996   0.000   0.000
   0.000 142.663   0.000
   0.000   0.000   160.158
 %endblock lattice_cart

 %block positions_abs
N      90.19472527      40.38345218      82.07455099
H      92.07311323      40.51195356      82.39202501
H      89.86402317      39.11544582      80.68749187
H      89.56733614      39.78062948      83.77152522
C      88.93427782      42.82686829      81.70983381
H      89.89992797      44.05330068      83.04964977
C      89.26309020      43.48827250      78.94138476
H      87.68894819      42.72482308      77.85857158
H      91.10368363      42.80230185      78.32155453
C      89.19883950      46.41356885      78.52753470
H      87.29399539      46.96347920      79.08878341
H      89.43127585      46.68568942      76.49985836
S      91.63658645      48.34297940      80.17348632
C      90.73707672      51.41567439      79.20027727
H      91.20005968      52.84997666      80.60623364
H      88.72073875      51.39677712      78.77319912
H      91.86524334      51.75960459      77.51275167
C      86.19795412      42.51506346      82.31454623
O      84.89215323      40.60832960      81.68715709
N      85.29277522      44.37644387      83.66570054
H      86.34157332      45.77106190      84.44048833
C      82.58668714      44.65612336      84.20049309
H      81.44151299      43.49394168      82.94193537
C      82.02921788      43.67157597      86.94248597
H      82.50164946      41.66846607      87.03697229
H      79.99587236      43.79251844      87.25240109
C      83.45029206      45.22304126      89.04953081
O      84.31767645      47.30362994      88.78496913
N      83.31612150      44.41234868      91.39279144
H      83.97374625      45.63311187      92.70426150
H      82.22574941      42.95347996      91.96348878
C      81.77788428      47.41701351      83.88679852
O      83.39737972      49.05729596      83.41247722
N      79.33068871      48.02361566      84.11356568
H      78.17228647      46.52695241      84.35923010
C      78.12882276      50.64466606      84.33088421
H      78.40472281      51.34953397      82.41470172
C      75.22053397      50.41978862      84.65969658
H      74.55535031      48.81163154      83.55609642
C      74.62149073      50.11365296      87.48483742
H      75.28856411      48.26928009      88.11600601
H      72.59003494      50.26105161      87.79286281
H      75.48887511      51.58574975      88.63568075
C      73.91284337      52.82352049      83.86223208
H      75.23187232      54.29183783      84.45182669
H      72.04768348      53.02572120      84.71071919
C      73.50088302      52.93879379      80.98795836
H      75.10904011      52.09786560      80.01474931
H      73.10404049      54.74537215      80.08277945
H      71.92863073      51.67456689      80.57032884
C      79.43840311      52.55706908      86.24706669
O      79.63493463      54.84552765      85.81809881
N      80.52499574      51.61976483      88.24639713
H      80.72341699      49.74515634      88.55631224
C      81.81567881      53.12209725      90.28541182
H      80.67806357      54.81151257      90.58587830
C      81.75142811      51.76149430      92.86866769
H      82.93628650      53.01627258      93.99116512
H      82.80589538      49.99460020      92.78174028
C      79.21730512      51.32496753      93.91179661
C      78.10992550      53.29028290      95.29318655
H      78.98486879      55.12709686      95.46515164
C      75.56635388      53.04083902      96.14356339
H      74.54401194      54.68679063      96.78796006
C      74.30968588      50.74104209      95.76372840
H      72.35570888      50.39144273      96.24938806
C      75.55312580      48.66612260      94.65634878
H      74.35125987      47.04473742      94.34832339
C      78.03055699      48.87021304      93.67747055
H      78.95274344      47.17890800      93.00283826
C      84.37625795      54.15388782      89.39346100
O      84.99419846      56.34786006      89.33487948
N      85.85024449      52.43612660      88.23127932
H      85.24931152      50.62765851      88.11222656
C      88.22185101      53.18634794      86.71949827
H      89.51253408      54.16711591      87.99128407
C      89.82811836      50.76182909      86.23761806
H      91.42871655      51.23426066      85.03008294
H      88.36735993      49.64689056      85.30787271
C      90.93927745      49.29162202      88.52607662
H      89.54654915      48.79840345      89.96415834
H      92.09012076      50.47837013      89.75628845
C      92.46428658      47.11276757      87.59255182
O      94.80376775      46.99749427      87.58310319
O      91.27375899      45.13044467      86.81587431
C      87.79666258      54.60364268      84.29308968
O      89.39537105      56.26093266      83.68459781
N      85.69339720      54.08585767      82.89847166
H      84.69373198      52.68557047      83.72617179
C      84.78254911      55.43701198      80.71205832
H      86.42094182      55.39354828      79.46483895
C      82.49220082      54.24459468      79.32499920
H      80.82924166      54.26349194      80.54009322
H      82.95140432      52.26416151      78.99429710
C      81.45663081      55.48047569      76.99307693
H      82.99297830      55.35575375      75.62680481
H      80.94640469      57.36075338      77.66204005
S      78.76755026      53.90822339      75.49830342
C      79.50076406      54.38254471      72.03632481
H      78.30267758      53.33752605      70.72485475
H      81.26765817      53.39799729      71.64515147
H      79.68784697      56.37242652      71.53932679
C      84.15893942      58.23947610      81.59456050
O      84.64081963      59.96668596      80.05443356
N      82.72085771      58.72135631      83.62979574
H      81.96874664      57.21713417      84.53308492
C      81.93851102      61.40476768      84.15136021
H      81.68528769      62.56505963      82.46761406
C      79.20974621      61.36508342      85.11512063
H      78.56534955      63.29260426      85.45149191
H      79.19840785      60.30116752      86.88012500
C      77.40505758      60.03093666      83.35578543
H      78.14394058      58.27916036      82.56021065
C      74.91439831      59.41677560      84.81843359
H      75.34714564      58.38876448      86.54753317
H      73.55757481      58.55317068      83.52964025
H      74.11693381      61.18933888      85.49873507
C      76.68318213      61.72791089      81.08811385
H      76.08413889      63.66299062      81.46794884
H      75.24132096      60.73769429      80.00341095
H      78.28755978      61.97546503      79.81821777
C      83.75264827      62.97324052      85.66314126
O      83.86036268      65.24091209      85.48550698
N      85.36080537      61.73735951      87.12389970
H      85.06222861      59.85141266      87.12200997
C      87.39982005      63.11308026      88.69804172
H      86.41527265      64.57761817      89.75817818
C      88.84168123      61.46523892      90.52729679
H      90.17204856      60.41455109      89.35377675
H      87.50375501      60.04605446      91.19248045
C      89.71473479      62.69545075      92.96504373
H      88.02342975      63.58740158      93.73416234
H      91.12825007      64.03526670      92.29230116
C      91.01675622      60.83029088      94.79618853
H      91.86524334      61.84129447      96.37788945
H      92.52664755      59.90621472      93.74172124
N      89.29710527      58.83851934      95.55585851
H      89.71284506      57.08107388      94.94169745
C      87.37714334      58.68167207      97.16401560
N      86.71006995      60.73958401      98.37721989
H      85.45340196      60.32006477      99.74916119
H      87.78532422      62.31561577      98.34887400
N      86.48708224      56.53872243      97.71014650
H      85.56300608      56.59163476      99.38066456
H      87.31667210      54.88710162      97.23771492
C      89.29899500      64.30738729      86.82343321
O      90.20795336      66.32183554      87.38657165
N      89.80733138      63.07150628      84.65213768
H      89.11191209      61.31406082      84.39135545
C      91.64792481      64.21101126      82.72461684
H      92.96695377      65.38075184      83.79231221
C      93.16348532      62.06050271      81.30732211
H      93.59812236      60.76037100      82.84555932
C      91.59123302      60.45234561      79.37602181
H      89.80166220      59.91755308      80.24718564
H      92.53798590      58.84040907      78.51241689
H      90.99596924      61.56539442      77.74707773
C      95.47273087      63.15276452      79.80309996
H      94.81132666      63.97668520      78.03431613
H      96.37413032      61.38398070      79.25318960
C      97.31332430      64.55305171      81.47928720
H      99.06132114      64.79115724      80.41348156
H      97.66670312      63.38898031      83.14035663
H      96.58388994      66.38608625      82.07266126
C      90.27976295      65.95522865      80.90292067
O      91.56666657      67.46700970      79.73318009
N      87.84957492      65.89475740      80.51741651
H      86.82912271      64.56627980      81.43015432
C      86.38881647      67.53503985      78.68249226
H      87.27698784      67.74290973      76.83433992
C      83.73375101      66.29726910      78.09856683
H      82.25220558      67.68243849      78.46139428
H      83.21785572      64.90265109      79.52342047
C      83.46918933      65.14642579      75.38491984
O      85.26820878      65.14264633      73.79754974
O      81.58513219      63.88408861      74.79532523
C      86.02787876      70.17309777      79.86168148
O      86.40015483      71.99479393      78.45005592
N      85.42694579      70.28459162      82.29186951
H      84.83357172      68.60462493      82.97406071
C      84.92238887      72.64863924      83.47294846
H      84.79577719      74.11695658      82.03108728
C      82.38070697      72.39919537      84.95638362
H      82.41283232      73.79381338      86.47383384
H      81.96685691      70.46600535      85.53463987
C      80.19240389      72.71477966      83.14224635
H      78.42550979      71.82093912      83.70538480
H      80.81223413      72.03447819      81.29976320
C      79.22675376      75.34149924      82.65280724
O      80.85758757      77.03091456      82.49218050
O      76.94396436      75.75912875      81.90447562
C      87.14092756      73.64452501      85.24929119
O      87.66438175      75.99345481      85.45338164
N      88.18027702      71.92109462      86.74973389
H      87.98374549      70.06160393      86.36233999
C      89.87914097      72.56171183      88.76796159
H      91.53076178      73.67476063      88.24072795
H      90.65392877      70.84961979      89.60888980
C      88.68294422      73.81082093      91.04319207
O      86.40204456      74.32482648      91.18114209
N      90.21551227      74.38529773      92.85543960
H      92.01831117      73.90152778      92.46237653
C      89.54276970      75.03725330      95.45003383
H      87.60580022      74.45899705      95.84498663
C      91.09423499      73.43665511      97.24716356
H      93.02175583      73.84861546      96.64623059
H      90.66715686      71.49212674      96.71992991
C      90.88636510      73.91286614     100.07419412
H      91.77264675      75.57204585     100.91701206
C      88.06878317      73.88640997     100.95669631
H      87.43950430      72.04392682     100.28773319
H      86.89526313      75.26591018      99.97592835
H      87.72674270      74.01113191     102.98626237
C      92.20161461      71.74535006     101.46881214
H      91.52320287      69.88396964     100.90945315
H      91.73485222      71.78125486     103.47570148
H      94.21417315      71.92109462     101.06252098
C      89.89992797      77.83404824      96.12655585
O      92.06555432      78.65607919      96.14167366
N      88.01020166      79.23433544      96.98827105
H      86.27165344      78.47088601      97.18480259
C      88.35791129      81.77412760      98.11265821
H      90.35346229      82.19553657      98.40934524
C      87.36013580      83.79046558      96.24371888
H      86.86502751      85.47421173      97.32275261
H      85.80678077      82.92875039      95.20058996
C      89.46340120      84.53690747      94.37477956
H      90.49708148      82.86260996      93.76061851
H      90.83345277      85.69719944      95.38389341
C      88.55444284      86.36805227      92.37544912
H      90.16826910      87.27323119      91.47404967
H      87.37903307      87.77967784      93.30897392
N      86.96896245      85.03768495      90.45359746
H      86.85179942      83.14606892      90.65957763
C      85.63670541      86.19986663      88.69804172
N      85.44962250      88.57903206      88.65079856
H      84.14949080      89.39161437      87.51318332
H      86.51542815      89.57491782      89.88290011
N      84.34602234      84.93186027      86.98028050
H      83.30856259      86.15073375      85.94282075
H      84.52176689      83.07047986      86.59477633
C      87.06533850      82.07837354     100.79984902
O      84.81089501      81.57948579     101.03984427
N      88.63003188      82.65285034     102.68768561
H      90.46684586      82.95331683     102.27383555
C      87.76831669      82.87394833     105.37865588
H      86.15826986      81.61917005     105.65644565
C      89.89803824      81.90829817     107.08318901
H      89.20828814      82.30514070     108.98425369
H      91.66115290      82.80402845     106.50871222
C      90.21929171      79.03969363     106.80917870
H      90.70495137      78.58804904     104.86087087
C      92.20728379      77.99089553     108.63087486
H      92.90081335      76.22967060     107.82018228
H      91.31533298      77.78680508     110.47524775
H      93.78898473      79.30425531     108.75748653
C      87.91193589      77.33138105     107.37987605
H      88.63759079      75.40386021     107.44979592
H      86.70062133      77.30114543     105.71502716
H      86.80455627      78.04758732     108.96346670
C      86.88014533      85.49499871     106.22714299
O      85.48363758      85.68775080     108.06017752
N      87.46407075      87.63416890     104.85142224
H      88.87758603      87.47732163     103.57963643
C      86.26976373      90.03223159     104.98748253
H      85.31167249      90.21742477     106.80350952
C      88.30499896      92.01833395     104.75504620
H      88.72451820      92.22998329     102.75004658
H      89.98685538      91.43629824     105.79250594
C      87.46407075      94.70741449     105.38054561
H      86.98030081      94.53355967     107.37609659
H      85.90693626      95.10047756     104.09364199
C      89.48607791      96.71430384     104.90055512
H      89.21206759      97.28878063     102.94090894
H      91.39659120      96.01510510     105.22558805
C      89.32923062      99.15394051     106.15911285
H      91.04321239     100.19140025     105.67912236
H      89.33489980      98.83079731     108.19434809
N      86.96896245     100.56178661     105.52983399
H      85.39293072      99.98353036     106.43501289
H      86.41905211     100.33879890     103.71569672
H      87.07856659     102.46474102     105.58841550
C      84.20618258      90.22687340     102.89366578
O      84.44995728      89.33114313     100.69402435
N      82.13882200      91.56290991     103.57207752
H      82.24653641      92.14494561     105.38810451
C      79.96941619      91.92951681     102.16423142
H      79.24943047      90.09270283     101.56896763
C      77.90016588      93.31846565     103.69113028
H      77.83402546      92.39816894     105.53172371
C      78.32535431      96.05289963     104.36576258
H      80.32846419      96.10392224     104.84008388
H      77.27277675      96.42895516     106.09297243
H      78.13071249      97.17728678     102.64989108
C      75.30368192      93.09547795     102.22848212
H      75.21864424      91.24543589     101.32897239
H      75.16006273      94.47119870     100.70158326
C      73.02845145      93.65861639     103.88010291
H      72.84514800      92.54367786     105.60353331
H      71.36360256      93.17673618     102.76894384
H      72.80168428      95.66739546     104.26182763
C      80.51932655      93.34303209      99.62632898
O      82.18606515      95.00977070      99.44869471
N      79.24376129      92.55501622      97.50227661
H      77.91339396      91.18874410      97.44180537
C      79.66894971      93.77388969      95.12500091
H      80.67806357      95.55968106      95.31019408
C      81.38104175      92.19596823      93.31464310
H      83.11581050      92.10904082      94.42391244
H      81.83457606      93.28067112      91.62333805
C      80.64026904      89.42562945      92.74772520
C      79.61414765      88.68674646      90.34210361
H      79.44218256      90.07380557      88.85488900
C      79.15872361      86.07514469      89.79219325
H      78.28378032      85.53090351      88.03096833
C      79.97319565      84.14573413      91.48160857
O      79.97130592      81.64940567      90.77485093
H      79.37982159      81.45665358      89.07031780
C      80.88026428      84.82603561      93.85510482
H      81.28844516      83.40496141      95.26295093
C      81.33946778      87.41874010      94.47304533
H      82.38259670      88.02345252      96.12088667
C      77.02711233      94.18396030      93.88911990
O      74.95597229      93.86081710      94.91902074
N      77.33513772      95.03055769      91.53452091
H      79.06234756      95.26866321      90.76162285
C      75.28100521      95.39527487      89.74683982
H      73.61048716      94.45230144      90.49517144
C      74.50621743      98.23742324      89.08165616
H      73.20230627      98.16561364      87.48861687
H      76.18051494      99.28055217      88.48639237
C      73.48954466      99.67172551      91.28507704
H      74.82936062      99.62637208      92.84977042
H      71.68674576      98.80245141      91.77829561
C      72.97364939     102.38537250      90.74839476
H      74.74054349     103.23574934      90.11722618
H      72.19886159     103.03732808      92.54174504
C      70.91951688     102.82189929      88.70371089
H      69.21120430     102.40993894      89.77896517
H      71.25210872     101.70696075      87.00295721
N      70.68141137     105.56200243      87.94593064
H      69.44553036     105.88514564      86.52674618
H      72.28956845     106.01931620      87.02374420
H      70.39039351     106.74686083      89.41235826
C      75.93674024      93.87026573      87.45460180
O      78.17606593      93.62460131      86.82532294
N      74.22842766      92.66839980      86.12423448
H      72.42940821      92.84414435      86.74217498
C      74.68574143      90.98465365      83.78853275
H      76.65105678      90.92985159      83.16492307
C      73.96386598      88.23699161      84.29686913
H      71.91351292      88.04046006      84.32899448
H      74.66495443      87.96298128      86.21494134
C      75.30557165      86.20175636      82.65847642
O      77.38238087      85.36271788      83.43326421
O      74.39472358      85.66507409      80.54954185
C      73.57836181      92.14872506      81.34322691
O      72.74877195      94.29167470      81.57188379
N      73.86182075      90.85804199      79.16815192
H      74.55346058      89.08925816      79.34956564
C      73.07569460      91.49110031      76.57733714
H      74.51944550      92.74776830      75.81577744
C      72.88105280      89.16862667      74.86335538
H      72.18941297      89.94908363      73.08701264
C      75.59092032      88.02534225      74.32856283
H      77.05167877      89.45208562      74.05077306
H      75.45486003      86.46253859      72.99630578
H      76.24287591      87.15417842      76.07844940
O      71.30691078      87.27701063      75.90081512
H      71.75855536      87.21087021      77.65637087
C      70.70786754      93.13516221      76.22773778
O      70.48299010      94.67906860      74.46273340
N      68.68397065      92.78178338      77.63369415
H      68.67641174      91.44763660      78.99618682
C      66.34071002      94.11404043      77.42015508
H      66.24622371      95.11559537      75.62113563
C      64.13539941      92.17896068      77.28409478
H      62.32126215      93.15028001      77.38047083
H      63.99744939      91.02811736      78.98673819
C      63.94453705      90.25143984      75.20161639
H      62.63684645      88.77556359      75.80065963
H      65.77379214      89.31791506      75.03909992
C      62.79369373      91.22086944      72.68450094
O      64.07303845      92.53233950      71.14437399
O      60.75845849      90.30246246      71.93050014
C      66.01189765      96.10203251      79.62735541
O      64.05792064      97.34925189      79.84467394
N      67.95831574      96.74453946      80.98795836
H      69.46442762      95.59369614      80.76308093
C      67.88839588      98.68717811      83.10445183
H      66.78290598     100.34257836      82.58099764
H      69.85938042      99.25787545      83.31610118
C      66.95865052      97.80656564      85.66314126
O      67.17218960      99.09913844      87.53963949
N      66.13661959      95.43873857      85.80298100
H      65.97032366      94.32568978      84.26285406
C      65.23899959      94.09136371      88.05364504
H      63.87461718      95.22897895      89.09677397
C      63.81225621      91.76322090      87.17303258
H      62.64818480      90.98843311      88.68481363
H      65.13884409      90.35726452      86.46627494
C      62.04158266      92.20352714      85.00929595
C      61.27246406      90.34214671      83.36523406
H      62.11906144      88.51478136      83.68459781
C      59.44320898      90.77300431      81.46983857
H      58.75912805      89.22342873      80.33222333
C      58.43787458      93.24098687      81.12023920
O      56.66153184      93.73987462      79.35712455
H      56.23256397      95.50298927      79.30799167
C      59.18053702      95.10992620      82.75485246
H      58.45866158      97.01099087      82.56965928
C      60.84727564      94.56946447      84.71638837
H      61.14396266      96.17762156      85.93715157
C      67.23455058      93.30712730      89.83943641
O      69.16774059      92.27344700      89.16669384
N      66.76400871      93.71908763      92.26206554
H      65.08593175      94.56568502      92.58520874
C      68.35704800      93.09358822      94.24816790
H      70.21086951      93.87215546      93.80408221
C      67.35738278      94.20474729      96.75583471
H      68.23799525      93.31090675      98.38855825
H      65.32592700      93.90617054      96.90890255
C      67.74666640      97.00721142      96.97126351
C      65.78513048      98.74764935      96.82386486
H      63.86327883      98.20529790      96.39867644
C      66.18953192     101.30255932      97.18858204
H      64.66263306     102.65560336      97.19614094
C      68.62160968     102.13403890      97.76872802
O      69.24899883     104.58501393      97.89722941
H      67.76367393     105.59790723      98.13155547
C      70.64172711     100.40493933      97.97092873
H      72.59003494     100.92272433      98.29785139
C      70.17496472      97.80467592      97.59109374
H      71.79634990      96.57257436      97.69880814
C      68.52712336      90.24010149      94.45981724
O      66.76400871      88.76044579      94.38611792
N      70.87227372      89.43318835      94.76028373
H      72.03823485      90.82969610      95.33665025
C      71.91351292      86.85371193      94.59776726
H      70.56235861      85.43074802      95.22326667
C      72.49176918      86.19419745      91.80475177
H      73.79190087      87.60204355      91.05075097
C      72.99254665      83.41629977      91.36822500
H      74.74432293      82.68119624      92.16379977
H      73.08703297      83.12339219      89.33110003
H      71.41462517      82.31080988      92.09765935
O      70.39984214      86.61749614      90.33832415
H      70.26378186      88.42596423      90.39879540
C      74.26622219      86.55513518      96.28340314
O      75.54556689      88.44486149      96.65001004
N      74.71975649      84.32903758      97.40590057
H      73.36293301      83.07047986      96.93724844
C      76.83247051      83.73566352      99.04429328
H      78.31401594      85.09059729      98.58697951
C      75.91217380      84.37817046     101.73715327
H      74.80668390      86.11482895     101.83352932
C      73.69930428      82.53757704     102.67067807
H      74.29456808      80.56659249     102.60831711
H      71.92863073      82.74544693     101.63888751
H      73.45930904      83.02323670     104.65867015
C      78.25921388      84.63895270     103.48137066
H      79.61603738      85.80302410     102.45902873
H      79.08691400      82.81536680     103.95569197
C      77.98142411      86.18096937     106.05139845
H      79.73697986      86.53056873     107.07563011
H      76.77388899      85.17374524     107.38176577
H      76.92506710      87.88739223     105.59030523
C      77.62426584      80.87083843      98.57186170
O      76.12382315      79.56881700      97.31141425
N      79.74831821      80.00534378      99.61499063
H      81.00309649      81.18453299     100.43702157
C      80.40783269      77.28791734      99.82286052
H      78.95085371      76.09361031     100.65245037
H      81.85725279      76.99878921     101.25527307
C      81.35458558      76.37706925      97.26039164
O      82.80778512      77.53547148      96.04529762
N      80.39460462      74.15853056      96.42513261
H      79.48186680      72.98690025      97.62321909
C      80.51554710      73.07949684      93.82486920
H      81.87992949      74.21711208      92.78174028
C      81.17884104      70.19766421      93.94581169
H      79.73320041      69.17343255      94.99649952
C      81.38860066      68.96178320      91.42113733
H      83.36714410      69.06193870      90.86177834
H      80.14516074      69.74790935      89.97927616
H      80.95207387      66.95489387      91.59877161
C      83.65060306      69.60995933      95.46893109
H      83.52966057      70.49246152      97.32653206
H      85.31167249      70.62474236      94.79807825
C      84.21185177      66.80182604      96.01506200
H      83.75453799      65.47334844      94.50895013
H      83.23864271      66.11585539      97.69502869
H      86.21307194      66.53537463      96.42891206
C      78.00599055      73.90719696      92.53040668
O      76.41106154      72.32171659      92.04852647
N      77.51844116      76.36762063      92.10899771
H      78.79778588      77.68287014      92.64379026
C      75.43029359      77.07626799      90.46871527
H      75.54934635      75.69676778      88.94559586
H      75.83280530      79.01134774      89.88478984
C      72.77900757      77.00067894      91.57798462
O      70.84392782      77.03658375      90.22116112
N      72.55224041      76.94965634      94.10265897
H      74.05646257      77.00634812      95.27428928
C      70.09181675      76.90430290      95.24594339
H      68.85215630      75.51913351      94.35588230
C      70.38094489      76.26179595      98.11643766
H      71.44675052      77.76979755      99.03106519
H      71.30880050      74.42687170      98.21848288
C      67.73154859      76.17864799      99.22192755
N      65.73977705      74.66875667      98.29596166
H      65.86827845      72.91887010      97.54196086
C      63.59304796      75.42275747      99.47515088
H      61.75056481      74.75001491      98.90823298
N      64.12406105      77.28791734     101.10976414
H      62.71999441      78.16286062     102.05840675
C      66.58637444      77.86806332     100.81685656
H      67.49533281      79.55369919     101.52928338
C      68.71420628      79.38362383      94.98894061
O      69.50600160      81.30736521      96.08120242
N      66.60149225      79.43275670      93.66802192
H      66.14039904      77.92475510      92.59276765
C      64.79302417      81.51145565      93.61321986
H      65.65851883      83.24433468      92.91591085
C      62.68975879      80.86705897      91.62333805
H      61.56726135      79.41385944      92.55308339
H      63.49667193      79.92030610      89.98116588
C      60.88129070      83.05725177      90.98272083
H      59.83249260      83.85282655      92.56820120
C      62.05103130      85.45720419      89.76006790
H      63.65351921      86.11293922      90.87689615
H      60.65830301      86.97465442      89.73550146
H      62.61794919      84.68997531      87.93459228
C      58.92920342      81.87428310      89.22716508
H      59.89296384      81.42452824      87.46405043
H      57.49679088      83.25378331      88.68859308
H      57.94465601      80.22077258      89.96037889
C      63.81981512      82.08404272      96.23427025
O      62.31559298      80.73288841      97.29818617
N      64.58893373      84.25911771      97.08275737
H      65.81725583      85.21909867      95.98104693
C      63.49100274      85.71987615      99.04240355
H      62.88251088      84.43108280     100.53150789
C      65.22955096      87.70408877     100.18001879
H      64.16374531      88.82091703     101.54251146
H      65.64907020      89.21586983      98.84209256
C      67.46698690      86.53623792     101.37999500
H      68.51578502      85.34004116     100.07041467
C      69.48899406      88.31258065     102.24171020
H      70.68141137      87.46787299     103.69490974
H      68.59515351      89.75255210     103.41145079
H      70.46976202      89.07225063     100.59764831
C      66.71298610      84.89595547     103.65522548
H      65.51300989      86.09215224     104.82685580
H      68.34193020      84.33470676     104.78717154
H      65.71332089      83.19331207     103.07130005
C      60.95310030      86.88394755      98.11265821
O      59.02935891      85.76145012      98.57942061
N      61.04758663      89.21964928      97.06574983
H      62.71054577      90.15506380      97.08464709
C      58.70243626      90.52167071      96.33442575
H      57.25490592      89.16673694      95.77128730
C      57.70277104      92.12415862      98.49060347