 %block lattice_cart
   135.996   0.000   0.000
   0.000 142.663   0.000
   0.000   0.000   160.158
 %endblock lattice_cart

 %block positions_abs
N      91.21706721      42.34215350      79.68971638
H      93.04065310      42.76545219      80.06766165
H      91.12636035      40.95131493      78.38580522
H      90.31377803      41.70153628      81.24496113
C      89.79977248      44.48888259      78.69572034
H      90.61991370      46.26333560      79.34200673
C      90.43094106      44.70053194      75.95561719
H      90.00386292      42.89773303      75.05421774
H      92.46806603      44.90273265      75.73451920
C      88.99096961      47.05891037      74.75564098
H      86.97652136      46.63183223      74.79154578
H      89.50686490      47.12505079      72.76197972
S      89.42182721      50.10136974      76.28820902
C      86.92738848      51.70574738      74.75942043
H      85.19073000      50.66450818      74.38147516
H      87.57934406      52.59202902      73.01709277
H      86.46440553      53.11926266      76.18238435
C      86.99730835      44.21865173      79.15681357
O      85.81811913      42.57270011      77.94549900
N      85.69528692      45.85326499      80.46072471
H      86.67794461      47.30079534      81.22606388
C      82.86258718      45.51122452      81.06543713
H      82.15771927      44.31880722      79.54042801
C      82.62826112      44.02967909      83.59011150
H      84.04177640      42.55569257      83.85089373
H      80.84246975      43.01489606      83.74506905
C      82.99486802      45.62082865      85.88423924
O      81.32434996      47.12505079      86.30753793
N      85.02443408      45.59437248      87.25996000
H      84.91482996      46.51277947      88.92858833
H      86.14882124      44.06180444      87.10122299
C      81.33757805      47.98676599      80.92937685
O      82.47141383      50.03144986      80.87835424
N      78.79589616      48.06424477      81.20905633
H      77.80567957      46.44474932      81.00874535
C      77.36348361      50.36782115      81.18260016
H      78.14394058      51.36370691      79.55554582
C      74.53078387      49.65917378      80.78953710
H      74.21330985      48.53289690      79.09445260
C      73.58781044      48.04534751      83.08933402
H      71.61304644      47.55968785      82.75863192
H      73.64072277      49.14894768      84.82788222
H      74.72542568      46.34081438      83.30476282
C      72.92829595      52.02889058      80.33978224
H      73.24388025      53.35169900      81.88746809
H      71.03667991      51.21819799      80.40970211
C      73.04734871      53.22130788      77.66015033
H      74.74621267      54.36081285      77.41637563
H      71.61115671      54.66883824      77.36913247
H      72.96986993      51.76432889      76.20695079
C      78.02488782      52.24620910      83.24996076
O      78.12882277      54.49498342      82.78508808
N      78.43495843      51.20308018      85.47605836
H      78.30645704      49.31335387      85.70471524
C      79.49131544      52.66572834      87.48861688
H      78.18740428      54.25120872      87.33176959
C      78.94518453      51.35614801      90.06998302
H      80.16027855      52.21030430      91.49672639
H      79.46107982      49.36248675      90.05108576
C      76.23153755      51.45819323      90.96949274
C      75.32068947      53.15138801      92.79685808
H      76.57168828      54.61214645      93.48093902
C      72.91128842      52.74320712      93.79652331
H      72.17051570      53.67295247      95.45381329
C      71.29179297      50.83458355      92.92724921
H      69.40017693      50.93851849      93.68691919
C      72.09114720      49.25288262      90.99594891
H      70.90061962      47.77133719      90.25517620
C      74.50621742      49.53067239      90.08888029
H      75.08069422      48.23432014      88.62056294
C      82.16527817      53.71263672      87.19381956
O      82.88715362      55.46630274      88.61867321
N      83.61091880      52.81879618      85.37590286
H      82.86258718      51.35992746      84.40080407
C      85.91449518      53.97530868      84.46883423
H      86.91038094      54.96930472      85.97683583
C      87.57367488      51.70952683      83.82632727
H      86.94061656      50.94985685      82.01785919
H      87.39793033      50.28089374      85.29842407
C      90.30810885      52.60903656      83.73184097
H      90.93549799      53.80901276      85.28519600
H      90.74085618      53.64649630      82.00463112
C      92.33578519      50.48120473      83.59767040
O      91.70461660      48.38738797      82.50729831
O      94.62991293      50.96308494      84.04931499
C      85.44395332      55.80645348      82.11045578
O      86.40582402      57.97963874      82.11990442
N      83.98697434      54.97119445      80.28309044
H      83.15549476      53.26666131      80.48907062
C      83.10069270      56.65494059      78.12880245
H      84.49153126      57.11981326      76.68127209
C      81.18262049      55.15827735      76.49607891
H      79.60091956      54.91828211      77.79432089
H      81.88937813      53.26099213      76.11435420
C      80.18484500      56.52643920      74.10179568
H      81.65883152      56.85525158      72.70150847
H      79.53288942      58.41238606      74.60446288
S      77.46363910      55.03166569      72.33490158
C      78.21952963      54.62348480      69.03543943
H      76.75310201      55.26977120      67.74097690
H      78.30645704      52.62226464      68.55922840
H      80.11870457      55.28299929      68.58757429
C      82.02921788      59.17772522      78.84311899
O      83.16116394      61.06934126      78.26864219
N      80.05634361      59.22874783      80.47584253
H      79.67839834      57.62059074      81.43015432
C      79.08880373      61.63436943      81.45283104
H      78.72030710      62.81544837      79.80498969
C      76.42239991      61.03154673      82.77563945
H      76.07091081      62.44128256      84.23639789
H      76.51310677      59.09268754      83.46727929
C      74.29078863      61.02587755      80.86890560
H      74.81991199      59.89015204      79.23429234
C      72.04768349      59.78054791      82.19927293
H      70.48487983      59.54244240      80.87835424
H      71.44297107      61.02776728      83.72428206
H      72.40484176      57.91727777      82.99862716
C      73.35159465      63.66771494      79.92215272
H      74.92195721      64.47651780      78.86390599
H      73.26277751      64.78832264      81.64747285
H      71.67729713      63.38425599      78.75619158
C      80.87270537      63.07812033      83.28019638
O      80.90672045      65.41760150      83.09878265
N      82.51109809      61.66082559      84.50851848
H      82.33535354      59.76165065      84.43670888
C      84.55200250      62.84190454      86.16391873
H      83.69028731      64.31211161      87.31854150
C      85.34568756      60.86147136      88.16135945
H      85.58757252      59.05489301      87.20137847
H      83.77343526      60.73485970      89.48605758
C      87.82122903      61.37736665      89.70715557
H      87.48863720      63.04410526      90.87122697
H      89.31222309      62.02365305      88.44103894
C      88.79632780      59.03410602      90.97894138
H      90.30621913      59.45551499      92.31308816
H      89.53899024      57.81145309      89.49739595
N      86.77243092      57.57145785      92.42080256
H      86.29244044      55.97274939      91.49672639
C      85.40804852      58.18750863      94.38044874
N      86.01654040      60.07345549      95.81286128
H      85.15293547      60.17928017      97.50983552
H      87.53399063      61.15248922      95.38767286
N      83.40304891      56.97808379      95.02295568
H      82.62637139      57.53933251      96.67268676
H      82.93250705      55.42472876      94.01573156
C      86.48519252      64.29888353      84.58599726
O      87.44328376      66.25286054      85.44582272
N      87.03888233      63.38992517      82.25218527
H      86.19039522      61.73830437      81.80809957
C      88.73585656      64.79210210      80.51741650
H      89.79599302      66.09979270      81.70605436
C      90.53298629      62.95528812      79.21350535
H      91.07722746      61.62681052      80.68938161
C      89.23096486      61.25075498      77.32944821
H      87.70217627      60.18305962      78.20439150
H      90.59345753      59.92983629      76.53009399
H      88.43727980      62.29955309      75.74207811
C      92.88947500      63.93983553      77.72440101
H      92.33578519      65.16437818      76.16537681
H      93.92315529      62.40726749      76.81544265
C      94.63180266      65.35901999      79.45161087
H      96.30232072      66.13002832      78.52942443
H      94.82644447      64.31589106      81.22039470
H      93.54898948      67.04843531      79.91270409
C      87.44517349      66.45317152      78.51052716
O      88.56767092      68.37124373      77.93794009
N      85.06600806      66.04121119      77.91904283
H      84.08901956      64.53509932      78.56721896
C      83.61469825      68.15959438      76.68316182
H      84.95451421      68.81910887      75.26586708
C      81.28844516      67.17126752      75.22807255
H      80.02610799      68.67737939      74.61202178
H      80.19051417      66.11868997      76.61891112
C      81.81000962      65.61602277      72.84512768
O      83.88303939      65.73885498      71.77176313
O      80.16405801      64.21195612      72.02876591
C      82.97597076      70.52364200      78.13069218
O      82.96652213      72.66659164      77.06677626
N      82.27110284      70.25530087      80.57788774
H      82.32590491      68.59423144      81.51519200
C      81.49820478      72.58344368      82.09344825
H      80.88971291      74.03853294      80.76875011
C      79.51588188      71.79353808      84.05876362
H      79.07557565      73.38468764      85.28897545
H      80.20941144      70.19671935      85.16236378
C      77.03467123      71.15103114      82.93059701
H      75.67784774      71.09055990      84.48017259
H      77.01388424      69.30854798      82.01030030
C      75.89705599      73.12390541      81.14858510
O      76.78522736      75.32732629      81.31110156
O      74.06591119      72.58533341      79.72373146
C      83.85847295      73.58877808      83.50885326
O      84.40460385      75.85644966      83.63924438
N      85.17372246      71.82944288      84.79764660
H      84.57089977      70.01719535      84.82410278
C      87.24675223      72.46250120      86.57965852
H      88.56011201      73.99317951      86.16769819
H      88.60168599      70.92237425      86.76863115
C      86.18661577      73.12768486      89.16669384
O      83.99831269      73.16736911      89.72794255
N      87.95917905      73.13902322      91.06775852
H      89.77142658      73.13146431      90.47060500
C      87.28265703      73.63602124      93.65290411
H      85.25309097      73.65869796      94.00817266
C      88.23129964      71.31921678      95.13822898
H      90.19094582      71.16803868      94.52406794
H      87.27131867      69.54476377      94.71493030
C      87.97240713      71.61779354      97.98604655
H      89.05899976      73.27508351      98.54540554
C      85.34757728      71.95416482      99.13122069
H      84.81656419      73.80420688      98.39989661
H      85.56867526      72.11479156     101.17401484
H      84.11358600      70.38569198      98.62099459
C      89.12702991      69.32555552      99.28239880
H      89.53710052      69.72050832     101.26283197
H      90.99785896      68.84367531      98.56808224
H      87.83634684      67.72117788      99.32775222
C      88.69995176      76.09644490      94.52784740
O      91.03943294      76.10589353      94.74894536
N      87.21462688      78.02585547      95.15712626
H      85.34757728      77.85766982      94.80374744
C      87.88547972      80.42391816      96.48371413
H      89.90370742      80.63745723      96.83142376
C      87.20895770      82.56497807      94.70548167
H      87.82122903      84.24683449      95.72404415
H      85.16994301      82.78418632      94.51461930
C      88.77176136      82.61411095      92.16946895
H      88.63948052      80.73950245      91.33043047
H      90.71440001      82.97693841      92.75150466
C      87.80233176      84.28840847      90.13423372
H      87.73241189      86.27073137      90.68792353
H      85.86725202      83.70259331      89.74683982
N      89.24230321      83.88778649      87.75128883
H      90.84668085      84.91012842      87.58310320
C      88.76042300      82.33821091      85.86345225
N      86.97652136      80.74328190      85.77652484
H      86.70062132      79.59243858      84.27797186
H      86.29810962      80.17447428      87.46782989
N      90.05299580      82.27773967      83.90758552
H      89.57489504      81.12311689      82.46194489
H      91.32289188      83.65346043      83.54286834
C      86.35669113      80.81131205      98.94035833
O      84.03421749      80.21037908      99.10854398
N      87.58501324      81.70893205     100.86787917
H      89.44261420      82.09821567     100.68457572
C      86.50031033      81.96404510     103.49837820
H      84.74664431      80.91335727     103.74593234
C      88.48452296      80.91713672     105.55817988
H      87.42249677      80.92658536     107.32507399
H      90.00764237      82.26451159     105.88321280
C      89.61457930      78.28852742     105.01204897
H      90.77865071      78.36789593     103.31318502
C      91.33800969      77.48728347     107.15310889
H      90.35346229      76.80131281     108.82740641
H      92.57955988      79.07843302     107.55940005
H      92.54554481      75.96416406     106.46713824
C      87.72107353      76.20226957     104.56229412
H      88.83223260      74.48261863     104.35064476
H      86.64015008      76.53108195     102.83886372
H      86.49275143      76.16825450     106.21580463
C      85.58001362      84.64367701     104.05206801
O      84.41783194      85.06697571     105.94368404
N      85.93339244      86.39734303     102.22281294
H      87.31100292      86.11388408     100.93212987
C      85.04711080      89.11099002     102.17934924
H      84.00965105      89.30752155     103.94813307
C      87.39037143      90.93835536     102.22848212
H      88.48074351      90.97426016     100.48048528
H      88.59790654      90.29584842     103.76671934
C      86.60991446      93.69168660     102.91634250
H      85.60835951      93.87310033     104.70780303
H      85.67261021      94.71213881     101.39322309
C      89.10246347      95.18646011     103.30940557
H      90.17960746      95.18268066     101.55196009
H      90.23251980      94.11876475     104.65678043
C      88.69428258      97.81317969     104.12954679
H      87.10880221      97.94357080     105.43723739
H      88.46940515      98.89599287     102.39099857
N      91.07155828      98.74481476     105.40889150
H      91.53454123      98.10419754     107.14554999
H      90.86557812     100.53816503     106.03250119
H      92.74018662      98.55017295     104.50371259
C      83.40115918      89.78940176      99.94380301
O      84.05878394      89.29240374      97.80274309
N      81.14860541      90.99504715     100.41056540
H      80.73664508      91.62054656     102.16423142
C      79.18706950      91.57708286      98.33186645
H      78.14583030      89.84042437      97.95959038
C      77.06112740      93.28917490      99.27672962
H      77.91906315      95.10898133      99.71703584
C      75.15628328      93.79184209      97.16968478
H      74.19630231      95.53416976      97.70636705
H      73.80134951      92.33297338      96.63678196
H      76.10681561      94.56851961      95.51617426
C      75.57769224      92.56729944     101.71447656
H      76.90994929      92.09108841     103.20925007
H      74.32858315      90.96292180     101.37999500
C      74.01488858      94.52883536     103.26594187
H      73.14372475      93.53105986     104.84197361
H      72.74499250      95.80440062     102.26249719
H      75.20352643      95.84030542     104.31662970
C      80.37192790      92.73737481      95.88845034
O      81.96118773      94.47403329      95.88467089
N      79.61225792      91.72070206      93.75683906
H      78.38582555      90.25994362      93.84376647
C      80.34736146      92.68068302      91.25295168
H      81.12781843      94.57607851      91.46649077
C      82.33724327      90.84386905      90.36855978
H      83.93784145      90.58308681      91.64034559
H      83.13281804      91.54873696      88.60355540
C      81.38860066      88.20203166      89.84699532
C      80.50987792      87.49716375      87.43381482
H      80.48531148      88.87288450      85.92581322
C      79.56123531      85.13878531      86.80075650
H      78.76943999      84.60021331      84.99606787
C      79.53666887      83.26228708      88.76985131
O      78.86581603      80.83020931      88.40324441
H      78.94140508      80.43714624      86.63446058
C      80.39838407      83.82353579      91.23594415
H      80.41350188      82.28151912      92.57198066
C      81.35269586      86.27262110      91.72727300
H      81.73253085      86.77717802      93.66802191
C      77.99276247      93.06807692      89.58621308
O      75.86682037      92.36320900      90.38934676
N      78.25732416      94.09797776      87.32421068
H      79.98453401      94.59308605      86.67981402
C      76.35248003      94.15277982      85.32865969
H      74.62527018      93.67845852      86.34722219
C      76.06902109      96.79083775      84.21372118
H      74.44196673      96.81729392      82.94949428
H      77.75276723      97.24059262      83.11956964
C      75.63438403      98.82607299      86.28297149
H      77.10270138      98.77316066      87.72483267
H      73.89961528      98.21002221      87.20704765
C      75.50966210     101.45468229      85.28141654
H      75.70430391     102.70190166      86.90658117
H      73.89772555     101.82128920      84.05498417
C      77.84158437     102.26348516      83.64302383
H      77.87748917     101.13342882      81.92337289
H      79.64249354     102.02348991      84.61434316
N      77.71497270     104.94878625      82.97028126
H      77.92851178     105.85018570      84.63890960
H      75.95752723     105.35885686      82.35045102
H      79.25509965     105.39665138      81.93660096
C      76.73798420      92.30462749      83.20838678
O      78.83747013      91.93235140      82.32021540
N      74.67818252      91.32196980      82.25596472
H      73.09081242      91.80007056      83.20271760
C      74.25299410      89.94624905      79.88246847
H      75.74965734      88.53651322      79.78609243
C      71.53745739      88.95603246      80.19427331
H      70.20331061      90.51883612      80.06955137
H      71.02723128      88.40234265      82.11045578
C      70.76833878      86.94725339      78.22139904
O      70.11260375      87.81274804      76.14458982
O      71.14061486      84.64934619      78.55210115
C      74.58936538      91.70936370      77.47684686
O      74.65928526      94.06585241      77.67715786
N      74.54023250      90.60576353      75.17327049
H      74.32669343      88.71036804      75.10713008
C      74.69330033      92.13266239      72.78843588
H      76.32413414      93.31752079      73.20984486
C      75.30935111      90.65111696      70.39604238
H      76.08791835      91.70747397      68.81056200
C      77.47497746      88.76517010      70.79477463
H      78.88471329      89.60798804      72.03821454
H      78.02866727      88.03573575      68.94851202
H      76.80790407      87.16079246      71.90215425
O      73.36671246      89.04484960      69.40393606
H      74.26622218      88.35320977      67.98853106
C      72.30279654      93.68979687      72.34246048
O      72.34059107      95.45291152      70.77020819
N      70.29023802      93.02461321      73.77487303
H      70.65306547      91.49771435      74.85957593
C      67.98666164      94.63466003      73.88825660
H      67.83737327      95.85731295      72.23852553
C      65.59804759      92.88855292      74.02809635
H      63.98800077      94.16411818      73.89203606
H      65.42986194      91.74337877      75.73262949
C      65.23710986      91.08764374      71.76231449
H      63.95776515      89.60231886      72.38970364
H      66.97565807      90.15222922      71.18027880
C      64.10705352      92.50871793      69.38692853
O      65.41285441      94.06396268      68.20207013
O      61.97166279      91.70369452      68.74253185
C      67.79013011      96.50548908      76.15025900
O      65.90796270      97.87554066      76.53198372
N      70.02756606      96.92689805      77.34267630
H      71.56958273      95.92534310      76.82867074
C      70.23543596      98.66733598      79.47617731
H      69.25277827     100.42478145      79.04342999
H      72.17807461      99.09063468      80.01663903
C      69.07892345      97.71113447      81.91392425
O      69.39639747      98.89599287      83.86223208
N      67.66918762      95.53039030      81.90636534
H      67.67863626      94.37198807      80.38891512
C      66.46165251      94.43056959      84.19671364
H      65.32592700      95.98203489      84.93559663
C      64.67019197      92.32919393      83.32554981
H      63.67052675      91.59220067      84.96961169
H      65.99677984      90.87977385      82.70571958
C      62.60850056      92.70713919      81.29976319
C      61.43875997      90.44891625      80.33222333
H      61.79024906      88.57052829      81.05031933
C      59.70966039      90.73615465      78.28376001
H      58.82337875      89.01083452      77.65070169
C      59.20321374      93.11154062      77.25007971
O      57.65930734      93.36098450      75.25452873
H      57.26624427      95.09575325      74.89170128
C      60.39374132      95.31307178      78.34423125
H      60.10839265      97.17256247      77.55621538
C      61.93953744      95.12598887      80.43804800
H      62.96376910      96.68501308      81.26007895
C      68.40807061      93.48570643      86.05620433
O      70.20142088      92.23659734      85.40235903
N      67.85816026      93.99593254      88.37678825
H      66.14795794      94.65355729      88.90780134
C      69.56458312      93.37610231      90.39690567
H      71.54690602      93.79373182      90.02273987
C      68.85404602      95.31496150      92.64756971
H      69.29435225      94.37009835      94.42391244
H      66.85282586      95.78739308      92.50395051
C      70.36015789      97.73192146      92.60788546
C      68.98632686     100.01471084      92.66835669
H      66.94920190     100.07707181      92.78363001
C      70.21842842     102.36742010      92.60221628
H      69.20364539     104.13809366      92.53229640
C      72.74688223     102.45812697      92.16946895
O      74.11504408     104.65776839      92.14301278
H      72.99254665     105.94089256      92.75906357
C      74.22275848     100.29061088      92.10710798
H      76.24476563     100.51737804      91.92947371
C      73.03223090      97.85853312      92.21104294
H      74.09803654      96.14077190      91.91246618
C      69.40773583      90.66623477      91.42302706
O      67.38572868      89.55885515      91.41924761
N      71.60926699      89.60231886      92.03340866
H      73.10215077      90.76827999      92.29041144
C      72.04579377      86.82064173      92.14490251
H      70.29401747      85.97593406      92.82142452
C      72.79034593      85.44681070      89.66180214
H      74.83691953      85.22571272      89.67503022
C      71.96642526      82.70859727      89.26873907
H      72.63160892      81.62956354      90.89390370
H      72.80168429      81.71649095      87.67003061
H      69.92930029      82.47616093      89.07220752
O      71.80390880      86.84331844      87.63223608
H      72.04768349      88.63477899      87.77396555
C      74.14905915      86.30096699      94.15368159
O      75.68351692      87.96014669      94.72248921
N      74.36826740      84.00305979      95.06641939
H      72.86215553      82.85788565      94.81319606
C      76.42239991      82.95993087      96.66134840
H      78.10614605      83.96526527      96.03584899
C      75.75343679      83.74794674      99.39200292
H      75.11281957      85.70192375      99.51861459
C      73.42907343      82.42702805     100.37277088
H      71.86249031      83.27362544      99.34098031
H      73.50277275      82.55930889     102.42879310
H      73.27600560      80.40691062     100.00616398
C      78.13827140      83.67235769     101.06441071
H      79.74075931      84.24872421      99.90411875
H      78.58046736      81.68436561     101.36487720
C      77.99465220      85.01595310     103.58908507
H      77.64316310      87.01906299     103.26594187
H      79.77666411      84.90445924     104.61142700
H      76.56034993      84.11833310     104.76449482
C      76.74365338      80.17069483      96.41946343
O      75.01833326      78.87623231      95.51995371
N      78.82802150      78.99339534      97.37944440
H      80.17161691      80.23116607      97.93124447
C      79.13982634      76.25329218      97.62888827
H      77.44285212      75.48039412      98.50383156
H      80.83113139      75.90369282      98.75516516
C      79.67650862      74.89835842      95.04752213
O      81.14860541      75.98117159      93.58109451
N      78.56157009      72.69682726      94.56942136
H      77.70741380      71.80865590      96.02640036
C      78.42550980      71.44204899      92.21671210
H      80.07524087      71.77842027      91.03185371
C      78.62771051      68.60556979      92.81953481
H      76.93640546      68.02731354      93.84376647
C      78.81857287      67.03331750      90.45926664
H      77.32379936      67.20906205      89.05519999
H      78.84880849      65.04343569      90.98839000
H      80.46641422      67.37157851      89.27062878
C      81.04844992      68.30132386      94.55997274
H      80.38704571      68.40336908      96.51017030
H      82.40905287      69.83578162      94.35777203
C      82.58857687      65.81444403      94.41635353
H      84.27043328      66.08089544      95.58042495
H      83.17439202      65.54988235      92.46048681
H      81.49064588      64.22896365      95.13822898
C      76.16917658      72.62123821      90.79185847
O      74.31724479      71.38535720      90.42903102
N      76.25043481      75.10622831      90.18714605
H      77.92284260      76.00384831      90.37044950
C      74.45708454      76.36667576      88.41269304
H      73.96008652      75.28008313      86.73272635
H      75.21675452      78.18270275      87.80987035
C      71.84170332      76.68414978      89.74306037
O      69.97654345      77.07154368      88.41080332
N      71.61493617      76.46116208      92.19403540
H      73.20797545      76.00762776      93.13889855
C      69.20175566      76.81454090      93.54518970
H      67.77123285      75.60322633      92.68914369
C      69.39828720      75.69015374      96.20214490
H      70.83447920      76.89390940      97.05819093
H      70.20331061      73.80420688      96.00561337
C      67.04935739      75.61267496      97.73849240
N      65.43364140      73.67759522      97.81030200
H      65.57537087      72.23384432      96.56686208
C      63.53257673      74.28797682      99.40712074
H      61.82804359      73.25429652      99.84553724
N      64.02768502      76.61234018     100.21403387
H      62.79936292      77.72727871     101.15889703
C      66.25567234      77.42681222      99.27295016
H      67.18352796      79.24094948      99.40901046
C      68.20775962      79.53385706      93.35621708
O      69.30947006      81.22894157      94.58264946
N      66.07614834      80.00250919      92.10710798
H      65.21632287      78.43025690      91.44759351
C      64.82703925      82.30797529      91.55341818
H      66.08937643      83.64779125      90.63123174
C      62.71432523      81.63523272      89.79030352
H      61.76379290      80.07998797      90.75217421
H      63.63651167      81.02296140      88.05553477
C      60.90018797      83.73849811      89.27440825
H      59.93642755      84.13345091      91.05075097
C      62.25512174      85.95703680      88.03285806
H      63.78580005      86.84898762      89.08543561
H      60.92475441      87.51795074      87.85333406
H      63.07715268      85.38633945      86.23194888
C      58.86117328      83.02040211      87.43759427
H      57.38718676      81.97727319      88.42970057
H      59.55659256      81.88845605      85.86345225
H      57.91442040      84.60021331      86.51729755
C      63.93697816      83.47582615      93.96281923
O      62.80125264      82.22671706      95.45192356
N      64.57759538      85.89656556      94.31997750
H      65.53001744      86.76772939      92.91213140
C      63.66107811      87.45558977      96.37788946
H      62.74456085      86.59198484      98.00683353
C      65.83426337      88.94847355      97.65534444
H      64.92530502      89.97081549      99.19358166
H      66.50322649      90.31663540      96.26828533
C      68.01311781      87.33086783      98.56808224
H      68.70664737      86.15923752      97.02228613
C      70.12016265      88.90500985      99.65089543
H      70.80424358      90.16356757      98.16935000
H      71.51667040      87.66345966     100.52016953
H      69.39828720      90.21081073     101.06819015
C      66.96620944      85.49972303     100.61276611
H      68.52334392      84.73627360     101.72581492
H      66.11394287      83.89912485      99.63388789
H      65.63395239      86.38411495     101.90911836
C      61.53513601      89.12232838      95.31019409
O      59.41675282      89.34720581      96.40056617
N      62.01890595      90.51694639      93.28440748
H      63.79146923      90.40545254      92.58709846
C      60.15374608      92.35376037      92.27907307
H      58.36984444      91.35598488      92.01451139
C      59.61895353      94.42112096      94.23116036