 %block lattice_cart
   135.996   0.000   0.000
   0.000 142.663   0.000
   0.000   0.000   160.158
 %endblock lattice_cart

 %block positions_abs
N      84.89593269      38.95103962      80.77063983
H      86.38125758      38.02318400      80.01474930
H      83.41438727      38.26884843      79.77853351
H      84.65593746      38.43325462      82.59233599
C      84.83735117      41.65334825      80.42104046
H      86.17149796      42.46026140      81.77030505
C      85.39482043      42.36010590      77.66959895
H      84.03799695      41.70248113      76.26742203
H      87.09746385      41.30185917      77.19527765
C      85.69717664      45.23437962      77.21984409
H      83.83957568      46.12255099      77.27275642
H      86.31889661      45.68980365      75.30933079
S      87.93839205      47.04284769      78.94894367
C      87.11636112      50.25538244      77.96817572
H      88.32956540      50.72214484      76.37324670
H      87.27509812      51.57441139      79.54231773
H      85.10002314      50.34608929      77.55243592
C      82.31267682      42.62088813      81.11079057
O      80.47208339      42.28829630      79.78231297
N      82.24464667      44.12511027      83.20649705
H      83.99642296      44.53707060      83.84522454
C      80.01476962      44.89044942      84.58977671
H      78.60881325      43.40890401      84.32332530
C      80.57034916      44.96603848      87.51696277
H      80.96530196      46.88977987      88.14057245
H      82.08779940      43.66968624      88.02529914
C      78.10425632      44.45203292      88.91536025
O      76.23720673      45.80318724      88.51473826
N      78.13827140      42.85143473      90.70115160
H      76.53578348      42.74372033      91.72916272
H      79.58013258      41.73838594      91.27184895
C      79.15872361      47.64567040      83.79420193
O      80.70829919      49.18201789      82.94004564
N      76.66806433      48.01983620      83.87546016
H      75.64383267      46.61199010      84.65969658
C      75.52855935      50.61632015      83.63357519
H      76.00099094      51.41378467      81.79487149
C      72.62782947      50.58797426      83.85089372
H      71.83792388      49.15178227      82.60367435
C      71.66217932      49.99460020      86.53052563
H      72.35381915      48.18046295      87.21460656
H      69.60426736      49.94357760      86.45493658
H      72.25933283      51.40811549      87.90435666
C      71.60737726      53.31862879      83.23106350
H      72.45775411      54.84741737      84.31765612
H      69.61371600      53.33941577      83.74128959
C      71.75288618      54.07829876      80.55710077
H      70.36015790      55.54472638      80.15836850
H      71.31069023      52.47770058      79.34011701
H      73.56702345      54.89466053      80.02419794
C      76.84569860      52.53817181      85.34755696
O      77.26521784      54.65277556      84.53875410
N      77.58080213      51.92779022      87.68514842
H      77.34458634      50.06829953      88.05175531
C      78.64093859      53.86853914      89.49928567
H      77.46552884      55.55795447      89.50117540
C      78.55779064      52.73281362      92.09387990
H      79.46863873      54.08585766      93.35243762
H      79.54044832      50.92434555      92.01829084
C      75.81201830      52.49848756      93.02551497
C      74.25110437      54.56206870      93.79463358
H      75.08636341      56.42344911      93.89478907
C      71.79446017      54.12365219      94.67146659
H      70.63983739      55.67133804      95.33098107
C      70.71164699      51.73125869      94.51839877
H      68.85782547      51.33819561      95.27806873
C      72.09114720      49.69980289      93.66046301
H      71.22754228      47.84976083      93.70770617
C      74.63093937      50.13632967      92.70615122
H      75.76855461      48.51116504      92.22427101
C      81.43584381      54.55450980      88.66591637
O      81.92528293      56.82407110      88.39001632
N      82.97597076      52.73848280      87.73806075
H      82.37881725      50.94702227      87.45649152
C      85.44017387      53.24492945      86.41525233
H      86.70062133      54.28805838      87.66247169
C      86.81022545      50.80529278      85.81620908
H      88.80199699      51.17567915      85.44204327
H      85.74630953      50.13632967      84.18348555
C      87.13903783      48.75493974      87.84388542
H      85.36836428      48.41100955      88.83977119
H      88.42972090      49.54862480      89.23850344
C      88.48074351      46.39656130      86.82532294
O      87.59068242      45.23060016      84.99417814
O      90.13803348      45.31374813      88.16891834
C      85.15860466      54.83796874      84.05498416
O      86.81778436      56.25526347      83.38980050
N      83.13470777      54.40333168      82.56021065
H      82.11236584      52.88399174      83.10256210
C      82.67928373      55.69968394      80.27553154
H      84.48019290      55.73558874      79.27964577
C      80.62893068      54.15577754      78.88847242
H      78.85636740      54.05373232      79.92971162
H      81.34324722      52.27172041      78.45950455
C      79.84658398      55.63165379      76.63213921
H      81.62859590      55.81306752      75.61924590
H      78.92439755      57.37965063      77.21606463
S      77.78300286      53.48303498      74.74997181
C      78.94518453      54.17467481      71.60735694
H      80.86703619      53.43768155      71.50153226
H      78.76188108      56.10030591      70.89870957
H      77.88882752      52.95391161      70.32801222
C      81.86292196      58.59285492      80.65536652
O      82.55645152      60.13865105      79.18893891
N      80.76121153      59.31284066      82.79831616
H      80.17539636      57.82940550      83.84711427
C      79.89193742      61.80161021      83.43893338
H      79.42328529      62.67466376      81.63235503
C      77.41828568      61.58618140      84.78063907
H      76.90616984      63.31339125      85.78030428
H      77.36348360      60.20479146      86.30942765
C      74.98998737      60.84351897      83.22539431
H      75.32446891      59.07284541      82.22761882
C      72.69963906      60.22746818      84.81843360
H      70.99132649      60.03849555      83.68270809
H      72.41806985      61.82995610      86.08266050
H      73.22309325      58.61742136      85.99195364
C      74.38149549      62.90332065      81.17882072
H      72.59948357      62.42144044      80.26419318
H      76.02366765      62.89954119      79.93538080
H      74.40984139      64.73257571      82.12557360
C      81.83457607      63.39275977      84.92803772
O      82.24275694      65.59807036      84.22505953
N      83.37281329      62.26270342      86.57209961
H      83.12336941      60.37297711      86.68170374
C      85.62914650      63.26425837      87.87979022
H      85.18128137      64.93477644      88.99850820
C      86.86691724      61.14398544      89.43692470
H      88.79443808      61.57106359      90.02273986
H      86.93683712      59.27315640      88.57520950
C      85.24553207      60.69045114      91.84632575
H      83.38037218      59.97991404      91.33043048
H      85.02821354      62.33451302      93.07086840
C      86.67983433      58.72513576      93.55841779
H      87.95539960      59.94778869      94.61666452
H      87.83823657      57.41177597      92.47749434
N      85.09246423      57.24548007      95.20625913
H      84.50853880      55.49181404      94.73571728
C      83.91705447      57.71224247      97.41345947
N      84.41027304      59.78905168      98.69658363
H      84.07390175      59.86842018     100.57497159
H      85.70662529      60.96068200      97.92935475
N      82.49598027      55.89432575      98.35076372
H      82.06134323      56.09652647     100.19891605
H      82.96274268      54.10475494      97.88400132
C      87.65304339      64.31683592      86.18470573
O      89.27253884      65.79460191      86.99917776
N      87.75697833      63.36441387      83.84711427
H      86.52109732      61.96412667      83.45405119
C      89.44072447      64.33762291      81.90069616
H      90.94116716      65.34862649      82.88713330
C      90.65392877      61.97924448      80.39836375
H      91.13013980      60.44667644      81.68904682
C      88.63948052      60.77359910      78.61068265
H      87.90437698      62.18144520      77.30110233
H      87.08234604      59.78149277      79.52719992
H      89.40859912      59.22969269      77.48062632
C      93.04632229      62.60663361      78.89981078
H      92.76097361      64.34707155      77.83967432
H      93.39403193      61.01548406      77.63558388
C      95.24974316      62.87497476      80.57788775
H      94.86234927      64.56439008      81.68715709
H      97.02230644      62.89954119      79.52719992
H      95.12124178      61.22713341      81.80432012
C      88.29555032      66.23490813      80.08466918
O      89.31033337      67.02859319      78.12502299
N      85.99386368      67.21378637      80.74607339
H      85.06222861      66.25947457      82.11045579
C      84.92238887      69.51925246      79.41570606
H      86.44550827      70.27136354      78.24974493
C      82.88526389      68.64619891      77.59212017
H      81.96496719      70.35451149      76.90048034
H      81.55867602      67.34606720      78.48407099
C      84.03988668      67.31961104      75.28854380
O      84.87136625      68.64619891      73.49519352
O      83.52588112      65.03682165      74.91248826
C      83.80745033      71.47889865      81.17882072
O      84.18728533      73.73523187      80.80276518
N      82.29000011      70.70600060      83.02130388
H      82.08968911      68.81438456      83.20271759
C      81.08813418      72.35006248      84.81465414
H      79.89949633      73.77869558      83.92837250
C      79.16628252      70.66064716      86.47761329
H      78.45763514      72.05526518      87.81742925
H      80.19996280      69.23579351      87.54719839
C      77.06490686      69.46067095      84.87323566
H      75.83847447      68.17376733      85.91258514
H      77.96063713      68.27203311      83.45027174
C      75.22809288      71.10473285      83.62790601
O      74.86526543      73.36106607      84.21561090
O      74.08669819      70.14097243      81.83455574
C      82.99675774      73.75034969      86.51918727
O      82.55456179      75.80637191      87.56420592
N      85.38915126      72.59005772      86.81587430
H      85.69528693      70.94599584      85.89368786
C      87.34879745      73.58972295      88.66213691
H      87.55477762      75.61928900      88.39001632
H      89.16482443      72.67131595      88.33899372
C      86.39826512      73.11918110      91.44381405
O      84.77687993      71.46000140      92.00128331
N      87.86280301      74.28892169      93.19559034
H      89.24230322      75.37173485      92.44536899
C      87.66627146      74.15286138      96.02262090
H      85.75953761      73.46122155      96.37977917
C      89.52198270      72.20077410      96.97504297
H      91.45517272      72.74690501      96.52528811
H      89.01742579      70.49057179      95.94136267
C      89.46340120      71.54692880      99.89089067
H      90.05677526      72.98690025     101.23826553
C      86.91038094      70.34695260     100.88299698
H      85.36080537      71.68676855     101.10598468
H      87.19006044      69.36996409     102.67634725
H      86.44928773      68.83706127      99.56018856
C      91.56288713      69.49468603     100.18946742
H      91.55910768      68.00747141      98.76461378
H      91.35123778      68.54226397     102.00360468
H      93.43938535      70.34506287     100.20836468
C      87.77398587      76.79847822      97.37566494
O      89.27442856      77.13862896      99.06130081
N      86.36991921      78.67119700      96.44780932
H      85.29655467      78.27624420      94.91902073
C      86.41149320      81.39051317      97.27550945
H      88.37113939      81.86294475      97.69691841
C      85.87481093      83.09126685      94.94547690
H      86.03354794      85.01122879      95.67491126
H      84.02854831      82.72088048      94.10832815
C      87.70973518      82.86072024      92.80252726
H      87.94217151      80.90296378      92.20726348
H      89.52576215      83.74511216      93.21448761
C      86.46062609      84.20620537      90.63123174
H      87.85335437      84.61249652      89.16669384
H      85.72174309      85.93908441      91.46082158
N      84.57845868      82.55647430      89.46149114
H      84.08524010      81.04847270      90.52162760
C      83.60902907      82.87583804      87.25807027
N      83.38226192      85.12461235      86.14880092
H      82.27677202      85.25122402      84.59733561
H      83.99075378      86.73654891      86.97083186
N      82.33535353      81.08815696      86.12990365
H      80.98419922      81.48499949      84.84488976
H      82.16527817      79.46677177      87.12200997
C      84.47830317      81.98577696      99.39389264
O      82.29566929      81.19587135      99.29562688
N      85.41560743      83.27457030     101.41023062
H      87.22407551      83.86794436     101.27417033
C      84.39704495      83.26134221     103.96514059
H      82.63959947      82.18986739     104.05584746
C      86.39448565      81.91207762     105.55251070
H      85.44206360      81.88562146     107.38176577
H      88.00264275      83.12339219     105.97958884
C      87.15982482      79.19087174     104.93645992
H      87.92894342      79.23622516     103.02594662
C      89.15537581      78.30836955     106.79406090
H      88.30688869      78.57482096     108.65166186
H      90.84857057      79.41574916     106.40477728
H      89.55599779      76.32982610     106.38965946
C      84.93372722      77.49767696     105.05929213
H      85.60269034      75.60984038     104.57741192
H      83.42761535      78.24789831     103.87254402
H      84.48019290      77.39374202     107.06429175
C      83.38982083      85.88428233     104.81740716
O      82.18417544      86.00900427     106.76004581
N      83.81689897      87.91573813     103.49648847
H      84.80711555      87.40551201     101.94691289
C      82.71707826      90.47631727     103.64766658
H      81.84591443      90.55001660     105.51282645
C      84.68617307      92.69296624     103.32074393
H      83.74886883      94.51277269     103.10909458
H      85.70473555      92.41895593     101.55196009
C      86.48330280      92.92351285     105.49203946
H      87.17872207      91.02055845     105.86431554
H      85.72552255      93.78900751     107.20224177
C      88.71506958      94.50521378     104.62276535
H      88.21051264      96.16817294     103.51727546
H      89.72229370      93.14461083     103.44735559
C      90.65770823      95.31212691     106.66744922
H      92.01453172      96.50832367     105.68290181
H      91.62335837      93.67373419     107.45546511
N      89.41804776      96.92784291     108.67811802
H      90.81833495      97.52499642     109.82707163
H      88.21618183      96.05478935     109.87620450
H      88.64325998      98.53788972     108.00537545
C      80.46641422      90.44608166     101.86187521
O      80.59113616      89.23098764      99.87577285
N      78.52944475      91.89550173     102.35131432
H      78.25543443      92.65517171     104.08041391
C      76.38271565      91.81046405     100.62599420
H      75.89138682      89.83947951     100.29718182
C      73.97520434      92.98398409     102.03950948
H      73.55946454      91.70652911     103.60231314
C      74.49487907      95.54645297     103.18090418
H      75.09392231      97.02043950     101.87510330
H      75.81768749      95.17039743     104.71347221
H      72.82058156      96.23053391     104.16545158
C      71.66217932      92.79690120     100.29529211
H      71.50722176      91.03567627      99.23704537
H      71.39761764      94.46552952      99.11610288
C      69.30569062      92.73831967     101.91478755
H      67.56336296      92.13549699     100.99638056
H      68.96931933      94.61859736     102.68012670
H      69.68363588      91.36826810     103.40956106
C      77.00065616      92.87249024      97.98793627
O      77.71119325      95.10803648      97.72337459
N      76.56601910      91.30401740      95.97159829
H      76.03689574      89.48232124      96.19269627
C      77.14616509      92.17518123      93.37700406
H      77.72631107      94.14238633      93.18803143
C      79.11148044      90.32513918      92.16002032
H      80.74609371      90.31758027      93.41479859
H      79.69162642      91.33236329      90.46115636
C      78.48976049      87.63605863      91.66869148
C      77.54300760      86.85749139      89.31787194
H      77.19907742      88.28234502      87.89868748
C      77.31246099      84.27423552      88.75662323
H      76.61704171      83.63550803      86.94815515
C      78.02488781      82.43742155      90.53485569
O      77.65639119      79.97888760      90.04541657
H      77.41639595      79.51212521      88.30686837
C      78.57290844      83.24055522      93.09354512
H      79.18517977      81.81759132      94.42202271
C      78.89416193      85.78034740      93.53574107
H      79.50832297      86.26789677      95.42168793
C      74.60637291      92.40005867      91.84443602
O      72.60137330      91.57046881      92.62111355
N      74.62527019      93.41106224      89.48416786
H      76.24287591      94.40127883      89.27629796
C      72.74877195      93.46397457      87.53019086
H      71.01778266      92.54934705      88.17269780
C      72.12327255      96.27966679      86.65713729
H      70.83258948      96.15494485      85.05653911
H      73.89772555      97.04500594      85.93904130
C      70.97242922      97.99364856      88.80197666
H      72.16106706      98.22608489      90.46871527
H      69.16018168      97.28500118      89.48227814
C      70.59826340     100.61658868      87.86467242
H      68.66318367     100.66005238      87.16169422
H      71.95130744     101.19106548      86.42092151
C      70.99321620     102.64993419      89.96415835
H      73.01711309     102.67261090      90.34210360
H      70.12772155     101.69751213      91.57042571
N      70.19764143     105.21618251      89.39346100
H      68.40240144     105.48074420      88.80197666
H      71.11037923     105.90593263      87.86467242
H      70.60393258     106.14592787      91.00917699
C      73.34781519      92.15250452      85.11701035
O      75.40761688      92.04290040      84.07766089
N      71.48643478      90.92607215      83.91892387
H      69.91040304      90.74843786      84.98095005
C      71.40517655      90.05301859      81.23929195
H      73.03034118      88.86816018      80.79520627
C      68.95609124      88.57336288      81.05031932
H      67.43108211      89.90561994      81.43771322
H      69.12994606      87.15795787      82.53753393
C      68.42696788      87.31480516      78.50863743
O      69.82347563      85.49121926      77.80187979
O      66.79424434      88.29746284      77.24252080
C      71.50155258      92.46241964      79.46294922
O      71.21620391      94.65450216      80.30765689
N      71.73398893      92.14116615      76.87780362
H      71.79446017      90.34403644      76.23907613
C      71.30880050      93.86459656      74.74241290
H      72.43507738      95.52755572      75.19594721
C      72.01744786      92.77044503      72.19317209
H      71.55446493      94.20474730      70.78910544
C      74.85581679      92.38872031      71.97963302
H      75.58336143      91.42118043      73.64448190
H      75.71564226      94.25388018      71.82089602
H      75.19218808      91.30590713      70.26187180
O      70.80046413      90.65395156      71.34657471
H      71.77934235      89.33870203      72.12136249
C      68.70853709      94.89827686      74.42304914
O      68.29846649      97.00532168      73.62180519
N      66.76589845      93.43940813      75.13925543
H      67.19486631      91.75188254      75.91782266
C      64.11839188      94.32757951      75.33200750
H      63.85383020      95.29133993      73.53109833
C      62.44976355      91.88794284      75.16571158
H      61.90552237      91.17362628      77.01953310
H      63.47966438      90.34781589      74.26242241
C      60.05737003      92.19029905      73.51787024
H      58.86684246      93.83436094      73.86369016
H      58.82148902      90.61993648      74.01108881
C      60.74900986      91.97298052      70.71351639
O      61.13451404      93.96097260      69.37559016
O      61.04002772      89.86026650      69.67227719
C      63.50990000      95.90928043      77.72818048
O      61.35183256      96.79178262      78.10234628
N      65.45442838      96.03589209      79.46672867
H      67.05880602      95.08913920      79.04720943
C      65.57726059      97.53444506      81.76085643
H      64.38295357      99.20307340      81.58700160
H      67.52934787      98.06545816      82.14447087
C      64.76467829      96.29100514      84.22316980
O      64.63617690      97.67239507      86.18470573
N      64.08059736      93.83058148      84.07577115
H      64.09949461      93.13894165      82.29753870
C      63.05447597      92.36793332      86.11100639
H      61.83182305      93.73231571      87.05020037
C      61.57104082      90.06246721      85.08866445
H      60.42397693      88.94185952      86.38123726
H      63.19053626      89.06091226      84.30253831
C      59.59060763      90.72198169      83.05909839
C      58.85550410      88.78501223      81.32810910
H      59.68698368      86.92363180      81.41881595
C      56.98089559      89.14217050      79.49318485
H      56.40641880      87.88928196      77.98896270
C      55.69777143      91.56290990      79.56121500
O      53.68710264      91.98053943      77.80943870
H      52.89152785      93.59058624      78.08155929
C      56.37618318      93.49987938      81.21094607
H      55.18565560      95.14772072      81.39991869
C      58.36795472      93.10303685      82.98539907
H      58.75345887      94.62237681      84.29497940
C      65.05380641      91.61204279      87.99506352
O      67.16841016      91.00166119      87.38468192
N      64.25256244      91.73676473      90.37800840
H      62.41196902      91.97487025      90.82209409
C      65.90796270      91.42118043      92.53040668
H      67.70131298      92.31880043      92.05608537
C      64.85727486      92.93674094      94.64501042
H      65.66418800      92.30179290      96.43080179
H      62.85227526      92.49265526      94.78673989
C      65.21821259      95.72030779      94.42391244
C      63.26045613      97.23019912      93.33543008
H      61.85072031      96.30801268      92.18269703
C      63.47966438      99.93061803      93.34865817
H      61.93386827     101.13248395      92.77607110
C      65.83048393     101.05311545      93.95337059
O      66.21220863     103.64581995      93.84754592
H      64.67586114     104.30344471      93.14267800
C      67.92808012      99.47141453      94.66201796
H      69.56269339     100.48430783      95.34042970
C      67.59926775      96.81256961      95.02484542
H      69.20742485      95.72786670      95.65979345
C      66.19709083      88.61871632      93.09921430
O      64.39618164      87.20709075      93.48849792
N      68.73499326      87.92518675      93.29007665
H      69.90851330      89.42940891      93.25984103
C      69.86693933      85.43074802      93.32409173
H      68.49121856      84.03613001      93.96470895
C      70.54157161      84.54635611      90.58020912
H      72.07602938      85.76711930      89.94715082
C      71.32391832      81.83837831      90.12478508
H      69.72332013      80.55147469      90.27029400
H      72.96609048      81.46799194      91.31342293
H      72.02500677      81.80058378      88.18781561
O      68.53657200      84.92052191      88.86244790
H      67.94886711      86.58915026      89.26306988
C      72.17807461      85.05091303      95.09287556
O      73.57647207      86.85749139      95.59365303
N      72.29901709      82.85883051      96.30419012
H      71.04990799      81.43397687      96.06041543
C      74.30401670      82.43931127      98.14478355
H      76.02366765      83.32370318      97.43802591
C      73.50088303      83.67708201     100.62788393
H      72.47098218      85.41751994     100.24426948
C      71.75855537      81.85727556     102.16045198
H      72.77144866      80.23400066     102.92390140
H      70.25622295      81.20343026     100.91323260
H      70.86849428      82.96843463     103.65144603
C      75.87815873      84.42352390     101.91289783
H      76.65105678      85.95798167     100.77717230
H      77.13671645      82.79269009     101.87510330
C      75.49454429      85.36649732     104.56229412
H      74.35503931      84.06069645     105.67345318
H      74.80857364      87.30157707     104.39221874
H      77.35025552      85.47421173     105.44668602
C      75.02022299      79.59338345      98.40178633
O      73.53111865      77.83782770      98.17879862
N      77.30112265      79.08693679      99.26161181
H      78.42362008      80.62517401      99.40145155
C      78.26866252      76.46966584      99.53940157
H      77.02144315      75.57582530     100.90945315
H      80.21697035      76.48478366     100.20269552
C      78.05701317      75.05993002      96.92779982
O      78.65227696      76.10683839      94.90768239
N      77.65450146      72.57493992      96.93535871
H      76.91750819      71.80015212      98.51705963
C      77.79623093      71.13874791      94.52595766
H      79.18140032      72.03825765      93.29385611
C      78.54834200      68.30037900      95.21381804
H      76.88916230      67.41787680      96.05474625
C      79.17573115      66.79426713      92.89512385
H      77.56568433      66.72623698      91.61199969
H      79.49131544      64.78548806      93.22393623
H      80.61003342      67.81093988      91.81797986
C      81.02199375      68.15298035      96.80874705
H      80.97853004      69.73279154      98.12777601
H      82.78132894      68.15487006      95.73916196
C      81.05978828      65.69066695      98.28273357
H      79.42517501      65.57917310      99.53184266
H      82.64148920      65.65098270      99.59798309
H      81.18451022      64.06550232      97.02228612
C      75.38682988      71.37118426      93.01228688
O      73.70119401      69.81027031      92.92724920
N      75.08447367      73.63318666      91.99183469
H      76.56034992      74.82560396      92.19214566
C      73.00577474      74.61206488      90.34777278
H      72.75255141      73.59917157      88.57143005
H      73.54245701      76.55659325      89.92258436
C      70.43196749      74.99945877      91.52129282
O      68.59893297      75.14685742      90.09265973
N      70.38661407      75.17709305      94.04596718
H      71.97020471      75.25268211      95.10610364
C      67.86571917      75.44921364      95.24027421
H      66.82259024      73.74468051      94.73193783
C      68.09626578      75.43787527      98.22604178
H      68.95420151      77.21799746      98.80996722
H      69.27923445      73.83538737      98.74760625
C      65.40151604      75.13929853      99.39200292
N      63.94264734      73.04737150      99.63199816
H      64.20720902      71.35039726      98.80051858
C      61.66363741      73.72389352     100.60709694
H      60.02713441      72.52013786     100.79984903
N      61.58048944      76.31470828     100.79417985
H      60.14807690      77.42208790     101.40267171
C      64.09949461      77.13673923     100.36143252
H      64.73066320      79.06992926     100.18379824
C      66.61472034      78.03813869      94.46170697
O      67.64462119      80.00156433      95.17791324
N      64.52090358      77.94365237      93.16913417
H      63.58359934      76.30336994      92.90079303
C      63.05636570      80.06770475      92.62867244
H      64.43964536      81.53980155      92.22616075
C      61.05514553      79.51590466      90.65957763
H      59.59816654      78.39529696      91.58743324
H      61.93953744      78.60316685      89.03819246
C      59.43376036      81.84026803      89.78085489
H      58.43220540      82.82670517      91.28507704
C      61.02868935      83.75456078      88.37300879
H      61.65040931      82.87961750      86.61367359
H      62.77101702      84.35360402      89.29519523
H      60.12351046      85.50444735      87.77207583
C      57.52891623      80.67997607      87.91569502
H      55.67320498      80.30769998      88.72827734
H      58.21299716      79.00945802      86.92169898
H      57.11128671      81.94042352      86.34155300
C      61.73166755      80.83682336      95.08153720
O      60.39941049      79.22677653      96.16435037
N      62.10961281      83.20465042      95.82419964
H      63.06959378      84.42163417      94.71115084
C      60.92475442      84.13439578      98.22604178
H      60.39374131      82.62639418      99.52428376
C      62.73511223      85.86727480      99.60176254
H      61.61450452      87.12961198     100.78095176
H      63.57604043      86.89150647      98.02384107
C      64.68530978      84.63328352     101.40267171
H      65.55647361      82.92497094     100.64867092
C      66.71298610      86.43986188     102.05084784
H      67.60871638      86.90095510     100.25371812
H      67.94508767      85.39106376     103.32452337
H      66.04024355      88.16140255     102.95980620
C      63.24911778      83.90762862     103.75727070
H      61.76946207      82.61694555     103.13177129
H      62.39685121      85.55924941     104.64355234
H      64.25823163      82.71332159     105.09519693
C      58.49834583      85.42885829      97.37566494
O      56.65586268      84.74288764      98.37344043
N      58.54369925      87.46598327      95.89034006
H      60.21610705      88.14250528      95.27050983
C      56.34972700      89.00611020      95.09098583
H      54.69432675      87.79290592      94.92091046
C      55.61084402      90.79946048      97.29440671