 %block lattice_cart
   135.996   0.000   0.000
   0.000 142.663   0.000
   0.000   0.000   160.158
 %endblock lattice_cart

 %block positions_abs
N      90.65581850      42.17302299      79.75585680
H      92.53987564      42.45081276      79.65759103
H      90.18716638      40.84643512      78.46517373
H      90.35913147      41.60799483      81.55298653
C      89.18939088      44.49549663      79.17382110
H      89.82433891      45.84098177      80.59867474
C      89.79410329      45.54807419      76.56221933
H      89.01931550      43.98716025      75.46617807
H      91.80855155      45.97326261      76.47529192
C      88.28232225      47.87432728      75.78365209
H      86.29055071      47.39055734      75.58712056
H      88.78876890      48.58675410      73.92038195
S      88.90026275      50.67490168      77.83211542
C      86.94628574      53.07296437      76.20695079
H      84.98663955      52.53817182      76.55466043
H      87.27131866      52.76115953      74.19628199
H      87.27131866      54.94946260      76.99118721
C      86.35102195      44.22904522      79.71428282
O      85.44017387      42.19758944      79.29665331
N      85.01498546      46.10932290      80.47584253
H      85.88614929      47.79495877      80.26041373
C      82.32968437      46.06585920      81.32055019
H      81.26387872      44.89989806      79.99774177
C      82.26354394      44.67313091      84.02663827
H      83.30856259      42.90434708      83.90191633
H      80.37192790      44.11944110      84.62946096
C      83.56556536      45.89956328      86.22061052
O      84.31200727      48.13321978      86.17714681
N      83.70162566      44.47659937      88.30308892
H      84.32145589      45.19091592      89.96226862
H      83.27454751      42.62277786      88.16135944
C      81.21474584      48.72281439      81.46983857
O      82.57156932      50.67112222      81.40747760
N      78.74298382      48.95714046      82.07833044
H      77.67528846      47.41701351      82.44115789
C      77.33513772      51.31929835      82.25974417
H      77.58269187      52.39644235      80.52308569
C      74.43440782      50.83930786      82.18793457
H      74.01677831      49.77728168      80.47206308
C      73.37805081      49.31240900      84.39891435
H      71.52989849      48.58108492      83.86601153
H      73.37616110      50.45002424      86.11667557
H      74.72731540      47.76472315      84.55765136
C      72.87916307      53.21469384      82.21250101
H      73.56135427      54.47703102      83.69215671
H      70.91384770      53.06351574      82.80209562
C      72.57491713      54.54695089      79.64247322
H      74.45708455      55.03072083      78.95839230
H      71.78312180      56.41777994      79.98451369
H      71.75477591      53.39988702      78.14203053
C      78.21386046      53.12776643      84.36678901
O      78.33858238      55.39165855      83.99829238
N      78.79211670      52.16967519      86.64012976
H      78.36881800      50.33664067      86.96138323
C      79.62170656      53.63988226      88.79252803
H      78.28189059      55.14788386      89.21015755
C      79.48753598      51.92401077      91.19248045
H      79.53288941      53.00304449      92.94614647
H      81.15994378      50.73348319      91.36822500
C      77.15372398      50.37821464      91.28885649
C      77.19529796      47.84598139      91.07720714
H      79.01888386      46.93513330      91.20381881
C      74.99565655      46.34742842      90.87311670
H      75.14494491      44.31975209      90.68414407
C      72.61271165      47.61165532      90.80508656
H      71.00077511      46.36632568      90.68603380
C      72.61460139      50.28939751      90.76351258
H      70.83825866      51.29662163      90.73327696
C      74.85770652      51.74826622      90.99027973
H      74.70274896      53.78350146      90.91091123
C      82.08779940      54.94568314      88.10844711
O      82.58857686      57.05083826      89.20637809
N      83.62792633      54.03861451      86.34344273
H      83.39171054      52.30384576      85.57999330
C      85.88614929      55.37654074      85.48172753
H      86.51542815      56.79572520      86.83855102
C      87.93083316      53.29595207      85.19259941
H      87.20328853      51.88810597      83.87357044
H      88.01209139      52.31140466      87.00106749
C      90.57833971      54.16711590      84.34978147
H      90.99407951      56.06818057      85.02252404
H      90.75219454      54.33152209      82.30509760
C      92.74774552      52.52683346      85.26440901
O      93.59056347      50.91678664      83.82254783
O      93.72851348      52.92745544      87.41113810
C      85.54977799      56.97335948      83.03264223
O      86.82534325      58.95190293      82.64902779
N      83.82823733      56.31006554      81.36023444
H      82.87014609      54.68868036      81.67770846
C      83.08179544      57.75759590      78.96028203
H      84.70696007      57.92389181      77.70550375
C      80.80467522      56.57840668      77.71117293
H      79.07368592      57.35886364      78.50863744
H      80.93884579      54.55073034      78.04565449
C      80.63459986      57.08107388      74.88603209
H      82.26732340      56.19857169      73.98841210
H      80.78199851      59.08607349      74.44383614
S      77.78300285      55.62787434      73.63125382
C      78.37448718      56.51415598      70.38092456
H      78.54267282      58.56828849      70.34313004
H      76.80223489      55.84141342      69.23386069
H      80.18106554      55.65810996      69.88203682
C      82.57534879      60.43155863      79.76530543
O      83.46729960      62.29293905      78.75241213
N      80.82546222      60.71123812      81.57377352
H      79.85792234      59.31850983      82.45249625
C      80.35492036      63.13764671      82.67926341
H      80.00910045      64.57572843      81.24496114
C      77.88315834      63.04316039      84.04364581
H      77.58458158      64.74202435      85.16992269
H      77.91906314      61.31028137      85.15291515
C      75.48509565      62.76915008      82.35800994
H      75.37360180      61.05138886      81.22795360
C      73.34970492      62.65576650      84.28175132
H      73.44419124      64.07684069      85.77274538
H      73.34970492      60.88320322      85.32676997
H      71.51667040      62.54427265      83.34822652
C      75.13549629      65.18988949      80.83489053
H      75.38871961      66.87552536      81.99140303
H      73.24010080      65.19933812      80.03364657
H      76.48476087      65.20878675      79.27775605
C      82.34480217      64.19967290      84.42159107
O      82.39015561      66.60529449      84.55576164
N      83.95484899      62.80505488      85.79731183
H      83.77721471      60.90776966      85.69148715
C      86.22441029      63.98424410      87.09555380
H      85.37403346      65.42421555      88.29364029
C      87.63603584      62.24002671      89.03819245
H      89.49552655      62.84284941      89.68447885
H      88.08012154      60.49202987      88.04608614
C      86.04488629      61.68255745      91.24917224
H      84.13437299      61.30650191      90.57642967
H      85.98630477      63.44189265      92.31686761
C      87.16549400      59.49992356      92.82331426
H      88.85679905      59.97802431      93.89289935
H      87.85713383      58.03727539      91.54774900
N      85.42127661      58.24136583      94.57509055
H      84.90538132      56.41589021      94.35966175
C      84.39326549      59.25614886      96.59898743
N      85.10947176      61.32728890      97.62888827
H      84.34980178      61.64476292      99.35042894
H      86.50786924      62.39309454      96.88433610
N      82.91360979      57.83129522      97.91234722
H      82.33913299      58.47569190      99.61310090
H      82.32401518      56.16833607      97.18102314
C      88.04610646      65.18422031      85.28141654
O      89.03821278      67.11363087      85.92770294
N      88.33145513      64.06928178      83.05531895
H      87.79477286      62.24569589      82.88902303
C      89.83756700      65.39964911      81.14858510
H      91.66304263      65.97412591      81.91203453
C      91.00919731      63.48913580      79.11334986
H      89.38781214      62.51025757      78.30076754
C      92.37168999      65.26925799      77.19338792
H      93.34678876      64.23746742      75.70050414
H      93.75119019      66.44088831      78.17604561
H      91.01675622      66.52781572      76.28253984
C      92.94994624      61.78838212      80.36812813
H      92.39436670      60.86808541      82.12368387
H      94.45983757      63.07528574      80.91236931
C      94.06299504      59.83629484      78.70327925
H      95.00785819      60.72257648      77.10079133
H      92.57578043      58.53616314      78.12124354
H      95.49540758      58.73836385      79.69538556
C      88.40137501      67.65031315      79.93727053
O      89.43316558      69.71956346      79.74829790
N      86.02787876      67.41598708      79.19460809
H      85.37214373      65.66610052      79.59145061
C      84.48775181      69.34161820      77.78865171
H      85.63481568      70.20333339      76.31277546
C      82.03488705      68.23801803      77.00630502
H      80.61948204      69.72523264      77.18204956
H      81.27143763      66.85662809      78.33100316
C      81.73442058      67.01725483      74.32667311
O      83.14226668      68.04715567      72.68450094
O      80.33035392      65.14075660      74.03754498
C      83.86792159      71.61117950      79.53286910
O      83.85658322      73.67476063      78.50674771
N      83.12714886      71.30693356      81.91770371
H      83.01943447      69.50224493      82.52619558
C      82.76999059      73.33460989      83.83955537
H      82.05567405      74.98245124      82.83233124
C      80.66105602      72.56171183      85.76518648
H      80.26232377      74.08294151      87.09555380
H      81.23931228      70.91198076      86.85555856
C      78.10425632      71.93810215      84.61623288
H      76.92695683      71.44677331      86.23383860
H      78.50676803      70.48112316      83.21972513
C      76.50176842      74.23789907      83.33310871
O      77.29734319      76.39785625      83.58066286
O      74.73676403      73.86373326      81.67203928
C      85.06411834      74.29459086      85.37401313
O      84.57089976      75.91219659      86.96516269
N      87.36769471      73.17587288      85.21338640
H      87.53399063      71.58283360      84.17403692
C      89.44639365      73.92798396      87.00862639
H      89.99063483      75.89707878      86.76296197
H      90.83156304      72.49368169      86.49084138
C      88.64137025      73.91664560      89.91124601
O      86.80644600      72.70722076      90.76540230
N      89.94150195      75.53992050      91.44948323
H      91.49674670      76.36762063      90.71815914
C      89.05333058      76.36384117      94.00061375
H      87.06533850      75.85928425      94.18769666
C      90.52731710      74.82749368      96.08876133
H      92.50775029      75.13929852      95.62010920
H      89.95473003      72.86595777      95.81853046
C      89.98118621      75.57393558      98.80051859
H      89.95284030      77.60539136      99.13688987
C      87.52643172      74.33238539      99.53562212
H      85.86725202      75.10150400      98.58886924
H      87.16549400      74.54592446     101.55384982
H      87.65304339      72.34439331      99.01594739
C      92.11279749      74.67442585     100.66189900
H      92.15059200      72.61462417     100.60520721
H      91.74430085      75.17520332     102.62532464
H      93.90803748      75.47566981     100.04206877
C      89.40104023      79.13984913      94.72437893
O      91.47784945      80.13573490      94.66201796
N      87.40548924      80.50234180      95.67491126
H      85.69339720      79.65952386      95.68058044
C      87.78532422      82.93630929      96.86921829
H      89.76197795      83.15173809      97.41534920
C      86.79888709      85.09059729      95.23838449
H      87.23163442      86.80079960      96.30041067
H      84.74475458      84.98288289      95.16090571
C      87.91193589      84.83548424      92.47749434
H      88.24641744      82.87394832      91.94648125
H      89.85646426      85.50255762      92.61355464
C      86.32267606      86.13372621      90.47816390
H      86.13937261      88.05935733      91.18681127
H      84.39137576      85.41940967      90.42525157
N      87.59446186      86.20931527      87.98939435
H      88.05177563      87.86660524      87.15980450
C      88.11035716      84.24777935      86.43981877
N      87.59446186      81.96498997      86.79886677
H      88.11602634      80.64974045      85.51952206
H      86.70818022      81.45665359      88.41080332
N      89.28009774      84.65407051      84.39324518
H      89.80922110      83.06859013      83.46916901
H      90.25708624      86.21876390      83.89813688
C      86.52487677      83.06481068      99.44302553
O      84.50097990      82.06514546      99.63577762
N      87.63603584      84.32714786     101.24204498
H      89.50875462      84.64462188     101.04551345
C      86.75353365      84.41785472     103.88955155
H      85.21529644      83.07236959     104.15033378
C      88.78687917      83.68275118     105.81896211
H      88.08390098      83.74133270     107.75404186
H      90.30054995      85.06414112     105.59975386
C      89.95473003      80.94831721     105.61487167
H      90.74274590      80.69320416     103.72892481
C      91.90114813      80.33226643     107.71435760
H      93.31844288      81.78735569     107.37609659
H      92.61924414      78.43498121     107.36475824
H      90.95250552      80.60060757     109.52471541
C      87.83634684      78.93575869     105.70179908
H      88.68672367      77.05926046     105.73203470
H      86.75920283      79.12851077     103.95758169
H      86.60802474      79.35338820     107.30050754
C      85.38915126      86.94630853     104.53205849
O      83.69595648      86.92930099     106.19879710
N      85.71040473      88.85682183     103.13555075
H      87.07667686      88.80579922     101.80329370
C      84.24019766      91.14150094     103.10720485
H      83.21974545      91.16228793     104.89677567
C      86.06945273      93.45452595     103.16011719
H      86.69873159      93.73231572     101.21936827
H      87.59068242      92.90083614     104.43190300
C      85.03766217      96.20029828     103.83663921
H      83.37092356      95.97731058     105.02527706
H      84.16649833      96.93162237     102.11887799
C      86.69117269      97.84436017     105.57707714
H      86.63070144      96.92406346     107.41956030
H      85.76331708      99.61881318     106.05706763
C      89.27442856      98.21474653     104.48481534
H      88.88892440      99.55645221     102.96925483
H      90.32889585      96.52155176     103.97080978
N      90.87124730      99.37125904     106.33107794
H      90.24952733     101.16082985     106.55406565
H      92.61357496      99.34102341     105.55062098
H      90.86935757      98.41127807     107.98080901
C      82.35236108      91.05646326     100.87543808
O      82.95140432      89.92262747      98.91201244
N      80.23964705      92.32257989     101.25905252
H      79.76910521      92.81201900     103.04106443
C      78.24598579      92.61548747      99.34098031
H      77.19340825      90.85804200      99.12177206
C      76.15594850      94.42773500     100.42757294
H      77.17451098      95.88282426     101.46881214
C      74.33047287      95.65605710      98.33753564
H      73.05679734      94.22742401      97.57408621
H      75.35659426      96.68973740      96.88055665
H      73.10026104      97.07335184      99.18413303
C      74.46653317      92.83469572     102.24737938
H      75.43407305      91.89550174     103.80451386
H      73.68796593      91.28700987     101.13433058
C      72.29712736      94.25765963     103.65333576
H      72.92073704      96.06045854     104.42812355
H      71.91729238      92.91217450     105.16700653
H      70.59637369      94.49198570     102.51949997
C      79.23053321      93.56601980      96.69347375
O      80.98986840      95.03622687      96.59709770
N      78.02866728      92.84603408      94.56942137
H      76.79656571      91.39094482      94.62800289
C      78.47842214      93.89105273      92.14679224
H      79.04345030      95.82802220      92.55875257
C      80.66672520      92.41706620      90.96760302
H      82.31456655      92.64005391      92.18080731
H      81.09380335      93.04823479      89.05331026
C      80.02232853      89.72231648      90.36289060
C      79.41194694      88.94563897      87.96482791
H      79.02455303      90.12860764      86.34722218
C      78.89983111      86.34915501      87.54908812
H      77.92473232      85.91451796      85.81053991
C      79.12470853      84.62194516      89.67880967
O      78.45196596      82.15396260      89.30842332
H      77.97197549      81.87617283      87.57932374
C      79.95051894      85.44964529      92.03340866
H      80.13382239      84.11738824      93.56786642
C      80.43050942      87.92518676      92.34332377
H      80.95018416      88.72265126      94.14801240
C      76.19941221      94.04223083      90.34210361
O      74.41362084      92.58336212      90.57076049
N      76.42239990      95.74298451      88.51662799
H      77.94173987      96.89571757      88.59977595
C      74.56668867      95.78266877      86.31509684
H      72.71475688      95.27622212      87.06342846
C      74.34370096      98.51710274      85.17181242
H      73.24765971      98.50954384      83.42948476
H      76.20886083      99.28811108      84.75985208
C      73.17207065     100.52777154      86.90658117
H      74.31535507     100.87926063      88.58276841
H      71.35037449      99.72085840      87.42436618
C      72.90939869     103.01843082      85.40802821
H      72.10815473     102.44017457      83.60144985
H      74.71597705     103.99352960      85.23417338
C      70.78723605     104.46029200      86.64579894
H      71.49021423     104.86847288      88.53930471
H      69.15073306     103.22252126      86.83288185
N      70.57936614     107.03787869      85.42881519
H      72.24799448     107.93738841      85.66125153
H      69.07703372     107.99974938      86.10722694
H      70.32992228     106.91504648      83.54097861
C      75.14305520      94.10270207      84.04175608
O      77.27466648      94.08947399      82.99862716
N      73.29490286      92.72320187      83.14035663
H      71.62627452      92.59092102      84.05876362
C      73.34214601      91.40795235      80.74985284
H      74.93707502      90.10215147      80.71205832
C      71.03290046      89.68641168      80.59678501
H      69.28112416      90.76544541      80.47773225
H      70.85904564      88.64706221      82.36745857
C      71.17085049      87.92707648      78.37257714
O      69.37561048      88.22376352      76.72095634
O      72.86026580      86.25088924      78.33100316
C      73.61426660      93.17106700      78.58800594
O      73.63694333      95.49354064      78.76564022
N      73.86371048      92.12415863      76.30521656
H      74.04323448      90.23443231      76.10490557
C      73.60103852      93.64349858      73.96195593
H      74.65550581      95.40472350      74.13581075
C      74.52322496      92.23754220      71.66593846
H      74.24354546      93.41862115      70.00108958
C      77.24065140      91.56857909      72.02498646
H      77.59969940      90.26844739      73.58401066
H      78.14016112      93.39594443      72.32923239
H      78.04378508      90.78623240      70.29588688
O      73.29490286      89.87349459      71.41838431
H      74.42495919      88.80579922      70.48485951
C      70.93085525      94.47686788      73.66148944
O      70.48865928      96.49320586      72.49930776
N      69.04490838      93.11626494      74.60257315
H      69.32458787      91.39850372      75.38680957
C      66.58448472      94.30112334      74.78209715
H      66.04402300      95.25354540      73.03976949
C      64.45665289      92.32069016      75.01453348
H      64.30169534      91.95408326      77.03654064
H      64.85160569      90.45742002      74.22840734
C      61.92064018      93.12382384      73.90337441
H      61.30080995      94.87182068      74.79910468
H      60.65641327      91.56290991      74.35501900
C      62.18898131      93.26744304      71.03854932
O      63.13762392      91.47598250      69.77054297
O      61.55403328      95.34047281      70.05589164
C      66.35960729      96.26454898      76.87969335
O      64.38484329      97.27366283      77.31055095
N      68.30980485      96.89571757      78.24407575
H      69.90095440      95.97353112      77.72440102
C      68.52145420      98.74198017      80.37757676
H      67.77501229     100.57879415      79.82010750
H      70.51511546      98.73631099      80.88780286
C      67.41218484      98.03522253      82.90603057
O      67.68808488      99.28811108      84.76741099
N      66.05914080      95.93384687      82.88902303
H      65.92308051      95.09291866      81.18260017
C      64.72688375      94.90961521      85.12078981
H      63.70076236      96.31179213      86.23005915
C      63.10549857      92.74965803      84.45749587
H      62.22299639      92.18085041      86.23005915
H      64.14673777      91.04323517      83.95860812
C      61.13451403      92.98965328      82.38635583
C      60.54869887      90.87882898      80.99929672
H      61.41986270      89.07791981      81.40369815
C      58.72700271      91.03378654      79.05098889
H      58.08827521      89.39917328      78.00785996
C      57.64796898      93.48854102      78.42359975
O      56.02847353      93.77388970      76.42426931
H      55.45021729      95.48787146      76.28065011
C      58.29047593      95.61259340      79.84089449
H      57.72922722      97.48531218      79.25129988
C      60.08193647      95.37448788      81.82510712
H      60.53736051      97.01099087      82.95516345
C      66.78668543      93.89294245      86.96516269
O      68.73688300      92.86682107      86.18659545
N      66.28023878      94.20285757      89.51440348
H      64.40374055      94.25199045      89.86211313
C      67.83359382      93.61326296      91.70648601
H      69.76678383      94.00632603      91.10933249
C      66.98699643      95.09480839      94.02518019
H      67.96020547      94.26710826      95.64278592
H      64.95176118      94.93040220      94.28218297
C      67.59359858      97.94829512      93.75683906
C      65.51300990      99.43173028      93.11433211
H      63.58926852      98.76087744      93.01417662
C      65.87772709     102.09624438      92.85732933
H      64.22610629     103.28299250      92.67780533
C      68.27012059     103.18472674      93.18047253
O      68.42885761     105.76798260      92.94236702
H      66.88684093     106.24797309      92.11466689
C      70.36960652     101.58790800      93.73983152
H      72.23287667     102.27954783      94.19147611
C      70.05780169      98.94607061      93.89100962
H      71.69808412      97.83680127      94.38422819
C      68.06225070      90.84859336      92.41513337
O      66.13284013      89.52389522      92.48883270
N      70.38094489      90.12482819      93.05575059
H      71.68863549      91.50621812      93.20692870
C      71.38061011      87.47543190      93.20314925
H      69.83670371      86.22632280      93.75872878
C      72.25555338      86.75733590      90.47627418
H      74.08291873      87.52267505      89.91691519
C      72.34248080      83.85282655      90.30430908
H      70.66062437      83.19331207      91.29641540
H      74.10937490      83.16118672      91.10366331
H      72.24421503      83.36905662      88.30308892
O      70.38472434      87.33181270      88.73394652
H      70.43763667      89.07036090      88.21994096
C      73.53489810      87.36960722      95.12689063
O      74.56668867      89.33492259      95.96214966
N      74.10937490      85.04524386      96.08687160
H      73.03790009      83.54102171      95.60310166
C      76.27122180      84.65784996      97.76872802
H      77.87937890      85.78979602      97.16401560
C      75.81390803      85.48555009     100.58442023
H      74.96731064      87.36393804     100.60898667
C      73.74087826      83.92841561     102.00171496
H      71.99288142      84.14762386     100.93590932
H      73.38749945      84.79768971     103.83474948
H      74.08102901      81.89884955     102.10942936
C      78.14960976      85.88239261     102.20202595
H      79.67083944      86.59481943     101.01149837
H      78.87148520      84.00778411     102.65367054
C      77.71686243      87.20898048     104.73236948
H      79.19273868      88.64517248     104.69079550
H      77.85670217      85.97687893     106.37832110
H      75.84036421      88.05368815     104.85898115
C      76.89483148      81.74956117      97.52873278
O      75.39249906      80.26612601      96.58953880
N      79.10014209      81.22232753      98.49816238
H      80.32090530      82.49222361      99.23704536
C      79.71808259      78.56159288      99.01216793
H      77.97764466      77.72444412      99.72837421
H      81.32434996      78.36317161     100.28773319
C      80.25287515      77.34649886      96.44969905
O      81.28655543      78.62773330      94.78485017
N      79.48564626      74.96544370      96.21915244
H      78.66928449      74.23034017      97.77817665
C      79.85225316      73.43098594      93.87022263
H      81.49442534      74.12829495      92.84221152
C      80.36625872      70.69088278      94.65823851
H      78.85825712      69.69877647      95.65034482
C      81.12781843      68.96934211      92.30552925
H      81.77221509      67.09662334      92.87055742
H      82.73786524      69.90664636      91.42869624
H      79.50454353      68.65186809      91.07531742
C      82.38826588      70.34695259      96.68780457
H      81.87803978      71.60928977      98.23549042
H      83.99075380      71.13307874      95.66168318
C      83.01754474      67.68621795      97.83297871
H      83.64871333      67.97534607      99.77372764
H      84.36114014      66.79993630      96.54796482
H      81.35269585      66.48435201      97.68558006
C      77.33513772      73.61428939      92.21860184
O      75.77989297      72.02502956      92.12222580
N      76.69452049      75.85550480      91.28885649
H      78.04378508      77.19721048      91.42491679
C      74.40039275      76.33549528      89.86589258
H      74.07535982      74.93709781      88.38623687
H      74.63660855      78.08727157      88.80953557
C      71.99855061      76.57171107      91.23405443
O      70.06158113      76.02746989      90.10210837
N      71.95130746      77.26713035      93.58865341
H      73.54812619      77.39752147      94.62611316
C      69.72898930      77.62617835      95.19303105
H      68.25311306      76.32604665      94.57887000
C      70.22598733      77.34082968      98.00872326
H      71.40139709      78.90552307      98.64556103
H      71.48265532      75.76101848      98.40934524
C      67.83548355      77.08193717      99.51861458
N      66.25378262      75.05993002      99.37310566
H      66.70164775      73.38752223      98.57375143
C      64.10894325      75.71566505     100.53339761
H      62.56314713      74.42498198     100.86976890
N      64.34137958      78.01735170     101.46692241
H      62.89762869      78.92631006     102.32485816
C      66.73755256      78.96032513     100.99827029
H      67.44997937      80.85383089     101.27228060
C      68.45342405      80.17163970      94.68091522
O      69.12427689      82.10860917      95.81853046
N      66.58826418      80.18108833      92.94803619
H      66.16685520      78.54647507      92.05797510
C      64.94798173      82.41096538      92.55686285
H      66.10449424      83.91896697      91.76317780
C      62.88251088      81.74200226      90.72004887
H      61.58615862      80.64596100      91.88601001
H      63.35116299      80.36817123      89.25929043
C      61.38962709      84.00022521      89.60511035
H      61.08727088      85.26445211      91.20381881
C      63.12250612      85.46476310      87.77396555
H      63.48533356      84.13628550      86.24139751
H      64.75711938      86.09593169      88.85488900
H      62.32693133      87.24110583      87.10311271
C      58.90463698      83.12339220      88.34844235
H      57.75001420      84.79013080      87.98750462
H      57.62718200      81.92908517      89.43503498
H      59.33549458      82.07459409      86.62690168
C      63.81792539      83.50511691      95.12878036
O      62.74834030      82.12939616      96.72181964
N      63.78957950      86.00522482      95.37444478
H      64.79680362      86.82536604      93.97793703
C      62.59905192      87.34693051      97.37188549
H      61.63718123      86.11482895      98.71359118
C      64.52090358      89.00799993      98.85154120
H      63.77635143      90.43096385     100.14033454
H      65.25978657      90.17585080      97.32464234
C      66.65440459      87.60960246     100.15923180
H      67.64840064      86.38128036      98.83831311
C      68.65751448      89.34815067     101.29117787
H      69.46820707      90.37427206      99.70002831
H      70.10315511      88.12171829     102.09242182
H      67.88083697      90.63316456     102.70280342
C      65.72087980      85.91262823     102.31351980
H      67.30824989      84.86949931     103.10909458
H      64.35082822      84.63139379     101.46314296
H      64.71932485      86.95386743     103.77994742
C      60.20287896      88.79824031      96.44780933
O      58.20921771      88.42218478      97.56085812
N      60.37295433      90.56135496      94.74138647
H      62.11150253      90.64828237      93.96281922
C      58.22622524      91.86904557      93.79463358
H      56.67098049      90.55190633      93.49038765
C      57.12451479      93.88916300      95.49727699