 %block lattice_cart
   135.996   0.000   0.000
   0.000 142.663   0.000
   0.000   0.000   160.158
 %endblock lattice_cart

 %block positions_abs
N      88.97963125      40.79635738      82.62257162
H      88.24452772      39.56236609      81.36401390
H      87.94217151      40.56014159      84.20616227
H      90.79943769      40.43541965      83.07610594
C      88.52042776      43.34370845      81.78164341
H      89.56922586      44.72509838      82.89280248
C      89.57111559      43.74055097      78.98862792
H      88.46373597      42.45553708      77.82077706
H      91.50241588      43.11883101      78.62957992
C      89.00419770      46.31435821      77.87746885
H      86.97085218      46.48254385      77.60534826
H      90.09079033      46.48065413      76.13325146
S      89.93583277      48.99399012      79.90325546
C      88.58845791      51.53000283      77.86235104
H      88.75853328      51.06890961      75.86113087
H      89.54087997      53.31768393      78.22895794
H      86.54566376      51.53945147      78.11557436
C      85.76520680      43.74433042      82.02163865
O      84.31956617      42.43286036      80.86890560
N      85.05089025      45.68507935      83.42192585
H      86.46818498      46.72631855      84.16458829
C      82.38070697      46.18396709      84.18348555
H      81.22230474      44.98021143      82.97595044
C      81.97252609      45.19752996      86.85555856
H      82.35803025      43.17363308      86.91036062
H      79.97697510      45.54523960      87.23161410
C      83.19139956      46.70742128      89.00984656
O      83.37659274      48.95430587      88.89646298
N      83.77343526      45.65295400      91.21893662
H      84.73341623      46.67340621      92.51528887
H      83.90382638      43.75188933      91.12256058
C      81.60025000      48.98643122      83.76963549
O      83.11958996      50.67206709      83.14035663
N      79.13415716      49.36248675      83.97183621
H      77.95685767      47.98109682      84.56710000
C      78.03622618      51.90227892      83.74884850
H      78.29322895      52.52966805      81.80620985
C      75.16762163      51.90794810      84.12679377
H      74.54968113      50.31868827      82.97217099
C      74.36448795      51.19741100      86.88957363
H      75.27911549      49.55334911      87.73050184
H      72.45397465      50.42829239      86.82910239
H      74.44574618      52.73564822      88.25584576
C      73.78434197      54.37782039      83.46538956
H      74.24732492      56.03888982      84.59166644
H      71.82658551      54.06979500      84.01529991
C      74.00166050      54.95796637      80.58922611
H      73.14183503      56.82312624      80.45127609
H      72.94719322      53.59736342      79.45916977
H      75.85548201      54.60836700      79.75963626
C      79.29856335      54.08113336      85.32676997
O      79.63115518      56.02944118      84.25529515
N      80.06012306      53.35169900      87.68703814
H      79.57446339      51.62637888      88.33899372
C      81.57946301      55.15638763      89.34054866
H      80.44940668      56.87981803      89.38212264
C      81.60213973      53.86759428      91.90112782
H      82.84557964      54.82190607      93.23905405
H      82.37881724      51.96652961      91.74994971
C      78.93573590      53.52744355      92.96693346
C      77.58458159      55.44740548      94.21037337
H      78.25354470      57.37114687      94.35210285
C      75.22053397      54.94851773      95.27995846
H      74.10937490      56.41305563      96.16624011
C      74.09425709      52.59958793      95.03996322
H      72.26122256      52.33880570      95.89978870
C      75.39060934      50.59458831      93.75494933
H      74.50810715      48.75777433      93.64912466
C      77.82079738      51.05190208      92.64945944
H      78.60692352      49.63838679      91.40412980
C      84.07957093      55.74787196      88.25017658
O      84.79199775      57.92483668      87.93837174
N      85.61213896      53.95830115      87.40168947
H      84.92238886      52.18573786      87.55097784
C      88.11224688      54.17750940      86.20738244
H      89.20261896      55.30567601      87.54152921
C      89.08356620      51.39394254      85.79542210
H      90.82022468      51.47520077      84.69182193
H      87.89303862      50.13160536      84.68426303
C      89.83567727      49.95964027      88.15002109
H      88.48641269      49.89727930      89.70526584
H      91.54210014      50.94985686      88.73772597
C      90.64448014      47.12127135      87.63790525
O      92.85168047      46.23876916      88.01018134
O      88.90404220      45.59437248      87.08799490
C      87.78343450      55.52488426      83.55042724
O      89.66560191      56.71541184      82.77941890
N      85.54032937      55.56645824      82.15202977
H      84.26854356      54.31167997      82.82477234
C      84.91671968      57.06312148      79.94104998
H      86.57400966      56.76076527      78.75619158
C      82.69062209      55.97085967      78.56532923
H      80.92372798      56.70974266      79.32121975
H      82.67361455      53.93751416      78.89414160
C      82.63770975      56.75131664      75.79121100
H      84.17783669      55.71952607      74.89170127
H      82.88526390      58.77332379      75.48696506
S      79.65572163      55.72330552      74.32856283
C      80.20185253      55.96708022      70.89304040
H      80.32279501      57.97019011      70.43572663
H      78.63715914      55.07512940      69.89148545
H      81.94229047      54.98253281      70.39226292
C      84.58979703      59.89393149      80.63457954
O      86.02031985      61.55311120      79.90514518
N      82.78888785      60.29833293      82.39580446
H      81.87237059      58.74875735      83.02697305
C      81.96496718      62.90048606      83.08933402
H      81.81000962      63.93983553      81.31677074
C      79.49131544      62.74741823      84.60867398
H      79.16628251      64.55399658      85.53841932
H      79.80501001      61.22240909      85.95982829
C      76.98553835      62.05955785      83.19893815
H      77.16884180      60.55722543      81.79865095
C      75.15817300      60.80288985      85.09622336
H      73.39316863      60.16227263      84.24773625
H      74.65361608      62.21262568      86.50973865
H      76.21075056      59.27221154      85.99006391
C      75.77422378      64.49163561      81.86479137
H      73.79757006      64.10235199      81.43393377
H      76.83436024      64.93950075      80.15647878
H      75.95941696      66.09223380      83.14980526
C      84.11358600      64.13447734      84.56143082
O      84.42350111      66.41537700      84.22316981
N      85.66694103      62.87969907      86.17525709
H      85.22285534      61.03910564      86.42659069
C      88.02154001      63.88881292      87.45271208
H      87.50564473      65.54232344      88.56954033
C      89.14970662      62.00475579      89.28007742
H      90.93927744      62.91749360      89.73739119
H      89.44639365      60.12636783      88.48828210
C      87.79477286      61.76854000      91.84821548
H      85.90693627      60.98241385      91.59499215
H      87.68516873      63.66960467      92.63245190
C      89.25364157      59.93928493      93.64345548
H      91.26053091      60.31345074      93.38267325
H      88.99474907      57.94184421      93.21637733
N      88.13492359      60.14904455      96.20403463
H      86.70629050      59.00198068      96.73693745
C      88.85679904      61.67027423      97.95392120
N      90.60479588      63.26898269      97.73849240
H      91.18872131      64.15337460      99.32397277
H      91.42682683      63.40126353      96.01884145
N      87.64926393      61.68161259     100.15923180
H      88.12925441      62.96095730     101.48959913
H      86.22441029      60.44762130     100.46914692
C      90.08701087      64.89981650      85.52141178
O      91.07533774      66.97851544      85.68581797
N      90.61802397      63.53165465      83.36334433
H      89.87158207      61.79877562      83.07799566
C      92.27720367      64.66171098      81.37535225
H      93.73229293      65.82011321      82.26163389
C      93.64347580      62.61702711      79.84656367
H      94.46739647      61.46807351      81.34322691
C      91.91248649      60.88981726      78.22706822
H      93.18049285      59.63125954      77.20472628
H      90.70495138      62.13136745      77.11212969
H      90.67849521      59.77676846      79.44972114
C      95.88091175      63.49574985      78.14580998
H      95.09478560      64.73730004      76.70016936
H      96.57822076      61.86302631      77.10457079
C      97.90480863      64.98485418      79.52531019
H      97.19049208      66.90670584      79.72373146
H      99.67359246      65.05855351      78.47273264
H      98.26196690      64.31589107      81.44338240
C      90.92415963      66.58734210      79.78231297
O      92.09956940      68.33155948      78.90170051
N      88.44672843      66.65537224      79.56688417
H      87.53399063      65.26264395      80.49851924
C      86.86691724      68.46950950      78.04376476
H      87.83445711      68.96461780      76.29387820
C      84.35547097      67.29976892      77.23307218
H      83.06100844      68.75107872      76.55277070
H      83.54855783      66.39459001      78.89981078
C      84.43861892      65.34201246      75.10524035
O      86.47007471      65.13225283      73.89203605
O      82.50731863      64.06455747      74.64414713
C      86.41149320      71.01497085      79.51208211
O      87.01242616      73.01430129      78.56532923
N      85.50064511      70.99985304      81.70794408
H      85.20017863      69.29720963      82.51296749
C      84.96963202      73.15603076      83.25751966
H      84.26287438      74.79442347      82.23139827
C      82.68684263      72.65903274      84.98095006
H      82.83991046      73.94782608      86.57965852
H      82.92305842      70.77308588      85.77463511
C      80.04878470      72.63824575      83.73939987
H      78.71841738      72.09778402      85.21716585
H      80.26043405      71.20016403      82.27864143
C      79.58391203      75.31220848      82.73784493
O      78.42550980      75.45960714      80.67615352
O      80.29633885      77.33988482      83.89813688
C      87.25431113      74.16892406      84.79953633
O      87.51320364      76.48194907      85.32299052
N      88.92671892      72.60989986      85.79920155
H      88.83034288      70.72773245      85.49684534
C      90.58400889      73.22973009      87.83443679
H      91.52887205      74.95505021      87.22405519
H      92.02209062      71.77086137      88.03663751
C      89.46718064      73.70594112      90.50084062
O      87.24486250      73.13713350      91.05453043
N      90.93171854      74.67159126      92.34143405
H      92.73451744      74.99851391      91.80286205
C      90.24763761      75.20638381      94.87366731
H      88.26342498      74.72072415      95.13444954
C      92.02398034      73.54909383      96.71804019
H      93.90047857      74.31254326      96.34009493
H      91.97484746      71.64424971      95.93191404
C      91.50997479      73.71161030      99.65089543
H      92.03342898      75.55409345     100.41245513
C      88.74530519      73.03886773     100.33686608
H      87.64170503      74.24829257      99.08586726
H      88.36924966      73.25240680     102.35131433
H      88.24263799      71.07355236      99.98348726
C      93.01797639      71.70661068     100.89622507
H      94.94927668      72.07510731     100.28206402
H      92.26586531      69.92459876     100.19324688
H      92.83467293      72.00707716     102.92579113
C      90.61424452      78.04286301      95.42357766
O      92.61168523      79.12945564      94.89067484
N      88.73018738      79.27307483      96.56686208
H      87.06911795      78.34143976      96.42891206
C      88.68672368      81.95648620      97.39267248
H      90.51786847      82.89190072      97.27550945
C      87.04266178      83.43047272      95.39523177
H      86.37369867      85.07831407      96.43269152
H      85.40993825      82.48183011      94.57131110
C      88.82089424      84.33187217      93.36944516
H      89.62213820      82.64623630      92.49261215
H      90.30054995      85.57909154      94.07053362
C      87.32234128      85.54885592      91.02807426
H      88.82467370      86.42946838      89.92447409
H      86.16204932      87.01528354      91.89356891
N      85.80489105      83.66857824      89.63723569
H      85.43639442      81.98105264      90.45359746
C      84.81845391      83.90101458      87.36200521
N      85.21151699      85.78507171      85.87668033
H      84.14949080      85.89845529      84.29497941
H      86.05811437      87.32330893      86.62312222
N      83.66005168      81.88467660      86.40580370
H      83.16305366      81.64657108      84.58032808
H      83.47107905      80.35966746      87.54152921
C      87.60580023      82.16435609     100.04206877
O      85.24364233      82.34388009     100.41623458
N      89.21584704      82.14356910     101.94124372
H      91.04132266      82.08309786     101.39322309
C      88.52609694      82.19270199     104.62276536
H      87.04644124      80.76028944     104.70213386
C      90.95061580      81.67113753     106.27060670
H      90.64070068      81.97727319     108.28316522
H      92.43405095      82.94292333     105.61865112
C      91.95972965      78.97638780     105.88321281
H      91.69894742      78.60033227     103.87632346
C      94.60534649      78.90646793     106.96413626
H      95.78831516      80.02140645     105.69990935
H      95.32533221      76.97516764     106.98870270
H      94.66770746      79.61322557     108.89732628
C      90.54999382      77.03563888     107.53294388
H      91.36068641      75.34433383     106.68067731
H      88.55444283      76.98839572     107.02649723
H      90.89014456      77.40980469     109.52849486
C      87.08801522      84.62289003     105.51093672
O      86.20740275      84.90256952     107.69168089
N      86.76865147      86.55041087     103.77427824
H      87.55477761      86.23104712     102.06407593
C      85.86347256      89.09965166     104.25993790
H      85.02632381      89.03162152     106.14021559
C      87.95350987      91.08008484     104.37143176
H      86.92549875      92.77327961     104.93457020
H      88.86624768      91.17835061     102.52705888
C      90.17204856      90.73048547     105.98903748
H      91.36068641      89.19602770     105.30306683
H      89.59190258      90.39033473     107.93545558
C      91.84256662      92.99248787     106.12131832
H      90.92793908      94.66300593     105.33708190
H      93.61324017      92.37454736     105.26905176
C      92.57389070      93.38555094     108.86898038
H      92.79876813      91.54873696     109.77793874
H      90.92793908      94.20380243     109.79872573
N      94.81699584      95.05417927     108.94078998
H      96.49129335      94.20380243     108.59497007
H      95.01163765      96.15022054     110.49036556
H      94.67148691      96.25226576     107.46113428
C      83.85469349      89.76672505     102.36832186
O      83.96429762      89.16957154     100.08553248
N      81.83079661      90.87032522     103.35475900
H      81.94040074      91.30685200     105.20858051
C      79.64060382      91.54873696     101.88077248
H      78.79589615      89.74215861     101.35920801
C      77.98898302      93.11720980     103.61176178
H      77.68284736      91.79440138     105.16133736
C      79.04911948      95.51905195     104.85142224
H      77.54489733      96.77383022     105.48826001
H      79.89571687      96.51493771     103.25838296
H      80.30767720      95.05606900     106.41611563
C      75.40383742      93.49893452     102.55918422
H      74.89550104      91.79251166     101.52172448
H      75.41517578      94.91811898     101.06819016
C      73.20608572      94.04506542     104.50749205
H      73.86182075      95.79117254     105.38432506
H      73.01144391      92.67879330     106.04006009
H      71.46375806      94.70646963     103.63821795
C      80.34358200      92.96792143      99.33531113
O      81.87803977      94.74804361      99.42601800
N      79.28533527      92.12510349      97.19236149
H      78.17984538      90.56985873      97.18480259
C      79.92028331      93.31941052      94.76028373
H      80.68373274      95.17890121      95.20814886
C      81.88370895      91.79251166      93.19936979
H      83.75075855      91.77361440      94.06675417
H      82.48653164      92.83753031      91.53074146
C      81.08813417      89.13744619      92.48694297
C      80.14894019      88.40801183      90.10777755
H      79.86926070      89.93869015      88.78685885
C      79.75209767      85.82097651      89.51440348
H      79.13037771      85.36177302      87.62467717
C      79.84091481      83.91613239      91.30208458
O      79.48375653      81.48405462      90.74461531
H      78.90927973      80.91713673      89.11756096
C      80.82357249      84.60777222      93.70581645
H      81.18262049      83.15268296      95.09098583
C      81.52277122      87.13055684      94.21037337
H      82.44117821      87.57842198      95.97726747
C      77.43340348      93.79751128      93.21448760
O      75.39438879      92.78272825      93.75872878
N      77.65261173      95.21480601      91.23594415
H      79.42706474      95.88754858      91.04697152
C      75.79123132      95.65700197      89.24228289
H      73.91095363      95.05606900      89.82242887
C      75.45863949      98.51615788      88.50717936
H      74.26055300      98.63899009      86.83666130
H      77.30679182      99.39677034      88.28230193
C      74.06024201     100.01471085      90.57453995
H      75.20541616      99.86353274      92.28096281
H      72.15917734      99.28905594      90.89012424
C      74.05079338     102.85119004      89.93959190
H      75.85926146     103.71290524      90.42147211
H      72.89806033     103.72046415      91.40979898
C      73.05112816     103.59007303      87.38657166
H      71.19541692     102.70757084      87.23350382
H      74.17929477     102.83985168      85.83510635
N      72.81113292     106.42466250      87.09366408
H      74.35125987     107.47157088      87.51507304
H      71.35793339     107.06527972      88.15569026
H      72.37271642     106.98213176      85.32110080
C      76.46964306      94.22269970      86.74595444
O      78.41039199      94.54773262      85.62912618
N      74.62527018      92.72036728      85.91069540
H      73.01711309      92.96225225      86.91036062
C      74.30968589      91.72448151      83.36901351
H      75.98965258      90.56985873      83.07421621
C      71.89083621      90.23159772      83.60522930
H      70.26378185      91.44102256      83.96805676
H      71.87193894      88.78595709      85.07543637
C      71.38438955      88.71414749      81.08622413
O      69.24710909      88.74438312      80.15458906
O      73.28923368      87.79196105      79.96183697
C      74.20575094      93.69924551      81.29787347
O      73.69930429      95.93857119      81.90447562
N      74.19819203      93.03217212      78.83178064
H      74.11126462      91.15567389      78.50107853
C      74.46086399      94.65166757      76.63402893
H      76.08035944      95.87621022      76.98740775
C      75.12415793      93.11154062      74.33612174
H      73.54056728      91.83786509      73.99030182
C      75.47942647      94.94835460      72.01931728
H      76.68129241      96.59052677      72.33868102
H      73.71064265      95.84975405      71.47507610
H      76.07846972      93.83152635      70.39604238
O      77.22175414      91.51850134      74.56099917
H      77.39749868      90.37521692      73.16260170
C      72.10059583      96.29006028      76.36946725
O      72.34437052      98.33852361      75.42838355
N      69.86127015      95.36220466      77.32755849
H      69.97654345      93.49704479      77.71306266
C      67.34037524      96.51871717      77.32377904
H      67.24966838      97.50893376      75.51720068
C      65.32214754      94.40033397      77.39369891
H      63.36061163      95.02394365      77.50330304
H      65.69442363      93.25138037      79.06232725
C      65.60560649      92.72792618      74.96918005
H      65.43742085      90.87032522      75.84223361
H      67.47832527      92.79784606      74.11502376
C      63.60438632      93.10398172      72.97551879
O      63.44942877      95.22425464      71.82845492
O      62.41196902      91.24638075      72.27254060
C      67.08148274      98.31584689      79.55932527
O      65.08215230      99.50070529      79.67648830
N      68.92018644      98.40466403      81.33566800
H      70.54724080      97.53727965      80.84244943
C      69.07136455     100.03738756      83.60144985
H      68.26634114     101.89309880      83.20838678
H      71.04990800     100.36053076      84.07955061
C      67.89973423      98.81095518      85.96360774
O      67.24210948     100.20935266      87.77207582
N      67.49155335      96.44501784      85.94282075
H      67.61060611      95.57574374      84.24584652
C      66.11772232      95.08630462      87.97427654
H      64.81570089      96.44690757      88.81142530
C      64.41318919      92.89611183      86.86500719
H      63.41541369      92.07219115      88.46749511
H      65.61694485      91.42212530      86.07510159
C      62.43086628      93.40066875      84.90725073
C      61.48222367      91.24638075      83.74695878
H      62.35527723      89.44169213      84.12868349
C      59.74934465      91.26338829      81.75896670
H      59.46966515      89.53239899      80.71394804
C      58.81770957      93.61609755      80.93693575
O      57.29647989      93.64255372      78.95083339
H      56.93932162      95.19023957      78.07400038
C      59.71721930      95.84408487      82.11801469
H      58.94243151      97.67333994      81.64558312
C      61.59560725      95.75148828      84.02663827
H      61.97355252      97.54672828      84.92236854
C      68.16807537      94.08852913      89.79030353
O      69.95575646      92.86020703      89.12889932
N      67.73532804      94.51560728      92.29419089
H      66.19142165      95.53794921      92.75528411
C      69.45497899      93.66145098      94.28407270
H      71.27667515      94.22647915      93.49794655
C      69.25277827      95.14299641      96.72181964
H      70.32614282      94.35498054      98.29407193
H      67.30824990      94.98992858      97.38133412
C      70.09937566      97.91144546      96.41001480
C      68.35515827      99.82006904      96.54985455
H      66.35015866      99.44968268      96.44780933
C      68.80113368     102.33718448      96.74260663
H      67.35360333     103.77148676      96.82953404
C      71.39572791     103.00236815      97.01283749
O      72.18941296     105.50436579      97.13000053
H      70.75133124     106.55505362      96.78607034
C      73.31946930     101.02949388      96.74827581
H      75.31124083     101.43956449      96.92591008
C      72.66373427      98.53883460      96.28718259
H      74.06591119      97.05728917      96.37222027
C      69.40584610      90.78528753      94.67335632
O      67.25155811      89.71759217      94.67524604
N      71.56580328      89.66279010      95.06075021
H      73.17585010      90.68513204      95.09854474
C      72.04579376      86.82253146      94.79240908
H      70.48110038      85.77184363      95.62388865
C      72.70341852      86.13656080      92.06364428
H      74.26244273      87.41023634      91.62333805
C      73.38749945      83.43047272      91.33232020
H      74.22275848      83.50228232      89.44826306
H      71.67729713      82.28907803      91.43247569
H      74.90305995      82.67269247      92.50584024
O      71.01967238      86.97370956      90.21549195
H      70.80424358      88.77083928      90.34021388
C      74.35692904      86.33498207      96.41001480
O      75.63249431      88.18691385      97.24527383
N      74.96353119      83.93125020      97.03929366
H      73.96008652      82.49883765      96.27395451
C      77.05167877      83.32275832      98.89878435
H      78.59558516      84.67391264      98.70792200
C      75.98587313      83.86510978     101.52928338
H      75.11092984      85.72837992     101.45558406
C      74.10370572      81.84499235     102.47981572
H      72.55224042      81.97916292     101.13433058
H      73.32135903      82.65001576     104.20702557
H      74.95219283      79.99684001     102.80484864
C      78.17795565      83.76495428     103.52294464
H      79.87681961      84.71359689     102.84831235
H      78.45385569      81.79208001     104.04639883
C      77.70363435      85.21059491     106.08163407
H      79.40060857      85.41279563     107.22869794
H      76.26744235      84.27895984     107.23058767
H      76.83058079      87.05307807     105.78116759
C      78.00221110      80.55052982      98.41501442
O      76.82869106      78.84599669      97.39267248
N      80.27933131      80.08187770      99.39389265
H      81.50387396      81.49350325      99.78317627
C      81.26576845      77.51751909      99.59042418
H      79.96563674      76.26463054     100.57875105
H      83.07045707      77.59688760     100.58253050
C      81.88937813      76.18337231      97.17724368
O      83.66005168      77.01485189      95.84876608
N      80.45129640      74.18215215      96.39300726
H      79.05289893      73.86845758      97.65345471
C      80.76499097      72.75729851      94.03651855
H      82.34669190      73.59444726      93.01984579
C      81.47174861      69.98695973      94.77540154
H      79.79934083      69.38035759      95.81286128
C      82.08401994      68.15392521      92.48883270
H      80.60058478      68.37880264      91.07720714
H      82.17661653      66.14892559      92.94425674
H      83.81311951      68.72651228      91.53074146
C      83.81689897      70.01530563      96.51017029
H      83.26887834      70.92048453      98.27517467
H      85.39859989      71.07544209      95.72404415
C      84.62948128      67.30921755      97.19425122
H      85.80489105      66.56088593      95.67680099
H      83.04778036      66.10735161      97.73660267
H      86.14315206      67.50952854      98.57564115
C      78.33102348      73.11823623      92.60221628
O      76.69263077      71.56488120      92.51906832
N      77.75843641      75.35378246      91.58743325
H      79.05289893      76.72950322      91.87656138
C      75.53989772      75.86022911      90.02273986
H      75.29612302      74.62434810      88.39379578
H      75.84792311      77.76318351      89.29708496
C      72.88105279      76.00384831      91.41546815
O      70.80424358      75.79975787      90.35533169
N      72.83003018      76.21171821      93.99683430
H      74.50810715      76.42525728      94.87744676
C      70.44897503      76.64824499      95.34231943
H      69.18852758      75.25173724      94.50328095
C      70.77022850      75.98117160      98.09943012
H      71.92107183      77.38523825      99.07263917
H      71.69619440      74.14624735      97.98226709
C      68.29090758      75.90936200      99.66979269
N      66.86416421      73.68893358     100.01561261
H      67.21754303      71.99573880      99.21058920
C      64.79302417      74.48639808     101.24204498
H      63.39273698      73.22406091     102.02628140
N      64.77979609      77.00729299     101.70313820
H      63.38328835      77.75940406     102.76327466
C      67.01345259      77.92758970     100.58064077
H      67.84682190      79.78519067     100.43324212
C      69.40584610      79.38456869      95.07019884
O      70.60771204      81.21004431      95.93002432
N      67.19297659      79.49039336      94.05730554
H      66.16685520      77.89735408      93.83431784
C      65.83804283      81.86577934      93.54518971
H      67.32714716      83.24716927      93.20314925
C      64.33948986      81.44814982      91.02429481
H      63.44564931      79.59432831      90.99972837
H      65.62639348      81.37822995      89.41613772
C      62.51779369      83.70070359      90.32131662
H      61.26679487      84.24305504      91.86522302
C      64.08248708      86.07797929      89.77707544
H      65.13506464      86.70347870      91.43436542
H      62.95809992      87.73526926      89.30086441
H      65.57159142      85.80396897      88.38056770
C      60.82837837      83.39456792      88.10655738
H      60.03280359      85.28996342      87.97049709
H      59.51501858      81.83554372      88.41080332
H      61.62962233      82.73694317      86.32832492
C      64.48121933      82.70670755      95.96025994
O      63.39651643      81.15146279      97.34542932
N      64.77601664      85.23705108      96.58575935
H      65.94008805      86.41246085      95.63522701
C      63.64596030      86.33687179      98.82886448
H      63.64029112      84.75328114     100.14411399
C      65.42230304      88.18313440     100.24615922
H      64.41507891      88.96548109     101.86376494
H      65.48655373      89.88766753      99.09153644
C      67.93185958      87.18346918     101.02850591
H      68.99766522      86.26884165      99.52050431
C      69.54946530      89.35665444     102.06407593
H      69.75922493      90.76639027     100.57686132
H      71.39950736      88.66312488     102.64611163
H      68.68208093      90.09742716     103.77805769
C      67.80713764      85.18413874     103.05807197
H      69.60615709      84.81942156     103.98970704
H      67.15518207      83.47015698     102.11887799
H      66.36338674      85.58476072     104.46969752
C      61.05892498      87.31763975      98.31296920
O      59.18242675      86.37466632      99.23515564
N      60.88507016      89.28484484      96.74071690
H      62.47244026      90.29206897      96.41946343
C      58.67786983      90.74371355      96.10576886
H      57.12829425      89.46058939      95.65979345
C      57.95788410      92.60698370      98.27517467