 %block lattice_cart
   135.996   0.000   0.000
   0.000 142.663   0.000
   0.000   0.000   160.158
 %endblock lattice_cart

 %block positions_abs
N      90.88447537      39.97527129      82.68587745
H      90.34779310      39.10788692      81.07205117
H      90.03220881      39.30819790      84.26190920
H      92.76664279      39.75417331      82.89563707
C      90.25330679      42.68324910      82.42887468
H      91.37013504      43.78684927      83.76491117
C      91.24352337      43.84921023      79.85695716
H      90.58400890      42.66246211      78.30549185
H      93.29765588      43.83220270      79.70199960
C      90.53109656      46.61765928      79.30137763
H      88.48641269      46.81419082      79.14830980
H      91.55721794      46.98048674      77.55338079
S      91.43438574      48.96469936      81.46511426
C      89.76764712      51.70291279      80.12340857
H      90.37802873      52.26038205      78.23746171
H      89.90937659      53.25248837      81.47456288
H      87.76264750      51.23615039      80.03648116
C      87.43194540      42.79096350      82.76713568
O      86.18283632      41.37933794      81.47456288
N      86.19417466      44.69958708      84.02380369
H      87.34690772      45.94680644      84.89307779
C      83.55800647      44.64478501      84.60394965
H      82.69629127      43.52228758      83.10728642
C      83.14793586      43.36921975      87.07004249
H      84.53310523      41.84610034      87.12862401
H      81.27521708      42.51128400      87.13429319
C      83.18762011      44.80352202      89.49267162
O      81.34513695      46.05263112      90.19187036
N      85.18506082      44.68446926      90.90807664
H      85.14348684      45.54996392      92.60883032
H      86.70251104      43.58653828      90.54146973
C      82.12937336      47.27906349      84.54914759
O      83.32745986      49.20280488      84.18632014
N      79.58769148      47.31307857      84.65119282
H      78.69007147      45.65767832      84.96677711
C      77.99465220      49.68279536      84.68331817
H      78.25354470      50.52372357      82.82004801
C      75.16573191      49.41256450      85.19543400
H      74.49109961      48.21069856      83.66475569
C      74.51377633      47.96125469      87.68420355
H      72.54657124      47.40000598      87.44231858
H      74.46086400      49.07619322      89.41330312
H      75.76288543      46.35876678      88.02813373
C      73.64261250      51.93345940      85.03102780
H      73.97331461      53.19579658      86.62595681
H      71.75666563      51.11142846      85.10850659
C      73.99410159      53.25626782      82.52147127
H      75.90083545      54.01971725      82.34950616
H      72.79412539      54.93056533      82.57816306
H      73.58025152      51.97125393      80.96622650
C      79.12281881      51.68401553      86.48989651
O      79.29478389      53.94223847      85.87195601
N      79.48375653      51.16245107      88.83126742
H      79.40249830      49.34075490      89.39440586
C      80.47964229      52.81407186      90.93075335
H      79.23431265      54.43734677      91.16696914
C      80.42861969      51.44024083      93.43275099
H      81.14293624      52.80651296      94.79902311
H      81.49064588      49.68468509      93.23432972
C      77.92095288      50.63143797      94.37950387
C      76.08602863      52.45313414      95.07870261
H      76.54334238      54.41844950      94.76878749
C      73.86748993      51.69535389      96.33726033
H      72.68074180      53.00304449      97.35771254
C      73.04923844      49.22737132      96.30891444
H      71.21998336      48.62265890      96.98543646
C      74.69141061      47.43024160      95.19019646
H      74.17362560      45.48949267      94.83303820
C      77.18962878      48.10487389      94.52690252
H      78.41606117      46.74994012      93.61794418
C      83.06856734      53.95357683      90.00478746
O      83.28399615      56.28171965      89.70810042
N      84.84113063      52.32085330      89.26401474
H      84.44428810      50.45569342      89.16007980
C      87.24675222      53.18445822      88.07726662
H      88.49208186      54.21246933      89.35661133
C      89.04388195      50.81663115      87.55759188
H      90.89392401      51.42512302      86.87918013
H      87.99697357      49.82641456      86.08738481
C      89.39348132      49.22548159      89.80447648
H      87.50564472      48.51305477      90.22021627
H      90.02276018      50.37632492      91.39373631
C      90.82589387      46.81797027      89.12606472
O      92.94238734      46.78206547      90.20131899
O      90.11157732      45.23060017      87.58971723
C      87.08612548      54.87198382      85.60172515
O      88.42027226      56.72202588      85.33527374
N      85.32679029      54.26349195      83.92175846
H      84.10791682      52.90666845      84.47733799
C      84.67294499      55.84897232      81.70321977
H      86.34157333      56.02471687      80.50702302
C      82.78510840      54.10097548      80.38230108
H      81.21285611      53.82885489      81.68621223
H      83.73942019      52.28683822      80.17254146
C      81.68906714      55.22725236      77.87463426
H      83.34824685      55.23103182      76.65009161
H      81.23175338      57.21713417      78.13352676
S      78.89983111      53.42256374      76.88630740
C      78.45196596      54.24270496      73.60574252
H      80.14138128      54.66600365      72.50781152
H      77.20852605      55.88298740      73.64353705
H      77.38427060      52.68179102      72.79127048
C      83.75453799      58.56072958      82.43832330
O      84.61247374      60.33707232      81.25724435
N      82.31456654      58.75348167      84.43387429
H      81.96496719      57.24548007      85.55070254
C      81.39426983      61.35941425      85.20299289
H      81.05222937      62.48758086      83.51546731
C      78.83935985      61.04760941      86.48989651
H      78.48220159      62.78237816      87.54247408
H      78.89227220      59.60574823      87.95821387
C      76.60192391      60.39565383      84.75134832
H      77.15183426      58.91221868      83.43420907
C      74.41362083      59.51504137      86.35950540
H      72.95097266      58.65521590      85.19165455
H      73.70308374      61.08729366      87.48389255
H      75.14872436      57.96357607      87.49523091
C      75.60981759      63.00536587      83.60050499
H      77.28033566      63.77637420      82.67642881
H      75.01266408      64.43399896      84.95921820
H      74.10181600      62.35718974      82.35706507
C      83.39171054      62.60852334      86.94154110
O      84.02287914      64.83840039      86.57871366
N      84.73152651      61.18744916      88.55725711
H      83.94540036      59.49236465      88.94276127
C      87.07478714      61.76192596      89.99911828
H      86.67227543      63.34929606      91.24822737
C      87.79099340      59.72291126      91.90774185
H      89.07789702      58.45112545      90.92319444
H      86.17905685      58.51348642      92.34237891
C      88.97207235      60.88131349      94.37761414
H      87.59446186      62.00381092      95.41696362
H      90.32133694      62.35718974      93.88250586
C      90.19661500      58.92733649      95.96120480
H      91.32856107      59.68511674      97.50511119
H      91.49674670      57.75570617      94.87461217
N      88.10468797      57.08107388      96.70008778
H      88.08768044      55.47102706      95.67207667
C      86.56267130      57.18122937      98.63894699
N      86.49653087      59.13709611     100.09403624
H      85.46474032      59.00103581     101.69463443
H      87.88736944      60.43722781      99.95230677
N      84.87136624      55.46913733      99.14161418
H      83.55233728      55.90188466     100.45119451
H      85.34001837      53.72114049      98.53501203
C      89.28387720      62.71812747      88.31159268
O      91.20194940      63.62897555      89.21110241
N      88.91538056      62.50647812      85.75857244
H      87.62280777      61.20445669      85.23322853
C      90.65203905      63.56661458      83.78947761
H      91.97673718      64.73446545      84.85150380
C      92.34145437      61.55594579      82.43265412
H      92.96506404      60.26337299      83.90853037
C      90.83534249      60.03849556      80.58639152
H      89.24419294      59.18055981      81.57282865
H      91.89925841      58.52104533      79.69255098
H      89.95284030      61.13075737      79.08027965
C      94.66959719      62.67655349      81.11740461
H      94.19905533      64.02014890      79.62830028
H      95.56721719      61.06083749      80.20655652
C      96.63113309      63.89164751      82.88240898
H      95.68438022      65.12752852      84.23356331
H      97.57410652      65.18799976      81.58983618
H      97.84055793      62.40632263      83.64018923
C      89.49552654      65.41665664      81.99423762
O      90.92604936      67.06071854      81.33850259
N      87.09746384      65.26358881      81.10984570
H      85.99008423      63.77637420      81.56338003
C      85.79922186      67.44433298      79.89664142
H      86.90660149      67.87141113      78.21100554
C      83.25565026      66.55427189      78.84595359
H      82.11614529      68.26258447      78.68910630
H      82.49031110      65.09918262      80.09128322
C      83.35958519      65.35240595      76.18332920
O      85.35135673      65.65665189      74.82083653
O      81.63615480      63.84062490      75.69577981
C      85.37025400      69.92932308      81.55582112
O      85.14537656      71.99479394      80.55237644
N      84.81278474      69.69499702      83.97278106
H      84.78065939      67.94133100      84.72678186
C      84.81278474      71.87574118      85.61873268
H      84.65593745      73.65397364      84.59072158
C      82.45440630      71.71511445      87.44231858
H      82.41850150      73.30626400      88.75000918
H      82.75109332      70.11262653      88.70276603
C      79.87681961      71.33905891      86.16108415
H      78.37070773      71.11040203      87.54814325
H      79.89193742      69.54948809      85.14252165
C      79.17384141      73.41586813      84.34316743
O      77.47875691      72.96233381      82.77469458
O      80.04689498      75.57960476      84.56048596
C      87.07100768      72.25179672      87.33649390
O      87.62847694      74.38529773      88.05270017
N      88.37869829      70.28648135      88.08860497
H      87.57934406      68.59517630      87.71443917
C      90.31188830      70.28648135      89.92730868
H      91.75941866      71.58661306      89.25267639
H      90.99785895      68.34384270      89.96699293
C      89.21584705      70.99323899      92.58993306
O      86.93872684      71.18977053      93.11338724
N      90.89392401      71.58472333      94.28690728
H      92.76853252      71.33905891      94.03557369
C      90.40448489      72.43321044      96.97409810
H      88.44483870      71.91164598      97.32747692
C      91.96539882      70.84395062      98.83547852
H      93.97984708      71.26724931      98.77122782
H      91.83122826      68.81249483      98.50477641
C      90.95250552      71.26158013     101.58880975
H      90.48763286      73.24390303     101.90250432
C      88.41082364      69.76680662     101.98943173
H      88.39570582      67.77125563     101.46975701
H      86.88014533      70.81371499     101.09181173
H      87.89681807      69.82160868     103.98120327
C      92.93293870      70.55293276     103.52955868
H      92.02209061      70.76458211     105.36448293
H      94.49196291      71.87763091     103.29334289
H      93.60946072      68.63486056     103.21019494
C      90.70873084      75.32260198      97.27645431
O      92.85357020      76.35250282      97.36527145
N      88.69050312      76.64730012      97.89439481
H      86.96518301      75.85928425      97.69030437
C      88.85112986      79.32315258      99.05657650
H      90.77676098      79.79936361      99.61026630
C      88.15193113      81.38673372      97.16685019
H      87.80422148      83.18386344      98.11171334
H      86.39826512      80.67430690      96.35615759
C      89.91882524      81.57759607      94.94264232
H      90.25330679      79.64629578      94.30958401
H      91.64036591      82.61694555      95.39617664
C      88.75286410      82.90040449      92.68441938
H      90.28732186      83.77156832      91.62617264
H      87.61902831      84.55580474      93.14740231
N      87.09746384      81.13917957      91.29736026
H      86.37936784      79.59527317      92.15907545
C      86.59101720      81.29791658      88.97110716
N      87.18817071      83.34260045      87.72955697
H      86.45684662      83.30480592      85.96644233
H      88.07445236      84.83548424      88.52324203
N      85.44206360      79.53669166      87.80514603
H      85.36269509      79.62550879      85.90030190
H      85.21529643      77.88885031      88.73678111
C      87.34123855      79.72566429     101.55290496
O      85.05277997      80.37195069     101.50944125
N      88.50908940      79.21732791     103.65239089
H      90.36480065      78.76757305     103.60325801
C      87.43005568      79.46677178     106.18651388
H      85.71040473      78.33482572     106.26021320
C      89.34812788      78.55403397     108.20474158
H      88.52042776      78.71844016     110.08312953
H      90.98274115      79.80125334     108.07057101
C      90.35346229      75.88196097     107.91183401
H      90.99974869      75.46244172     106.00132070
C      92.56633179      75.45488282     109.80911923
H      94.20094506      76.66619739     109.47652738
H      93.34111959      73.55003870     109.70896373
H      91.78209538      75.67031162     111.70262498
C      88.47129488      73.83727710     108.52599505
H      87.80233176      73.98278602     110.46674397
H      89.21962649      72.06282409     107.79278125
H      86.83101243      74.25868606     107.35436474
C      86.30755824      81.98199750     106.91594824
O      84.93183749      82.14640369     108.77165947
N      87.32801045      84.02101220     105.66872887
H      88.45050789      83.92463615     104.12860192
C      86.24519728      86.71009274     106.12982209
H      84.95829366      86.55891463     107.73042028
C      88.34468322      88.49966356     106.75910095
H      89.74874987      88.24266078     105.27566579
H      89.35001762      87.88739223     108.44851628
C      87.64926393      91.38149619     106.92161742
H      85.91449518      91.29078932     108.03088677
H      87.32990019      92.20352713     105.06023699
C      89.57111559      93.07658069     108.21607993
H      91.37202476      92.71753269     107.28633459
H      89.55599778      92.63249500     110.22674874
C      88.98530043      95.87715508     108.06679157
H      86.95195492      96.00754620     108.37292722
H      89.46151147      96.56312574     106.18462415
N      90.41015408      97.24342721     110.02643774
H      90.55188355      99.11803571     109.68628702
H      92.22807078      96.66328123     110.08501926
H      89.84512591      96.83713605     111.80467020
C      84.54255388      87.55669013     103.86404024
O      84.97719093      86.89339619     101.61148647
N      82.68306318      89.08736844     104.59347460
H      82.39393506      89.15539859     106.47942145
C      80.62326150      89.65995551     102.85681612
H      79.97508537      87.82125181     102.18785300
C      78.45196596      91.09425779     104.33647181
H      78.11748440      89.96798090     106.02777686
C      79.03022222      93.62460132     105.31723978
H      81.06167801      93.80412532     105.60825762
H      78.11181523      93.70208010     107.15972294
H      78.49542966      95.24031732     104.15694781
C      75.95374778      91.21897972     102.51099620
H      75.69485528      89.38405547     101.61526593
H      76.32035469      92.64761282     101.07480420
C      73.55568508      92.06935656     104.09080739
H      73.63127414      94.09703290     104.44607595
H      73.41584535      90.93930023     105.81045835
H      72.10437527      91.29834823     102.84736748
C      81.25443008      91.22842835     100.48331986
O      82.90794062      92.91784368     100.66095413
N      80.18295527      90.65584128      98.31580378
H      78.96219207      89.24232600      97.92652016
C      81.29600407      91.72353665      95.86293903
H      82.15016035      93.54334309      96.31458362
C      83.22730436      89.89428158      94.64784502
H      84.60113538      89.61838154      96.15584660
H      84.09279900      90.93930023      93.09637971
C      82.18417544      87.23732638      93.87305722
C      81.31868078      86.91229346      91.45987673
H      81.19584858      88.54501699      90.24100325
C      80.53633408      84.55580474      90.54524919
H      79.78422302      84.05691700      88.71410438
C      80.93317662      82.42797291      92.17986244
O      80.21697034      80.09794037      91.35216232
H      79.70485451      80.13573490      89.61361412
C      81.95173909      82.79080037      94.64973473
H      82.25598504      81.03335490      95.64184106
C      82.59046659      85.19264251      95.50956021
H      83.57123455      85.43452748      97.28023377
C      79.10392154      92.26966755      93.90329284
O      76.90994929      91.59125581      94.42674704
N      79.60091956      93.53200473      91.71876923
H      81.45852053      93.67751366      91.29736026
C      77.56946378      94.23876237      89.84038127
H      75.79879023      93.56224035      90.64351496
C      77.43907266      97.06012376      89.40952368
H      75.83847447      97.45507656      88.17742211
H      78.98864823      97.79333757      88.26812897
C      77.31813017      98.62859660      91.90207267
H      79.10959073      98.59269180      92.91874544
H      75.70430390      98.11837049      93.07370300
C      76.87026504     101.44428880      91.33704452
H      74.97864900     101.48775251      90.52446219
H      78.17228647     102.23986358      89.95376486
C      77.26710757     103.17149865      93.53668593
H      79.25887909     103.21685208      94.05825040
H      76.07469027     102.45340265      95.05791562
N      76.23342727     105.68105520      93.09637971
H      74.36259822     105.65837848      92.72410362
H      77.10648083     106.39726147      91.55625276
H      76.33736222     106.73363275      94.68186008
C      78.01543918      92.76666557      87.31948637
O      80.15271964      92.36226414      86.51635269
N      75.99721149      91.93707572      86.22155539
H      74.26622219      92.15817370      86.99256372
C      76.12382314      90.34214671      83.92553791
H      77.78867203      89.20453147      84.33749824
C      73.69741457      88.66595947      83.97089134
H      71.97587388      89.78656718      83.80459543
H      73.66906866      87.38661476      85.58471762
C      73.78623169      86.89717564      81.78258827
O      75.29234357      85.20776032      82.11329038
O      72.31224518      87.36015859      79.97789964
C      76.56979856      91.93707572      81.41220191
O      76.48665060      94.30112334      81.50290877
N      76.74365338      90.82402692      79.18988377
H      76.93262601      88.92485198      79.16531733
C      76.76066091      92.32257989      76.73890875
H      78.43117897      93.52633555      76.73701902
C      77.02144315      90.45742002      74.66965844
H      75.19974698      89.50310823      74.55438512
C      77.58458158      91.57046882      72.07317448
H      78.81290369      93.21075126      72.26970601
H      75.74587788      92.14305589      71.34374012
H      78.33102349      90.34970562      70.59351877
O      78.78644752      88.53178891      75.23846606
H      80.52121628      89.00422048      74.99280163
C      74.21142012      93.80034587      76.48001623
O      74.38527494      95.80534548      75.39153389
N      72.03067595      92.82713681      77.45889447
H      72.10248556      90.99977147      78.00691509
C      69.50978105      94.15939387      77.55338079
H      69.21309401      95.22897896      75.81672230
C      67.36305196      92.18840932      78.00124592
H      65.70009280      93.23153825      78.62296588
H      68.09059659      91.00922010      79.52814478
C      66.63739706      90.58403168      75.78081751
H      66.05536136      88.77178415      76.56505393
H      67.97532329      90.40639741      74.22368302
C      64.40752001      91.76889008      74.21423438
O      62.56881631      90.37238233      73.61141170
O      64.47177071      93.93073698      73.38086508
C      69.48521461      96.22864418      79.72278660
O      67.95642602      97.91050060      79.70766878
N      71.36738202      96.17951129      81.35739985
H      72.89617061      95.09669812      80.99268267
C      71.93052045      98.02955335      83.31137686
H      71.41840462      99.87770569      82.56115551
H      73.91473308      97.64215946      83.69499131
C      70.61149149      97.42106148      85.83794094
O      70.67763192      99.06323365      87.62940149
N      69.07514399      95.48031256      85.66975530
H      69.06947483      94.46175008      84.05781875
C      67.60115748      94.61859736      87.86939673
H      66.46543196      96.09069416      88.75756809
C      65.93819831      92.33958743      87.13429319
H      65.13884409      91.57235854      88.87095168
H      67.20431494      90.95063859      86.29336498
C      63.85194047      92.77422448      85.05937370
C      62.28724709      90.72765088      84.21844549
H      62.65385399      88.83603484      84.89307779
C      60.29358583      91.06213244      82.48934592
H      59.40352473      89.34437122      81.84116979
C      59.69454259      93.48287185      81.49157042
O      57.59505664      93.74176435      80.01191472
H      57.24545727      95.48220228      79.63963863
C      61.15530102      95.45574612      82.21533559
H      60.54680915      97.31523681      81.63329989
C      63.27368422      95.11937483      83.79514679
H      64.27334944      96.84658468      84.23545302
C      69.43986118      93.56413008      89.96699293
O      71.58659027      92.69863543      89.28102228
N      68.95609125      93.66050612      92.42363715
H      67.18730741      94.22175483      92.86394338
C      70.59448396      92.68162789      94.50800526
H      72.53145342      93.26366359      94.11872164
C      70.06725031      94.01766439      97.03834880
H      71.08203335      93.07091151      98.55957847
H      68.04902262      94.11970961      97.43519133
C      70.82503056      96.75020864      97.06102551
C      69.16585087      98.61158906      96.07647810
H      67.37628005      97.96719239      95.34137456
C      69.79701945     101.12870451      96.02734523
H      68.61971995     102.52332253      95.11460741
C      72.00421979     101.80333680      97.15362210
O      72.62405001     104.31478307      97.13472484
H      71.31824914     105.44483941      96.57536586
C      73.85993103     100.07045777      97.93218934
H      75.63060458     100.75075925      98.68052096
C      73.15695283      97.49665053      97.93974825
H      74.37960576      96.02644346      98.65217506
C      70.38661407      89.81113362      94.79902311
O      68.41185007      88.66029029      94.53635116
N      72.51633562      88.59037042      95.53034720
H      74.01299886      89.67507332      96.00844795
C      73.00955419      85.94853304      95.16374029
H      71.35982312      84.79391026      95.60026708
C      74.03567557      85.34193089      92.44820359
H      75.70052445      86.55135573      92.37072480
C      74.41551055      82.57159211      91.65829799
H      72.84136854      81.42830769      92.32915082
H      76.06902109      81.98766668      92.73922144
H      74.61960100      82.65285035      89.61172439
O      72.49932807      86.49088449      90.55091837
H      72.89239116      88.26155804      90.66997113
C      75.15061410      85.16051716      97.05535633
O      76.68507186      86.85938112      97.76022425
N      75.13171683      82.87016887      97.99266058
H      73.74843717      81.68908993      97.41629407
C      76.85136777      82.07270437     100.04112390
H      78.51054748      83.26890112      99.79545948
C      75.75532652      82.43931127     102.76421953
H      74.99376682      84.35549375     102.73020445
C      73.60481798      80.60816647     103.56735321
H      72.07413966      80.35116370     102.21430917
H      72.73554387      81.21665835     105.33613703
H      74.41551055      78.74111688     103.87537860
C      78.04189536      82.45253936     104.63882802
H      79.57257366      83.49755801     103.74120802
H      78.56912899      80.50612125     105.06212672
C      77.56379459      83.88306218     107.14838457
H      76.90994929      85.75389123     106.58902559
H      79.34580651      83.94731287     108.18206487
H      76.00854985      83.02323670     108.18773404
C      77.60914802      79.31748340      99.63105330
O      76.32224440      77.65641397      98.56335793
N      79.85603262      78.64852029     100.38694383
H      80.99931703      80.13951435     100.72331510
C      80.71018890      76.07849250     100.72898428
H      79.20596676      74.91631082     101.52266934
H      82.20874188      75.99345482     102.14060985
C      81.28088626      74.68954366      98.31013461
O      82.83613102      75.53047187      96.72465422
N      80.01287989      72.48990223      97.89628455
H      78.77888861      71.88896927      99.22098268
C      79.73509014      71.12929929      95.54924447
H      81.25820953      71.61306923      94.24911275
C      79.99965181      68.32116599      96.05191167
H      78.48031185      67.82983715      97.35393310
C      79.86737098      66.82072330      93.55747292
H      81.46607944      67.07205689      92.28379739
H      78.15716865      67.01725483      92.42363715
H      79.91272441      64.78548806      93.87494695
C      82.58857686      67.68432822      97.28023377
H      83.09124407      68.93910649      98.83358879
H      83.97752571      67.87330085      95.77223217
C      82.83802074      64.92721753      98.15328732
H      84.63137101      64.81194422      99.16051144
H      82.68873236      63.55149677      96.62827818
H      81.39804929      64.55872090      99.57814097
C      77.29734318      72.03636792      94.26045111
O      75.55123607      70.71922868      93.65762842
N      77.42962403      74.52135802      93.45353798
H      78.73731463      75.73834177      94.12439082
C      75.71375253      75.46811090      91.39751576
H      75.89138682      74.11695659      89.85360936
H      76.53767321      77.09705499      90.44509369
C      72.98876720      75.96699865      92.14395765
O      71.36171283      76.72666863      90.53202110
N      72.51633562      75.57204585      94.61571967
H      73.99032214      75.27157937      95.78923970
C      70.12016266      75.98778564      95.66073832
H      68.85404603      74.72544846      94.63839638
C      70.41307023      75.09205537      98.38761338
H      71.82469578      76.27880349      99.30602038
H      71.24266009      73.20799823      98.41595928
C      67.89973424      75.16197524      99.69908344
N      65.62261403      74.02624973      99.11326829
H      65.40151604      72.31415769      98.29879625
C      63.79146923      74.92953890     100.68363086
H      61.82426413      74.38907718     100.77433772
N      64.94798173      76.68131520     102.23698588
H      64.12595079      78.06270513     103.26688672
C      67.48777390      76.75312480     101.67951663
H      68.92018645      77.92475511     102.54123182
C      69.09782072      78.75434496      95.72687873
O      70.17496472      80.41541439      96.95331112
N      67.05691630      79.05859090      94.24155385
H      66.28779769      77.59405301      93.28724207
C      66.03457436      81.70420774      93.78424008
H      67.64462119      82.87961750      93.26456536
C      64.16941450      81.52279401      91.59404729
H      63.18297736      79.75023073      91.96254393
H      65.39773659      81.27146041      89.95943402
C      62.18520187      83.59771350      91.07437255
H      60.92097496      83.82259093      92.68441938
C      63.28691231      86.05813716      90.34493819
H      64.55302894      85.88050289      88.72733247
H      64.27145971      86.87260920      91.95876447
H      61.74489563      87.26567228      89.71187989
C      60.68097971      82.80213872      88.63851533
H      61.99056006      82.28057426      87.13618291
H      59.43376036      84.32147868      88.01868511
H      59.64351998      81.12406176      89.22622021
C      64.69475841      82.71899077      96.11805209
O      63.16596982      81.39996180      97.31613857
N      65.09349066      85.05658222      96.97976728
H      66.28590797      86.12427758      95.93663835
C      63.70832128      86.30002213      99.04712786
H      62.60661083      84.76556436      99.87104854
C      65.68686471      87.58692575     100.77622745
H      64.53035221      88.49399438     102.22186808
H      66.75644981      89.14028078      99.94096842
C      67.35360332      85.66129464     102.09336668
H      67.76367393      84.10416015     100.81213225
C      69.74221739      86.86505030     102.96264079
H      70.77967714      87.29968735     101.23543093
H      70.86660455      85.64806655     104.18340398
H      69.39261802      88.51289164     104.14560946
C      66.04780245      84.60493763     104.34592045
H      64.27901862      83.66574365     103.87159915
H      66.03457436      85.98254811     105.87848849
H      67.28935264      83.04591342     104.86559519
C      61.58615863      88.04234979      98.11549279
O      59.43376036      87.68519152      98.94508264
N      62.05859020      89.88294322      96.63205765
H      63.86705828      90.00766516      96.03490412
C      60.37484406      91.99754696      95.99899932
H      58.48700747      91.27567151      95.60215679
C      59.90619193      93.82680203      98.20997911