 %block lattice_cart
   135.996   0.000   0.000
   0.000 142.663   0.000
   0.000   0.000   160.158
 %endblock lattice_cart

 %block positions_abs
N      87.85146464      40.23888811      80.39552916
H      87.07289740      39.55291746      78.79493097
H      87.16738372      39.14473658      81.80337526
H      89.72607315      39.87606066      80.47678738
C      87.03699260      42.90151249      80.92654226
H      88.26720443      43.68385918      82.38163151
C      87.29399538      44.69297303      78.53414874
H      85.54221909      44.39439628      77.49290955
H      89.01931550      44.09770924      77.57794723
C      87.41871732      47.44441454      79.44121738
H      85.84268557      48.06424477      80.61284769
H      87.47351938      48.84281202      77.92943632
S      90.01709100      48.29857084      81.42165055
C      89.77709576      51.61881997      80.82638676
H      90.46117668      52.65061054      82.47422810
H      87.77587559      52.01944195      80.55615590
H      90.65770822      52.30668035      79.09728718
C      84.35358124      42.85237960      81.85628759
O      82.82668238      41.62594723      80.61662714
N      83.64493387      44.08070171      83.89341257
H      84.83357172      45.29012655      84.76835585
C      80.97097114      44.29613051      84.56993458
H      79.90327577      42.85426933      83.55704128
C      80.51932655      43.46087148      87.45743639
H      80.74987316      44.97454225      88.83693659
H      82.11992474      42.20420348      87.78057958
C      77.95307822      42.34782268      87.84860973
O      76.12760260      42.96954264      86.48044789
N      77.68851653      40.52423679      89.52101753
H      75.91784298      39.99700314      89.99911828
H      79.23431266      40.07826138      90.55091837
C      79.81067918      47.00410831      83.81404405
O      81.26009926      48.62738322      83.03925627
N      77.34458634      47.39528166      84.07293657
H      76.30901632      46.00822255      84.87984970
C      76.18807384      49.82735942      83.45688578
H      76.55090129      50.22609168      81.46889370
C      73.18529873      49.45508334      83.50412895
H      72.52767397      48.05668587      82.14163627
C      72.04012458      48.62171404      86.04014165
H      72.94341376      46.98521105      86.90374659
H      69.98788181      48.56502225      85.89841218
H      72.29712736      50.23931976      87.29114048
C      71.83981359      51.99865496      83.08083025
H      72.36704723      53.28744830      84.59828047
H      69.79512972      51.80968233      83.22444945
C      72.40106231      53.24398460      80.43332369
H      71.84170332      51.94007344      78.94232962
H      74.45330508      53.39516270      80.29726339
H      71.32769776      54.98631226      80.21789489
C      76.91750820      51.96275016      85.30692785
O      77.47875691      53.99798540      84.25624002
N      76.99498697      51.52811311      87.75223370
H      76.22775809      49.93696355      88.47410914
C      77.88315834      53.38949352      89.64951892
H      76.43184853      54.83135470      89.89329360
C      78.16472756      52.08180292      92.18931108
H      78.46897350      53.56712780      93.58581883
H      79.82390727      50.86670890      92.30458438
C      76.07469026      50.50577117      92.95842968
C      76.37515674      47.95653038      93.67085651
H      78.15527893      47.00221859      93.37605921
C      74.31913452      46.32569657      94.15462645
H      74.67629279      44.35282230      94.53446143
C      71.88894648      47.17040423      94.48721828
H      70.42440858      45.86082389      95.04279782
C      71.48076559      49.80657244      94.11872165
H      69.59670846      50.57380132      94.25667166
C      73.51978029      51.40717062      93.25889618
H      73.12671721      53.39327298      93.00567285
C      80.54389299      54.50065260      88.87851058
O      80.88026427      56.73808855      88.69142767
N      82.15016036      52.73564822      88.29269543
H      81.62481644      50.90072397      88.24545226
C      84.63515046      53.44996477      87.34594254
H      85.51576292      54.49120397      88.89173867
C      86.26598427      51.22386717      86.85083425
H      88.17082839      51.84558713      86.36895404
H      85.45340195      50.22420195      85.24456688
C      86.51920759      49.15083740      88.83315715
H      84.81278473      48.04912696      89.17330788
H      87.23541387      50.03144987      90.55280810
C      88.43727980      47.30646452      87.79947685
O      90.71440001      47.68063033      88.43253517
O      87.93083315      45.35248752      86.60894928
C      84.67294498      55.03544514      84.82882709
O      85.91827462      56.98942215      84.39985922
N      83.15171530      54.21719365      82.83516583
H      82.22574941      52.57691121      83.15263984
C      82.83424128      55.78377676      80.57316343
H      84.70696006      55.88771171      79.71711742
C      80.95207387      54.22664228      78.88563783
H      79.20596676      54.12081761      79.97600992
H      81.55300684      52.26699610      78.68910630
C      80.62893067      55.37937533      76.14553469
H      82.22008023      54.73119921      75.00980917
H      80.77632933      57.41083112      76.45544980
S      77.86426108      54.52143959      74.08006382
C      78.55212146      55.62881921      71.00547911
H      78.89038247      57.66216472      70.96390512
H      77.05545822      55.12993146      69.68456042
H      80.18295526      54.54411630      70.37053106
C      82.07268158      58.50876211      80.99079294
O      82.89849198      60.09235276      79.56404959
N      80.62326150      58.98686286      82.99957201
H      79.98831345      57.47130236      83.97278107
C      79.58391202      61.27532143      83.92175846
H      79.16439278      62.62269629      82.41942604
C      77.06490685      60.90682480      85.41653197
H      76.93829519      62.67749835      86.45966089
H      77.40316786      59.44984581      86.83382671
C      74.93140584      60.16983154      83.61562280
H      75.49265456      58.50309293      82.54225824
C      72.37271641      59.68228215      85.06882234
H      70.82503056      59.35724922      83.74790364
H      71.91540265      61.18839402      86.39729992
H      72.73176441      57.90027023      86.03447248
C      74.16228723      62.32222981      81.68054306
H      73.46497822      63.86802593      82.85217336
H      72.57869658      61.90837974      80.43143396
H      75.89705599      62.97985456      80.78670251
C      81.56245547      62.57356341      85.51668747
O      81.96685690      64.87902951      85.00835109
N      83.13092831      61.46429406      87.24578705
H      82.64715838      59.69551023      87.77680014
C      84.91860941      62.96095730      88.75945782
H      84.06067366      64.28376572      90.08415597
C      86.53243568      61.10713579      90.46588069
H      87.95539959      62.13325718      91.53924523
H      87.23541387      59.46118417      89.44542847
C      84.98286010      60.09613221      92.71654471
H      83.42194617      59.10780535      91.80947609
H      84.20996204      61.69862012      93.75400447
C      86.25842536      57.90027023      94.13761890
H      87.72296325      58.78277242      95.28657250
H      86.96707273      56.81745706      92.53702071
N      84.76365185      56.53777756      96.04435276
H      84.08901955      54.75576565      95.91396165
C      83.95673871      57.42783866      98.27800926
N      84.79010802      59.53488349      99.31546900
H      84.03421749      60.00731507     101.00299460
H      85.78788351      60.75753642      98.23832501
N      82.40905286      56.07101516      99.61215603
H      82.11047610      56.79478034     101.35259396
H      81.83268634      54.32112860      99.11326829
C      86.80644599      64.53131987      87.17208772
O      87.42627622      66.51175304      87.95065496
N      87.76264751      63.44850669      85.05748397
H      87.12203029      61.68728177      84.70599488
C      89.79977247      64.27998627      83.40964263
H      91.28887681      65.04343570      84.60961884
C      90.81266578      62.10302155      81.82038280
H      89.27253883      61.18083511      80.81315867
C      92.90459280      62.99875183      79.91742840
H      92.75719415      64.82422744      78.97256524
H      93.01041748      61.71373793      78.31116103
H      94.67148691      62.77954357      80.95299843
C      91.74619057      59.97518973      83.66853513
H      90.09834923      59.52732459      84.81937846
H      93.12380106      61.00698029      84.79859147
C      92.79309895      57.65082636      82.27013767
H      91.19439049      56.73241937      81.35173067
H      93.45072371      56.21085491      83.58916663
H      94.23684985      58.17617028      80.89819635
C      89.06844839      66.61568799      81.83172115
O      90.54810409      68.38825127      81.74290402
N      86.71195968      66.50419414      80.80182032
H      85.73497117      64.86580142      80.83772511
C      85.80300132      68.67926912      79.43554819
H      87.46785020      69.66570626      78.72501109
C      83.97374625      68.09723342      77.36251843
H      83.09313379      69.92081931      76.98268343
H      82.67928372      66.63269553      78.01258427
C      85.39671016      67.32811481      74.92855094
O      86.17149795      69.02130959      73.44889523
O      85.99953286      65.02453843      74.68099679
C      84.72396760      70.85623384      81.14575050
O      84.77499021      73.07099307      80.29915311
N      84.06256339      70.40647897      83.56271046
H      83.86792158      68.53753965      83.90475093
C      82.99864747      72.37368407      85.34472238
H      82.55078234      74.08577610      84.29214482
C      80.57790806      71.39858529      86.88484931
H      80.21697034      72.79698276      88.35127694
H      80.96152251      69.65247817      87.90719126
C      78.06457207      71.17748731      85.35228127
H      76.44129717      70.59923106      86.48044789
H      78.31401594      69.61657337      84.03136258
C      77.31435072      73.44893834      83.79136734
O      75.87248955      73.15981021      82.05092941
O      77.90394533      75.56543181      84.51702225
C      84.65593745      73.36956983      87.46121584
O      84.37436823      75.47661467      88.58182355
N      86.97652136      72.24329295      87.64829875
H      87.30911319      70.68993792      86.59005201
C      88.98719016      73.11067733      89.21299214
H      89.74497041      74.99284474      88.85772359
H      90.51597874      71.81999426      88.71788385
C      88.27665306      72.73084234      92.04002270
O      86.95762410      71.02441948      92.94898106
N      89.44072447      74.28230764      93.57259074
H      90.75219453      75.52196810      92.95276051
C      88.80766616      74.67348099      96.21820758
H      86.80077681      74.30120490      96.48843844
C      90.29488077      72.75918823      97.86415919
H      92.29043175      72.92359442      97.37283036
H      89.34245870      70.97717632      97.47109613
C      89.77142658      73.05965472     100.72520483
H      90.44605887      74.84922554     101.48865427
C      86.90849121      72.56832588     101.56235360
H      86.38314730      70.66537148     100.96520007
H      85.62536705      73.69460276     100.41340000
H      86.69873159      72.81399030     103.59569911
C      91.25297201      70.93182289     102.10659476
H      93.09923461      70.94883043     101.19196724
H      90.77676098      69.05721439     101.39983713
H      91.30399462      71.09433935     104.15883754
C      89.45962174      77.28319303      97.07425360
O      91.68760906      78.09766507      96.82292000
N      87.60768995      78.67214187      98.18541267
H      85.83890612      77.96349450      98.09281608
C      88.09523934      81.11744772      99.42696285
H      90.07000333      81.35366350      99.96175541
C      87.50753445      83.21126447      97.65250984
H      87.09935357      84.88556198      98.78067646
H      85.73497117      82.75584043      96.70953642
C      89.48607790      83.56275356      95.56058282
H      90.15504102      81.93947866      94.48343883
H      91.14336788      84.38289478      96.46954118
C      88.57711955      85.64334224      93.89573393
H      90.35913146      86.23860602      93.05291601
H      87.65304338      87.19480754      94.88972997
N      86.84235079      84.60210304      91.96254393
H      86.41527265      82.74450207      92.07025832
C      85.72174309      85.80963815      90.10305322
N      86.29810961      88.08675836      89.30747845
H      85.28521631      88.95981191      87.94498578
H      87.53210090      89.18468935      90.25990051
N      83.93028254      84.57564687      88.84638523
H      82.82101320      85.63200388      87.70688026
H      83.20273791      82.89756990      89.38495723
C      86.60235555      81.31208953     101.84770226
O      84.34035315      80.58454490     101.93462967
N      87.83445711      82.30230611     103.76955392
H      89.61457929      82.87489319     103.38782921
C      86.86880696      82.71237672     106.22052896
H      85.45529168      81.28185390     106.66839409
C      89.06655866      82.26829104     108.18773404
H      88.50908940      82.36277736     110.16816721
H      90.37802872      83.85377142     108.11592445
C      90.54054519      79.79463930     108.00821004
H      91.48729807      79.62078448     106.18651388
C      92.49830165      79.75306532     110.19462338
H      91.39281175      80.14612839     111.88781816
H      93.80977171      81.30642035     109.85447265
H      93.58300455      78.00317875     110.16438777
C      88.77932026      77.50240128     108.62993001
H      87.86658245      76.92414503     106.87437426
H      87.23352414      77.88034654     109.93573088
H      89.95095058      75.91314145     109.21763488
C      85.34379783      85.19169765     106.69673999
O      83.49375577      85.26728670     108.09702719
N      86.05433492      87.07953423     105.14716440
H      87.44895294      86.50505743     103.98120327
C      85.30411357      89.76294560     105.43818226
H      84.63704018      90.12577305     107.35247501
C      87.60202077      91.48070682     105.13960551
H      88.45995652      91.20669650     103.28956344
H      89.04388195      90.99315743     106.53044406
C      86.77432064      94.31907574     105.46652816
H      85.82189858      94.52694563     107.28255513
H      85.10380258      94.66678538     104.31379510
C      88.81900452      96.39777468     105.26621717
H      89.44261420      96.42423085     103.30090180
H      90.35724173      95.95368900     106.56067968
C      87.82878793      98.96591274     106.35658924
H      87.99319412      98.73347641     108.39938340
H      85.82945749      99.19267990     105.91628302
N      89.31411281     101.14665691     105.61959599
H      91.03187403     101.30350419     106.43217829
H      88.20862292     102.69812221     105.76132546
H      89.71851424     100.81973425     103.78278201
C      83.04589063      89.91790316     103.48231553
O      83.35769547      88.72359613     101.56235360
N      81.10136225      91.37677187     103.85270189
H      81.10514171      92.11943431     105.61203708
C      78.95274344      91.65456164     102.04045435
H      78.10236659      89.88010863     101.43007275
C      76.91372874      93.21547557     103.49554360
H      76.49231978      92.25549460     105.26810688
C      77.52033089      96.01416024     103.99632109
H      76.09547725      96.76627131     105.27755552
H      77.59403022      97.08941451     102.24076534
H      79.41005720      96.24848630     104.78055751
C      74.57613729      92.72603646     102.02533654
H      74.36448795      90.67757313     101.94407831
H      74.77266883      93.64822290     100.19419174
C      72.36137806      94.14333119     103.13649561
H      70.60393258      93.61042837     102.20486053
H      72.71097742      96.16344862     102.94941271
H      72.14216980      93.53294959     105.09236234
C      79.91461413      92.95469334      99.52522862
O      81.62103699      94.56285043      99.43641149
N      78.71274819      92.09297814      97.46164750
H      77.59214049      90.54907174      97.52589819
C      79.50265379      93.05106938      94.90862725
H      80.32090529      94.92189843      95.17507866
C      81.58702192      91.28795473      93.68408460
H      83.32557012      91.38622050      94.78201558
H      82.04811514      92.14589048      91.86805761
C      80.70263000      88.56863857      93.34015441
C      79.45919009      87.66156994      91.30680888
H      78.94140508      88.94280438      89.80447648
C      78.84124958      85.08398325      90.94398143
H      77.76599531      84.67391264      89.25834556
C      79.71430314      83.31897887      92.82425912
O      79.04722975      80.79997370      92.38395288
H      78.68818175      80.35966746      90.66241222
C      80.98797867      84.29596737      94.87839163
H      81.55867602      83.04685828      96.38828295
C      81.39804928      86.89245133      95.15240194
H      82.63959947      87.47070758      96.66607271
C      77.15561371      93.41200711      93.33637495
O      75.11092984      93.07752555      94.45131348
N      77.40316786      94.04884488      90.94587116
H      79.11525990      94.60631414      90.31470257
C      75.29990247      94.07908050      89.14874144
H      73.64828167      93.31752079      90.11439159
C      74.35314959      96.80973502      88.27001870
H      73.25899805      96.38076715      86.57871366
H      75.89705599      97.90766601      87.46121584
C      72.92640622      98.22702975      90.30336422
H      73.77300361      98.24592702      92.17986244
H      71.13305595      97.21602618      90.37706354
C      72.30279654     101.00114798      89.57015041
H      71.06502580     101.70034672      91.05925475
H      71.65462041     101.18256171      87.62184258
C      74.69707978     102.60174617      90.17864228
H      76.24287590     101.85341455      89.04102705
H      75.33769700     102.52048794      92.13450902
N      74.39850302     105.20389930      89.36417024
H      74.45897426     105.53082195      87.48578228
H      75.50399291     106.44544949      90.29769504
H      72.61460138     105.70278705      89.81959429
C      75.67595801      92.32730420      86.84894451
O      77.81701792      91.80951919      86.16108413
N      73.54056727      91.35976433      85.77935942
H      71.83603414      91.91912332      86.42942527
C      73.41206589      89.93302097      83.39452481
H      74.80668390      88.41746046      83.43798852
C      70.71731616      88.87855368      83.22066999
H      69.75355574      90.63410943      82.74634869
H      69.97465372      88.23982619      85.03480726
C      70.40929077      86.83575954      81.15708887
O      69.37372075      87.27039659      79.05382348
O      71.30124159      84.70036881      81.61818209
C      74.02811666      91.61487738      81.09850735
O      73.95252761      93.97136610      81.30637725
N      74.59692428      90.36576829      78.97634469
H      74.98242845      88.50060842      79.09728718
C      74.53456332      91.45803010      76.32127922
H      75.95941696      92.93201662      76.53670802
C      75.42840386      89.50405309      74.37675085
H      75.68162719      90.53206421      72.60985675
C      78.02488782      88.40990156      74.77926256
H      79.29478390      90.01994838      74.97768382
H      78.44818651      87.51984046      72.97079448
H      78.29511868      87.25905823      76.46300871
O      73.61615633      87.37244181      74.34084606
H      72.10059582      88.02061794      73.58117608
C      72.15161843      92.81863305      75.49357910
O      72.25744311      94.11876475      73.60952196
N      70.11260374      92.38399599      76.82394643
H      70.24299486      91.00071633      78.13352676
C      67.68997461      93.64066399      76.53670802
H      67.71454105      94.37387780      74.61296665
C      65.62072430      91.57330341      76.72757039
H      65.32781672      90.88922248      78.64753232
H      66.20087028      89.90656480      75.66176474
C      62.89195950      92.07786033      75.85073738
H      62.13606898      93.87310033      76.51781077
H      61.62962232      90.60765326      76.55560530
C      62.59149302      92.08919869      72.91032324
O      62.15685597      90.06719153      71.95412171
O      62.95621020      94.06396269      71.66310386
C      67.27612455      95.94801982      78.35084529
O      65.51300990      97.41255771      78.13163703
N      69.02034193      96.25793494      80.15175446
H      70.52456408      95.08063544      80.10073186
C      69.00144467      98.15710988      82.20588697
H      67.93374930      99.74070053      81.43676835
H      70.99888538      98.50292980      82.58005277
C      67.75044585      97.45224197      84.71544350
O      67.49911225      99.02449426      86.32360060
N      66.98132724      95.13354778      85.01024082
H      67.39139785      93.80884963      83.69877075
C      65.68119554      94.44757713      87.41208296
H      64.73444266      96.10864656      88.17553238
C      63.67241647      92.29895831      86.96421783
H      62.54991904      91.74526850      88.60261053
H      64.72121457      90.55285120      86.65997189
C      61.87150729      92.55974054      84.69465652
C      61.57482026      90.71536766      82.89941653
H      62.96376910      89.22059415      82.89563707
C      59.74178574      90.90434029      80.99646213
H      59.47155487      89.36610307      79.68310234
C      58.11473138      93.04540020      80.87362991
O      56.58972225      93.37421258      78.92532209
H      55.90564132      95.05039982      79.04437485
C      58.40574923      94.96347241      82.82382748
H      57.23033947      96.63021102      82.88996789
C      60.30114473      94.70646963      84.71166405
H      60.47877900      96.18234588      86.11006153
C      67.48777389      93.60286947      89.48133327
O      69.21309402      92.22336926      89.03535786
N      66.85660531      94.25671477      92.00978708
H      65.17285916      95.12409915      92.25167205
C      68.34193019      93.57641330      94.28123810
H      70.31858391      93.87499005      93.77857090
C      67.63139309      95.19401902      96.36182677
H      68.62538913      94.40789287      97.98699140
H      65.58670922      95.02394365      96.53946106
C      68.48932884      98.00593177      96.41473912
C      66.61472034      99.86164301      96.19742059
H      64.62483853      99.46102104      95.98955070
C      67.43108210     102.40899408      96.17474388
H      65.87961680     103.73369223      96.22954594
C      70.04079414     103.03071404      96.05569112
O      70.83825865     105.37208494      96.22576649
H      69.35671322     106.41899332      96.18986168
C      71.80201907     101.19012061      96.27111991
H      73.78434197     101.65121383      96.43930556
C      71.13305595      98.71646887      96.51867406
H      72.64672673      97.35208647      96.59426312
C      68.26445141      90.75316219      94.79335393
O      66.22921617      89.56830379      94.83114846
N      70.60204286      89.75727642      95.20153482
H      72.01933759      91.03095195      95.31680812
C      71.34470530      87.04173971      95.14295331
H      69.69686395      86.06286148      95.89506438
C      71.99855060      86.15734779      92.55780771
H      73.82024677      87.01717326      92.12883984
C      72.43318766      83.40401655      92.16663437
H      73.97520433      82.91457744      93.44030989
H      73.18907818      83.38700902      90.25234160
H      70.75700042      82.24750405      92.48410838
O      70.28078938      86.56174922      90.49989575
H      70.78912576      88.06786109      89.63062165
C      73.58403098      86.65812527      96.90795768
O      74.96353119      88.47037280      97.41818378
N      73.94496871      84.37155643      97.88872564
H      72.78845620      82.97126923      97.29913103
C      76.05390327      83.65157070      99.71609099
H      77.62993502      84.80241403      99.05657650
C      75.43974222      84.33376190     102.45619414
H      74.49487906      86.15356834     102.27100096
C      73.28923368      82.64812603     103.49176415
H      72.51066643      83.59109946     105.14716440
H      73.78245224      80.67903121     103.84325324
H      71.83981359      82.53852190     102.03100572
C      77.80756929      84.45470438     104.26088277
H      79.32501952      85.32397849     103.17429014
H      78.44062760      82.60466232     104.90716916
C      77.39371923      86.11577381     106.71563724
H      79.17384141      86.72426569     107.55278601
H      76.24665536      85.00839419     108.01954840
H      76.38649510      87.84298366     106.22241868
C      76.86459586      80.85855521      99.48554438
O      75.26777712      79.39968650      98.32903187
N      78.90739000      80.00817837     100.74221238
H      80.14516074      81.34232515     101.31857890
C      79.40249830      77.26996494     101.09370146
H      77.60914803      76.49139770     101.73998787
H      80.83680057      77.05642587     102.55823935
C      80.24153678      75.96416406      98.62949835
O      82.23897749      76.48572852      97.51833928
N      78.67306394      74.14813707      97.75644480
H      77.11592946      73.77964044      98.80146344
C      78.94707426      72.78753413      95.39428691
H      80.71207863      73.32988558      94.48154910
C      79.21919485      69.90381177      96.01033768
H      77.47686718      69.08556028      96.73977204
C      80.07335114      68.44872251      93.54613457
H      81.60780890      69.40303430      92.56158717
H      78.43306870      68.45061224      92.29891521
H      80.52310600      66.46073043      93.83904215
C      81.54922739      69.41815211      97.74888590
H      81.56056575      70.86757219      99.21153406
H      83.28966532      69.83578163      96.73032341
C      81.57190411      66.87835995      99.05090732
H      80.18484499      66.65726197     100.55512947
H      83.44840233      66.58167292      99.85026156
H      81.03900128      65.34957136      97.77912151
C      76.60759308      73.31854722      93.70487159
O      74.95408256      71.78031000      93.08882080
N      76.24665536      75.76385307      92.96409886
H      77.48442609      77.07154368      93.58959828
C      74.17740504      76.77674637      91.29547054
H      73.98843241      75.28764204      89.88573471
H      74.58936538      78.63434734      90.50367521
C      71.54879574      76.79942309      92.57670497
O      69.54568585      76.61422991      91.24633764
N      71.51478067      76.96193955      95.05035672
H      73.14561448      77.30209029      95.98199179
C      69.35671322      77.06209505      96.56780695
H      67.97532328      75.73361745      95.81569588
C      69.75544547      76.58210456      99.45908821
H      70.63605793      78.26396098     100.25655271
H      70.94597305      74.91158650      99.65373002
C      67.17029987      76.22872574     100.85370622
N      65.82670447      74.10089392     100.88394184
H      66.05347162      72.50218545      99.86537936
C      63.68942401      74.48072890     102.06313107
H      62.21165803      73.07666225     101.98376255
N      63.49478219      76.90902722     102.76610926
H      61.89040456      77.92381025     102.95697161
C      65.70765171      78.02774519     101.97053448
H      66.05536135      80.01762700     101.67573717
C      68.13217057      79.68503517      96.11994180
O      68.80113368      81.54830531      97.35960227
N      66.06103053      79.76818313      94.60816076
H      65.47521537      78.25262263      93.60282636
C      64.34137958      81.80908755      94.52501281
H      65.38261878      83.40212683      93.73321748
C      62.16063542      81.14201416      92.79024404
H      61.10616814      79.43748102      93.26267562
H      63.07904241      80.46360241      91.07626228
C      60.18587142      83.17535967      92.17608300
H      59.37895829      83.94636801      93.90518257
C      61.50867984      85.43169289      90.86650266
H      60.14618717      86.93969449      90.53580055
H      62.24567310      84.67202291      89.09960856
H      63.11872666      86.09309710      91.96632338
C      58.27346839      82.19648144      90.27879778
H      56.69176747      83.45314944      89.87817580
H      57.27569290      80.64123668      91.18964585
H      59.15786031      81.66735807      88.49489614
C      63.35683217      82.59521369      97.12338648
O      62.68975879      81.02296140      98.76555864
N      63.08849104      85.09910106      97.45597831
H      63.68942401      86.19325259      96.01222741
C      62.23244502      86.31608480      99.69908344
H      61.62773260      84.94603323     101.11259872
C      64.31492341      88.00738985     100.82725006
H      63.49100274      89.09587221     102.36737700
H      65.26356602      89.07130577      99.34003544
C      66.42574771      86.42946838     102.06124134
H      67.23833002      85.32208876     100.52489385
C      68.43263705      88.36643785     103.03822985
H      69.14128442      89.51350172     101.48109536
H      69.97465372      87.41590552     104.02088753
H      67.55580404      89.74593806     104.29300812
C      65.58481950      84.80619348     104.29489784
H      65.47332564      85.96837516     105.99376179
H      66.89062038      83.23205146     104.53678281
H      63.69509318      84.07108994     103.92451148
C      60.02902414      88.15100905      99.37405052
O      58.14874646      87.78251242     100.74977128
N      59.94965563      89.82341684      97.51644956
H      61.52946683      90.26561280      96.54513023
C      57.71788886      91.38622050      96.86449398
H      56.07193724      90.14844977      96.80213301
C      57.40230456      93.39499957      98.82036070