 %block lattice_cart
   135.996   0.000   0.000
   0.000 142.663   0.000
   0.000   0.000   160.158
 %endblock lattice_cart

 %block positions_abs
N      87.98752494      38.44931730      82.78697780
H      86.41338292      37.43264453      83.14980526
H      88.97396208      38.51167827      84.41970134
H      89.04199223      37.46288015      81.54164816
C      87.46407075      41.04958070      81.96872631
H      88.49397160      42.41018365      83.12334909
C      88.37680856      41.66185203      79.23051288
H      87.56611598      43.42685640      78.54643196
H      87.97618659      40.12550454      77.92093255
C      91.20194940      42.31947679      79.24563070
H      92.12413584      42.57081039      77.42204480
H      92.12980502      40.73588614      80.17537604
S      92.08823104      45.33547997      80.99362754
C      91.76508784      47.48031934      78.42926893
H      93.22017710      47.14772751      77.01008447
H      91.64036591      49.40784018      79.14169574
H      89.91693551      46.96253434      77.68471677
C      84.73341623      41.52390200      82.26352361
O      83.11770023      40.11605590      81.40747760
N      84.23263876      43.68385919      83.52397106
H      85.63292596      44.79690797      84.19104445
C      81.52088150      44.27534352      84.15891912
H      80.36436900      43.44575366      82.67170450
C      80.68562247      43.14150772      86.68926264
H      81.49064588      41.25367114      86.84610992
H      78.64471805      42.85993851      86.69871127
C      81.56812466      44.23943872      89.13456849
O      82.94384541      46.04790680      89.06842807
N      80.92750744      43.27756802      91.27940786
H      81.12592870      44.24132844      92.91591084
H      79.48375654      42.04168701      91.11689139
C      80.78955742      47.11182272      83.87546016
O      82.47708301      48.57636061      83.03831141
N      78.48598104      47.89605914      84.59544589
H      77.05734795      46.63372195      84.66158631
C      77.56757405      50.50199172      84.44426778
H      78.07024125      51.26544114      82.59611544
C      74.57046812      50.63238284      84.65780686
H      73.98843242      49.40217100      83.11201073
C      73.33836657      49.30201550      86.96138323
H      73.97709406      50.22798140      88.68670336
H      73.79379061      47.29890561      87.08799489
H      71.30124160      49.57791556      86.84610992
C      73.41584534      53.22319760      84.55198218
H      74.18496395      54.26443681      86.15635982
H      71.38249983      52.93973866      84.71071919
C      73.80512896      54.81056772      82.12179414
H      75.80823886      54.88993622      81.65503175
H      72.98498774      56.68517621      82.35045102
H      72.63538838      54.00554431      80.62891036
C      78.96975098      52.16684059      86.38123726
O      79.15305443      54.44774025      86.18470571
N      80.09413813      50.90072396      88.26907384
H      80.07524087      48.99399012      88.31064781
C      81.57946302      52.15739197      90.28541182
H      80.95585333      54.03200048      90.87689615
C      81.34513695      50.58136022      92.75906357
H      82.66794537      51.35803773      94.13478432
H      82.17094735      48.72186953      92.44914845
C      78.83180096      50.64372119      94.11210761
C      78.53322420      52.18195841      96.20592435
H      80.14705047      53.32902228      96.70103264
C      76.26177317      52.05723647      97.56085812
H      75.91217380      53.30256612      99.14066931
C      74.42873865      50.31490881      96.97882241
H      72.73176442      50.18073825      98.10320957
C      74.84825789      48.47431538      95.05319130
H      73.64639195      46.88316583      94.62422344
C      77.04789932      48.70675173      93.55841779
H      77.32379936      47.20819875      92.20348402
C      84.41594221      52.52021942      89.70148638
O      85.47418895      54.54033684      90.57265021
N      85.47796840      50.91017260      88.10844710
H      84.19106478      49.52122377      87.86467240
C      87.99697358      51.03867399      86.87634554
H      89.31600254      51.92873508      88.18592589
C      88.67727505      48.32124755      86.34344273
H      90.45739723      48.26644549      85.30598298
H      87.17116318      47.45008372      85.24362201
C      89.00419770      46.80757678      88.68481363
H      87.49430638      47.21008848      90.02651932
H      90.60668561      47.71275567      89.60888979
C      89.44828338      43.89928799      88.36544989
O      91.52887205      42.86182824      89.22716508
O      87.89492835      42.69931177      87.11256133
C      87.90059753      52.71486124      84.40080407
O      89.79221357      53.82413057      83.63924438
N      85.66505130      53.07390922      83.26696829
H      84.23830794      52.13471526      84.11734513
C      85.12647931      54.99954034      81.30165292
H      86.67983433      55.00709925      79.95049862
C      82.58101796      54.34380531      79.79743077
H      81.01254512      54.12459705      81.11645975
H      82.91927897      52.57313176      78.79965529
C      81.63237535      56.34502547      77.90959419
H      83.06856735      56.73619883      76.48474056
H      81.14482596      58.13270656      78.80721420
S      78.81290369      55.19796161      76.17671517
C      80.40783270      52.88304688      74.21139980
H      79.86737098      51.05379181      74.99185676
H      82.46763438      52.87359824      74.20384089
H      79.93540112      53.12304212      72.21962826
C      84.72018815      57.58846540      82.52430585
O      86.08835000      59.29488826      81.86479137
N      83.02321392      57.93995449      84.35356092
H      81.94606992      56.55289538      85.09622337
C      82.50731864      60.55533571      85.54975767
H      82.28055148      61.93861537      84.04175607
C      80.17917582      60.71218298      87.28641615
H      80.25098542      62.45262093      88.38812660
H      80.23019843      59.08890808      88.55442251
C      77.61670694      60.64982201      85.81998853
H      77.69040626      59.16449714      84.39513489
C      75.48320593      60.06589659      87.71160457
H      73.76166526      60.10558085      86.58343797
H      75.57202307      61.42460981      89.25740070
H      75.76855460      58.17617028      88.47694374
C      77.11403974      63.28410050      84.68426302
H      78.65983586      63.77353962      83.41436694
H      77.01199452      64.74107949      86.13557284
H      75.33391755      63.33890256      83.64869300
C      84.87703543      61.62870025      86.89335309
O      85.15104575      63.89826156      87.19192985
N      86.68928297      60.14526509      87.69270731
H      86.31322743      58.28766413      87.45838126
C      89.17049362      60.77454395      88.70938007
H      88.75097437      61.84979823      90.41391321
C      90.59912671      58.33679702      89.35944593
H      90.87880620      57.19351260      87.66814088
H      89.52009298      57.30878589      90.78429956
C      92.99529967      58.69395529      90.76918176
H      92.46617631      60.02621233      92.24694772
H      94.38424851      59.52354514      89.49361649
C      94.11023820      56.33746657      91.84821548
H      92.68727428      55.59858359      93.14078828
H      95.73351310      56.95918652      92.95559509
N      94.90959243      54.58946973      89.84132614
H      94.71306089      55.32835273      88.09332930
C      95.42548771      52.15361252      90.09265973
N      95.28942742      51.03867399      92.23749910
H      95.92815491      49.23965454      92.27151417
H      95.19494110      51.94763235      93.91368633
N      95.89980902      50.61915475      88.11411628
H      96.41948375      48.80690721      88.41836222
H      95.62201925      51.10481441      86.29053040
C      90.73329728      62.43750311      86.96327295
O      92.19216599      64.12502871      87.70404568
N      90.65770822      61.75153246      84.55576163
H      89.48796764      60.33612745      84.03986636
C      92.19216599      63.07434088      82.66603532
H      93.57544565      64.28187599      83.59767039
C      93.96283955      61.23185772      81.24118169
H      95.08722670      60.09802194      82.54131338
C      92.47751466      59.42905882      79.56121500
H      93.65292443      57.83035035      79.00752519
H      91.41170902      60.28321512      78.01730860
H      91.20761858      58.37081208      80.79142683
C      95.78831516      62.56411477      79.38736017
H      94.62802321      63.43338888      77.92471201
H      96.96750438      61.09768716      78.55210114
C      97.51552501      64.62391645      80.48340144
H      98.27519499      65.57822824      78.82422173
H      98.98195263      63.84534921      81.70038517
H      96.45916800      66.20183792      81.28464539
C      90.50464039      64.86958087      80.98606863
O      91.34556860      66.82166815      80.12813288
N      88.08390099      64.37636231      80.58544665
H      87.57367488      62.60757847      81.09378304
C      86.14315206      65.73696526      79.05098888
H      86.86691724      66.27931670      77.19905710
C      83.71107430      64.05321910      78.83744981
H      82.56967960      64.26675819      80.53820350
H      84.31011754      62.14648526      78.34423125
C      82.13315283      65.03776652      76.65481592
O      83.04778036      65.76909061      74.57422725
O      79.80312028      65.02642816      76.84756800
C      85.50631429      68.22195535      80.36245895
O      84.63515046      69.95483438      79.10768067
N      85.94662053      68.49029649      82.79264699
H      86.60991446      67.01253051      83.79609165
C      85.01687518      70.72206327      84.15324994
H      85.29277522      72.43982449      83.04964976
C      82.16149872      70.41214815      84.58977671
H      81.62103700      71.13024415      86.44170850
H      81.37537257      68.50730402      84.55387190
C      80.43995805      72.04676141      82.52808531
H      78.45385569      71.62535244      82.87579494
H      80.89538209      71.73117711      80.54387268
C      80.53822382      74.93615294      82.87579494
O      81.97252609      76.13990861      81.43960295
O      79.05478866      76.13423942      84.41592189
C      86.52865623      71.11701607      86.64768867
O      87.37336389      73.13713350      87.29775451
N      87.03321316      69.07989111      88.05175531
H      86.42850074      67.42827030      87.31287233
C      87.81933930      69.20272332      90.65957762
H      89.37647378      70.54064954      90.81642491
H      88.33712431      67.28465110      91.20003936
C      85.82378832      70.01530562      92.66646698
O      83.87359076      71.05465510      92.03340866
N      86.33590415      69.32744524      95.08720637
H      88.10090852      68.66037185      95.38389340
C      84.81467446      70.05687960      97.35487795
H      82.85313855      70.10790221      96.73504773
C      85.20584781      67.98951901      99.48648923
H      87.22974469      67.72684707      99.75483037
H      84.54444360      66.13569750      98.87799736
C      83.76587636      68.37502318     101.87510330
H      84.22130040      70.23262415     102.64044245
C      80.93695607      68.08967451     101.24771415
H      80.23019843      69.70539051     100.18379825
H      79.80312028      68.19171973     102.96169593
H      80.61759232      66.41726672     100.08553247
C      84.41216276      66.29821397     103.78372687
H      86.42283156      66.55899619     104.14466459
H      84.37814769      64.32722942     103.18846308
H      83.35769548      66.46639962     105.54684153
C      85.73308145      72.62501767      98.18257807
O      88.01209139      73.01808073      98.67390692
N      83.96996680      74.41080902      98.70981172
H      82.12370419      74.03664321      98.40934524
C      84.44995729      77.02996969      99.62254952
H      86.50031034      77.03752860      99.83419887
C      83.55044756      78.92536519      97.61754991
H      83.95673872      80.82265040      98.31296919
H      81.55867603      78.71182611      97.14889779
C      84.80144638      78.46805142      95.02673513
H      84.81278474      76.48005935      94.48816313
H      86.81967408      78.85355559      95.18547215
C      83.35769548      80.00817836      93.11622184
H      83.38793110      82.02829579      93.52440271
H      81.38482121      79.42992211      92.98772044
N      84.85813817      79.68125571      90.67658517
H      86.68928297      80.22171744      90.66524680
C      83.91516474      79.01796178      88.56009169
N      81.77032537      77.93514860      88.31253754
H      80.91805881      77.58365950      86.64012976
H      81.12025952      77.30209028      89.99250423
N      85.06222861      79.46582691      86.39635506
H      84.23452849      78.84221723      84.79197742
H      86.64770899      80.52407365      86.32076602
C      83.72241266      77.61578486     102.31729925
O      81.52088150      77.16603000     103.02405690
N      85.48741703      78.60978090     103.78750632
H      87.24675223      78.95560081     103.13366102
C      85.33434920      78.75528982     106.57485263
H      83.72052293      77.69326363     107.29294864
C      87.67194065      77.42681222     107.90521995
H      87.81555985      77.62145403     109.95179355
H      89.30466418      78.40002128     107.10775546
C      88.07256263      74.61867892     107.26271302
H      88.44672844      74.16703433     105.28794901
C      90.39503627      73.74562536     108.92567216
H      92.15248174      74.70560633     108.45324059
H      90.72195892      71.71227985     108.93323107
H      90.15126157      73.87412675     110.96846632
C      85.58568280      73.32799585     108.01671382
H      83.89437775      73.49240204     106.85264240
H      85.31734166      73.59444726     110.04250041
H      85.94095135      71.29842979     108.02805217
C      84.95262448      81.58987929     107.39121440
O      84.12681409      82.07553895     109.45290581
N      85.41749716      83.36811176     105.66967374
H      86.43039046      82.61978013     104.23348173
C      84.67294499      86.07986901     105.65455592
H      83.45785097      86.34632043     107.29672808
C      87.07478713      87.65401103     105.97014022
H      88.01209139      87.33653701     107.77860829
H      86.48519252      89.61176749     106.22903272
C      88.85112987      87.48960485     103.69490973
H      87.65493311      88.18691386     102.17179033
H      89.51442380      85.54129701     103.63443849
C      91.21328776      89.27917566     103.66467411
H      92.23373997      89.33775717     105.45424494
H      90.31377803      91.08197456     103.24137541
C      92.90081336      88.58186665     101.47448132
H      91.95972965      89.21492496      99.75860982
H      93.23907437      86.55041086     101.54629092
N      95.36123702      89.93491069     101.38377445
H      96.31554880      89.42279487     102.95413702
H      95.12880068      91.81329864     101.13622030
H      96.30232072      89.15256399      99.91923657
C      83.02132419      86.97559929     103.36231790
O      83.41816672      85.95892652     101.26850115
N      81.16561295      88.51005705     103.72703508
H      80.65160740      89.14311536     105.45424494
C      79.15494416      89.31508046     102.02061222
H      77.98709330      87.62755486     101.84675739
C      77.53733843      91.65834108     103.06563087
H      78.87148521      93.21925502     103.20547061
C      75.47753675      92.43501860     101.01527782
H      76.35059031      93.31941052      99.37310566
H      74.12827216      93.78050373     101.79573478
H      74.40606193      90.77772862     100.42190376
C      76.37893620      91.03473141     105.66400456
H      77.73386997      90.26183334     107.01137941
H      75.29423330      89.35854416     105.15755791
C      74.74999212      93.00760567     106.94145953
H      72.98309802      93.57074411     106.04572927
H      75.95185806      94.58552715     107.50081852
H      74.25677355      92.17801583     108.76126598
C      80.01099018      89.87632917      99.24838372
O      82.13504255      91.04606976      98.68146583
N      78.53700365      89.14311536      97.35109850
H      76.91750820      88.19825221      97.71392595
C      79.14549552      89.67601818      94.76784263
H      80.43428887      91.27850609      94.64501042
C      80.41728133      87.38755962      93.42046778
H      81.93851102      87.06063697      94.76595291
H      81.09002390      87.99983094      91.57042571
C      78.86203658      84.92335651      93.05953005
C      78.11181523      84.34321053      90.54052486
H      78.52944475      85.52239975      88.92669860
C      76.85514723      82.20404034      90.06998302
H      76.29200879      81.83365398      88.14246218
C      76.29578824      80.52596337      91.97482715
O      74.92006749      78.50395622      91.32098183
H      74.98053873      78.34899866      89.51440349
C      76.76255064      81.06831483      94.58264945
H      75.94996833      79.79652902      95.95648049
C      78.29889814      83.33031723      95.07964748
H      78.70518929      83.98983171      96.96748405
C      76.86648559      90.58308682      93.41857805
O      74.85581679      90.87788412      94.56942136
N      76.92884656      90.88355330      90.93358794
H      78.70707902      90.68135258      90.27029400
C      74.73109486      91.66212054      89.33298975
H      73.06246652      91.95691784      90.50273035
C      75.21297507      94.15089009      87.82498815
H      73.83914404      94.37765726      86.30564820
H      77.01955342      94.04317570      86.84233047
C      75.12793738      96.32596508      89.71849393
H      76.87782395      96.23714794      90.79941738
H      73.56702345      96.31840617      91.06208933
C      74.87471406      98.95646410      88.48261292
H      72.93774459      98.99614836      87.77963472
H      76.40917182      99.09063467      87.11445106
C      75.25643877     100.95768427      90.51217897
H      77.21608496     100.84052124      91.13767839
H      73.96764543     100.73469658      92.10521825
N      75.11470930     103.68833879      89.53141102
H      73.45363987     104.04171761      88.66024719
H      76.54334239     104.06250461      88.32387590
H      75.27155658     104.73335744      91.11878112
C      73.81268787      89.57586269      87.52263195
O      75.41895524      88.32486387      86.37934753
N      71.36738202      89.23004278      87.07476682
H      70.25055377      90.25805389      88.23316904
C      70.06536059      87.94880833      85.02441377
H      70.85715592      86.04963340      84.91669936
C      67.13628481      87.99983094      85.48361725
H      66.44653470      89.90656479      85.11134117
H      66.85849504      87.88644736      87.52074222
C      65.69442363      85.74727719      84.15136021
O      64.65318443      86.17624505      82.03108728
O      65.77757159      83.68558577      85.03197266
C      70.61716067      89.21303523      82.43170926
O      71.56202383      91.37677186      82.15958867
N      70.00866880      87.94880833      80.36056923
H      69.52300914      86.11955326      80.61001309
C      70.58314560      88.99382698      77.92093255
H      72.58625549      89.45869966      77.80754898
C      70.11071402      87.13244656      75.67026852
H      68.07358906      87.06063697      75.37169176
C      71.49966286      87.66345966      73.20228594
H      73.52544947      87.39700825      73.44606065
H      71.37872038      89.68546681      72.83000986
H      70.73999288      86.59198484      71.61680558
O      70.89872990      84.67013318      76.33356244
H      72.54090206      84.72493524      77.10646051
C      69.00333440      91.26149856      77.21417490
O      69.99922017      92.80918441      75.68538632
N      66.87172312      91.86432125      78.43115866
H      66.10449424      90.53395393      79.56688417
C      65.43175167      94.16789764      78.35556960
H      66.13284013      95.29228478      76.77764813
C      62.75211976      93.35153587      77.62802498
H      61.60505589      95.06362790      77.60912771
H      61.92252991      92.11565486      79.05287861
C      62.58015467      92.33108366      74.87091428
H      60.70932562      91.58653148      74.43060805
H      63.87083774      90.72481629      74.93327525
C      63.48911302      94.21136133      72.79032562
O      64.72688376      93.34586668      70.95351163
O      62.97699719      96.53761443      72.87914274
C      65.69253390      95.96691708      80.70827886
O      64.22988574      97.78294406      81.01252480
N      67.86004998      95.66834033      82.18793457
H      69.09404127      94.29072985      81.71928245
C      68.61216106      97.30484331      84.29119995
H      68.07736851      99.21346689      83.72995124
H      70.66440383      97.13476794      84.19104445
C      67.62950337      96.62454184      86.87067636
O      68.30602539      97.69223720      88.78496913
N      65.87016818      94.92945733      86.98028050
H      65.14262355      94.15466954      85.39480011
C      64.43208645      94.34175245      89.34999729
H      63.70265210      96.11809519      90.10021864
C      62.15874570      92.53328437      88.78496913
H      61.24033871      92.52005628      90.62934200
H      62.90329786      90.62844024      88.53363552
C      60.23500431      93.55373658      86.91414008
C      59.11439661      91.89644660      85.16047405
H      59.33360486      89.86877028      85.26629872
C      57.28892099      92.83942003      83.49562518
H      56.28547632      91.62432601      82.19927293
C      57.00735177      95.48881633      83.24240185
O      55.46533510      96.31273699      81.37724198
H      56.04926053      97.98703451      80.99551727
C      58.19221017      97.18579055      84.83544113
H      57.84639025      99.19456962      84.75040345
C      59.89674330      96.20502260      86.70249073
H      60.76790713      97.52783101      87.98939434
C      66.42385799      93.07185637      91.11878112
O      68.26256169      91.88132880      90.12667480
N      66.48999841      93.20791666      93.69258835
H      65.10860847      94.30962710      94.41446382
C      68.53657200      92.21392063      95.25350230
H      70.28078939      92.43501860      94.18202747
C      68.68019120      93.94302020      97.58920401
H      70.05591196      93.14177625      98.89878436
H      66.80558270      94.18112571      98.40934524
C      69.46442762      96.46391510      96.87677720
C      67.62761365      98.34608251      96.50639084
H      65.66418801      97.83585641      96.71615046
C      68.34193019     100.86697741      96.10387913
H      66.99644506     102.26348515      95.46704137
C      70.96109086     101.54916861      96.04907707
O      71.70375330     103.96423883      95.38956258
H      70.25433322     105.03004447      95.13633927
C      72.75633086      99.60464023      96.20214490
H      74.75944075      99.99203412      96.12277640
C      72.06469103      97.04784053      96.60843606
H      73.55568509      95.66078142      96.76150390
C      68.29846649      89.43980240      95.82986881
O      66.18197302      88.42123992      95.91679622
N      70.45086476      88.08297890      96.26261614
H      72.12138282      88.96737081      95.99427501
C      70.68708055      85.24649970      96.59142852
H      68.93908371      84.56997768      97.45125400
C      71.05368745      84.12589200      93.89100962
H      71.69241495      82.18325335      94.14990212
C      68.80113369      84.17880434      92.14490251
H      67.17407933      83.48716451      93.19748006
H      69.11293853      83.16969049      90.37611868
H      68.39295280      86.16868614      91.79908260
O      72.71853633      85.59231963      92.28285252
H      74.29078863      84.84587774      92.79307864
C      72.67129318      84.26195230      98.36588153
O      74.49298934      85.61121688      98.93468916
N      72.52200480      81.92247113      99.33531113
H      71.06691554      80.79430451      98.82886448
C      74.25299410      80.82076068     101.17968401
H      76.14649987      81.51240051     100.75827505
C      73.51411111      81.56531286     103.93490497
H      73.14939393      83.59109945     103.86309538
C      71.18974775      80.03085508     104.88732703
H      70.80424358      80.37478527     106.88287802
H      71.10282034      77.98995066     104.62654480
H      69.55324476      80.95115180     104.03883993
C      75.64005321      80.86989356     105.73770387
H      76.02366766      78.84599668     105.74715251
H      74.97675928      81.60688682     107.54428223
C      78.13449195      82.41379996     105.46747301
H      78.94329481      82.46860202     103.57396725
H      79.62926546      81.60121765     106.62776498
H      77.88126862      84.39990232     105.95124295
C      74.22464821      77.95404586     100.93779905
O      72.43129793      77.00540325      99.94569273
N      76.10303616      76.50084633     101.86376494
H      77.57324323      77.38901769     102.69902396
C      76.23720673      73.72105892     101.46503268
H      74.40039275      72.88391016     101.89022110
H      77.80378984      72.95949923     102.56485340
C      76.75121229      72.90847661      98.69091445
O      78.81479342      73.45082806      97.67613142
N      74.90683940      71.73873602      97.46259235
H      73.32513848      71.39858528      98.47359594
C      74.66306471      71.85211960      94.60910562
H      75.84792311      73.35823147      93.85888427
C      75.55312580      69.37090895      93.35621708
H      74.41551056      67.75708269      93.94014250
C      75.29801275      69.71672886      90.46871527
H      76.00666012      67.89314297      89.82809805
H      76.63026980      71.21339210      89.98872479
H      73.31757958      69.81121518      89.91313573
C      78.16850702      68.51675265      94.09510006
H      78.12126386      67.84589981      96.04151816
H      79.56501477      70.01719535      93.89856853
C      79.48375654      66.18294066      92.88756494
H      78.45952487      64.43305410      93.25039240
H      81.31112188      65.95995295      93.81353085
H      79.77477439      66.45317153      90.86555780
C      71.97587389      72.47572928      93.85699454
O      70.19575171      71.17937704      94.33509530
N      71.71698139      74.49206727      92.40379502
H      73.25332888      75.62212359      92.29797034
C      69.60048792      75.39346672      91.04508180
H      68.82003095      73.64169042      90.29486044
H      70.28267912      76.62178882      89.53896993
C      67.39895676      76.41013947      92.77418137
O      65.68875445      77.61578486      91.61010996
N      67.41785403      76.03597365      95.28373792
H      68.83514876      75.02874954      96.07175378
C      65.21065369      76.60289155      96.85976965
H      63.38139862      76.03975311      96.09820996
C      65.60938594      75.50496056      99.52617349
H      66.89251011      76.65202444     100.66000927
H      66.38795319      73.62090344      99.21814810
C      63.31903765      75.02308035     101.09086688
N      61.88284566      72.80454167     100.98882165
H      62.32315189      71.17370785     100.09876056
C      59.75312410      73.12579513     102.30407116
H      58.20732798      71.88424494     102.78595137
N      59.79469808      75.53708591     103.30184666
H      58.47188966      76.24762300     104.48103588
C      61.86205867      76.74462103     102.47981572
H      62.45732245      78.67214187     102.80484864
C      64.91963584      79.55653378      97.02039640
O      66.67330186      81.02296139      97.71392595
N      62.61416974      80.38801335      96.41379425
H      61.25923597      79.07465357      96.11899694
C      61.73355728      83.01473293      96.64056140
H      62.90329786      84.07108994      95.31208381
C      59.07282263      83.00339458      95.37255505
H      57.86906697      81.89601495      96.62355387
H      59.11439661      82.00372935      93.57164588
C      57.73300667      85.75294636      95.27617901
H      57.69332242      86.45214509      97.21314849
C      59.13518360      87.76361515      93.73416233
H      61.09294006      87.78629187      94.37288983
H      57.96544301      89.45869966      93.79085412
H      59.01046166      86.99827600      91.82553877
C      54.96266790      85.39956754      94.55430356
H      53.99701775      87.20803562      94.35588230
H      54.04804036      85.02351201      96.35899219
H      54.57905346      84.12022282      92.98583072
C      61.96221416      83.92369128      99.42601799
O      61.17230856      82.56308834     101.08141824
N      63.27368422      86.02695667      99.84742696
H      63.53446645      86.91701776      98.17879862
C      63.23022052      87.59731924     102.02817113
H      62.35527723      86.56363894     103.57963643
C      65.84749146      88.62910980     102.70091369
H      65.53379689      90.38844500     103.72703508
H      66.79613407      89.07697494     100.92835041
C      67.72209996      86.87733351     104.14844405
H      68.35893773      85.44114151     102.81429728
C      70.12016265      88.41557074     104.91378321
H      69.45308927      90.15222921     105.79817513
H      70.88172236      88.98437835     103.08830758
H      71.15573267      87.24016097     106.25170943
C      66.41440935      85.91735254     106.56540401
H      65.85882982      87.44614113     107.82963091
H      67.69375407      84.72871469     107.65577608
H      64.88562077      84.57942633     106.24037107
C      61.21010309      89.64956202     101.75227109
O      59.56415147      89.91979288     103.40200216
N      61.19120583      90.95914235      99.53184266
H      62.44976355      90.79851561      98.10509930
C      59.13140414      92.90745019      99.20303028
H      57.31537716      92.02683771      99.61121117
C      59.41675282      95.13921695     101.11543332