 %block lattice_cart
   135.996   0.000   0.000
   0.000 142.663   0.000
   0.000   0.000   160.158
 %endblock lattice_cart

 %block positions_abs
N      91.77075702      41.98594009      83.22255972
H      91.33234051      41.64767908      85.04803535
H      93.66237306      42.12766956      83.00713092
H      91.26808981      40.34943710      82.37974178
C      90.68416439      44.34809798      82.20210751
H      91.43627546      45.96948315      83.22444945
C      91.36068640      44.73171242      79.30326734
H      90.10023895      43.49205196      78.24880006
H      93.32411205      44.22337604      78.94988853
C      90.85801921      47.51338955      78.67398848
H      88.89459356      47.86298892      79.18988377
H      91.24163365      47.90834235      76.68788613
S      92.70239208      49.75838441      80.29537366
C      91.31155353      52.82352049      79.29948789
H      91.91626595      54.18223371      80.72623126
H      89.28009773      52.50415674      79.19177349
H      91.98240637      53.25248836      77.40031296
C      87.84957492      44.26117057      82.71422334
O      86.57211992      42.49994564      81.77691909
N      86.94817547      46.11121263      84.15608452
H      88.03098865      47.34898336      85.12551412
C      84.27988192      46.55718804      84.84394489
H      83.04400091      45.44791869      83.62507143
C      83.95106954      45.48382349      87.54625352
H      84.70884978      43.57897937      87.34972199
H      81.93662129      45.39500636      87.96955223
C      85.29466494      46.81230109      89.69487234
O      86.24708700      48.95525073      89.42275175
N      85.62347732      45.64256050      91.93419803
H      86.27543289      46.76694766      93.33259549
H      85.07923614      43.85676914      92.33104056
C      83.35013656      49.24248913      84.47733799
O      84.86191761      50.94891199      84.13151808
N      80.86892592      49.84720155      84.50001471
H      79.80123056      48.26550062      84.43954346
C      79.92217304      52.48336976      84.15797425
H      80.51365737      53.24115001      82.33627809
C      77.05356850      52.50037729      84.05592902
H      76.54145266      51.23237094      82.51391236
C      75.88949709      51.65000045      86.62784654
H      76.47531224      53.08997190      87.97900085
H      76.58869581      49.82452483      87.27791240
H      73.84103375      51.59141894      86.41808692
C      75.99721148      55.14788386      83.59483581
H      76.80412462      56.36675733      85.04614562
H      73.94118925      55.24237017      83.60806390
C      76.57168829      56.45746419      80.95488814
H      75.82713612      55.17434003      79.52625505
H      78.53511393      56.87320398      80.49379493
H      75.29234356      58.03538566      80.61662714
C      80.88782317      54.39388306      86.26690881
O      81.33190887      56.61431148      85.80014642
N      81.43395408      53.36398222      88.53269067
H      81.13537733      51.56118331      89.08449074
C      82.54511315      54.93434478      90.50556493
H      81.09002390      56.38376487      90.67753002
C      82.67361455      53.37532058      92.95842968
H      83.17817147      54.76237969      94.39462169
H      84.06067366      51.85031144      92.93953242
C      80.30389775      52.10164504      93.77668119
C      78.76566053      53.20335548      95.60593626
H      79.34769624      54.97024958      96.44497474
C      76.65672597      51.93534912      96.57158639
H      75.69485527      52.91989653      98.07958799
C      75.85737174      49.59964740      95.59648762
H      74.43251810      48.37510475      96.39773157
C      77.34458634      48.42612736      93.74077639
H      76.90428012      46.57230585      93.01323175
C      79.56312503      49.71870016      92.78079542
H      80.91805881      48.63966643      91.70176168
C      85.09435396      55.93212028      89.82526346
O      85.59891088      58.18656377      90.14084775
N      86.69684186      54.39388306      88.58182354
H      86.25653564      52.59486361      88.11695088
C      89.12136073      55.26693661      87.52357681
H      90.06244442      56.45935392      88.91441538
C      90.83534250      52.81596159      87.16641854
H      92.42460232      53.57941102      86.10250262
H      89.84323618      51.34764424      86.11384098
C      91.91059676      51.60842647      89.56070177
H      90.58778835      51.93534912      91.10649790
H      93.58111483      52.63643759      90.18809092
C      92.54554481      48.73604248      89.46054628
O      91.81611045      47.30362993      91.11405681
O      93.77764636      47.90834235      87.65396793
C      88.81711479      56.91855741      85.16330865
O      90.28732186      58.59474465      84.75890721
N      86.81211518      56.46880255      83.60239472
H      85.59324170      55.07796398      84.06726738
C      86.28299180      57.86908975      81.20244229
H      87.94217151      57.90499455      79.98167910
C      84.36302987      56.42155939      79.71522769
H      82.61881249      56.10408537      80.76402579
H      84.85813816      54.48081047      79.23145775
C      83.64682360      57.58752053      77.28126020
H      85.26820878      57.69334520      76.01514357
H      82.87581526      59.45079067      77.69322053
S      81.05600883      55.92834082      75.70900790
C      81.39993902      56.55761969      72.35852314
H      80.10925594      55.63165379      71.05083255
H      83.31423177      55.85842095      72.05805666
H      81.05033964      58.50970697      71.79916416
C      85.60269034      60.71123812      81.75235265
O      86.56456103      62.47435277      80.64119358
N      83.93595172      61.15910326      83.61184334
H      83.48241741      59.61519686      84.63607500
C      83.00242692      63.60818856      84.37907223
H      82.73597552      64.76092161      82.68965690
C      80.40783269      63.37008304      85.73589571
H      79.92028330      65.25414018      86.40863828
H      80.50042928      62.23057808      87.44987749
C      78.36125909      62.31372604      83.93687626
H      78.94140508      60.45612507      83.26224398
C      75.87437927      61.84129446      85.48267239
H      74.56857838      60.83407033      84.24868111
H      75.27722576      63.68377761      86.18187113
H      76.36570812      60.77926827      87.17775690
C      77.64694255      63.91621395      81.74290401
H      77.13860618      65.78326355      82.44588221
H      75.81579776      63.29827344      81.03236693
H      79.17195168      64.08062014      80.36529353
C      84.86758679      64.94989424      85.98533959
O      84.93750667      67.33661858      85.74156489
N      86.70062132      63.63842418      87.11917537
H      86.33590415      61.76570540      87.19665416
C      88.91538055      64.77037024      88.30970295
H      88.18027702      66.45222666      89.24511748
C      90.05299580      62.80316515      90.23155461
H      92.01831117      63.37386250      90.48288822
H      89.96228894      60.87375459      89.51156889
C      88.75853328      62.94678435      92.83559748
H      86.70629050      62.97890970      92.64284539
H      89.51253408      64.61163323      93.78612981
C      89.59946149      60.74147374      94.49477717
H      91.64036590      60.89265185      94.71776488
H      89.13647853      59.01993307      93.46676607
N      88.28610169      60.81139362      96.94953166
H      86.90282203      59.54149753      97.29157213
C      89.02687441      61.99814174      99.10759911
N      90.80321715      63.74235913      99.19641624
H      91.11880143      64.71367845     100.81024251
H      91.95028102      64.04282561      97.70164273
N      88.16893866      61.35185534     101.38282960
H      88.98152097      62.40065345     102.75477089
H      86.54755348      60.50147850     101.92518105
C      91.00730759      65.91743411      86.49934514
O      92.46995576      67.48968641      87.40074460
N      91.04132266      65.00091685      84.14852561
H      89.66560191      63.71212351      83.85750776
C      92.60979550      66.05160468      81.97911980
H      93.88914021      67.37063365      82.90319598
C      94.52597798      63.99558245      81.27614162
H      95.20627946      62.96190216      82.92398296
C      93.28064835      61.93200132      79.62452083
H      94.46550674      60.24825518      79.68877151
H      93.25041271      62.57261854      77.66676436
H      91.40792957      61.31784027      80.21600516
C      96.96183520      64.82328258      79.80593454
H      97.67993119      66.44088830      80.85851211
H      96.41003511      65.32028060      77.88408288
C      99.14068964      62.87686448      79.57727766
H      99.67737191      62.32128494      81.48401151
H     100.73183920      63.81416873      78.66453986
H      98.43960118      61.23280258      78.55115627
C      91.31155353      67.76180700      80.02703252
O      92.69672291      68.67076535      78.46233915
N      88.92671891      68.34762215      80.22167434
H      88.08390098      67.83172687      81.85439788
C      87.60768995      70.52836632      78.95366798
H      88.63570107      71.51480345      77.46645338
C      85.12458958      69.45878123      77.90109042
H      83.70729483      70.94221638      77.72345615
H      84.54822305      67.79015289      78.96122689
C      85.29844440      68.45533655      75.20445098
O      87.00297753      69.31516203      73.76447952
O      83.42572562      67.11741032      74.46745771
C      87.11825083      72.76769200      80.83583538
O      87.78532422      74.90119301      79.97034073
N      86.33212468      72.27069398      83.20555219
H      85.99953285      70.51513823      83.87451531
C      85.44206360      74.46655595      84.73623050
H      84.80522583      76.04258770      83.57404881
C      83.14226668      73.70877570      86.35005677
H      82.57723850      75.36417595      87.43475967
H      83.82823733      72.32171659      87.71065972
C      80.60625395      72.82249406      85.22000044
H      79.32879897      72.17242821      86.69965613
H      80.86136701      71.28992602      83.86884613
C      79.27966609      74.91820054      83.87262558
O      77.51088225      74.31915730      82.39108015
O      79.85225317      77.19532075      84.00301669
C      87.60768995      75.52291296      86.51068351
O      87.65871255      77.73011330      87.37995761
N      89.63914573      74.12262577      86.89051849
H      89.70906561      72.39163646      86.09116427
C      91.70083714      74.88229574      88.60450026
H      92.09201049      76.89863372      88.44387353
H      93.50363605      73.90152779      88.44198379
C      90.75408427      74.54781419      91.41263356
O      88.87380658      73.31004345      92.04569188
N      91.96161937      75.94810138      93.09260025
H      93.58489427      76.84761111      92.65229403
C      91.33234051      75.87062261      95.81380615
H      89.29332582      75.60984037      95.90640274
C      92.61357496      73.59539212      97.13850430
H      94.63936156      73.34405852      96.85504534
H      91.79721319      71.97211722      96.16718497
C      92.21862216      73.26846947      99.93718897
H      93.70772648      74.40230526     100.79890416
C      89.71284506      74.01113191     101.05212748
H      89.25364156      75.98211646     100.67040277
H      89.74874987      73.96955793     103.11003944
H      88.24452772      72.76202282     100.32836230
C      92.94427706      70.56049167     100.39072327
H      92.78176059      70.15420051     102.40139208
H      94.78676022      69.92743335      99.71609098
H      91.52698233      69.36618464      99.49121356
C      92.21862216      78.28380311      97.22165225
O      94.28598274      78.30081064      98.37816476
N      90.67282603      80.26045683      96.87205289
H      89.16671415      80.04691776      95.71931983
C      90.87880619      82.67930651      98.17974349
H      92.86490855      83.09693603      98.53123258
C      89.66938135      84.60871708      96.33348089
H      89.20261896      86.28490432      97.43519133
H      88.02531946      83.79235531      95.39617664
C      91.78020564      85.44208638      94.44186484
H      92.89703390      83.78857586      93.92596955
H      92.92160035      86.91229345      95.32247730
C      90.70873083      86.41151598      92.04569188
H      92.37357972      86.98599278      90.97421705
H      89.40292994      87.94408402      92.48032892
N      89.17427306      84.51989994      90.59816152
H      88.81333534      82.83048462      91.41074384
C      88.33334486      84.67863695      88.28324679
N      88.85679905      86.67796739      86.98689454
H      88.40704417      86.78946124      85.13685247
H      90.04165744      88.01211417      87.66719602
N      86.82534326      83.08748739      87.12295484
H      86.57023021      83.19331207      85.23322851
H      86.14504179      81.53035291      87.99222893
C      89.74119096      82.51679005     100.85937540
O      87.57556460      81.91585708     101.02756104
N      91.11880143      82.83237434     102.92673598
H      93.01230720      82.98922163     102.75288117
C      90.14181294      82.62828390     105.48920487
H      88.48830242      81.40185152     105.57613227
C      92.26397558      81.98388723     107.23342225
H      91.43249601      81.99333586     109.11747938
H      93.71339567      83.44464567     107.29578322
C      93.38080383      79.39496218     106.92539686
H      94.11590738      79.25890188     105.00732466
C      95.72406446      79.32504231     108.66772452
H      96.40247620      77.39941119     108.94551429
H      94.94549722      79.77479717     110.51965631
H      97.20372017      80.63840209     108.09513745
C      91.44761381      77.56948656     107.75687645
H      89.75441905      77.68475987     106.58713585
H      90.98652060      77.99656471     109.71841235
H      92.10334884      75.61739928     107.80411960
C      89.14025799      85.04524385     106.43028857
O      87.91004616      84.90918356     108.38615531
N      89.33301008      87.12394280     105.02433219
H      90.27976295      86.77245370     103.40483674
C      88.04610646      89.46342397     105.63282406
H      87.11825083      89.36893766     107.46963804
C      89.95473003      91.69519075     105.93707000
H      88.93994699      93.48476157     106.02588714
H      91.19439050      91.91439900     104.30623619
C      91.68005016      91.32669412     108.21607993
H      93.07466817      89.87160486     107.79656069
H      90.66148768      90.71253307     109.89604664
C      93.15592641      93.76822052     108.70929850
H      91.95972964      95.42173104     108.43339846
H      94.68093554      93.70396982     107.32601884
C      94.40503550      93.81924313     111.19428860
H      96.20972412      92.83658544     111.32656945
H      93.17482367      92.80257037     112.49631003
N      94.88502598      96.34769693     112.06167299
H      95.86579393      96.31935104     113.69817597
H      93.28820724      97.32468544     112.42261072
H      95.93004464      97.32846489     110.80311527
C      86.12614452      90.20797614     103.58247101
O      86.31511715      89.17240612     101.46786728
N      84.17783669      91.75377227     104.16261699
H      83.95862843      92.44352237     105.93140082
C      82.20874188      92.39438949     102.26533177
H      81.21663555      90.68796663     101.68140634
C      80.47019366      94.36537403     103.54656621
H      79.94296003      93.52255609     105.35125484
C      81.83457607      96.88437921     104.20986016
H      80.72152727      97.68184371     105.74809738
H      81.97819526      98.13348830     102.57713662
H      83.69973594      96.81634906     105.07724454
C      77.99276246      94.78678300     102.22375779
H      77.32190963      92.92729231     101.64739128
H      78.37070773      96.09825306     100.67985140
C      75.78745186      95.95841331     103.80545872
H      76.34870057      97.50420944     105.04511919
H      75.13738600      94.42584527     105.02055275
H      74.29834752      96.52722093     102.50154756
C      83.28966533      93.40161361      99.75388550
O      85.23986288      94.75465765      99.60081768
N      81.90260622      92.95563820      97.71109137
H      80.48720121      91.70274966      97.98699140
C      82.12748364      93.92695753      95.18263755
H      83.05911871      95.70707971      95.63050270
C      84.04366613      92.32257989      93.69164349
H      85.78221434      92.10715109      94.77445667
H      84.50853880      93.60948351      92.14962682
C      83.23486327      89.71286785      92.94898106
C      81.89126785      89.14972941      90.82492867
H      81.23364310      90.68985635      89.65707781
C      81.33946776      86.59859888      90.04447172
H      80.30389775      86.21498444      88.32860023
C      82.01032061      84.70698284      91.63940073
O      81.37537257      82.37128112      91.00634240
H      80.16594772      82.04057902      89.69487234
C      83.25187080      85.22476785      93.88439558
H      83.73753045      83.59582377      95.01445191
C      84.03232777      87.68330179      94.52501281
H      85.05089025      88.12927720      96.23710485
C      79.72564150      94.49009597      93.64817980
O      77.76410558      93.26555332      93.98644081
N      79.99965182      96.30045377      91.79057882
H      81.68339796      97.17350733      91.58459865
C      78.12126385      96.58769217      89.68920316
H      76.27689098      96.10770169      90.47154985
C      77.56190487      99.26543436      88.89173867
H      76.40728209      99.19929394      87.18720552
H      79.33824761     100.28210712      88.63851533
C      75.90461489     100.79989213      90.83248758
H      77.00065616     100.97563667      92.56536662
H      74.21142011      99.67172552      91.16696914
C      75.43029359     103.40393499      89.64951892
H      74.55346058     102.91449587      87.85049946
H      77.27466646     104.25053237      89.29614009
C      73.78623169     105.04799688      91.24822737
H      74.78211746     105.38814761      93.02079065
H      72.13461089     103.89337410      91.67530552
N      72.78656648     107.19283624      89.86305798
H      71.58848000     108.29643641      90.85894375
H      72.02311705     106.31033405      88.35316667
H      74.23409684     108.33423094      89.37550859
C      78.65227696      94.95307891      87.53113572
O      80.83302111      94.58458228      86.79603219
N      76.64727733      93.80412532      86.48800680
H      75.03723052      93.82113285      87.51034873
C      76.74932256      92.05045930      84.40363867
H      78.20063237      90.70308444      84.96677711
C      74.29267834      90.54056797      84.36017496
H      72.75444112      91.88983256      84.61150856
H      74.55535031      89.23476709      85.93242725
C      73.95819680      89.02500747      81.96589172
O      75.39060934      87.30913598      81.28936970
O      72.19508215      89.58814591      80.58828125
C      77.43718293      93.20886153      81.75424238
O      77.55434596      95.52755571      81.55582112
N      77.76599531      91.71030856      79.79270646
H      77.31624045      89.86971513      80.03270170
C      77.88504807      92.63060528      77.20000196
H      79.48564626      93.92317807      77.09795675
C      77.90583505      90.67095909      75.02681671
H      77.83780492      91.61582224      73.19756163
C      80.36058954      89.00799993      74.94555847
H      81.95740828      90.25521930      75.31594483
H      80.88215401      88.15006419      73.14653902
H      80.54767245      87.62472027      76.46111898
O      75.90839435      88.89839581      75.20067153
H      75.83091556      88.19163817      76.86929985
C      75.64950185      94.30868224      76.56883337
O      76.00477039      96.18518047      75.21200989
N      73.35348438      93.85325820      77.58172667
H      73.13238639      92.11093054      78.33194803
C      71.01022375      95.49732009      77.25102458
H      71.38816900      96.57446409      75.53893254
C      68.62160968      93.80034586      76.70300394
H      66.99644505      95.06268304      76.61418681
H      68.14350892      92.39249976      78.12596785
C      68.91640698      92.43218401      74.09329191
H      67.26478618      91.22842835      73.83439940
H      70.62471958      91.28134069      74.13675561
C      69.22254265      94.33891786      71.81050251
O      70.93274496      93.79656641      70.16833035
O      67.80713764      96.25699007      71.56672783
C      70.72298534      97.50042998      79.53003451
O      68.60838159      98.46796986      79.79459619
N      72.61649110      97.98986910      81.11929433
H      74.42306946      97.39649504      80.96055732
C      72.17240543      99.83991116      83.25279534
H      71.20675528     101.51798813      82.54981715
H      74.02622693     100.33501945      84.00112696
C      70.55290998      98.96496788      85.45243677
O      70.41873940     100.48619756      87.25523567
N      69.67985642      96.52155175      85.63385050
H      70.26378184      95.48598173      84.14096672
C      68.27012059      95.44629748      87.72010834
H      67.10793890      96.99965251      88.41741735
C      66.63361760      93.30712730      86.84894451
H      65.57915031      92.59281075      88.46843997
H      67.92052123      91.75944144      86.41241774
C      64.81381117      93.62649104      84.63607500
C      64.90073857      91.82747159      82.75390760
H      66.28590795      90.35726452      83.05059463
C      63.15085201      91.90872982      80.66953947
H      63.01479172      90.30624191      79.41476121
C      61.55025381      93.95341369      80.55804563
O      59.72666793      93.90806026      78.88941728
H      58.66275201      95.37637761      78.89319674
C      61.64285041      95.94896468      82.37407260
H      60.25579129      97.44184847      82.51013290
C      63.15274173      95.64282902      84.48111744
H      63.16785954      97.01666005      85.99289850
C      69.92174139      94.48631651      89.78935866
O      71.93429991      93.50365883      89.20732295
N      69.12427689      94.86615150      92.09104530
H      67.37250058      95.62015230      92.20631862
C      70.58881478      94.33324868      94.35493743
H      72.42751847      95.12693373      93.86927776
C      69.72898930      95.79022767      96.78134601
H      70.37527571      94.81701862      98.47832024
H      67.67863626      95.94140578      96.88717069
C      70.62471958      98.60025070      97.02323098
C      68.91073780     100.57879415      96.99677481
H      66.93408408     100.24998177      96.60182201
C      69.74221739     103.08646096      97.10259949
H      68.38917335     104.61524955      97.07047415
C      72.35759861     103.54566446      97.45219885
O      73.15695283     105.88136618      97.38983789
H      71.79257044     107.07567321      97.42763242
C      74.13394134     101.63515116      97.61660505
H      76.07657998     102.26065057      97.69975301
C      73.28545422      99.14827133      97.48810366
H      74.58747566      97.57601904      97.58070025
C      71.03479019      91.43251879      94.73855187
O      69.36238239      89.87538431      94.25478193
N      73.45363986      90.61993648      95.40373553
H      74.87849350      91.84825858      95.71931983
C      74.54401194      88.00833471      95.16751974
H      73.08325351      86.64206259      95.66451776
C      75.60414841      87.42062983      92.60883031
H      77.56190487      88.00077581      92.34993782
C      75.42651414      84.58981981      91.83593226
H      75.60036896      84.34037594      89.80069701
H      73.55190563      84.00967384      92.47088030
H      76.72286639      83.53346280      93.03779819
O      74.07347010      88.36738271      90.72099373
H      73.65017140      89.93963501      91.52223768
C      76.85325751      87.79857509      97.06858442
O      77.71875216      89.67696305      98.08714690
N      77.79434120      85.39484322      97.43708104
H      76.79467598      84.05313754      96.52056378
C      79.62170656      84.52934857      99.27956420
H      81.39615955      85.49121926      98.87327305
C      78.59936461      85.24933430     102.01777764
H      77.73575969      87.11260444     102.14627902
C      76.43562798      83.44464567     102.90594900
H      77.22364386      81.62861868     103.47097716
H      75.14116547      83.40874087     101.30346108
H      75.47186756      84.14762386     104.58591569
C      80.98608895      85.36082815     103.79789981
H      82.48842137      86.42096461     102.86626474
H      81.71930276      83.45220457     104.04167451
C      80.44184777      86.37750091     106.45863447
H      82.11236584      86.39450844     107.66427986
H      79.00754550      85.20209114     107.35436474
H      79.58202230      88.22943269     106.18462415
C      80.23586760      81.64751594      98.89594976
O      78.66550503      80.25478765      97.91329208
N      82.50164946      80.86138980      99.59703823
H      84.01154078      81.91396735     100.10537460
C      82.99108856      78.19309624     100.06946980
H      81.37537257      77.21043856     100.88961102
H      84.63326074      77.97766744     101.29212272
C      83.29344477      76.85894947      97.58825916
O      84.37625795      78.01924142      95.84971094
N      82.46196520      74.49868130      97.32180775
H      81.59647055      73.56515650      98.74477165
C      82.32023573      73.11540164      94.91240670
H      83.86792157      73.79948257      93.73888666
C      82.66416591      70.26002518      95.52089856
H      80.87459510      69.54948809      96.25600210
C      82.95896321      68.88052497      93.01701121
H      82.72274742      66.83395138      93.05291601
H      84.74853404      69.19799899      92.05136106
H      81.48119725      69.32272093      91.65262880
C      84.68050390      69.94444089      97.49188311
H      84.17216751      70.67765470      99.34948407
H      86.30755824      71.07638695      96.93441384
C      85.75386844      67.39708982      97.83770302
H      84.23074902      66.20467251      98.54446067
H      87.29588510      67.09284388      99.16807035
H      86.41527265      66.50513900      96.10293427
C      79.89382713      73.81271065      93.70109213
O      78.18173510      72.29526042      93.48377360
N      79.57635312      76.11439730      92.86583309
H      80.85947728      77.42208791      93.39684619
C      77.54867678      77.05737073      91.41074384
H      77.14238563      75.88385069      89.76668195
H      78.15905838      78.94520732      90.85894375
C      74.96353119      77.47877970      92.67875019
O      73.09459186      77.75656947      91.39562602
N      74.81802226      77.30303515      95.20909373
H      76.49231977      76.89863372      96.02923494
C      72.41995958      77.85105578      96.68685971
H      71.10848952      76.29014185      96.38261377
C      73.09459186      77.53736121      99.61782521
H      74.20575093      79.06237035     100.44174589
H      74.15283860      75.82148972     100.04112390
C      70.72109561      77.24445363     101.24676929
N      68.93908371      75.32260197     101.02756104
H      69.24710909      73.63696610     100.18852256
C      67.05691629      75.72700341     102.69807911
H      65.48844345      74.48545322     103.10248053
N      67.75800476      77.85861469     103.98687245
H      66.59960252      78.76946277     105.20007675
C      69.98032290      78.82615456     103.11192916
H      70.88928126      80.51745961     103.79789981
C      71.17651966      80.47777536      96.17474388
O      72.33303217      82.39017838      96.84748643
N      68.84459739      80.47777536      95.08815124
H      67.93374930      78.81481620      94.86894299
C      67.35171359      82.80402845      94.83681764
H      68.62538914      84.20809510      94.03557369
C      65.25222766      82.10482971      92.90173789
H      63.87461718      80.93130967      93.88628531
H      66.18008328      81.02201653      91.41452329
C      63.97099323      84.29502251      91.62239318
H      63.55714316      85.81625219      92.94709133
C      65.77946130      85.46854255      89.64573947
H      66.42007852      83.96054095      88.39852009
H      67.31958825      86.57781189      90.45076287
H      64.65885361      86.59670916      88.33804885
C      61.69954219      83.33315182      90.05392034
H      62.21732721      82.00467422      88.56859547
H      60.63751600      84.91485274      89.26968392
H      60.47877899      82.49222361      91.48633288
C      66.33882029      83.80747312      97.42007351
O      65.31458863      82.38639893      98.89406003
N      66.53724155      86.29813240      97.68463519
H      67.55391432      87.24110583      96.37694459
C      65.65851883      87.55857985      99.99388075
H      65.05002695      86.19419745     101.41495493
C      67.88272670      89.27067189     100.94441308
H      67.08904164      90.30624191     102.53745236
H      68.61783023      90.65206183      99.60648685
C      70.31858392      87.98943745     101.82691528
H      71.45241970      87.21842911     100.28867806
C      71.92296156      89.97176035     103.24421000
H      70.91573743      90.25899875     105.01677329
H      71.99099170      91.73109555     102.17651464
H      73.66150975      88.93052115     103.62215527
C      69.67985642      85.86538507     103.64294227
H      71.41273544      85.35137952     104.63126913
H      69.19797621      84.21376428     102.51477565
H      68.00555891      86.14506457     104.81079313
C      63.21888216      89.08547871      99.44774985
O      61.50112094      89.17240612     100.90661855
N      62.99211499      90.04545968      97.10448922
H      64.40563027      90.03979050      95.82514450
C      60.80381192      91.51944620      96.37127541
H      59.14652195      90.31569054      96.14828771
C      59.90997137      93.83058148      98.09281608