 %block lattice_cart
   137.793   0.000   0.000
   0.000 143.498   0.000
   0.000   0.000   162.326
 %endblock lattice_cart

 %block positions_abs
N      85.27475796      38.64477445      78.32274136
H      83.79510225      38.98870464      77.16622885
H      84.90248187      37.00449201      79.22603054
H      86.91504040      38.36887441      77.38921656
C      85.78876351      40.63654599      80.21246767
H      87.48006856      39.85230957      81.09308014
C      86.59567665      43.07051348      78.96146884
H      84.97429147      44.29694585      78.62698730
H      87.46117130      42.67745040      77.13221377
C      88.61201463      44.55016918      80.42978620
H      89.13735854      46.17344408      79.27516341
H      90.28064296      43.34452379      80.52805197
S      87.93927206      45.49503234      83.61964422
C      90.86267866      46.94445242      84.64954506
H      90.54520464      48.96079039      84.37553474
H      92.33855491      46.43611604      83.30405991
H      91.29353626      46.26226122      86.54494055
C      83.48518714      41.00126316      81.79983778
O      81.31200188      40.79528300      81.01371162
N      83.75919745      41.60030641      84.22057718
H      85.54498882      42.02549483      84.74403136
C      81.70506495      42.05950990      85.95534593
H      80.18005582      40.70268641      85.67755616
C      82.51197809      41.51337900      88.68789019
H      84.35635097      42.35808666      89.04504845
H      82.75764251      39.46680540      88.70300800
C      80.56744971      42.17478320      90.74580214
O      78.35458020      42.48280859      90.27715002
N      81.42538546      42.32785104      93.10040113
H      80.21029144      43.00815251      94.40620200
H      83.14692613      41.70235163      93.63897313
C      80.32556474      44.58418425      85.49992189
O      81.50286424      46.55516880      85.36575133
N      77.79711094      44.70701646      85.43567119
H      76.94862382      43.00437306      85.26937528
C      76.34958058      46.99925448      85.22213213
H      76.87492450      47.77026282      83.38531814
C      73.62081578      46.38887288      84.89143003
H      73.39782808      44.82795895      83.56673188
C      72.31690463      45.56306248      87.31783861
H      73.26932669      43.92655950      88.12853120
H      70.37804543      45.11141790      86.79060496
H      72.03911486      47.03704901      88.72757444
C      72.09391692      48.58662458      83.78594012
H      71.89927511      50.07383919      85.19945540
H      70.15694745      47.94600736      83.49681200
C      73.23153216      49.68077612      81.44456922
H      75.01354408      50.66910298      81.74314598
H      71.86526004      50.99413591      80.63765609
H      73.60569797      48.25592248      80.00270805
C      76.78232791      49.17432947      87.19122694
O      77.01476424      51.47601612      86.64698576
N      77.18861906      48.35418825      89.49858278
H      77.10925056      46.45501330      89.68377595
C      77.90860479      49.85463094      91.72279065
H      76.89004231      51.64231203      91.60751733
C      77.18861906      48.58284513      94.26069308
H      78.20340209      49.56739254      95.76113577
H      77.92561233      46.65910375      94.28336979
C      74.41828029      48.91543696      94.80493426
C      73.18050955      50.90342904      96.11451460
H      74.25954328      52.43410736      96.92898664
C      70.60670231      50.72579477      96.73245510
H      69.83191453      52.25836281      97.83605526
C      69.11759798      48.83795818      95.65909056
H      67.12015727      48.66977254      96.04270500
C      70.28922829      46.97279831      94.24557526
H      69.25365827      45.40810493      93.44433131
C      72.89894033      46.94634214      93.78637178
H      73.62270551      45.38542821      92.69033051
C      80.61091342      50.75414067      91.87963792
O      81.35924504      52.19222239      93.48401557
N      82.27387257      49.74313709      90.08817738
H      81.47829779      48.49402800      88.88631145
C      84.97051202      50.58217557      89.79904925
H      85.36168537      52.03348538      91.20500564
C      86.63347118      48.26915056      90.44533566
H      88.59122764      48.88331162      90.26959111
H      86.40103484      46.73658252      89.08851216
C      86.05143547      47.05594627      93.13441620
H      84.08045093      46.46446194      93.23457169
H      86.20450330      48.62252938      94.46478353
C      87.77297614      44.83929731      93.71078273
O      90.13324431      45.30605971      93.68810600
O      86.93582739      42.62264834      94.03581564
C      85.59034225      51.95033742      87.36697150
O      86.50308006      54.02903637      87.34429477
N      84.14092217      51.31349965      85.39787668
H      83.21495628      49.64487132      85.43945066
C      84.19950368      52.58528546      82.92611466
H      86.14025261      52.62307999      82.24392346
C      82.46473493      51.04326879      81.17433836
H      80.49186066      51.49491338      81.56362198
H      82.90693089      49.04204863      81.36520073
C      82.92771788      51.65742984      78.42289686
H      84.93460722      51.22657224      78.26604957
H      82.80677539      53.68510618      78.08085639
S      81.34412723      49.76392408      76.10798211
C      78.16371784      50.79571464      76.74859933
H      77.55711569      49.84896176      78.47202974
H      77.04499986      50.34784951      75.07808128
H      78.10891578      52.84417797      76.95268977
C      83.20928710      55.35940369      83.00926261
O      84.12958381      56.90708954      81.65054939
N      81.07767582      55.59561948      84.44545462
H      80.25942432      54.02147746      85.14843280
C      79.88903796      58.00124108      84.84607659
H      79.90793523      58.98767821      83.03571879
C      77.15649372      57.60061910      85.53204725
H      76.23808673      59.36373375      86.06872952
H      76.94484437      56.36662782      87.16477078
C      75.43684277      56.25324424      83.56484215
H      76.15682850      54.37296656      83.12642564
C      72.90083006      55.89230651      84.57017654
H      71.73108947      54.83405978      83.24547841
H      71.87848812      57.66109034      84.81773069
H      73.00476501      54.84728786      86.34273982
C      75.17417081      57.95966710      81.27449386
H      76.95429300      58.60406377      80.46380127
H      74.10836517      59.67553859      81.68645419
H      74.18206450      57.10740053      79.68145458
C      81.14948542      59.68876667      86.81139196
O      80.12336403      61.65219231      87.56350303
N      83.49085632      59.10106179      87.49736261
H      84.25052629      57.43810263      86.94745225
C      85.14058739      60.48434145      89.15087313
H      84.54343387      62.43642873      89.42110399
C      85.64892377      59.30893168      91.81727695
H      86.94527602      60.62040175      92.73568395
H      86.38969648      57.39274920      91.67554748
C      83.19038983      59.44310225      93.31771964
H      81.71073413      58.46422402      92.26892154
H      82.56866988      61.38574090      93.59739914
C      83.36613438      57.92943148      95.86507072
H      84.04832558      56.07560996      95.28681447
H      81.51042314      57.62329581      96.70410920
N      85.20105863      59.12184878      97.58472167
H      86.33867387      60.54292297      97.01402432
C      85.49396621      58.44343703      99.99979190
N      84.43194002      56.58016689     100.98055985
H      84.67382499      56.21544971     102.83816081
H      83.35668575      55.51814070      99.81459872
N      86.91126094      59.52436048     101.51913185
H      86.73551640      59.11806933     103.37673281
H      88.03753783      60.85283808     100.73489543
C      87.74463025      60.79614629      87.95089692
O      89.30365446      61.97155606      89.21890328
N      88.35690157      59.77947354      85.61141575
H      87.33266991      58.43398840      84.72702383
C      90.49040258      60.67331408      83.94845659
H      91.68848906      61.81281905      85.17677869
C      92.08722131      58.36784798      82.99981399
H      93.36656603      58.88374326      81.46913566
C      93.70860649      57.13574642      84.95757045
H      94.96716422      58.48690074      85.87030825
H      94.85378064      55.70900306      84.01081756
H      92.51052001      56.08127914      86.25959187
C      90.25229706      56.33450247      81.93400834
H      89.09389483      57.16787177      80.44868346
H      88.89547357      55.67687771      83.33807499
C      91.58644384      54.03848500      80.66600199
H      92.96216460      54.74146319      79.30161958
H      90.21639226      52.90086976      79.62854223
H      92.27808367      52.75914028      82.12298098
C      89.48317846      62.18509513      81.72235900
O      91.00062868      63.19231926      80.39766085
N      86.98307054      62.31737597      81.14788220
H      85.81710941      61.01157509      81.91133163
C      85.82655804      63.96710705      79.28272232
H      86.67315543      64.11072625      77.41000354
C      82.99574802      63.14885555      78.97091749
H      82.14348146      63.56270562      80.79828283
H      82.84645964      61.12873812      78.58730304
C      81.46506971      64.32804477      76.72592262
O      79.18417005      64.60205509      77.10008844
O      82.53843426      64.66441606      74.65478259
C      85.88702928      66.62784169      80.35797659
O      86.00797177      68.47410430      78.88965925
N      86.07978137      67.00956641      82.86942287
H      86.28009235      65.49589563      84.01648674
C      85.50908402      69.36794485      84.21301827
H      86.02308958      70.98933003      83.05272632
C      82.51764727      69.45109281      84.66466286
H      82.10379720      70.53579571      86.36730628
H      81.85246360      67.51979251      84.91410674
C      80.93216689      70.62650257      82.51793378
H      78.98007961      70.27312375      83.07351331
H      81.39703956      69.60794009      80.78883420
C      81.51609232      73.44597423      82.34407896
O      81.01153539      74.65161962      80.39955058
O      82.20773215      74.72531895      84.15443676
C      86.75630339      69.50967432      86.76225906
O      87.03220343      67.58215348      88.02081680
N      87.30054456      71.72821301      87.73168867
H      87.19471989      73.19275091      86.51281520
C      88.28131252      72.44630901      90.19967123
H      88.94838591      74.39083739      90.06550067
H      89.91403605      71.24066362      90.55871923
C      86.21773139      72.38016859      92.30104689
O      84.07856120      73.41573861      92.12152289
N      86.86968696      71.16885403      94.45344517
H      88.25674608      69.86494287      94.31360541
C      85.40514907      71.45231297      96.85150786
H      83.44550289      71.19531019      96.26191325
C      85.86813202      69.22999483      98.66753485
H      87.81832957      69.21865647      99.33271851
H      85.81899913      67.65963226      97.33716752
C      84.25619547      68.78023997     100.94843450
H      83.64014470      70.58303887     101.72700174
C      81.96584718      67.34593769     100.02435834
H      80.83579085      68.34560291      98.62218142
H      80.84901893      67.35160687     101.75345791
H      82.47985274      65.46188056      99.37618221
C      85.34845728      67.43097538     103.08193551
H      86.86779724      68.59126733     103.85105411
H      85.87380120      65.57715386     102.35061142
H      83.80077143      67.10594245     104.39907475
C      85.94561080      74.08848118      98.00046146
O      88.05454536      74.52311823      98.68076292
N      83.99163379      75.56624716      98.37651698
H      82.28332120      75.38483343      97.54881687
C      84.13336326      77.90950778      99.75034802
H      86.10245808      78.38571881     100.13018301
C      83.10157270      80.26788622      98.12896285
H      82.99196857      81.89872003      99.38185139
H      81.16271350      79.72553477      97.68676688
C      84.46595509      80.93684934      95.73845906
H      86.45205745      81.07290963      96.26947216
H      83.75352827      82.79445030      95.19988706
C      84.16170916      79.22853675      93.34039637
H      82.16048899      78.76177435      93.18543881
H      85.36168537      77.55612896      93.37819090
N      84.46784482      80.64016231      90.85351653
H      85.25019151      82.37115161      90.67021309
C      83.75352827      79.64049709      88.61419086
N      82.80677539      77.49376799      88.52915318
H      82.36835889      76.57725073      86.91343717
H      83.14503640      76.42985208      90.07872875
N      84.04454613      81.05779182      86.57328643
H      83.20172819      80.50410201      84.95190127
H      84.69083253      82.79067085      87.04004884
C      82.59701577      77.93596395     102.17108742
O      80.29532912      77.28589810     102.27502238
N      83.90281665      78.43485170     104.33482405
H      85.72073337      78.99421069     104.19687404
C      82.77653977      78.59925789     106.91430048
H      80.87358537      77.81502147     107.03335322
C      84.43005029      76.92496037     108.69253294
H      84.44516810      74.98232172     108.01601091
H      83.80266116      76.93062955     110.65595857
C      87.26652949      77.82258037     108.73221718
H      87.85612410      78.17406947     106.79146827
C      87.77486587      80.14505401     110.38572771
H      89.67970999      80.75165616     109.88872969
H      87.38369252      79.94285330     112.39828624
H      86.69016296      81.72864466     109.64306527
C      89.00696742      75.64561566     109.78857419
H      88.70650094      73.98643596     108.60938497
H      88.57799955      75.37727452     111.78412519
H      91.00440814      76.12938560     109.63739609
C      82.23229859      81.31290487     107.69853690
O      81.29877379      81.77777755     109.75266939
N      82.91826924      83.18940310     106.14707159
H      84.29776945      82.64894138     104.94709538
C      82.26631367      85.92005762     106.47966342
H      81.29499434      86.29800289     108.25600616
C      84.80988528      87.23719686     106.51934768
H      86.09678890      86.49075497     105.09638376
H      85.86813202      86.62681527     108.17663764
C      84.60768457      90.07367606     106.49856069
H      83.03732200      90.64815286     107.70042661
H      84.20895232      90.73885972     104.58993711
C      87.02086507      91.33223378     107.44720330
H      88.56477147      90.56878435     106.31714695
H      87.52731172      90.77665425     109.36338577
C      86.40103484      94.17249243     106.97666145
H      84.70028116      94.68649799     108.01790064
H      86.25552591      94.34445753     104.92819812
N      88.43249063      95.86757694     107.94420132
H      89.93671277      95.73718582     106.77635045
H      88.97106262      95.37813782     109.70920569
H      87.90903644      97.70061146     107.88373008
C      80.59390588      86.55500567     104.18175623
O      80.97941005      85.51754592     102.10872645
N      79.20684677      88.58079227     104.37261858
H      78.92716727      89.49164036     106.02612910
C      77.53443898      89.47085337     102.36006006
H      76.68595186      87.72096680     101.67975859
C      75.56723389      91.39459475     103.39563007
H      76.55934020      92.66827029     104.67497479
C      74.10458572      92.83456620     101.40196882
H      75.64849212      93.73407593     100.37773716
H      72.78177730      94.20461778     102.18431551
H      73.21263490      91.47018381     100.14152137
C      73.71530210      90.03966099     105.17575226
H      74.75087212      88.80377998     106.45887644
H      72.61548139      88.72252175     104.03813702
C      72.00509979      91.90671058     106.60438536
H      70.59347423      92.68338810     105.31937147
H      73.24098080      93.36746902     107.37161423
H      70.92228661      90.95050907     108.07270270
C      79.00275632      90.48374667     100.00735080
O      80.71673809      92.01631471     100.10939602
N      78.26198361      89.64281846      97.76235594
H      76.76909982      88.45607034      97.80015047
C      79.31645089      90.39115008      95.31138091
H      80.64303876      91.95017429      95.54570698
C      80.90949017      88.26142853      94.16620676
H      82.31355682      87.86647573      95.62129603
H      81.90159649      89.10235674      92.56938802
C      79.58479203      85.88793228      93.16087237
C      79.52432079      85.25676369      90.54360143
H      80.48619148      86.46996798      89.21323410
C      78.43772816      83.01554828      89.51936977
H      78.45473569      82.63949274      87.51437015
C      77.47585746      81.26566172      91.25980770
O      76.49319978      78.91295246      90.50580690
H      76.71618748      78.62571406      88.72757444
C      77.57034378      81.70974740      93.81849713
H      77.06956631      80.13560538      95.01658361
C      78.59646517      84.00198542      94.90697947
H      78.40560281      84.48953481      96.88174348
C      77.03366151      91.11113581      93.59361970
O      74.94362420      91.14704061      94.47234243
N      77.40971704      91.66671534      91.25602824
H      79.23519266      91.56278039      90.70989734
C      75.34235646      92.54543808      89.39275810
H      73.50743221      92.10513185      90.21856849
C      75.14960437      95.42538098      88.98646695
H      73.42239452      95.80521597      87.93199965
H      76.90516012      96.08678519      88.13042092
C      74.95307283      96.99007437      91.32405839
H      76.86925532      97.23384906      92.04593385
H      73.85136239      96.13969752      92.84150861
C      73.90805418      99.69994190      90.84028846
H      74.73764404     100.31221322      89.05827654
H      74.32568370     100.87535167      92.48246062
C      70.97519895      99.51474872      90.53037334
H      70.18340362      98.98184590      92.35584895
H      70.57268724      98.12391015      89.06583545
N      69.97175427     102.07343815      89.61385608
H      70.71063726     102.62145878      87.94144829
H      70.41772968     103.56443221      90.71556652
H      68.06691015     101.96761347      89.62141499
C      75.60691814      91.18294541      86.91154744
O      77.68939654      90.50264393      86.10841376
N      73.40538698      90.50264393      85.92511031
H      71.82179633      91.08467964      86.81706114
C      72.91405814      88.96440671      83.57429077
H      74.27088164      87.41294141      83.57429077
C      70.29111802      87.94395451      83.78405041
H      69.03633975      89.56533968      83.58562914
H      70.13049128      87.22207905      85.70590207
C      69.71664122      85.87092474      81.90755218
O      70.64449684      83.75254154      82.11542207
O      68.31257457      86.53232895      80.17467314
C      73.25609861      90.40815762      81.22914042
O      73.57735208      92.66827029      81.21024317
N      73.38648972      89.07023139      79.04461681
H      73.03500063      87.19751261      79.14288258
C      73.55278564      90.31556103      76.52939109
H      74.80189473      91.95395374      76.59553150
C      74.74898239      88.55055665      74.64344422
H      74.72819540      89.44061775      72.78584326
C      77.51365199      88.24442099      75.37098886
H      78.19017401      89.91682878      76.36120544
H      78.69095148      88.07434562      73.68724271
H      77.78766230      86.56256457      76.52939109
O      73.58869044      86.11658916      74.48470722
H      74.05167338      85.34369110      72.91056520
C      70.81268248      91.33034406      75.64877863
O      70.86748455      92.83078675      73.97448110
N      68.75288080      90.82767686      77.02638911
H      68.84736712      89.61636229      78.49848590
C      66.43040716      92.52465109      76.94324115
H      66.43040716      93.63769989      75.21225184
C      64.11927188      90.84468440      77.32307614
H      62.31647298      91.84057016      77.33252477
H      64.09470544      89.83746027      79.11831614
C      63.94541706      88.77732381      75.19146486
H      65.31735836      87.32979345      75.69980123
H      64.45564317      89.30455745      73.26394402
C      61.26956460      87.59057568      75.04784566
O      59.59904654      88.46551897      73.63244065
O      60.97854675      85.67061375      76.45002258
C      66.40206127      94.57122469      79.02760928
O      64.49343769      95.90159201      79.36209082
N      68.52422392      94.92271378      80.39955058
H      69.94151865      93.89659239      79.63610114
C      69.19885621      97.10345794      81.90377272
H      68.76043971      98.78342464      80.79828283
H      71.13960514      96.89180860      82.55761802
C      67.70786215      97.02030999      84.43600598
O      68.02533617      98.82499862      85.79849866
N      66.12427150      95.11735559      84.98780607
H      65.75199542      93.80777525      83.64799011
C      65.22665150      94.47673837      87.55594412
H      64.27800889      96.13969752      88.31183465
C      63.39361698      92.28843530      87.21201394
H      62.64528536      91.66671534      89.02615119
H      64.53501167      90.82200768      86.32195284
C      61.16562966      92.60968877      85.35063351
C      59.99588907      90.60846861      84.10908333
H      60.59115286      88.66582996      84.30372514
C      57.93797711      90.97885496      82.52549267
H      57.12161535      89.31400608      81.67322610
C      56.99689341      93.32967450      82.07195837
O      54.99189379      93.67360469      80.47136018
H      54.31726150      95.35546111      80.42600674
C      58.21009770      95.48774195      83.13776401
H      57.50711951      97.37179908      82.79194408
C      60.32281172      95.10601723      84.78749507
H      61.03901799      96.73496131      85.78905002
C      67.44519019      93.78320881      89.32094849
O      69.46152817      93.06322309      88.46679221
N      66.98598670      93.96840199      91.72090092
H      65.22476178      94.46162056      92.27270100
C      68.77555752      92.89692717      93.56905325
H      70.73142425      93.25786490      93.03426071
C      68.39005335      94.09501365      96.28647969
H      69.55412476      93.07078199      97.64330319
H      66.50032704      93.57155947      96.91575855
C      69.06846510      96.83322708      96.51324684
C      67.22409221      98.57177529      96.04459472
H      65.31168919      97.91415053      95.76491522
C      67.78156148     101.06621402      96.27703105
H      66.22253727     102.33611011      95.92932142
C      70.19663170     101.85800935      96.84772840
O      70.84291810     104.36000699      96.86284622
H      69.44452063     105.49762223      96.65308660
C      72.10525528     100.04009264      97.18787914
H      74.00443023     100.56543655      97.72078196
C      71.59313945      97.39258607      97.00835514
H      73.03122117      95.96206325      97.23323258
C      68.52989310      89.95084385      93.49535393
O      66.31324413      89.07968002      93.51992037
N      70.60292286      88.51465185      93.94132934
H      72.13171145      89.36124924      94.70855821
C      70.58402560      85.72919527      94.23612664
H      68.65083558      85.23030752      94.74635274
C      71.15850240      84.40071767      91.69066530
H      71.52132985      82.45618929      92.26514210
C      69.01366303      84.39882794      89.86329995
H      67.45274910      83.47475178      90.83839873
H      69.46152817      83.43884698      88.09829557
H      68.43351705      86.30934124      89.36063275
O      73.20885545      85.47219249      90.62296993
H      74.55056113      85.17928491      91.80782833
C      72.23375667      84.67850744      96.32616395
O      74.14804943      85.86714529      97.09150310
N      71.68195659      82.28800365      97.12929763
H      70.30623583      81.30723569      96.24112625
C      73.06712597      81.04834319      99.25901918
H      75.07023587      81.46597270      99.03225203
C      72.02399705      81.87226386     101.79125244
H      72.07312993      83.93017582     101.81770861
C      69.22342265      80.83102466     102.28447101
H      69.19696649      78.93373945     103.08382524
H      68.25210333      80.61559586     100.48167211
H      68.11793276      82.11225910     103.45799104
C      73.49987330      80.84803220     104.11750552
H      73.15405338      78.82602505     104.30647816
H      72.71752661      81.75321110     105.79558250
C      76.26454290      81.71163713     104.13262334
H      77.06578685      80.56835271     105.64629412
H      76.43461826      83.73553401     104.47655352
H      77.39081978      81.26755144     102.46399501
C      73.22208353      78.13627494      98.81304377
O      71.83691414      77.07802821      97.23323258
N      75.05511806      76.94196791     100.09994739
H      76.27399153      77.92651532     101.19031947
C      75.54455717      74.30957916      99.65964116
H      73.84947267      73.16251529      99.89207749
H      76.85035805      73.89005992     101.19598864
C      76.74264365      73.86927293      97.06315720
O      78.76276108      74.82547444      96.50946740
N      75.39526879      72.45386792      95.43421312
H      73.78333225      71.67719040      96.09750706
C      75.59180033      72.66929672      92.70544833
H      76.71429776      74.28879217      92.10073591
C      76.68217241      70.16351963      91.42610362
H      75.50109347      68.53079609      91.85318176
C      76.87114504      70.70965053      88.57639633
H      75.01921326      70.93074851      87.70334277
H      77.83301574      69.24133319      87.49925234
H      77.74419860      72.55969259      88.33829082
C      79.13692689      69.66085243      92.52025515
H      79.00653578      69.22621538      94.52903421
H      80.28588049      71.35404720      92.28970854
C      80.76587097      67.49144662      91.46389814
H      81.64459371      68.17363782      89.72912939
H      79.34101733      66.09682860      90.94989258
H      82.27198284      66.61272388      92.56371886
C      72.93484513      73.06424952      91.65287077
O      71.11125924      71.75655891      92.22923730
N      72.70429852      75.19775052      90.32439317
H      74.34647069      76.15206231      90.12219246
C      70.59158450      76.29757124      89.01103339
H      70.27222076      75.37349507      87.19878585
H      71.13015650      78.27800441      88.84473747
C      68.10470468      76.28812261      90.30360619
O      66.19419137      76.21253355      89.02993065
N      67.95352657      76.39205755      92.92465658
H      69.59947819      76.42607263      93.88841700
C      65.69341390      76.77945145      94.40620200
H      64.20619929      75.63049785      93.56149434
C      66.09025643      75.91773625      97.14630516
H      67.14094426      77.36526661      98.16486765
H      67.11448809      74.14328324      97.34094698
C      63.56369235      75.60971086      98.52580536
N      62.12939007      73.47243040      98.50879783
H      62.91740595      71.77356645      98.14597038
C      59.89951303      73.93163389      99.50657333
H      58.57103543      72.50866998     100.12262410
N      59.78234999      76.40906509     100.15663917
H      58.19309016      77.30290564     100.71599817
C      62.08403664      77.46731183      99.50090415
H      62.40340039      79.46664227      99.24390136
C      64.97531790      79.62159982      94.47423215
O      66.58725445      81.11637334      95.20744597
N      62.74733058      80.11670812      93.33283746
H      61.49633176      78.71264147      93.01914290
C      61.70420165      82.70752289      93.23646142
H      63.07614296      83.92828609      92.30482634
C      59.22488073      82.80956811      91.69822419
H      57.78301955      81.63982753      92.59017501
H      59.37416911      82.11981801      89.76314446
C      58.10994221      85.37581645      91.33350703
H      57.30113934      86.08068436      93.09284222
C      59.94864591      87.33168318      89.98424243
H      61.36783037      87.89293190      91.36563236
H      58.99244440      88.99842179      89.24157999
H      60.85949399      86.26776727      88.47435110
C      55.86494735      85.10936504      89.53259784
H      54.63473552      86.59280019      90.26392193
H      54.61961771      83.48231068      89.73290884
H      56.38084263      85.59691442      87.59751811
C      61.12405568      83.73931346      95.90097551
O      59.82392397      82.44863039      97.31638052
N      61.99144005      86.04100011      96.58505645
H      63.27267449      86.91027421      95.46633847
C      61.34326393      87.25609413      98.97178077
H      60.44564393      85.78966651     100.10372684
C      63.75644443      88.48819568     100.06782204
H      63.30479984      90.14926511     101.20354756
H      64.81847062      89.26676292      98.48423139
C      65.25121794      86.50965223     101.60416953
H      65.28712274      84.71063278     100.60072487
C      67.94596767      87.47908183     101.77424491
H      68.61493078      87.63403939      99.83160625
H      68.97397878      86.10525080     102.91563960
H      67.79667929      89.27621156     102.76635122
C      64.06824927      85.98052887     104.17041787
H      63.68841428      87.58112705     105.41007833
H      65.17940834      84.56701358     105.17386253
H      62.28434763      84.99598146     103.88506919
C      59.37794856      89.30455745      98.62596086
O      57.41830238      89.27810128      99.64641307
N      59.91841029      91.10168717      96.93465581
H      61.68530439      91.19806322      96.21844954
C      58.15907509      93.11235597      96.26002352
H      56.30903303      92.27142776      96.59639481
C      58.55402789      95.28554123      98.12707312