 %block lattice_cart
   137.793   0.000   0.000
   0.000 143.498   0.000
   0.000   0.000   162.326
 %endblock lattice_cart

 %block positions_abs
N      88.89169412      37.69991130      80.92961881
H      89.59845176      37.19724410      82.62848277
H      89.92348469      37.21047218      79.40083021
H      87.24952195      36.75693786      80.69340302
C      88.40036528      40.33796923      81.16394486
H      89.99151483      41.43401049      81.87826141
C      87.52164254      41.60597558      78.72997738
H      85.46939977      41.61731393      78.54100474
H      88.37390911      40.74615010      77.06512849
C      88.25296663      44.41599860      78.76777191
H      87.74463025      45.23236037      80.59135779
H      87.24385278      45.28338299      77.19551961
S      91.57888494      44.94512198      78.00621220
C      91.53353151      48.10474437      76.67206542
H      93.40814001      48.24647384      75.83113721
H      91.40125066      49.62219461      78.05912453
H      90.08978060      48.43544648      75.24343233
C      86.20639303      40.57040557      83.13114995
O      84.90815105      38.62587719      83.56578701
N      85.67349021      42.79839288      84.17049943
H      86.71472941      44.31773285      83.67161169
C      83.63069607      43.27838336      85.97707778
H      82.13403283      41.97636193      85.42527770
C      84.50185990      42.73225247      88.69261450
H      86.23473892      43.73758686      89.17260498
H      84.83823118      40.70835559      88.88914603
C      82.51575754      43.57884986      90.75241619
O      80.40493325      44.47646986      90.34234557
N      83.13558777      42.92689428      93.04654392
H      82.08867939      43.22925049      94.61501676
H      84.74185514      41.91967014      93.26197272
C      82.62725139      45.95801529      85.58212498
O      84.28265164      47.63231280      85.65771404
N      80.16682773      46.44367494      85.34024001
H      78.82890150      45.10952817      85.61802978
C      79.03488167      48.95134176      84.90182352
H      79.69061670      49.45022950      83.01398692
C      76.11336479      48.65276501      84.64104129
H      75.80722913      47.53782648      82.93650814
C      74.73386458      47.43578126      86.92761013
H      75.60880787      45.61786455      87.33768073
H      72.70240880      47.27893398      86.62714363
H      75.05133860      48.42599784      88.70773230
C      74.82457145      51.31160992      84.30467000
H      75.10803039      52.41709982      86.02054150
H      72.77610812      51.11507839      84.28010355
C      75.95084833      52.51347585      81.79133400
H      74.76976938      54.13486104      81.31323324
H      75.39526879      51.29460239      80.22853034
H      77.91805342      53.11062938      81.65338398
C      79.84368453      51.12263730      86.83312380
O      80.30288803      53.36007324      86.35313333
N      79.80400028      50.34407006      89.25764266
H      79.29188445      48.51103552      89.40126186
C      80.55800108      51.78971069      91.52153479
H      79.65093245      53.63219383      91.38925394
C      80.00620100      50.42910774      94.00274543
H      81.04932992      51.24924895      95.57877718
H      80.70351001      48.49402799      93.87802351
C      77.22263414      50.40643103      94.51675099
C      76.07557027      52.35851831      95.82822106
H      77.18672934      53.98935212      96.34411635
C      73.59058016      52.10340525      96.83355545
H      72.91027869      53.83439456      97.67448366
C      72.16950598      49.97746315      96.29120400
H      70.29678720      49.80360832      97.08299933
C      73.30901094      47.92711010      94.96272640
H      72.36603751      46.11864202      94.92871134
C      75.83179557      48.14820807      94.02920160
H      76.61414227      46.42477768      93.26386245
C      83.49274604      52.32072378      91.54799096
O      84.34690234      53.74368768      93.17504531
N      85.07066752      51.22468251      89.83400919
H      84.33367425      49.96234534      88.60757682
C      87.84289602      51.69711410      89.52220435
H      88.40414473      52.72134576      91.21917858
C      89.45483256      49.27637469      89.39559268
H      91.44660410      49.70345284      89.09134676
H      88.70461122      48.05561149      87.91593699
C      89.02586469      47.74191692      91.96939992
H      89.79498330      45.84463170      91.75208139
H      87.03787261      47.29972097      92.27175614
C      90.17292856      49.32739729      94.14069545
O      91.98328637      50.82595027      93.59834401
O      89.26585993      49.16488084      96.39324922
C      88.30776869      53.35440406      87.07500878
O      89.89324907      55.04003995      87.18839235
N      86.96228356      52.72701493      85.00764818
H      85.86057311      51.18688798      85.25520233
C      87.48006856      53.78337194      82.55856289
H      89.53609079      53.90809388      82.56801151
C      86.59756638      52.13553060      80.38915707
H      87.25141168      50.19100223      80.56679135
H      87.31377265      52.71378685      78.54856365
C      83.77998444      52.29993678      80.26254541
H      83.47195905      54.28603915      79.81279055
H      82.97307131      51.64798121      82.04077788
S      81.90537594      50.34784950      78.04400673
C      81.85246360      52.59095464      75.48342757
H      81.73908003      51.53081818      73.71842319
H      83.64014470      53.61140685      75.55523718
H      80.18950445      53.78337194      75.71397418
C      86.71661913      56.59717443      82.38659780
O      87.97328713      57.93699038      80.91450099
N      85.00641682      57.57605265      83.82278979
H      84.34879206      56.35339973      85.13425985
C      84.15792971      60.14608044      83.84924596
H      84.21273177      60.68465244      81.86125388
C      81.39892929      60.01946878      84.73930705
H      80.79232714      61.97911497      84.90560296
H      81.59924028      59.26924743      86.64604090
C      79.37881186      58.61729186      83.21051846
H      79.97029620      56.70488882      82.72107934
C      76.76154092      58.74579325      84.56356250
H      76.58957582      57.34550605      86.06211547
H      75.18172972      58.45288566      83.27476916
H      76.77854845      60.59583531      85.46685168
C      78.65882614      59.96466672      80.73875644
H      77.28499511      58.88563299      79.64649463
H      80.38225653      60.23867703      79.64649463
H      77.82734656      61.80337042      81.15260652
C      85.79821215      62.08116019      85.25331260
O      85.15759493      64.33182423      85.46685168
N      87.88069054      61.30637239      86.38147921
H      88.32855568      59.46955842      86.10557918
C      89.62490793      62.85972743      87.93105479
H      88.57610983      64.09182897      89.20473032
C      91.07810746      60.90008124      89.64692628
H      92.40280561      62.10761636      90.66170931
H      91.82076991      59.55837555      88.27120553
C      89.41892776      59.43743308      91.52720396
H      88.04320701      58.40186306      90.39336818
H      88.61579408      60.85472780      92.78765141
C      91.14802734      57.60817800      93.00874939
H      92.58043988      58.49256992      94.19360779
H      92.22517134      56.37607644      91.75964030
N      89.61734902      55.93765993      94.62257566
H      89.39247159      54.15375830      93.98384817
C      88.73673656      56.59528470      96.82410683
N      89.46428119      58.73067543      97.90314054
H      88.33611458      59.16909193      99.37901679
H      90.94960608      59.80215025      97.36834801
N      87.05299042      55.26302765      97.98061932
H      86.79976709      55.56538386      99.84577919
H      86.48040335      53.61518631      97.19827263
C      91.42203765      64.44709753      86.41171483
O      92.68059538      66.03824709      87.32634237
N      91.52408287      64.09938788      83.92105555
H      90.57355054      62.62162190      83.17650339
C      93.15491668      65.59416140      82.08613130
H      94.25662712      66.98311023      83.13492942
C      94.98417175      64.02001938      80.54978381
H      96.15202262      65.19164969      79.32146171
C      96.96082548      62.88996305      82.26943476
H      98.50473187      62.18509513      81.10158389
H      96.25028838      61.34416692      83.42972672
H      97.66758312      64.35261121      83.53555139
C      93.85978460      61.93943071      78.80556642
H      92.52752755      60.90386068      79.98664537
H      95.35644784      60.65819627      78.20274373
C      92.69571319      63.06003842      76.35270167
H      90.84945058      63.90852553      76.68907296
H      92.43682068      61.55203682      74.97320147
H      94.03174969      64.28647079      75.37382344
C      91.45794245      67.22877466      80.32868584
O      92.37823917      68.90685163      78.96052398
N      88.97295235      66.77901979      80.38159817
H      88.10178852      65.80203130      81.76865729
C      87.38369252      68.13395356      78.52399721
H      88.44382898      67.80703091      76.78544901
C      84.89492297      66.89996229      78.22919991
H      83.80833034      66.96232325      79.97719675
H      85.06310861      64.90252157      77.75676832
C      83.26975834      67.97332683      76.12026533
O      81.10224226      68.75189407      76.70041131
O      84.04643585      68.16796863      73.89605746
C      87.10401303      70.94397659      79.14760689
O      86.72228831      72.34426378      77.29189565
N      87.28920621      71.83025824      81.47385999
H      87.79565286      70.55847243      82.80422730
C      87.62557749      74.56469221      82.11069776
H      88.43815981      75.70230745      80.59513725
C      84.99507846      75.74010198      82.58123960
H      84.17493724      74.81980526      84.23097067
H      84.03320777      75.39995124      80.78977905
C      84.94027640      78.44052088      83.11603214
H      85.88702928      78.81657642      84.90560296
H      82.99385830      78.89027574      83.60925072
C      86.02686903      80.17339990      81.23764420
O      84.44138865      81.28077952      79.82790836
O      88.39469610      80.65528011      81.16961405
C      89.25074212      74.93129912      84.50120153
O      89.04854140      73.50077629      86.41360456
N      90.79842797      76.95897544      84.46340702
H      90.65102932      77.91328723      82.81745539
C      92.72405908      77.39550223      86.50242171
H      93.97694763      78.95074698      85.99975450
H      93.93348392      75.73065334      86.62525392
C      91.76596784      77.96808929      89.12536182
O      89.71939425      79.05468192      89.38047488
N      92.90547281      76.99676997      91.06044156
H      94.25851685      75.67207183      90.81288742
C      92.24595833      77.46731182      93.66826389
H      90.22017172      77.18385287      93.91959748
C      93.82576952      75.73443280      95.34634085
H      95.86100476      75.94419242      95.09878670
H      93.56120784      73.72943317      94.94760859
C      93.26074136      75.99710475      98.12612825
H      93.77663664      77.91139750      98.67981806
C      90.48284368      75.54734989      98.81209890
H      90.26552515      75.97253831     100.81709852
H      89.92537441      73.58581397      98.51919132
H      89.24696267      76.78701035      97.72928572
C      95.01251765      74.26989491      99.80420521
H      95.11645260      75.15806627     101.65991646
H      96.97972274      74.47209562      99.22405924
H      94.47961483      72.28001310      99.84388947
C      92.82421458      80.13749510      94.63013457
O      95.08432725      80.88015755      94.72084143
N      90.88724511      81.57368711      95.29720796
H      89.22239623      80.64394176      95.25941343
C      91.17070405      83.99253678      96.82599656
H      93.17948312      84.44607109      96.86568080
C      89.83844700      86.34146658      95.57121827
H      90.11434705      87.95340314      96.82221709
H      87.79943231      86.06367683      95.48618059
C      90.70394165      87.17483590      92.87835828
H      92.74106662      87.47530237      92.90859391
H      89.93104359      88.93984027      92.14892392
C      89.81010111      85.24542532      90.86579975
H      88.06021454      84.52732932      91.68027179
H      91.00629786      83.56923808      90.79021070
N      89.46239147      86.50398305      88.41671445
H      90.02364018      88.32001003      88.23530073
C      89.17515307      85.43817741      86.11691753
N      88.93893728      82.98720239      86.02054150
H      88.92192974      82.22186322      84.27065493
H      88.99184962      81.82313097      87.53421226
N      89.40192023      86.81956734      84.11758709
H      89.17515307      85.93328571      82.44328959
H      89.78175521      88.68850667      84.19695560
C      90.17670801      83.66939358      99.41870105
O      87.99785357      82.96830513      99.83255112
N      91.74518085      84.01710322     101.36511916
H      93.62356881      83.94340390     101.03441704
C      90.83244304      84.07379502     103.98427983
H      89.29987500      82.69807425     104.04286133
C      92.81854540      82.84358318     105.70015131
H      92.16281037      82.92862086     107.65223860
H      94.50040182      84.02277240     105.87022668
C      93.56498729      80.15261291     105.17102794
H      94.21316342      80.02978070     103.22083039
C      95.64557596      79.12271207     106.87745080
H      96.39579731      77.22542685     106.60344050
H      95.05976081      79.04523330     108.84843535
H      97.12334194      80.52866846     106.59210213
C      91.32188216      78.29501194     105.66613625
H      90.36568064      78.69185447     107.44625842
H      92.05887542      76.38449864     105.42236155
H      89.94238195      78.51422021     104.15435519
C      89.96883812      86.72886048     104.83087722
O      90.43560052      87.43372840     106.99272412
N      88.66114751      88.06300726     103.22460985
H      88.23595909      87.27310166     101.53897397
C      87.54998844      90.45540078     103.63090100
H      86.75630339      90.16438292     105.50928896
C      89.65892300      92.52276136     103.41736192
H      90.49040258      92.59268124     101.53519452
H      91.20093968      91.78009891     104.56442580
C      88.93704755      95.22129053     104.22238533
H      88.18682621      95.08900970     106.13667809
H      87.58022406      96.10379273     102.94493035
C      91.09511500      97.16959836     104.41513742
H      91.87746170      97.36612990     102.51785220
H      92.50485083      96.45528181     105.73416638
C      90.38079846      99.96450357     105.05008546
H      89.57199559      99.95694468     106.94548095
H      89.01830578     100.43504543     103.57798866
N      92.56721180     101.61801411     105.05953410
H      93.85411542     101.34211407     106.44281376
H      91.96438911     103.39435683     105.40724373
H      93.41758864     101.68415452     103.35311124
C      85.25586069      91.10924608     101.82432264
O      85.38436208      90.14170621      99.74751342
N      83.37747274      92.52276136     102.55186727
H      83.29432478      93.05755390     104.38112234
C      81.34601695      93.35424093     100.75851701
H      80.27643186      91.72340712     100.09333334
C      79.52810024      95.42538097     101.86967608
H      80.57311889      97.19794425     101.83566100
C      77.50798281      95.92237900      99.87790454
H      78.21285073      96.11891053      97.95227343
H      76.34391140      97.58722787     100.21238610
H      76.29666824      94.26697875      99.67759356
C      78.30733704      94.81688911     104.46804975
H      79.61502765      94.18761025     105.93069793
H      77.23397250      93.10290733     104.06931751
C      76.53477376      96.92771339     105.42992046
H      74.80189473      96.85590380     104.31876139
H      77.50798281      98.74185065     105.40346428
H      76.05667300      96.41559756     107.36688992
C      82.58567741      94.40492876      98.36423376
O      84.46406537      95.73907555      98.67225915
N      81.75797729      93.62069234      96.11734918
H      80.43894832      92.24308186      96.02475259
C      82.66504592      94.64870346      93.79298581
H      83.49463577      96.48929689      94.19738725
C      84.79854693      93.06322309      92.64214250
H      86.31977661      92.71929289      93.98762763
H      85.87002175      94.09690337      91.21917858
C      83.88013994      90.45162131      91.85790608
C      83.74596937      90.02643289      89.29354747
H      84.15415025      91.55900094      88.00853358
C      83.33211931      87.57167841      88.37136102
H      83.07700626      87.36947770      86.35691277
C      83.19794874      85.51754591      90.08156333
O      82.98063021      83.23475654      88.98930153
H      82.93716651      83.26310242      87.17705399
C      83.25841998      85.84257885      92.71584181
H      83.13180832      84.13237652      93.82511116
C      83.47006933      88.39748882      93.49251933
H      83.41337754      88.51843130      95.52964429
C      80.32556474      94.89247815      91.98073829
O      78.21851990      94.54476852      92.81977677
N      80.76587097      95.36490973      89.55055024
H      82.53465480      95.57466935      88.86457959
C      78.76654054      95.83356185      87.69672873
H      76.99775671      95.27798232      88.59623845
C      78.54733228      98.73051229      87.51909446
H      80.34446201      99.48451309      86.85202107
H      78.40938226      99.52986653      89.41071050
C      76.54989157      99.75852341      85.72385447
H      74.77732829      98.97239726      86.41549430
H      76.90138066      99.22373086      83.76420828
C      76.23241755     102.58177453      85.68794966
H      75.75053734     103.33388559      87.54555063
H      74.81323309     103.08255200      84.28199328
C      78.71551793     103.95560556      84.87158789
H      79.31645089     102.69893756      83.35602739
H      80.07801060     104.03875351      86.41549430
N      78.17694593     106.47461073      83.78310554
H      77.18106016     107.48939375      85.05489135
H      76.99775671     106.29508673      82.29400121
H      79.74352904     107.35522318      83.14059860
C      79.19739813      94.49185617      85.21929753
O      81.32145051      94.54476852      84.08924120
N      77.14893481      93.36368957      84.29333164
H      75.53321881      93.61880263      85.27787905
C      77.07145603      91.71395849      82.06345459
H      78.89126247      90.79366178      81.77054701
C      74.96819065      89.67494380      82.73052798
H      73.25420888      90.78799260      82.97997186
H      75.29511330      88.84346423      84.58434949
C      74.70740842      87.69829008      80.71041055
O      73.05389789      88.08757370      79.03422331
O      76.08312917      85.80856377      80.76332288
C      76.46485389      93.24463681      79.58224395
O      75.27999549      95.22318026      79.67106108
N      77.25286976      92.30355310      77.30512373
H      78.26198361      90.68783710      77.20496825
C      76.47997170      93.40337383      74.83714117
H      77.32278963      95.27042341      74.63494045
C      77.73097052      91.73852494      72.74521414
H      77.05822795      92.46795929      70.93863579
C      80.62603123      92.00875580      72.80946483
H      81.18161076      93.99296843      72.80568539
H      81.69372659      91.05633373      71.32791941
H      81.25719982      91.00531113      74.48943153
O      77.12814782      89.08723892      72.92284842
H      77.82923628      88.50898267      71.35437557
C      73.62270551      93.72084784      74.48943153
O      72.70429852      94.91893432      72.74710386
N      72.02966623      92.51709218      76.12782424
H      72.86114581      91.39648447      77.42795594
C      69.16673087      93.04054636      76.13160369
H      68.62248969      93.28621078      74.16061915
C      67.52455870      90.89003782      77.11048193
H      67.85337108      90.55366654      79.11737127
H      68.15383756      89.12692318      76.25254618
C      64.67674115      91.28310090      76.50199005
H      63.91140199      92.76275660      77.71141490
H      63.77345197      89.68439243      77.43740458
C      64.03423420      91.43994819      73.68629784
O      62.80213264      93.18794503      72.85670799
O      64.87705213      89.79399657      72.11404556
C      68.58091571      95.74285500      77.14638672
O      66.55323937      96.78598392      76.59080719
N      70.34780981      96.75952775      78.47486432
H      71.81801688      95.70506047      79.08146647
C      70.25332350      99.18971579      79.55578777
H      69.11192880     100.56165710      78.52966638
H      72.21107996      99.83222274      79.57279531
C      69.23287129      99.07444249      82.22219160
O      68.35414855     100.91125646      83.32957122
N      69.32735760      96.97117710      83.59413290
H      70.52355436      95.68049403      82.86091909
C      68.45997322      96.29465507      86.13770453
H      67.58125049      97.96328341      86.96540464
C      66.70630721      94.04966022      86.06211547
H      66.17718384      93.40148410      87.94617261
H      67.71353133      92.34890653      85.48007976
C      64.35359795      94.44839248      84.59379812
C      63.35015327      92.41315723      83.26343080
H      64.43485618      90.68783710      83.37114520
C      61.13917349      92.44528257      81.78944427
H      60.47587955      90.79933096      80.77844070
C      59.76534246      94.70728497      81.90471759
O      57.51278869      94.90948570      80.63671122
H      56.97421669      96.61401883      80.32112693
C      60.75555905      96.86535242      83.10280407
H      59.68219450      98.60012118      83.03855337
C      63.01378199      96.79354283      84.56356250
H      63.50133138      98.38658211      85.74464145
C      70.69551945      95.59923579      87.88192191
O      72.32068408      94.28209655      86.89359504
N      70.21741870      96.01497559      90.34612502
H      68.66028421      96.95416957      90.91871210
C      72.23753612      95.35168164      92.15081365
H      73.98553296      95.91293036      91.21161967
C      72.15438817      97.07133260      94.58289141
H      73.58680071      96.24552219      95.80932379
H      70.28733857      96.82377845      95.41815044
C      72.95563212      99.85489945      94.05565778
C      71.34747503     101.51029970      92.75741580
H      69.49743297     101.10967772      91.99018691
C      72.21485941     103.87434733      92.36246300
H      71.13771541     105.21605300      91.26453202
C      74.60347347     104.80220295      92.90859391
O      75.39715852     107.16436083      92.48340548
H      74.09135764     108.40024184      92.25474859
C      76.23997646     103.07688282      93.99140708
H      78.16182812     103.51718904      94.51675099
C      75.37637153     100.71283519      94.73217979
H      76.56878883      99.50530009      95.86601558
C      72.03344568      92.57189424      92.93316034
O      69.96230564      91.43049955      92.89536581
N      74.12348298      91.31333652      93.68338169
H      75.87714900      92.05788868      93.54543168
C      74.36725768      88.58079226      93.98384817
H      72.62115057      87.74175379      94.68871610
C      75.54644690      87.49797910      91.40815122
H      76.36847784      85.62903977      91.67082317
C      73.75120690      87.28444002      89.12914127
H      73.26554724      89.21951977      88.62269462
H      72.10903473      86.17895013      89.70172836
H      74.62426046      86.35091522      87.51342528
O      77.56656433      89.13070262      90.77698263
H      78.66449531      88.17450111      89.69227971
C      76.43083881      87.96663121      95.91136901
O      77.86136163      89.64848763      96.69182598
N      76.95618273      85.56289935      96.64269309
H      76.12281342      84.21552449      95.58444636
C      79.13881662      84.83157526      98.26974746
H      80.67894356      86.11091998      97.78975696
C      78.44717679      85.30211712     101.00040198
H      77.39648896      87.07279067     100.97394580
C      76.70673885      83.41994970     102.03219255
H      76.21541001      83.82435114     103.98994900
H      77.67805818      81.60203300     102.08132543
H      75.00220572      83.20074145     100.90213620
C      80.90571072      85.55911989     102.65958167
H      82.39670478      86.53799813     101.62779111
H      81.68616769      83.70151893     103.08854956
C      80.71862782      86.88759749     105.14457178
H      79.51487216      85.90682953     106.49761582
H      80.06856197      88.83590532     105.01418066
H      82.64614866      87.16727699     105.81542462
C      80.25564487      82.14627418      97.76330081
O      79.16716251      80.97275414      96.13057726
N      82.34001299      81.45652406      98.99918182
H      83.18283093      82.51666053     100.34277721
C      83.41715699      78.91862163      98.75729684
H      81.92238348      77.54668032      99.11634485
H      84.92137914      78.48020512     100.09711280
C      84.26186465      78.28556332      96.08900329
O      85.68482857      79.69529914      94.87012981
N      83.32456040      76.17284929      95.07233053
H      81.90537594      75.53034236      96.17593069
C      83.54754811      75.51711427      92.39458835
H      85.07633669      76.56591237      91.49507862
C      84.30721809      72.69575289      92.20372598
H      83.06377817      71.59782189      93.42448918
C      84.10879682      71.81136097      89.39181324
H      84.96106339      73.21731734      88.15404249
H      82.07545131      71.57136572      89.14992826
H      84.95539421      69.97265726      89.00441935
C      87.07944659      72.42741175      93.05599256
H      87.45361240      73.91840580      94.42793385
H      88.34934267      72.70520151      91.45917382
C      87.47061993      69.60227090      93.77975774
H      89.41703804      69.44164417      94.42793385
H      87.34589800      68.23032960      92.24718970
H      86.07222246      69.18464139      95.23295726
C      80.90004154      76.30701987      91.28531900
O      79.01787414      74.91429157      91.55177041
N      80.72051754      78.58791953      90.29888186
H      82.30410819      79.65183545      90.32533804
C      78.58134736      79.38538404      88.78710082
H      78.20151237      78.03422971      87.28098895
H      79.24275157      81.03889455      87.75342052
C      75.98675313      79.97308892      90.07211471
O      74.20096176      80.68551573      88.79843917
N      75.67116883      79.25688265      92.44561095
H      77.22830332      78.95830589      93.50952687
C      73.03311090      78.87326819      93.33945150
H      72.12604227      77.57124678      92.02798144
C      73.16161229      77.88494133      96.12112863
H      74.47119263      79.09436618      97.15858839
H      74.38426522      76.22954108      96.21183550
C      70.70685781      77.41628921      97.40425280
N      69.48231516      75.15806627      97.48551104
H      70.13049129      73.54235028      96.70127462
C      67.50566144      75.43207659      99.07288114
H      66.17340439      73.93919279      99.48106201
N      67.22220249      77.80179338      99.78719768
H      65.61782485      78.55201472     100.49773477
C      69.24043019      79.20208057      98.80265027
H      69.76766383      81.15038841      99.10689620
C      71.50243259      81.35258912      93.56432893
O      72.50398753      83.00420992      94.92871134
N      69.49365352      81.59069464      92.04498897
H      69.49932270      80.20363552      90.73351891
C      67.81368683      83.81112305      91.77853756
H      69.09303154      85.39471371      91.46295328
C      65.91262215      83.55601001      89.63936738
H      64.86949323      81.83824879      90.09479142
H      66.94252300      83.39916272      87.86113493
C      63.72809854      85.26054313      89.14614882
H      62.48276890      85.62526032      90.74674701
C      64.75610965      87.90615997      88.38647883
H      63.28401285      89.07212112      87.54177117
H      66.15450712      87.57734759      86.90871285
H      65.71987007      88.84724368      89.94172359
C      62.16151542      84.30434162      86.95217657
H      61.35838174      82.53933724      87.64381640
H      63.41440397      83.94907308      85.35724756
H      60.83870700      85.78399733      86.40037648
C      66.65528460      84.31756970      94.29187357
O      65.21531315      82.84169345      95.32933331
N      67.18062851      86.49264469      95.32366414
H      68.11037386      87.80600449      94.29943246
C      66.09214615      87.35247016      97.68582202
H      65.80490775      85.61392195      98.75162767
C      67.80801765      89.11180536      99.23728732
H      66.62126952      89.97918974     100.68103822
H      68.35981773      90.72563163      98.08266455
C      70.08513785      87.77387914     100.45049162
H      71.16228185      86.91594339      98.91981330
C      71.91817238      89.64659792     101.71660825
H      72.70618825      90.70484464     100.13301759
H      73.56790345      88.85858203     102.66336114
H      71.14527432      90.96373716     103.09610845
C      69.34058569      85.77454869     102.49895494
H      71.06401608      84.71630196     102.89201801
H      68.11982249      84.29867244     101.73928496
H      68.66217394      86.73263993     104.19214971
C      63.43330123      88.49386485      97.38913499
O      61.49255231      87.52821472      98.37179267
N      63.25188751      90.37981172      95.84900804
H      64.84114734      91.09601799      95.06666135
C      60.95209058      91.82356262      95.42948880
H      59.36849993      90.51020284      95.54287238
C      60.42863639      93.58667727      97.70282955