 %block lattice_cart
   137.793   0.000   0.000
   0.000 143.498   0.000
   0.000   0.000   162.326
 %endblock lattice_cart

 %block positions_abs
N      86.13080397      41.27716320      78.01660569
H      87.93549261      40.98425562      77.46669533
H      85.36735455      42.16911402      76.51427327
H      85.15570521      39.65955748      78.28116738
C      86.09678891      42.92122509      80.26538000
H      87.42715623      41.89510371      81.45779731
C      86.73929585      45.78416046      79.74192582
H      86.67504515      46.44934412      81.69023364
H      85.29554495      46.85563528      78.73470169
C      89.38680242      46.40777014      78.67989963
H      89.79687302      44.80339250      77.45346725
H      90.74740536      46.45123385      80.22569575
S      89.90836688      49.13653494      76.80907058
C      92.95460569      48.22379713      75.67712452
H      94.30953947      48.47324100      77.20780283
H      93.39491193      49.53904664      74.15400511
H      92.76185362      46.29627629      74.97792578
C      83.40959808      42.91177646      81.41055415
O      81.54065877      42.73792164      80.04428203
N      83.21306656      43.28027309      83.93900796
H      84.82500309      43.56184231      84.92166564
C      80.66004631      43.52782724      85.31094926
H      79.30889199      42.60186135      84.06184017
C      81.14948542      42.14643731      87.89798458
H      83.01464529      42.82673878      88.44222576
H      81.37814231      40.10553289      87.73168867
C      79.52243107      42.78327507      90.08250820
O      79.72085233      44.68811920      91.39208853
N      77.67238901      41.33763444      90.63430828
H      76.63303953      41.68912354      92.19522222
H      77.12814783      40.02427466      89.35874302
C      80.10635649      46.38320370      85.72101987
O      81.71829304      47.98380189      86.25959187
N      77.71207326      47.00303393      85.66243835
H      76.46296417      45.55928303      85.61708492
C      76.78421764      49.62408433      85.70779179
H      77.63837392      50.51414542      84.05806071
C      74.03466585      49.58440007      85.19945541
H      73.70963292      48.12931081      83.77838122
C      72.14116008      48.72835405      87.21768311
H      73.03500063      47.08618189      88.07939831
H      70.31757419      48.11419300      86.47880012
H      71.85392169      50.17777414      88.65198538
C      72.94240404      52.13364087      84.19223128
H      72.82713073      53.50180272      85.72857877
H      70.92039689      51.83506411      83.94089768
C      73.94395898      53.00480470      81.58818842
H      73.06901570      54.83217005      81.21591234
H      73.38460000      51.39097843      80.43923482
H      75.99809149      53.15787253      81.62976240
C      77.53065953      51.13586538      87.94522774
O      78.33001376      53.29393283      87.69200441
N      77.43050404      50.12108235      90.25069384
H      76.92027792      48.28804782      90.40187195
C      78.16938702      51.61018668      92.55427022
H      77.42672459      53.51314108      92.30104689
C      77.09980193      50.53115296      95.08839320
H      77.78955204      51.56861270      96.73056537
H      77.98230412      48.70189789      95.43043367
C      74.31623507      50.30060635      95.18665897
C      72.77043894      52.09962580      96.49623931
H      73.49420413      53.82116647      97.32015998
C      70.10214540      52.00136003      96.31671531
H      68.91350755      53.33361708      97.30693189
C      69.06468564      49.96045561      95.02225278
H      67.06346548      49.57495144      95.16209253
C      70.50843654      48.19923069      93.66353956
H      69.62593437      46.64020648      92.69033051
C      73.11247941      48.33340125      93.92810125
H      74.33135287      47.06728463      92.89064150
C      81.00208677      52.06750045      92.59962365
O      81.74474921      53.97612403      93.79015123
N      82.72740688      50.78248656      91.24091043
H      82.10001776      49.12708631      90.52659388
C      85.30877304      51.49113392      90.72312542
H      86.33300469      52.55504984      92.15931742
C      86.90937121      49.10063014      90.48690963
H      88.72350848      49.50125212      89.59873826
H      85.66593131      48.03671422      89.23402109
C      87.62179804      47.91010256      92.99646617
H      86.01175123      47.55294429      94.22667800
H      88.88980439      49.11952740      94.08116908
C      88.89736330      45.34385423      92.42387910
O      91.03842321      45.40054602      91.25791797
O      87.81832958      43.39176695      93.14953401
C      85.61490869      53.12952664      88.41387987
O      87.18905072      54.82083169      88.44978467
N      84.35635096      52.61363135      86.22557680
H      82.95606377      51.33617637      86.46179258
C      84.93838668      53.45644929      83.70090244
H      86.95283492      53.18621843      83.36453116
C      83.47195906      52.06561072      81.74881516
H      81.46129025      52.16009704      82.18912139
H      83.96517762      50.08517755      82.02660493
C      83.99541325      52.48701969      78.93312295
H      85.98907450      52.11663333      78.57407495
H      83.46628988      54.47312205      78.78383457
S      82.16615817      51.03004070      76.48214793
C      84.05588449      51.95600660      73.78928793
H      83.58156318      53.92132196      73.39055568
H      83.55888647      50.83350917      72.13577741
H      86.10056836      52.01269839      74.03306262
C      84.34690234      56.23434697      83.37775924
O      85.98907450      57.53825813      82.49336733
N      82.29465957      57.13574642      84.63442724
H      81.02287376      56.03781543      85.53960614
C      81.55010739      59.63396461      84.76670808
H      81.69750605      60.46355446      82.89020985
C      78.83268096      59.76435572      85.60574656
H      78.47741242      61.75423753      86.00636854
H      78.80811451      58.48312128      87.21768311
C      76.75965120      58.73634461      83.84452164
H      76.79555600      56.68032238      83.96924358
C      74.13482135      59.69632557      84.83851768
H      72.95185267      59.89285711      83.16422017
H      74.19151314      61.53880873      85.75503494
H      73.23342189      58.52091581      86.26904050
C      76.94484438      59.50735294      81.05150615
H      75.40093798      58.64752747      79.99136969
H      78.73063573      58.85728709      80.25782110
H      76.83146079      61.56337517      80.96457874
C      83.13936723      61.42164570      86.56194808
O      83.26786861      63.66664056      86.02526581
N      84.70028115      60.53536406      88.37041616
H      84.97807092      58.64752747      88.40065178
C      86.29332045      62.15674923      90.11463355
H      85.04043190      63.33404873      91.24468988
C      87.83155766      60.28025101      91.68121666
H      89.09956401      61.49156557      92.76025039
H      88.86145851      59.21255564      90.25069384
C      86.30087934      58.60406377      93.35740390
H      85.02909354      57.44377181      92.22356811
H      85.06499834      59.71711256      94.57060819
C      87.79376314      56.84094912      95.17721034
H      89.37924351      57.80470954      96.07105089
H      88.55532283      55.30271190      94.03959510
N      86.21017249      55.84317362      97.16331269
H      85.07444696      54.36918710      96.73623455
C      85.70372584      57.01858339      99.31193151
N      86.81677462      59.05570835     100.04892477
H      86.37646840      59.68498722     101.79692161
H      88.42871118      59.61695707      99.19287875
N      84.03131805      56.28159013     101.01268519
H      83.66849060      57.33605741     102.56037104
H      83.17527202      54.58083645     100.86717627
C      88.18304675      63.79136250      88.62363949
O      89.16192499      65.63195592      89.78582117
N      88.81988452      63.15452473      86.20856926
H      87.96572822      61.67297930      85.36197187
C      90.68882385      64.76835100      84.76670808
H      91.56187740      66.23477862      85.92133086
C      93.01507693      63.28869530      83.84452164
H      94.24339904      64.47355369      82.68989886
C      94.27741411      62.37217803      86.30116585
H      96.15013289      61.66919985      85.81361646
H      93.45916261      60.63740928      87.04949747
H      94.26607576      63.77813441      87.80538799
C      92.49162275      60.87173534      82.28171798
H      91.33133080      59.51491185      83.31161882
H      94.16403053      59.75112764      81.83952202
C      91.28597735      61.65219231      79.75515390
H      89.23940376      61.86195193      79.67578539
H      91.86990280      60.14419071      78.47958864
H      92.13068502      63.40207887      79.06729352
C      89.44349421      66.25556561      82.64643516
O      90.86078894      67.69364733      81.28583221
N      86.98685000      66.23477862      82.44612417
H      85.92293409      65.19731887      83.64421065
C      85.69616692      67.47632881      80.29750535
H      86.98307055      66.97555133      78.76682704
C      83.08267543      66.28769095      79.92522927
H      81.69750605      67.21743630      81.13276438
H      83.19038983      64.25623517      80.25026219
C      82.23985749      66.76012253      77.20402338
O      80.84146003      68.55347280      76.60309041
O      83.20361791      65.36928397      75.54862313
C      85.75474844      70.41296350      80.62064855
O      85.59223198      71.84348631      78.88776952
N      85.80388132      71.26145061      83.08863112
H      85.97206697      69.96320863      84.47380050
C      86.15726015      73.99210513      83.68389490
H      87.18905072      74.66862715      82.03605356
C      83.39825973      75.22420669      83.98814084
H      82.30788764      74.29446134      85.46779654
H      82.36457943      74.70264223      82.28360771
C      83.39448028      78.17406946      84.13553949
H      84.28832082      78.75799489      85.89487469
H      81.36491421      78.52933801      84.14120867
C      84.81177501      79.52144432      81.84708093
O      87.05865959      80.15639237      82.15510632
O      83.57400427      80.05623687      79.99892859
C      88.15848031      74.37382985      85.76637330
O      88.78209000      72.73732686      87.29138244
N      89.18460169      76.62638361      85.74558631
H      88.50618995      78.01533245      84.62686833
C      91.32944106      77.38227414      87.28193380
H      91.85856444      79.19263195      86.45990286
H      92.92625979      76.08403216      87.39909684
C      90.23339981      78.24587906      89.88786639
O      88.38146801      79.69151969      89.94266845
N      91.19904995      77.20086041      91.99113178
H      92.66358784      75.99143557      91.80593860
C      90.22017171      77.38038441      94.50824722
H      88.22084127      76.94763709      94.28336979
C      91.57132603      75.45097385      96.26002352
H      93.58388455      75.86482391      96.13152213
H      91.32755134      73.46298177      95.78003303
C      90.46772587      75.65317456      99.12862806
H      90.92692937      77.41439949     100.09238848
C      87.65959256      75.46420193      99.33649795
H      87.20605825      73.60282151      98.57493825
H      86.70339105      76.81157679      98.10817585
H      86.92070958      75.83458829     101.22244482
C      91.67526098      73.74077153     100.90308107
H      90.58110945      72.00222333     101.05425917
H      91.41069930      74.41162437     102.83249163
H      93.57443593      73.42896669     100.17553644
C      90.62079370      80.06001632      95.63452411
O      92.70138237      80.71764108      96.16742693
N      88.68004477      81.56990765      95.86696044
H      87.00196780      80.82346575      95.35106516
C      88.73295712      84.06623611      97.13118735
H      90.69071358      84.70685333      97.15197434
C      87.07377741      86.01454394      95.64586247
H      86.64858899      87.61136267      96.87418457
H      85.22940453      85.18495408      95.24713021
C      88.12824470      87.08034958      93.22323333
H      90.07844224      87.66616473      93.53314845
H      87.08322603      88.82834642      92.91709767
C      87.90147753      85.40794179      90.86485489
H      85.93616217      84.79189101      90.90075969
H      89.26397020      83.93773472      91.33728647
N      88.07533236      86.58713101      88.46868193
H      88.62713243      88.38804019      88.15876681
C      87.16448428      85.68006238      86.33896037
N      86.53520540      83.32924285      86.18778227
H      86.29898962      82.76988386      84.37931419
H      86.35946087      82.17650979      87.69767359
N      87.34778773      87.04633450      84.30183541
H      86.81299517      86.39626865      82.58785364
H      87.66715147      88.92472246      84.43411625
C      87.75596860      83.75443127      99.81648844
O      85.83600667      82.49020436     100.06782204
N      88.81988452      85.03188625     101.65708187
H      90.07277307      86.36792276     101.11473042
C      87.78053504      84.89582596     104.30269871
H      86.26686428      83.49931821     104.36128022
C      89.93104360      84.00765459     106.11116679
H      89.03531333      83.73364428     107.94609104
H      91.33511025      85.50431783     106.29447024
C      91.18015268      81.49242887     105.42897559
H      92.02486035      81.77966727     103.57326435
C      93.34199958      80.76110479     107.41885740
H      92.36690082      80.27733485     109.16685423
H      94.42103332      82.48453518     107.74766977
H      94.78952994      79.40995047     106.85004978
C      89.29420583      79.28522854     105.52157218
H      90.44693888      77.58069540     105.59716123
H      88.13769333      79.07735864     103.83026713
H      88.19438512      79.41372992     107.25823066
C      86.55032321      87.32034482     105.21165706
O      85.52420184      87.44884621     107.29224573
N      86.59756638      89.26865265     103.67908902
H      87.56321653      89.07023138     102.04447576
C      85.10468259      91.61947218     103.88884864
H      83.97840571      91.73663521     105.61038931
C      86.88858423      93.88714376     103.59405134
H      85.63002651      95.43482961     103.07059715
H      88.08856044      93.76998072     101.92542300
C      88.00919193      94.45784110     106.25100653
H      89.13168936      92.86669155     106.92374910
H      86.53520540      94.76208704     107.65696291
C      89.72695315      96.70283596     106.39651546
H      89.39247160      98.27886771     105.11528102
H      91.55620823      96.00363723     105.75778797
C      90.29009160      97.74029571     109.08748573
H      91.24629311      96.31355234     110.22510097
H      88.41548310      97.87824573     109.92274476
N      91.67715071     100.18749128     109.25756110
H      93.53097221     100.09300497     108.80969596
H      91.72628360     100.68826876     111.09815453
H      90.75496427     101.63124219     108.41663289
C      83.15826449      91.37758721     101.57582364
O      83.71006457      90.17383155      99.62940553
N      81.20617721      92.83834565     101.93298191
H      81.15704433      93.97218144     103.46743967
C      79.23330294      93.12369433      99.99412271
H      78.61914189      91.28121117      99.30815206
C      76.89760122      94.67893908     101.02969273
H      77.48152665      96.51386333     101.76479627
C      74.95685228      95.31766657      98.97556023
H      73.89671583      93.63958961      98.42942932
H      75.89793600      96.16993314      97.35228533
H      73.70963292      96.83700653      99.59350073
C      75.56723389      93.14637104     103.14996565
H      76.97130054      92.70795454     104.59182683
H      74.99086737      91.48341189     102.08227029
C      73.20507600      94.41248767     104.49734052
H      71.87470867      95.41593234     103.28602595
H      73.99687133      95.82033377     105.77668523
H      72.12415255      93.04810527     105.59905096
C      80.43138942      94.62791647      97.79637101
O      81.70317522      96.50630443      98.25368478
N      79.83045646      93.88525403      95.41153640
H      78.52276585      92.49819492      95.34350626
C      80.60335452      95.15515011      93.14575455
H      81.03610184      97.13747301      93.50480255
C      82.91826925      93.72084784      92.17254550
H      84.36013042      93.59423618      93.63708339
H      83.63069606      95.02853845      90.74958159
C      82.45528630      91.22262965      91.05382752
C      82.23040887      90.96184742      88.43466685
H      82.53465481      92.58701205      87.23847010
C      81.73719031      88.52787993      87.42555300
H      81.66160125      88.29166414      85.39976640
C      81.12113952      86.54555703      89.09985052
O      80.16115856      84.44985055      88.12853119
H      79.65093246      84.65394099      86.40132134
C      81.14192651      86.83657488      91.79837969
H      80.88870318      85.26621232      93.07772441
C      82.05088487      89.17227661      92.68466133
H      81.94883964      89.33857252      94.71800685
C      78.54733229      95.23640834      91.11240904
O      76.72752585      93.84745950      91.36374264
N      78.75331246      97.03353807      89.35307384
H      80.13470238      98.34311840      89.48724441
C      76.65760597      97.38880661      87.41043519
H      74.85669680      96.71039487      88.14553873
C      76.30800661     100.27063924      87.01170294
H      78.13159250     101.05865511      86.46368231
H      75.70896337     101.09644964      88.79938403
C      74.32001453     101.03219895      85.02371086
H      72.59847386      99.93615768      85.30339035
H      75.28188522     100.28386733      83.36453116
C      73.72475074     103.84600143      84.90087865
H      72.77988758     104.22394669      83.11130783
H      75.43495305     104.98550639      85.05205675
C      71.95785664     104.99684475      86.98335705
H      73.02177255     105.59021881      88.64253675
H      70.58024614     103.60978564      87.63531262
N      70.86181537     107.33443620      86.01959663
H      72.22430805     108.64212681      85.75503494
H      69.39349803     107.96371506      87.06461528
H      70.11915293     107.04530807      84.28293815
C      77.15649372      95.77687007      85.08040265
O      79.30700226      95.55010291      84.38687309
N      75.23464205      94.67704935      84.02404564
H      73.48664522      94.90759596      84.75914918
C      75.39526879      92.99897239      81.88865491
H      77.37759170      92.46606957      81.69968228
C      74.01009941      90.62169669      82.55950775
H      72.19407241      90.97129606      83.46846610
H      75.02299272      89.97352056      84.23191553
C      74.08946792      88.49575458      80.69245815
O      72.05801213      87.93639560      79.50759975
O      76.16249767      87.44128730      80.19923958
C      74.51654605      94.33500889      79.49437167
O      73.50176303      96.32300097      79.52082784
N      74.76221048      93.15204022      77.29095079
H      75.17417081      91.28877008      77.25882544
C      74.25009464      94.39170068      74.73793054
H      75.16850164      96.23040438      74.61320860
C      75.19117836      92.72307235      72.40600827
H      74.70362897      93.26164435      70.47848743
C      78.06545207      93.30888750      72.40033909
H      79.05755838      91.92182839      71.24760604
H      79.02165358      93.31644641      74.22581471
H      78.33379322      95.14948093      71.51405745
O      74.89449132      90.10958086      72.95213917
H      75.42550442      89.16093825      71.49893964
C      71.59502918      95.18916519      73.99715782
O      71.12448732      96.39481057      72.01105547
N      69.72042068      94.51075344      75.57507929
H      70.23064679      93.33534367      76.98859458
C      66.89150039      95.20050354      75.46925462
H      66.54001129      95.70883992      73.50582898
C      65.32869673      92.95739841      76.34419790
H      65.42507277      92.49063601      78.34730780
H      66.11671259      91.26420363      75.47492380
C      62.57347576      93.06133336      75.54106422
H      61.68719412      94.77153567      76.27049858
H      61.53601602      91.55144203      76.48214793
C      62.42418739      92.91582443      72.67056995
O      61.40184545      94.60146030      71.49704991
O      63.07992242      90.96751660      71.52728553
C      66.35481812      97.50219019      77.12654460
O      64.24399383      98.46595061      77.10008843
N      68.18218346      98.36579512      78.57785441
H      69.90939331      97.56077171      78.65155373
C      67.91384233     100.46528105      80.46380127
H      66.77811680     102.06209979      79.82696350
H      69.80545836     101.11534690      80.95324038
C      66.98787642      99.74529533      83.03382905
O      66.87071339     101.34400379      84.65521423
N      66.20175029      97.29054085      83.47791474
H      65.96175504      96.23796329      81.90188299
C      65.71231117      96.22851466      86.02526581
H      64.45186372      97.41715251      87.14020433
C      64.19486094      93.74919374      85.63976164
H      64.06635955      92.86291209      87.49358315
H      65.46097757      92.48118738      84.62497861
C      61.70420166      93.78698826      84.06561962
C      61.12972486      91.82167290      82.44423444
H      62.39395177      90.24186170      82.17778303
C      58.99811358      91.96529210      80.81718009
H      58.86583274      90.56878435      79.33374493
C      57.28791127      94.05154995      81.06662396
O      55.35472125      94.13847736      79.44901824
H      54.62906635      95.79954678      79.55295318
C      57.72443805      95.91859954      82.92989411
H      56.50178512      97.54754362      83.05461604
C      59.99777880      95.77120089      84.33207103
H      60.49666655      97.33967373      85.53771642
C      68.09714578      96.01686531      87.69578387
O      70.22497760      95.96017352      86.68478029
N      67.87037862      95.72206801      90.15998698
H      66.17151466      96.05465984      90.96501039
C      69.96041591      94.90381651      91.79648997
H      71.68573604      95.17404738      90.70422816
C      69.80734809      96.31922152      94.32494377
H      70.85236674      95.49719057      95.89908579
H      67.79856901      96.24741192      94.75958082
C      70.69551946      99.18971579      94.26447253
C      68.84169795     101.03408867      94.54604175
H      66.81969079     100.88669002      94.77847809
C      69.65805970     103.54364522      94.52525476
H      68.27478004     105.04030846      94.60273354
C      72.30556627     104.16536517      94.12463278
O      73.05578762     106.53130252      93.81282794
H      71.70841276     107.73883763      93.69755464
C      74.14049052     102.32477174      93.99235194
H      76.05478328     102.93893280      93.63708339
C      73.31090067      99.77931040      93.79771013
H      74.67339334      98.31855196      93.37819089
C      69.97742346      92.03143252      92.33128251
O      67.99699028      90.88058919      92.69599969
N      72.24698475      90.92783235      92.13475098
H      73.73041991      92.08056540      91.80593860
C      72.93106568      88.26709770      92.46545308
H      71.19440719      87.26743248      92.94166411
C      73.87403912      87.10680574      89.98991161
H      74.73197486      85.29455821      90.46045346
C      72.03722513      86.47752688      88.01703734
H      70.87882290      84.88448760      88.61230113
H      73.25609861      85.75187198      86.52415355
H      71.08102363      88.19906755      87.41421465
O      75.79022159      88.58835117      88.76536896
H      77.16027318      88.54677720      89.95400681
C      74.93606529      87.86458600      94.54415202
O      76.17005658      89.69006161      95.39263914
N      75.26298795      85.50053838      95.39452887
H      74.08568845      84.23064230      94.59139518
C      77.38326087      84.91094377      97.08583392
H      78.93661590      86.18083985      96.60773316
C      76.57256829      85.50242811      99.80703981
H      75.96029696      87.46774347      99.76735555
C      74.10269600      83.91883745     100.43253922
H      73.53199865      84.09836145     102.40163403
H      74.53166387      82.00832415      99.79192200
H      72.49075946      84.68228689      99.40263838
C      78.75331246      85.09613695     101.80825997
H      80.28399076      86.28477480     101.10717151
H      79.24086185      83.09680651     101.83660587
C      78.13348222      85.88226309     104.56537066
H      79.91927359      85.88982200     105.58771260
H      76.91082930      84.41583548     105.33448927
H      77.28121566      87.75687160     104.62962136
C      78.28466033      82.14438445      96.73056537
O      76.90516012      80.64772121      95.64397274
N      80.62414151      81.61337135      97.71322305
H      81.66727042      82.93051059      98.61840196
C      81.61813754      79.09625590      97.89085733
H      80.04966470      77.92840504      98.54092318
H      83.24519190      79.08302782      99.15508423
C      82.20773216      78.00399410      95.38885969
O      83.50597412      79.28144908      93.93188070
N      81.55010739      75.51522454      94.94855346
H      80.43138942      74.81602581      96.32427421
C      81.69372660      74.32658669      92.43899691
H      83.41526727      75.02956488      91.55271527
C      82.07734104      71.40506981      92.63363872
H      80.27454213      70.57547996      93.18732853
C      82.53087536      70.18808606      89.98802188
H      83.15637477      68.22843988      90.05983148
H      84.12202491      70.91563070      88.90142925
H      81.07389636      70.43186076      88.55371961
C      84.14092218      70.72665806      94.64997670
H      83.60235017      71.38239309      96.52836465
H      85.90025737      71.74522055      94.31549514
C      84.32800507      67.89395832      95.10918019
H      85.57900389      67.75978775      96.74001400
H      85.30688331      67.08137601      93.48968474
H      82.48174246      67.09838354      95.55704533
C      79.35235569      74.97287309      90.76847885
O      77.86703081      73.44030505      90.04849313
N      79.00275633      77.42762757      90.31305481
H      80.05911334      78.61815515      91.36563237
C      77.22641359      78.44996951      88.43466685
H      77.35680471      77.26889056      86.75281044
H      77.95584795      80.32457801      87.98869145
C      74.44473645      78.52555856      89.16977039
O      72.98208830      78.90539355      87.55783385
N      73.81734733      78.35548319      91.64153241
H      75.22897288      77.76399885      92.78103737
C      71.23031199      78.47264622      92.55238049
H      70.03411525      77.24054466      91.41854470
C      71.23598118      77.54668033      95.39641859
H      72.41517039      78.80523805      96.52080575
H      72.11470392      75.69852799      95.62318575
C      68.81146231      77.62982829      96.76458044
N      66.43607635      76.84748159      95.98601320
H      66.12994069      75.92529515      94.34195131
C      64.78445555      77.13471999      97.81148882
H      62.87394225      76.42607262      97.93999021
N      65.96553450      78.20241536      99.83916515
H      65.11137820      78.60492706     101.49834486
C      68.53367256      78.42540306      99.19854793
H      70.15883719      79.03011548     100.27380221
C      70.02655634      81.09369662      92.27837018
O      70.75410096      82.95507704      93.62385531
N      67.91573204      81.30723569      90.84973708
H      67.43196212      79.76143957      89.84062323
C      66.27167016      83.48042095      90.73635350
H      67.23921003      85.19251299      90.12219245
C      64.28934725      83.08357842      88.74647170
H      63.59959715      81.14849868      88.89009090
H      65.26066658      83.28955859      86.94178307
C      62.05569076      84.89960541      88.84473746
H      61.22988036      84.73897867      90.72312542
C      62.84181690      87.56411951      88.34584972
H      63.63928141      87.87781408      86.47313094
H      64.18541230      88.16127303      89.78960062
H      61.13917349      88.71685256      88.48002029
C      60.04124251      84.16072242      86.91343717
H      60.58737341      84.57646221      84.97079852
H      58.35371691      85.20763080      87.45389890
H      59.37227939      82.24453994      87.26303654
C      64.98665626      83.83379977      93.37630116
O      63.28779231      82.32390845      94.04526428
N      65.75955433      85.95974187      94.53092394
H      67.05401685      87.02743724      93.62196558
C      64.94508229      86.38304057      97.17087160
H      64.53123222      84.86936979      98.50312865
C      67.06535521      87.95340313      98.39541425
H      67.09937028      89.76565067      97.41653602
H      68.84358767      86.91594339      98.38596562
C      66.45308389      88.72819092     101.08449479
H      65.02634052      90.20784662     101.24323180
C      65.89372490      86.54555703     102.90430123
H      63.98510132      85.82368158     102.62084229
H      66.18852220      87.23530713     104.82237344
H      67.25054839      85.05456297     102.48100254
C      68.92673563      90.17761100     101.69487639
H      70.48764955      88.83968477     101.59283117
H      68.60359243      90.74641862     103.64885340
H      69.36704185      91.81789344     100.53080498
C      62.53379151      87.94962368      97.11040036
O      60.68185973      87.25042494      98.31793547
N      62.34859833      89.88848288      95.55515560
H      63.90762254      90.35713500      94.55926984
C      59.80502672      91.23396801      95.37752133
H      58.28757649      89.85068835      95.52491998
C      59.30991842      93.12369433      97.55259632