 %block lattice_cart
   137.793   0.000   0.000
   0.000 143.498   0.000
   0.000   0.000   162.326
 %endblock lattice_cart

 %block positions_abs
N      83.35668575      35.70436031      82.49809165
H      81.85624306      35.20925201      81.42472710
H      82.93905624      34.92957252      84.19317615
H      85.04043190      34.95413896      82.00487308
C      83.47762824      38.28950591      82.97241295
H      84.92893804      38.63721555      84.39348714
C      83.81588925      39.87120683      80.63104205
H      82.39103561      39.13232384      79.34224870
H      85.62057787      39.30806839      79.80901110
C      83.69683649      42.79461344      81.07701746
H      81.73152112      43.39554640      81.19795994
H      84.35824070      43.58640876      79.29311582
S      85.38436209      44.00025882      83.67350140
C      88.52130777      44.02104581      82.12959502
H      88.52886667      45.50070152      80.69718246
H      88.94271673      42.26926952      81.12804007
H      90.02930936      44.25915133      83.51476440
C      81.03988129      39.15878001      84.10813846
O      79.09724264      39.38554717      82.98186157
N      81.10413199      39.92789862      86.52131897
H      82.68394318      40.16033495      87.56444789
C      79.00653578      41.03149879      87.75719998
H      77.33790744      40.01860548      87.09957522
C      78.92716727      40.60820009      90.67304768
H      80.46351477      41.61920367      91.59901357
H      79.16149334      38.65611281      91.28342928
C      76.37603675      41.29228102      91.84656772
O      74.66016526      42.23525445      90.71084219
N      75.98675313      41.09952893      94.22573313
H      74.44851591      41.94612632      94.97784422
H      77.37003279      40.38899184      95.33122304
C      79.04244058      43.92089032      87.29799648
O      80.90949018      45.25314737      87.81767122
N      76.86547587      44.95457061      86.56289295
H      75.73541953      43.57507040      85.88637093
C      76.38170593      47.67010732      86.19817577
H      77.54010816      48.14253890      84.56167278
C      73.61703633      48.06694985      85.50842565
H      73.35058492      46.99169558      83.77365690
C      71.79534017      47.13720450      87.51909446
H      70.06057141      46.66099347      86.51942924
H      71.22086337      48.46757183      88.98174263
H      72.57957659      45.50448097      88.49986242
C      72.99153692      50.78437629      84.78088102
H      73.56979318      52.19978130      86.15849151
H      70.96008114      50.91665713      84.46529674
C      74.24820492      51.70656273      82.29778065
H      73.67372812      53.67565755      82.09180049
H      73.39593836      50.73902286      80.69151328
H      76.30800660      51.65176066      82.34880327
C      77.14137591      49.54849528      88.41671446
O      77.86514109      51.66876820      88.07089454
N      76.86547587      48.62819856      90.80910797
H      76.14171069      46.86697364      90.92438128
C      77.72719107      50.01336795      93.08433845
H      77.02421288      51.94844770      93.04465420
C      76.84657860      48.83228901      95.64302788
H      77.88970753      49.85274121      97.09811714
H      77.61002803      46.93122433      95.85089776
C      74.14993915      49.14220412      96.12490809
C      73.16917120      50.97523864      97.67637339
H      74.21418985      52.23946555      98.89146741
C      70.58402560      50.89964959      98.19226868
H      69.75254602      52.02592647      99.67570382
C      68.93051508      49.23102126      96.86379108
H      66.96708944      49.09496096      97.40614253
C      69.85081179      47.67577650      95.00430039
H      68.56579790      46.68178046      93.76841938
C      72.48886973      47.49814223      94.76997431
H      73.33924657      46.15454682      93.48873988
C      80.56555999      50.49335843      92.95205761
O      81.46695944      52.21867856      94.24840986
N      82.02442870      48.76614858      91.73318414
H      81.19294912      47.29972097      90.83934359
C      84.66059691      49.02126164      91.24374502
H      85.31633194      50.35540841      92.66859865
C      86.02686903      46.37753452      91.33634161
H      88.06399400      46.58540442      91.11902309
H      85.48451758      45.22858093      89.71495644
C      85.42971552      45.13220488      93.84967760
H      86.31032798      43.26893474      93.80054472
H      83.42660563      44.67300139      93.98384818
C      86.23473893      46.51737427      96.38191087
O      88.03753783      48.12931082      96.31199099
O      85.08011615      45.99014063      98.32454952
C      85.03098326      50.53493241      88.74741656
O      86.82622326      51.99380113      88.71529122
N      83.46628988      50.34218033      86.86524916
H      81.97340609      49.20645482      87.22051769
C      83.92171392      51.31727911      84.39915631
H      85.80010187      50.71823587      83.80011307
C      81.95828828      50.12864126      82.55100398
H      80.16871746      50.98468728      83.11036297
H      81.74096975      48.09151629      82.77966086
C      82.38347670      50.72768450      79.70129669
H      82.28332121      52.76291974      79.40271995
H      80.80744496      50.00580905      78.58824790
S      85.27853741      49.55983364      78.46352597
C      85.55821691      51.28137431      75.50232483
H      85.98529505      53.27692529      75.78200433
H      83.75730773      51.18121881      74.50832879
H      87.13424865      50.57650639      74.38171713
C      83.62124744      54.30304668      84.29144192
O      85.04799080      55.60884756      83.08390680
N      82.01309034      55.40286740      85.82212023
H      80.97941005      54.26336243      86.95406628
C      81.62569645      58.19777261      85.99597505
H      81.69183687      58.84972819      84.04199804
C      78.99708715      58.42642950      86.97485328
H      78.59835490      60.34828116      87.59657324
H      78.81756315      57.48912525      88.80032890
C      76.83524025      58.01635889      85.05489135
H      77.17539098      56.24568533      84.05900558
C      74.34269124      58.05604314      86.47218607
H      74.34269124      56.70110937      88.02176166
H      72.85358690      57.73101021      85.08701669
H      74.10269600      59.90986465      87.33201155
C      76.71429776      59.94576945      83.00453830
H      77.30767182      61.83360604      83.58090481
H      74.73575431      60.14797017      82.46785603
H      78.06734180      59.36940293      81.56078738
C      83.80455089      59.56026528      87.35846772
O      83.93305228      61.79959097      86.94272792
N      85.57333472      58.29414865      88.66237888
H      85.25964015      56.44032714      88.98741179
C      87.90714671      59.28058579      89.69794889
H      87.74651998      61.15519429      90.53887710
C      88.78209000      57.48912525      91.83333963
H      90.19749500      58.48312129      92.95016788
H      89.63624629      55.83939417      90.94327854
C      86.81488490      56.40253262      93.78164745
H      85.70750528      54.75469127      93.23173709
H      85.29554495      57.77825337      93.99140707
C      88.09422962      55.81482773      96.42159512
H      89.98206620      55.00035569      96.29120400
H      86.81299518      54.38052546      97.15480892
N      87.84289602      58.09194794      98.02597275
H      88.04887619      59.75490709      97.11512468
C      87.18149181      58.03714588     100.42403545
N      86.69016297      55.94899830     101.57676849
H      86.15914987      56.25324424     103.38334685
H      86.94338629      54.20856037     100.83410606
N      86.91504040      60.18009551     101.59944522
H      86.50119034      60.39552431     103.44948728
H      87.10023358      61.77880398     100.57521356
C      90.12379568      59.57160364      87.71562599
O      91.94171239      60.79425657      88.46773707
N      89.68159972      58.81571312      85.35346811
H      88.19438511      57.67242870      84.99253038
C      91.43715547      59.18420975      83.18406230
H      92.66358784      60.78291821      83.60736098
C      92.95082624      56.82394158      82.40171559
H      94.02419079      57.30771152      80.71041055
C      94.78575049      56.15686819      84.58245976
H      95.84399723      57.84061434      85.12103176
H      96.18036851      54.81138306      83.88326102
H      93.80309281      55.18743860      86.11313808
C      90.92314991      54.71689674      81.92361485
H      89.64758465      55.29515300      80.41372352
H      89.79687303      54.37485628      83.61303016
C      92.06643433      52.17899431      80.97497224
H      90.55654300      50.83539890      80.57623999
H      93.38735302      51.39664761      82.34880327
H      93.36845576      52.46434298      79.40460967
C      89.87813126      60.34261198      80.97497224
O      90.64536014      59.99112288      78.88115547
N      87.60101105      61.48022722      81.40582984
H      86.76197257      61.26101897      83.10658351
C      86.17237796      63.13184802      79.71641451
H      87.13046920      63.11673021      77.89471835
C      83.42660563      61.93943071      79.46130145
H      82.27765203      61.96399715      81.16961405
H      83.70628512      59.97600507      78.90383220
C      81.98474445      63.02413362      77.15394563
O      82.97874049      62.87862469      75.02989326
O      79.87958934      63.86317210      77.41283814
C      86.14781152      65.94754022      80.64804959
O      86.31221771      67.61049938      79.15327607
N      86.09111973      66.59193689      83.09146571
H      85.85679366      65.18220107      84.35758234
C      86.09300945      69.03724274      84.13459463
H      87.12102057      70.33170527      82.90816226
C      83.22818436      69.95564973      84.40860495
H      82.83512129      70.63973066      86.31155935
H      82.05655405      68.31536729      83.98719598
C      82.38536643      71.70364657      82.24675805
H      80.37091818      71.99466442      82.56612179
H      82.69717127      71.21609718      80.27010431
C      83.33589876      74.42674219      82.52265809
O      85.14058739      74.88405596      84.04766722
O      82.25497531      76.11426779      81.31890243
C      87.29865484      69.13550851      86.81233682
O      87.91092617      67.14562670      87.88192190
N      87.43093568      71.38428282      87.87058355
H      86.66370680      72.89228442      86.98619163
C      88.24162827      71.61671916      90.47462641
H      89.85923399      72.89039470      90.55966410
H      89.05610031      69.83470725      91.10579499
C      86.29898962      72.41985284      92.52497946
O      84.33745371      73.66518248      91.89948005
N      86.60134583      71.50333558      94.93249078
H      88.08667071      70.44886830      95.50318813
C      84.69650171      71.63750615      96.87323971
H      82.85968773      71.83403769      95.95861217
C      84.77775994      69.12794961      98.41714611
H      86.70528078      68.60260569      98.91792358
H      84.10879682      67.76545694      97.02441780
C      83.03543228      68.96921260     100.74717865
H      83.76864609      70.33548472     102.10211242
C      80.32556475      69.80636135     100.11601006
H      79.69061670      68.50056047      98.65714134
H      80.42572024      71.75466918      99.45460585
H      78.93094673      69.74777984     101.63157057
C      83.02409392      66.21588136     101.67503427
H      81.79199236      65.94565050     103.30019890
H      84.96862230      65.63573538     102.03597199
H      82.22284996      64.87606540     100.33143886
C      85.02720381      74.10926817      98.40202830
O      86.37268895      74.11115789     100.31254159
N      83.67038032      76.11237806      97.74251381
H      82.52331645      75.81758075      96.24585056
C      83.58345291      78.44619006      99.29019966
H      85.53742992      79.00554904      99.63412985
C      82.76520142      80.72897944      97.73306518
H      82.83134184      82.38060024      98.95949755
H      80.87925456      80.35292391      96.99229247
C      84.63414074      81.41117064      95.67326350
H      86.62591227      81.52455422      96.18537932
H      84.35824070      83.30845586      94.91926270
C      84.55099278      79.68774024      93.32244397
H      82.62347194      79.04901275      92.97473433
H      85.66593131      78.04934753      93.88558241
N      85.64136486      80.95574660      91.14736898
H      86.19883413      82.74342769      91.51775534
C      85.85112448      80.13749511      88.84568232
N      85.04043190      77.94163313      87.98018767
H      85.53176074      77.29534673      86.25486756
H      84.34690234      76.86259941      89.39559268
N      86.59189720      81.58502546      87.06744987
H      86.32166634      81.14660896      85.22874617
H      86.95661438      83.37837573      87.60980131
C      82.12269447      78.23076126     101.79786648
O      79.89281742      77.85281599     101.85455827
N      83.45684125      78.89594492     103.94837501
H      85.32956002      79.17940387     103.70082088
C      82.70850963      79.13405043     106.59588159
H      80.88303401      78.20241536     106.80753094
C      84.51886743      77.66762282     108.39490104
H      84.34879207      75.67207183     107.91302083
H      83.90092693      77.86793380     110.34887805
C      87.35912608      78.60303734     108.67647025
H      87.96005905      78.60114761     106.70548572
C      87.99596385      81.26566172     109.91613072
H      89.98395593      81.80045426     110.01439649
H      87.28353703      81.25810281     111.84932074
H      87.25897059      82.89460580     108.89567851
C      88.92759892      76.47898496     109.96337388
H      88.19627484      76.36560139     111.88522554
H      90.90614237      77.04779258     109.91991017
H      88.42871118      74.75933402     108.94670111
C      82.39292533      81.98186799     107.51995776
O      81.32711969      82.38437969     109.55519299
N      83.15637476      83.70340866     105.80786572
H      84.19572423      83.07412980     104.33576892
C      82.72173771      86.50209333     106.03274314
H      81.63325535      86.94806874     107.72404820
C      85.25586070      87.67939282     106.38990141
H      86.55977185      87.07090095     104.91780462
H      86.01175122      87.25609413     108.25884074
C      85.14814630      90.68594739     106.30675346
H      83.51353304      91.32089543     107.38578718
H      85.12735931      91.40593311     104.37734289
C      87.46684048      91.84623934     107.17413783
H      89.06743867      91.57411875     105.90424176
H      88.06966318      91.12247416     109.00717236
C      87.00196781      94.64870346     107.48216323
H      85.23318398      94.92082405     108.50639489
H      86.72984722      95.56522073     105.65668761
N      89.16381471      95.59923580     108.95426002
H      90.85889921      95.31955631     108.12467018
H      89.34333871      94.83389664     110.69469796
H      88.87279686      97.47384430     109.17346828
C      81.42727519      87.25798385     103.50428933
O      81.54821767      86.11091998     101.53708425
N      79.87958934      89.21385059     103.64790853
H      80.09123868      90.20784663     105.26173481
C      78.18828429      90.06044798     101.56543013
H      77.07712521      88.40882718     101.04197595
C      76.34958058      92.10891130     102.37234328
H      77.54577734      93.70761976     102.88067966
C      74.32568370      92.80433058     100.49773477
H      75.29700303      93.40526355      98.78375301
H      73.36948219      94.56366578     100.98339444
H      73.21830408      91.14704061      99.98939840
C      74.91716804      91.47018381     104.73261144
H      76.10769561      90.48185694     106.09321438
H      73.56790345      90.08123497     104.03530244
C      73.46207878      93.64336907     106.07620685
H      73.42806370      93.13503269     108.07364757
H      71.53455794      93.66793551     105.35055195
H      74.39182412      95.45939605     105.78896845
C      79.61880710      90.97129606      99.19949279
O      81.48963615      92.32056065      99.28264076
N      78.72307683      90.13792675      97.00174109
H      77.11491974      89.10991564      96.95071848
C      79.65093245      90.87492002      94.56399415
H      80.93405662      92.48118738      94.70383390
C      81.14192651      88.67716831      93.46606317
H      82.23985750      88.05166891      95.09311752
H      82.49875001      89.40093349      92.09601158
C      80.08745923      86.43406318      92.03931979
C      81.18350049      85.78210760      89.57511668
H      82.35324108      87.13893110      88.59812817
C      80.52587573      83.42183944      88.54521585
H      81.30444298      82.79445030      86.76509366
C      78.95173372      81.66439397      90.07022498
O      78.36024938      79.30412580      89.17638444
H      79.19172896      79.18318332      87.57011707
C      78.04466509      82.28044475      92.46261849
H      77.16972180      80.83291439      93.60590291
C      78.55111174      84.75031704      93.32244397
H      78.09001852      85.21896916      95.25563399
C      77.21885469      91.40404338      92.97662405
O      75.01921326      91.15270978      93.78731663
N      77.65538147      92.40370860      90.75241618
H      79.49030572      92.66638056      90.29510241
C      75.65605103      93.05377446      88.96662482
H      73.82679596      92.50575383      89.73763315
C      75.83179557      95.76553171      88.07278427
H      74.19151313      96.15292561      86.88792586
H      77.49853418      96.03954203      86.89359504
C      75.83368530      97.60612514      90.41226544
H      77.06956631      96.90314696      91.90325951
H      73.89482610      97.61368405      91.10579499
C      76.76343065     100.26874952      89.51275571
H      75.56912362     100.95472017      87.98207740
H      78.71740765      99.98340085      88.92316111
C      76.48942033     101.97517238      91.83711908
H      77.81789793     101.42337230      93.31110561
H      74.69984951     101.62746274      92.79332059
N      76.82012243     104.64157621      91.13414090
H      78.52276584     104.71905499      90.27620515
H      76.92594711     105.92470037      92.54387673
H      75.48030648     105.13668450      89.86613454
C      75.56912362      91.34168242      86.76131421
O      77.33412799      90.07178633      85.88637093
N      73.30901095      91.27365227      85.58212499
H      71.88037785      92.22040515      86.42116347
C      72.83468964      90.16060347      82.99319994
H      73.97986379      88.46740869      82.71918962
C      70.01521798      89.14393071      83.06500954
H      68.93429453      90.73319054      83.81145143
H      69.73175903      87.53955307      84.32734672
C      69.16673087      87.98174903      80.49498175
O      70.63693794      86.51721114      79.41783776
O      67.10503946      88.54677720      79.53311106
C      73.19940682      92.21473597      80.83891193
O      73.79845006      94.32367054      81.37370449
N      73.01232391      91.38325640      78.45974652
H      72.73831360      89.54455269      78.03077864
C      73.89860556      92.72118262      76.21664138
H      75.61447705      93.60557454      76.93473737
C      74.24442547      90.99397277      73.82046842
H      72.47375192      90.82956659      72.78489839
C      76.33635250      91.80844482      72.10270720
H      77.85380273      92.54354835      73.28567587
H      75.56912362      93.34668203      70.97076114
H      76.99964643      90.19083909      71.01233511
O      75.03811052      88.61480735      74.72942676
H      75.72408117      87.61514213      73.37827246
C      72.31123545      95.02097955      75.63460568
O      73.21641436      96.38725167      74.06046366
N      70.19663171      95.75041390      76.82324353
H      69.42940282      94.69783635      78.21786155
C      69.05523701      98.28264716      76.61915309
H      69.90750358      99.54120489      75.23020424
C      66.27922906      98.09745399      75.68373856
H      65.36271180      99.91348097      75.36437480
H      64.91673639      97.07889150      76.84780996
C      66.06380026      96.74818940      73.15906421
H      66.83102914      94.84334527      73.33669848
H      67.25054839      97.68549365      71.75877700
C      63.26889504      96.78787365      72.14806062
O      62.24844284      94.60523976      71.93452156
O      62.19553050      98.88546986      71.75499756
C      69.13082607      99.90214261      79.04556167
O      68.14816838     101.99784910      79.12304045
N      70.29111802      98.85901369      81.12804007
H      71.09614143      97.14692165      80.88048592
C      70.46308312     100.25930089      83.60547127
H      70.35914817     102.30020531      83.35413766
H      72.30745600     100.10623306      84.50687072
C      68.59414379      99.43726994      85.78621543
O      68.43162733     100.70905575      87.63814722
N      67.39605731      97.27731277      85.47063114
H      67.83069436      96.27575782      83.90593775
C      65.97309340      96.07355710      87.50397665
H      64.94130283      97.63258131      88.36191240
C      63.98888077      94.20272805      86.23219083
H      62.57725521      93.12180460      87.27343004
H      65.26444603      92.70228536      85.63314759
C      62.32970107      95.13058367      84.01932133
C      61.01634128      93.22196010      82.62281358
H      61.39806599      91.24719610      82.97430268
C      59.18141703      93.81344443      80.80300714
H      58.08159632      92.41693669      79.79956247
C      58.81292040      96.41370784      80.40616462
O      57.10838726      97.19605453      78.63171161
H      57.31058798      98.95350000      78.23297935
C      60.30391446      98.29209580      81.51354423
H      60.09793429     100.24607280      80.96930305
C      62.05380103      97.62124295      83.39382192
H      63.10070940      99.10089866      84.33112617
C      67.67195735      94.83011719      89.47874065
O      69.55412476      93.69250195      88.94772755
N      66.85937504      95.09089942      91.85223690
H      65.17184944      95.87513584      92.28120476
C      68.18218346      93.89281294      93.91959748
H      70.24198514      93.94005610      93.83455980
C      67.62093474      95.15326039      96.42159512
H      68.02155672      94.00619652      98.08455428
H      65.65561938      95.75419336      96.55954514
C      68.96641988      97.65525803      96.38002114
C      67.60581693      99.87946590      95.68460185
H      65.60459677      99.70561108      95.32744358
C      68.95319179     102.20193954      95.95672244
H      67.98754165     103.90458295      95.37846620
C      71.48164560     102.29075667      96.59922939
O      72.62115057     104.66614265      96.79576092
H      71.41739491     106.01729696      96.71450270
C      72.78555676     100.05143099      96.99418218
H      74.77732829     100.26874952      97.37401718
C      71.53077848      97.66281693      96.76174586
H      72.49831836      95.86568721      96.72395133
C      67.94974712      90.91082482      93.91392830
O      65.71798035      90.20784663      93.75708101
N      69.86781933      89.45951501      94.36935234
H      71.52510931      90.35902473      94.66792910
C      69.65994943      86.54366731      94.51108181
H      67.69274434      85.96730078      94.72084143
C      70.62370985      85.41550070      92.01286363
H      70.22686733      83.39538327      92.11490885
C      68.96830960      86.64949198      89.81511192
H      69.27255554      88.62803543      89.33701117
H      66.98031752      86.47752689      90.32911748
H      69.17051032      85.61014251      88.04821783
O      73.15216366      86.07312546      91.55554986
H      73.60947743      86.92917148      93.09000762
C      71.38337983      85.60825278      96.56332459
O      73.37137191      86.70429404      97.14347057
N      70.92606606      83.24042571      97.34567129
H      69.31035007      82.46563792      96.68615680
C      72.53989234      81.72864466      99.08988867
H      74.48631044      82.38437969      98.96327701
C      71.52321958      82.05178786     101.85833772
H      71.03378046      84.01143405     102.26840832
C      69.13082607      80.49087393     102.10211242
H      69.78278165      78.59736816     101.62212193
H      67.69274434      81.11259388     100.76229645
H      68.17462455      80.40583624     103.92380858
C      73.43562261      81.22975692     104.07309695
H      73.87214939      79.23231620     103.82743253
H      72.44351629      81.54723094     105.84754996
C      75.87336955      82.69429481     104.07876614
H      77.05822795      82.25020912     102.45360151
H      76.77665873      82.22753241     105.87022669
H      75.69195583      84.74464786     104.13923738
C      72.94240404      78.98665178      98.03164193
O      71.64605179      78.23832016      96.28364509
N      74.76598993      77.60715157      99.15791882
H      75.54266745      78.56524281     100.61678754
C      76.00376067      75.16562518      98.51730160
H      74.70173924      73.61038042      98.88390851
H      77.52499035      74.82358471      99.86089700
C      77.07145603      74.69886278      95.95861217
O      79.21251595      75.42829713      95.39736346
N      75.57101334      73.31936257      94.31455028
H      73.98364324      72.48977272      94.97406476
C      75.72219145      73.34770846      91.49885807
H      77.27554648      74.63272236      91.08122856
C      76.50642787      70.75500396      90.43116271
H      74.81323309      69.62116817      90.73540863
C      76.89949094      71.16318485      87.53988145
H      78.57378845      72.23465967      87.00130945
H      75.31590029      72.28568228      86.85013134
H      76.61792172      69.42274691      86.47407580
C      78.86669603      69.61549900      91.85979579
H      78.40560281      69.33770923      93.84589816
H      80.38603599      70.99877866      91.68972043
C      80.13848184      67.22499521      90.70328330
H      78.77787890      65.71321416      90.36691201
H      81.68616769      66.78090953      91.98829719
H      81.02854293      67.80892064      88.94016864
C      73.34302602      74.56280248      90.50486203
O      71.62904425      73.01322691      90.07967360
N      73.06712598      77.12716109      90.53887710
H      74.50898715      78.14950303      91.25886283
C      71.20196611      78.52744829      89.08378785
H      70.78811604      77.68463035      87.24886360
H      71.88982648      80.44929995      88.81166726
C      68.52422392      78.84303258      90.22140309
O      67.05779630      80.14883346      89.12158237
N      67.95919575      77.58069540      92.36057326
H      69.33113706      76.39394728      92.95772679
C      65.53278717      77.75455023      93.54354195
H      64.07580818      77.01188778      92.29254313
C      65.57247142      76.20497465      96.04176012
H      66.49276813      77.22353713      97.57810762
H      66.60048253      74.43808055      95.79042653
C      63.04401761      75.55112934      97.11512468
N      62.45442300      73.11527213      97.73495491
H      63.52022864      71.53546093      97.69527066
C      60.28501720      73.14739747      99.03130716
H      59.35338212      71.58459381      99.95538332
N      59.50833968      75.54168071      99.15035992
H      57.96065383      76.25221781     100.01207511
C      61.17696802      77.04590286      97.95983234
H      60.98232621      79.07357919      97.86723575
C      65.01500216      80.43607186      94.34478590
O      66.21686809      81.60770218      95.84144914
N      63.12716557      81.45463435      93.05032338
H      62.39962094      80.45118967      91.59523411
C      61.98577088      83.98875733      93.26953162
H      63.39550671      85.44006714      92.88024800
C      59.83715206      83.93395527      91.21350940
H      58.61260941      82.34658517      91.67649234
H      60.70075699      83.60136344      89.37291597
C      58.38395253      86.44540154      90.94894772
H      57.44286882      86.74775775      92.75552606
C      59.94486646      88.72252175      89.92471606
H      61.07492280      88.25953880      88.26553635
H      61.37727901      89.26487320      91.30232654
H      58.72221354      90.30422267      89.43338721
C      56.31848167      86.41516592      88.92316111
H      57.14051261      85.95974188      87.09012659
H      55.29047055      88.20095728      88.88536658
H      55.14685135      84.82023691      89.49385846
C      61.06169471      84.67472798      95.98506834
O      59.75400410      83.27633051      97.30220757
N      61.54735437      87.10491602      96.62757529
H      62.46387164      88.14804495      95.31799495
C      60.60249122      88.25386962      98.88768796
H      59.63684107      87.09357766     100.28986488
C      62.90039841      88.99464234     100.47694779
H      62.25033256      90.20217745     102.01329528
H      64.22698629      89.96785139      99.23917705
C      64.48965824      86.68539678     101.47094383
H      65.22854123      85.71029800      99.81365385
C      66.76299900      87.77198941     103.02051941
H      65.92773997      88.99086288     104.45671139
H      68.04612316      88.61291762     101.64857810
H      67.97431356      86.32823851     103.85010926
C      63.12149639      85.00165064     103.32665506
H      62.25789147      86.26020836     104.71182445
H      64.29501643      83.74498264     104.46238057
H      61.42074271      84.05867721     102.64635360
C      58.73355189      90.24753088      98.26407828
O      56.44320360      89.99052810      98.66658998
N      59.72376848      92.18072090      97.01685891
H      61.58892835      92.05032978      96.63135474
C      58.30647375      94.51642262      96.36868277
H      56.28824604      94.15359517      96.18348959
C      58.47276966      96.57055512      98.44738172