 %block lattice_cart
   137.793   0.000   0.000
   0.000 143.498   0.000
   0.000   0.000   162.326
 %endblock lattice_cart

 %block positions_abs
N      84.06155366      36.36859911      79.20146409
H      83.96328790      34.76989065      80.23892384
H      85.38436208      35.84325519      77.92778856
H      82.49119110      36.96008344      78.29061601
C      84.98374010      38.41706242      80.59419238
H      86.61835336      38.04667608      81.79227887
C      85.85301420      40.44095932      78.73092224
H      84.27320302      41.34613821      77.76905155
H      86.97362191      39.49609616      77.28339188
C      87.61612885      42.34769316      80.15199643
H      89.22617568      41.52566221      81.14032329
H      86.49363142      43.32279193      81.57685007
S      88.73106738      44.86480861      78.18101188
C      90.88535538      43.03744327      76.42734586
H      92.61445495      42.66327745      77.48370287
H      91.35778695      43.89537902      74.61509833
H      90.16347992      41.19118065      75.87554578
C      82.82756238      39.54900849      82.28549743
O      80.82823194      40.13104420      81.29528085
N      83.25841998      39.90238731      84.74592109
H      84.78909830      39.13326871      85.58684930
C      81.27420735      40.72252853      86.43344669
H      79.68305779      39.44696328      86.13675966
C      82.19828351      40.45796685      88.98646694
H      84.14281189      41.04756146      89.33417658
H      82.19828351      38.41517271      89.26047726
C      80.66382576      41.68061977      91.01414327
O      81.12302924      43.73097282      91.87018929
N      78.83457068      40.36348054      92.03270576
H      77.92750205      40.88882444      93.63141422
H      78.22796854      38.62304260      91.54704609
C      80.36524900      43.41916799      85.76070412
O      81.94317046      44.96685383      85.08985128
N      77.95962739      44.18072769      86.19912063
H      76.76721009      42.86925763      86.90398854
C      77.07334575      46.66193834      85.43378147
H      77.55522597      47.07767813      83.47602501
C      74.16505696      46.72807875      85.52637806
H      73.73041991      45.01031753      84.47569023
C      72.90271978      46.18572731      88.04538324
H      73.91183363      44.72496887      89.08851216
H      71.06590580      45.29755594      87.77137292
H      72.81012319      47.69183917      89.45133961
C      73.14460475      49.07889828      84.29805596
H      73.61892606      50.73996772      85.42055339
H      71.09992088      48.96173526      84.53049229
C      73.64349250      49.35101887      81.46913567
H      75.58046197      49.85179634      80.99103491
H      72.63815811      51.04043420      80.85875407
H      73.05200816      47.70506726      80.37876358
C      78.16560756      48.78599071      86.93800362
O      78.73630492      50.85524102      85.88353633
N      78.64370833      48.37025093      89.48157523
H      78.12781304      46.71107122      90.26959111
C      79.79266193      50.33934573      91.08784260
H      78.99708714      52.11946792      90.42454866
C      79.52621052      49.94061349      93.88463754
H      80.66004630      51.40893084      94.77469864
H      80.48808120      48.22096255      94.48368079
C      76.78043818      49.73085387      94.72178630
C      75.45385031      51.72451512      95.80648920
H      76.23619701      53.60857225      95.92743169
C      72.92917596      51.32578288      96.40742217
H      71.99187170      52.78087213      97.49023535
C      71.71219221      48.91827156      96.20711118
H      69.89994468      48.63292288      97.10095173
C      73.09169241      46.96051510      95.13374664
H      72.22997721      45.13881892      94.80115481
C      75.53699826      47.33846035      94.42131982
H      76.56878883      45.79077451      93.58417106
C      82.68016372      50.72107046      90.35084934
O      83.42849534      52.87346872      90.35840824
N      84.07856120      48.79165989      89.61007662
H      83.51164331      47.00208907      89.95589654
C      86.78653900      49.12614145      88.68033128
H      87.76919668      50.46595740      89.89731502
C      88.20572347      46.65248971      88.81072239
H      90.19560527      46.99453017      88.39309288
H      87.21928633      45.16527509      87.78082155
C      88.31721733      45.52054365      91.55838445
H      88.77831054      43.54766937      91.19744673
H      86.36701976      45.56778680      92.22356811
C      90.12001623      47.04744251      93.30260184
O      92.12123639      46.00053413      94.05849236
O      89.56821614      49.22440721      93.87329919
C      86.84701025      50.18060872      86.01581718
O      88.57610983      51.65081579      85.56795204
N      85.03476271      49.50786616      84.35474775
H      83.56644536      48.45150915      84.96323962
C      84.64169964      50.81744649      81.76393297
H      86.33489442      50.75130608      80.59230266
C      82.69528153      49.17149488      80.24837247
H      80.95862306      48.96551471      81.33496510
H      83.47573850      47.27043020      80.10097382
C      82.35702052      50.08423269      77.49693096
H      82.54599316      48.46851668      76.23459378
H      83.94061117      51.28042944      76.94891033
S      79.26164882      51.62813909      76.98481513
C      80.31611611      53.60101336      74.34864692
H      80.63925932      52.38213989      72.72159256
H      82.04521568      54.63091420      74.78328397
H      78.65315695      54.79721011      74.13510785
C      84.14281189      53.67471269      81.82062476
O      85.35601618      55.28098005      80.56584649
N      82.45150684      54.58556076      83.44578939
H      81.78632318      53.20984001      84.58907381
C      81.62002727      57.19149334      83.51570926
H      81.59924027      57.96817087      81.60897541
C      78.92527755      57.37479681      84.76670808
H      78.35646992      59.35522998      84.80639234
H      78.93472617      56.93071111      86.77737688
C      76.82201215      55.88380274      83.27193457
H      77.31901017      53.91659764      82.92044548
C      74.43717756      55.97073015      84.93678345
H      73.86081103      57.91903797      85.27126501
H      74.85858651      54.98618275      86.69611865
H      72.87437389      54.98240329      84.03160455
C      76.13982096      57.00441045      80.68300952
H      74.79433582      55.90270000      79.58318881
H      77.81978765      57.13102210      79.49626140
H      75.34046672      58.87146005      81.02882944
C      83.62124743      58.80342990      84.81395124
O      83.90470637      61.07488093      84.21679773
N      85.17649219      57.64880711      86.52037410
H      84.75130376      55.86490548      87.04382829
C      87.35156717      58.89791621      87.93577911
H      87.00574725      60.81031923      88.61797031
C      88.16603921      57.18393445      90.12030273
H      90.10867787      57.70549890      90.56438841
H      88.03942756      55.26019306      89.39842728
C      86.74496502      57.67148384      92.66954352
H      84.73996542      57.86801537      92.24435510
H      87.27408840      59.43081903      93.60117860
C      87.64825421      55.52475474      94.28714925
H      89.67215108      55.74585271      94.60462327
H      87.13613838      53.77675790      93.32905801
N      86.18938549      55.41515062      96.72489619
H      85.82655804      57.13102210      97.47889699
C      86.11568616      53.46873251      98.30092794
N      86.78086982      51.15192805      97.82660663
H      86.47095472      49.73274360      99.06437737
H      87.80321176      50.55477454      96.32994339
N      85.25208124      53.89014149     100.55537143
H      84.95161475      52.47662619     101.80259080
H      85.02531408      55.66081503     101.23000372
C      89.60412093      59.18515460      86.14431857
O      91.22739584      60.67047949      86.68100084
N      89.78742439      57.76597014      84.00703811
H      88.32477622      56.67748780      83.44200994
C      91.65825344      58.41981546      81.99447958
H      93.14924751      59.58577659      82.80517217
C      92.98106186      56.23529183      80.76804721
H      94.37945934      57.04976387      79.49248194
C      94.37756960      54.58367103      82.75414956
H      95.60022254      55.85545685      83.81995520
H      95.44337524      53.14747904      81.73369735
H      93.02452557      53.66148460      84.00514838
C      91.18771159      54.32288881      79.25437643
H      89.84978537      55.44538624      78.16211462
H      90.00852237      53.22684754      80.54128005
C      92.66925701      52.67504747      77.42134191
H      91.39558149      51.10468490      77.02638911
H      94.18103806      51.52231441      78.21313723
H      93.29664615      53.57077774      75.67334507
C      90.52063820      60.26796778      80.07640737
O      92.04375760      61.59266593      78.84808527
N      87.97139741      60.30954177      79.75137445
H      87.00574725      58.81098880      80.43734510
C      86.54465404      62.16714273      78.18479134
H      87.17582262      61.92714749      76.23648351
C      83.63825496      61.44904673      77.92400910
H      82.51197808      61.93848585      79.57940935
H      83.49463576      59.42137039      77.59519673
C      82.44772739      62.69437638      75.71680877
O      81.17972104      64.61055886      76.17034309
O      82.77276031      61.85911735      73.60409475
C      86.89803285      64.87323081      79.16555929
O      87.63880557      66.53996942      77.73881593
N      86.53520540      65.23983772      81.57307061
H      86.00797177      63.68837242      82.55194884
C      86.77520064      67.74372508      82.74092148
H      88.22084127      68.74528002      81.66944666
C      84.36957906      69.32542600      82.83729752
H      84.98751956      71.01295160      83.84641137
H      82.96173294      68.26528955      83.90310316
C      83.08267543      69.93958706      80.28238754
H      81.24964091      70.77484608      80.70946569
H      82.63103084      68.24072311      79.20713327
C      84.72106815      71.78018049      78.80462157
O      86.67315543      72.63055732      79.74570527
O      84.12391464      72.41134908      76.66356165
C      87.84478574      67.55475244      85.51692943
O      87.68604873      65.54219393      86.67533166
N      88.91248110      69.59565686      86.50336657
H      88.83122287      71.23404958      85.52826779
C      90.04064772      70.07564736      89.01859229
H      91.68659933      71.30396946      88.84851692
H      90.73417728      68.31442243      89.83306433
C      88.16037003      71.21326260      90.95367203
O      86.61646364      72.78551488      90.32439317
N      88.23784882      70.43847480      93.36118336
H      89.55687778      69.13645338      93.81282794
C      86.61835336      71.06775366      95.59672958
H      84.68138389      71.10743791      94.89564112
C      86.85078970      68.79441291      97.56393468
H      88.83311260      68.99472391      98.08549914
H      86.51441841      66.97271674      96.66064550
C      85.25208124      68.99850335     100.02246861
H      85.83411695      70.66524196     101.08827425
C      82.38914587      68.76795674      99.81081926
H      82.01498007      67.08799005      98.67887320
H      81.77876427      70.51595358      98.91130954
H      81.47073889      68.62055809     101.64952296
C      86.03820738      67.07287224     101.99723261
H      88.07911180      66.78941330     102.03880658
H      85.19349972      65.21905073     101.69487640
H      85.70939501      67.68703329     103.93420208
C      86.96417328      73.63400199      96.84205922
O      89.09011538      74.17257399      97.73589977
N      85.02531408      75.31396869      96.91575855
H      83.32267067      75.06452481      96.09183788
C      85.28042713      77.76305399      98.35573000
H      87.25708085      78.33375134      98.24990533
C      83.62691661      79.93812897      97.08772364
H      83.92927282      81.58597032      98.28392040
H      81.65971151      79.32963711      96.98756815
C      84.74563459      80.98125790      94.66131506
H      86.67882460      81.66722855      94.84650824
H      83.87636048      82.76893899      94.12463279
C      84.61713320      79.13499529      92.30482635
H      82.66882537      78.47926026      92.17443523
H      86.00986149      77.61754507      92.27081127
N      85.10468259      80.72236539      89.97857326
H      85.12357986      82.62343006      90.15053835
C      84.87602570      79.79639950      87.66932770
N      84.67571471      77.40400599      87.17988859
H      84.81744418      76.76527850      85.38842804
H      84.91570995      76.27205994      88.69544909
N      84.60957429      81.18345861      85.68322535
H      84.28076191      80.35764822      83.99381002
H      84.47729345      83.06373630      85.97046375
C      84.08612010      77.57597108     100.92953724
O      81.95450883      76.65189492     101.05425918
N      85.42026688      78.80240346     102.71910806
H      87.13802810      79.32963711     102.08227029
C      84.39603522      79.19735626     105.31181256
H      82.42694040      78.59642329     105.38173243
C      86.07600192      77.66478822     107.20342860
H      85.92860326      75.71081121     106.56470110
H      85.21617645      77.74226701     109.07425765
C      88.89736329      78.40556093     107.02201487
H      89.33200035      78.50004725     105.01134607
C      89.58711340      80.98692708     108.23899862
H      88.36257076      81.13999492     109.88872969
H      89.60412093      82.56484855     106.91430047
H      91.51463424      80.55795921     108.82670350
C      90.31465804      76.41756885     108.31458767
H      92.31020903      76.72559424     107.91396569
H      89.84222646      74.54673981     107.59460194
H      89.88757989      76.71803535     110.30824893
C      83.93116255      81.92234160     106.17541748
O      83.00141720      82.46847252     108.22199108
N      84.57555923      83.60419803     104.38962612
H      85.55821690      82.80106435     102.96288275
C      84.20139341      86.39910324     104.68253370
H      83.20739737      86.73736426     106.45509698
C      86.93393765      87.55561574     104.73355631
H      87.97517686      86.93200606     103.07248688
H      88.09611935      86.65421629     106.17541748
C      86.76008283      90.41099220     104.94520565
H      85.27664769      90.55272168     106.36816957
H      85.94561079      91.21412589     103.23311361
C      89.24507295      91.59774033     105.55747698
H      90.41103408      91.24625124     103.89451782
H      89.96883811      90.77948883     107.30547382
C      89.02586468      94.40587363     105.64062494
H      89.89135934      94.93499699     107.43397521
H      87.10023358      94.99168878     106.08660035
N      90.15970047      95.75324849     103.53924928
H      89.49640654      95.31483198     101.80448052
H      91.97383773      95.17499224     103.66964039
H      90.35812173      97.64864398     103.59594107
C      82.35324107      87.34207668     102.66808545
O      82.31922600      86.40099297     100.61395294
N      80.80555523      89.28849478     103.08571496
H      80.88492374      90.44122782     104.60505492
C      78.94984399      90.15587915     101.19031947
H      78.02576783      88.40221313     100.62529130
C      77.02232315      92.00781095     102.40730322
H      78.19962265      93.43077485     103.32004102
C      75.17417081      93.42699540     100.55537143
H      73.98931242      92.05694382      99.57082402
H      76.23619701      94.37185856      99.06437737
H      73.87592883      94.78003944     101.40763800
C      75.40660715      90.70956897     104.51812751
H      76.68784159      89.70801402     105.78046468
H      74.12726244      89.46990850     103.48444721
C      73.91183363      92.72401722     105.88250991
H      72.39249369      93.71801326     104.90741113
H      75.04944887      94.24146744     106.68564359
H      73.25042942      91.77159515     107.58326359
C      80.23107842      91.18200054      98.81682322
O      82.26442395      92.41788155      98.98311914
N      79.18605977      90.47902235      96.71544756
H      77.65916092      89.33762765      96.60962289
C      80.27265241      91.07050668      94.27581089
H      81.37625257      92.80338572      94.41943009
C      81.82789716      88.85196799      93.38574980
H      83.16393367      88.12631310      94.77280891
H      83.19983846      89.54738728      92.01380849
C      80.42949970      86.73736426      91.98735233
C      80.67516412      86.64287794      89.34362521
H      81.46317998      88.01292951      88.05483187
C      79.38826049      84.62087078      88.14175928
H      79.32023034      84.67000366      86.10274459
C      78.38670554      82.57429718      89.42110399
O      77.46073965      80.59386401      88.12853119
H      77.48908554      80.77905718      86.32384257
C      78.39804390      82.73681364      92.14230988
H      77.82734655      81.22314287      93.38763952
C      79.15771388      84.90621945      93.41598542
H      79.43928310      84.88354274      95.43610285
C      78.01253973      91.80561022      92.42009965
O      75.83179558      92.03993628      93.16654155
N      78.52087611      92.19867329      89.96723490
H      80.39170516      92.02292875      89.64031224
C      76.63870870      92.80716517      87.93010993
H      74.76787966      92.34985140      88.65765456
C      76.63114981      95.63230601      87.10807899
H      75.37826125      95.65687245      85.47157600
H      78.43205897      96.17654719      86.27093023
C      75.99431204      97.79415291      89.04882791
H      77.47207801      97.94533101      90.47368155
H      74.27277136      97.16865350      89.99180134
C      75.55589552     100.10717791      87.56350303
H      73.77010416      99.80671143      86.57895562
H      77.09602247     100.49646153      86.25014324
C      75.18739890     102.41075430      89.14520395
H      77.07901494     102.90964204      89.78960062
H      73.98931242     101.94210216      90.75336104
N      73.89293638     104.55370394      87.82806471
H      72.07690938     104.01513193      87.60507701
H      74.66961388     105.07715812      86.16510556
H      73.67750757     105.96721922      89.09040189
C      77.07712521      91.03838134      85.74558631
O      79.19739813      90.71334841      84.94812181
N      75.09102286      89.82517705      84.93111427
H      73.46396850      90.53571415      85.62842328
C      74.99653654      88.13387199      82.72958312
H      76.48375114      86.72035671      82.54816939
C      72.44162657      86.81106357      83.13776400
H      71.01488319      88.27182201      83.40421541
H      72.71374715      85.55250585      84.74781082
C      71.92573128      84.76637970      81.08363150
O      73.24853970      82.87665339      80.71891432
O      70.14371936      85.36164349      79.52649702
C      74.87748378      89.60596879      80.25026220
O      74.37670630      91.87930955      80.24648274
N      74.96063175      88.37386724      78.07329748
H      75.00598518      86.46524367      78.09408447
C      74.98897763      89.38487081      75.43146010
H      75.99242230      91.16688274      75.18768540
C      76.30989632      87.59341027      73.62866119
H      76.58012719      88.62709057      71.86932600
C      78.93283646      86.65799574      74.37132364
H      79.85502289      85.78683191      72.74615901
H      78.79488642      85.26526746      75.88310469
H      80.21974006      88.14332063      74.99115387
O      74.70362897      85.47502707      73.00694124
H      75.19495781      84.98558796      71.33075400
C      72.40572176      90.18422504      74.55273736
O      72.33202243      91.37097318      72.56852473
N      70.32702283      89.71557293      76.01349580
H      70.54623107      88.59874467      77.54417412
C      68.00643890      91.28026630      75.53917450
H      67.79289983      91.71301363      73.53606461
C      65.65561937      89.86108185      76.49915546
H      64.03801365      91.13853683      76.50671437
H      65.97309339      89.27337696      78.44746329
C      64.91295693      87.38176092      75.23681829
H      63.33881491      86.80350467      76.43112532
H      66.55134964      86.13832102      75.15367033
C      63.77345196      87.71435275      72.65167269
O      65.04334804      88.55906041      70.86588133
O      61.58136944      86.99814648      72.33608840
C      68.04801288      93.93155232      76.65033357
O      66.47198115      95.65120328      75.99081909
N      69.80734809      94.35674074      78.30762355
H      70.86370510      92.80905490      78.68367908
C      70.41017077      96.76992124      79.53216620
H      69.51633023      98.37996806      78.60620030
H      72.46052382      96.94377606      79.57185045
C      69.57869120      96.77559043      82.27604880
O      70.30434611      98.42343177      83.65176956
N      68.15761701      94.91043055      83.20579415
H      67.74565667      93.51203308      81.97558232
C      66.94252299      94.86507712      85.69456370
H      66.49654759      96.76425206      86.36163709
C      64.42162809      93.47234883      85.33173625
H      63.73187798      92.96401246      87.20634475
H      64.83925761      91.65254239      84.45868269
C      62.56780657      95.05027030      83.75948396
C      61.23554952      94.00336192      81.61086514
H      61.44719887      92.03048766      81.14032329
C      59.65951778      95.59451148      80.10853272
H      58.93764233      95.07105730      78.27171875
C      59.27968279      98.14186256      80.73781158
O      57.73199694      99.77269637      79.17122847
H      58.05325041     101.49423703      79.65310868
C      60.47210009      99.23601408      82.81840026
H      60.16785416     101.18054247      83.35319280
C      62.16529487      97.68454879      84.24703335
H      63.07803268      98.65775783      85.78905002
C      68.78122669      93.66132147      87.75814484
O      70.42717831      92.05694382      87.16666050
N      68.39005335      94.56083118      90.14108972
H      67.21086413      96.02158963      90.48313018
C      69.72986930      93.37219333      92.29348799
H      71.76888399      93.55360706      92.07616946
C      69.03067057      94.87263603      94.81438289
H      69.85648097      93.92966261      96.44899615
H      66.97842779      94.94633536      94.95800209
C      69.91128303      97.53526041      94.96178154
C      68.12738139      99.42687644      95.18476925
H      66.15261739      98.95633460      94.99201716
C      69.09303153     101.95721998      95.05626786
H      67.56802240     103.29892566      95.26224803
C      71.67817713     102.51090978      95.30193228
O      72.39249369     104.93353892      95.81215838
H      71.04700854     106.13918431      95.97278512
C      73.50554247     100.61362456      95.15831308
H      75.49731402     101.05959997      95.10918019
C      72.48131082      98.07572213      95.08650348
H      73.57924180      96.37496844      94.82194180
C      69.07413427      90.55083195      92.70922778
O      66.95197162      89.76470580      92.98701755
N      71.07346472      89.08629407      93.01158399
H      72.61548138      90.11997435      93.45566967
C      71.13393595      86.37264708      93.37441144
H      69.36326241      85.78872164      94.25124445
C      71.80100934      85.15377360      90.87808298
H      72.53044370      83.29428291      91.37886045
C      69.54656585      84.80039478      89.09229161
H      67.92707040      83.87253916      89.96723490
H      70.22119814      83.67222818      87.50681124
H      68.73587326      86.54461217      88.35529835
O      73.67939730      86.29894774      89.40220673
H      73.98931242      87.97891445      90.01258833
C      72.85736635      85.58841066      95.55704533
O      74.21041039      87.09263280      96.74379346
N      73.10114104      83.09586164      96.29592832
H      71.98242307      81.91289297      95.30193228
C      75.01921325      81.90533407      97.91731350
H      76.77476900      82.95035273      97.65275181
C      74.19718230      81.96769503     100.68009337
H      73.62081578      83.92356177     100.95977286
C      72.01832787      80.18568312     101.46999896
H      72.77043894      78.30540544     101.84038532
H      70.46119339      80.22725710     100.12262410
H      71.26999625      80.80740309     103.28791568
C      76.61603199      81.47258675     102.40352376
H      78.23552745      82.28705878     101.42653526
H      76.98452862      79.46569741     102.68509298
C      76.54611211      82.85586641     104.92630839
H      75.16283246      81.82407584     106.05069555
H      76.14171068      84.86275575     104.69387205
H      78.35458019      82.72925474     105.90707635
C      75.35558453      79.11609803      97.08016474
O      74.32001453      78.42634793      95.16209253
N      76.93539573      77.65156014      98.30092794
H      77.84246436      78.37154587      99.81648844
C      77.16972180      74.84342684      97.69054634
H      75.35558453      73.95525548      98.09494777
H      78.48308159      74.12911030      99.10595135
C      78.23174798      74.27461922      94.95989182
O      80.31611611      74.90578781      94.21911910
N      76.49886896      73.25605674      93.45566967
H      74.85102761      72.51339429      94.06794100
C      76.82390188      73.06330465      90.66643363
H      77.98230412      74.67524119      90.10518492
C      78.11269523      70.59532208      89.81794652
H      76.87492449      69.09865885      90.50580690
C      78.31111649      70.33642958      86.94556252
H      79.45629063      71.96915311      86.42588779
H      76.33635249      70.18336175      86.37864463
H      79.16905223      68.54874849      86.38809326
C      80.75831206      70.35721657      90.93666450
H      80.62981067      70.24950218      92.98890727
H      81.75419783      72.12033123      90.54927060
C      82.22662941      67.95537443      90.57383704
H      81.02665321      66.29241527      90.39431304
H      83.50408440      67.80230660      92.18388386
H      83.21306655      68.29741490      88.79749431
C      74.28788918      73.49227253      89.43622180
O      72.64382728      71.88600515      89.78204172
N      74.00443022      75.64089135      88.15120791
H      75.49353457      76.82763947      88.00569898
C      71.75754563      76.81630110      86.91532690
H      70.83913865      75.44058035      85.69078425
H      72.43406766      78.31296434      85.66999726
C      69.70341314      77.82352523      88.65009566
O      67.81935601      78.54351096      87.69767360
N      69.89616523      77.44746969      91.18799810
H      71.46274833      76.67646136      91.95333725
C      67.78723066      77.66478822      92.96434083
H      66.10726396      76.79551412      92.15175851
C      68.31824375      76.17757362      95.36807270
H      69.50121242      77.18479774      96.72300647
H      69.41806446      74.53918090      94.78036782
C      65.75577486      75.51805914      96.36017901
N      64.70319731      73.03684848      96.40364272
H      65.60648649      71.56097223      95.60239876
C      62.67930043      73.07464301      97.87573952
H      61.22610089      71.68947362      98.23478752
N      62.41662847      75.42546255      98.86973556
H      61.02390018      75.84687152     100.10561657
C      64.26856026      76.97503812      97.93810049
H      64.43296645      78.93657403      98.47667248
C      66.88772094      80.32741259      93.63519367
O      68.22186770      81.73903816      94.88997194
N      64.71453567      81.20235589      92.49379898
H      63.77912114      80.10442489      91.24468988
C      63.62038413      83.63821309      92.72245586
H      64.90350831      85.13298661      92.12908180
C      61.45853723      83.83096518      90.79304530
H      59.90140275      82.80106435      91.66609885
H      61.78923933      82.86531503      89.00536420
C      60.79524329      86.69768000      90.29415755
H      60.92185496      87.80128016      92.02892630
C      62.33159079      87.82395689      88.19089216
H      62.60560110      86.68256220      86.49769739
H      64.17029449      88.11308501      89.07528408
H      61.61349479      89.62108661      87.48791397
C      58.01923534      86.86208618      89.32850740
H      57.70365105      85.54683667      87.77515237
H      57.61483391      88.69890016      88.48379974
H      56.58115362      86.63909848      90.78359666
C      62.93819293      84.27883031      95.55704533
O      62.23710447      82.60831226      97.06126748
N      63.26511558      86.73925397      96.12396322
H      63.98888076      87.98080416      94.87107468
C      62.60182165      88.03560624      98.48612112
H      61.61727424      86.74492315      99.75412747
C      64.94319255      89.01637419      99.87129050
H      64.46131234      90.24847574     101.45110170
H      65.89372489      90.12186407      98.41620124
C      66.82724968      87.00948485     100.72544680
H      67.15039289      85.82651617      99.07193627
C      69.44074118      87.99781171     101.53802911
H      70.70307836      86.52382517     102.22966894
H      68.90216918      89.30172285     103.03847180
H      70.09458649      89.09952214      99.92609257
C      66.01466737      85.29172363     102.81926355
H      67.01811204      83.50026307     102.65863682
H      63.98321158      85.03472084     102.59627585
H      66.08836670      86.18556417     104.67308506
C      60.53446106      90.07840038      98.08171969
O      58.51623336      89.72691128      99.02658284
N      60.95020085      91.99836231      96.49812903
H      62.78134565      92.23268837      96.01435910
C      59.19653483      94.12808386      95.99735156
H      57.27090372      93.41187759      95.87073990
C      59.20787319      95.94789031      98.26124368