 %block lattice_cart
   137.793   0.000   0.000
   0.000 143.498   0.000
   0.000   0.000   162.326
 %endblock lattice_cart

 %block positions_abs
N      82.94944972      39.07468719      78.57501981
H      81.46790430      39.57168521      77.47708883
H      81.93088725      37.74809931      79.49531654
H      84.32517049      38.36981927      77.45252239
C      83.84140054      40.95496487      80.42695160
H      85.14531171      40.18017708      81.81967990
C      85.22090076      43.39460154      79.26099046
H      83.77148067      44.81189627      78.90005275
H      86.02403444      42.81445556      77.45441211
C      87.34684286      44.45284827      80.90505236
H      88.35973617      45.62636831      79.54822886
H      88.66020264      42.95618503      81.43228601
S      86.37174408      46.05155673      83.74720074
C      89.26869451      47.42916722      84.83379336
H      88.88696981      48.77843180      86.34368468
H      90.24568303      48.16805020      83.17650338
H      90.51780361      45.99486494      85.62369896
C      81.50380910      41.75809855      81.88204086
O      79.49125058      42.27399383      80.85969893
N      81.70978927      41.57857455      84.38781796
H      83.48424228      41.32346150      85.04355298
C      79.81628351      42.15683080      86.28510317
H      78.23458257      40.84347101      86.15849152
C      81.04271587      41.60503072      88.88347685
H      82.89464767      42.50265072      88.94016864
H      81.06161314      39.54900849      89.00630907
C      79.41377180      42.42895139      91.14169979
O      77.07995980      42.85225009      90.97918333
N      80.44178290      42.89382406      93.30732615
H      79.32684439      43.78955434      94.56966334
H      82.27481744      42.69540280      93.80432418
C      78.88275871      44.97252301      86.12069698
O      80.42099592      46.58823901      86.61013610
N      76.49981382      45.30133539      85.71629555
H      75.28283007      43.83490777      85.58212499
C      75.37542666      47.79577412      85.15693656
H      76.21446514      48.41560435      83.38248355
C      72.57107282      47.51420490      84.48797346
H      72.39154881      46.22730128      82.88737527
C      70.94023900      46.29722115      86.57234157
H      71.43156785      44.32623661      86.91438203
H      68.94846748      46.26509581      86.04321820
H      70.89110612      47.29688637      88.37136102
C      71.49014937      49.96706965      83.43350617
H      71.42967813      51.49585824      84.81300638
H      69.53617235      49.52865315      82.95351569
C      72.64288242      50.90059445      81.14126814
H      74.44190187      51.72451512      81.71574495
H      71.65644528      52.44828030      80.20963307
H      72.83941395      49.43227711      79.71074534
C      75.75904110      49.71384633      87.32445265
O      76.76815495      51.69050005      86.91438203
N      75.59841436      48.85213113      89.67905164
H      75.72691575      46.95295618      89.83967836
C      76.20123707      50.09368132      92.12435748
H      75.12787252      51.84734734      92.04120952
C      75.30928625      48.39292763      94.30132220
H      76.12375829      48.79354961      96.15136426
H      75.87431442      46.48430406      93.76652964
C      72.47280704      48.50442149      94.66225991
C      71.46369319      50.56422317      95.95672244
H      72.67311804      52.02498161      96.71072324
C      68.85776062      50.65115058      96.45561019
H      68.12832626      52.14592409      97.63668914
C      67.24393434      48.61780507      95.62791007
H      65.27483953      48.71796056      96.15892315
C      68.27005572      46.67894587      94.06510640
H      67.19480146      45.19740044      93.16370696
C      70.90811367      46.63926162      93.70983785
H      71.89455080      44.94039766      93.15236860
C      78.97157584      51.03098557      92.37947053
O      79.63109033      52.63347348      93.89125158
N      80.60807883      49.87447306      90.71084219
H      79.88998283      48.70473248      89.38425433
C      83.47857310      50.53965673      90.70895247
H      83.99257866      52.01742270      92.04687871
C      85.17932677      48.35513311      91.45350464
H      87.09361954      48.60268726      90.73351891
H      84.48768695      46.66193833      90.50675176
C      85.37963777      47.89592961      94.30699137
H      83.46912446      47.77498713      95.07422026
H      86.35284681      49.41149012      95.30476687
C      86.75535852      45.51298473      94.79076130
O      89.19688491      45.55266899      94.96839558
O      85.63664055      43.51743375      95.05532300
C      84.13052867      51.79632472      88.20695484
O      85.88608441      53.32511331      88.18049866
N      82.66410106      51.32200342      86.21140385
H      81.33184400      49.98029774      86.46273744
C      83.02503878      52.31033028      83.74342129
H      85.03570758      52.09301176      83.35791711
C      81.56428034      50.76831361      81.85747442
H      79.62731086      51.40704110      82.14093336
H      81.78348859      48.76709344      82.29211148
C      82.39575992      51.45239454      79.21941649
H      84.21745609      50.51131083      79.00965687
H      82.47134897      53.48385032      78.89816301
S      80.38131166      50.15415256      76.81946408
C      78.04560994      52.51820018      76.65505788
H      76.87208990      52.50119264      78.34825266
H      76.97791457      52.32733782      74.90328160
H      78.96590665      54.36068333      76.71552912
C      82.32395031      55.09956632      83.54500001
O      83.59951557      56.58489120      82.23541969
N      80.33406851      56.01419386      84.86213926
H      79.43833824      54.86524026      86.09613054
C      79.48180195      58.66547987      84.84513172
H      80.02415340      59.26452311      82.94973623
C      76.61130768      58.68059768      85.32323249
H      76.01604389      60.63835414      85.10024477
H      76.41288642      58.10234143      87.29043757
C      75.09385744      57.07622004      83.52421304
H      75.47936162      55.07877933      83.84546650
C      72.24415017      57.41259133      84.07979256
H      71.15755753      56.42993364      82.63226221
H      71.69990899      59.39491423      83.99097542
H      71.82274119      56.64725217      85.94684216
C      75.64187807      57.66959411      80.76521261
H      74.10175112      56.81165836      79.69751725
H      77.44656671      56.72851040      80.45340777
H      75.71179795      59.71427798      80.53088655
C      80.98602408      60.45316096      86.68005597
O      81.18066590      62.73028117      86.38525867
N      82.13686742      59.31932518      88.61702544
H      81.94978450      57.42015023      88.66804806
C      83.88297453      60.45883014      90.38202982
H      82.96078808      61.96116256      91.44216629
C      84.43477461      58.55398602      92.41915478
H      85.55160287      56.99496181      91.66137453
H      82.52426131      57.98706813      92.94071924
C      85.66876590      59.84277937      94.70383390
H      84.82027877      61.63801936      95.24807508
H      87.65675798      60.21127600      94.31455027
C      85.85206934      58.12123869      97.01685890
H      83.89620261      57.67715301      97.49118021
H      86.77047634      59.16625735      98.53619886
N      87.51313878      56.05576783      96.50852252
H      88.33139027      56.02742194      94.78509213
C      88.37296424      54.47028746      98.24329128
N      87.97234227      54.65926009     100.64891288
H      88.16320462      53.09834615     101.73172605
H      86.90086745      56.00474522     101.47661300
N      89.78081034      52.64292211      97.36078910
H      90.12285081      51.17649449      98.53241941
H      90.10395354      52.67504746      95.48051141
C      86.21867625      61.50762825      89.11780291
O      87.67376551      62.90035654      90.27053596
N      86.77236605      60.56843427      86.79910874
H      85.49302135      59.33822244      86.09990999
C      88.88508007      61.49251044      85.16449547
H      89.69199321      63.10822643      86.15282233
C      90.99212492      59.49884918      84.91505159
H      92.42831692      60.23017326      83.63192743
C      92.57949501      59.20027242      87.44728485
H      93.66419792      60.83299595      88.08412262
H      94.08560689      57.85289756      87.04288343
H      91.30959893      58.50296341      88.91182274
C      89.89041448      57.06677141      83.72830347
H      89.17042875      57.50329819      81.84991551
H      88.26902929      56.56410421      84.89426460
C      91.83116340      55.01074918      83.19540066
H      93.22578142      55.60601297      81.80078263
H      90.79181393      53.45550443      82.33179573
H      92.83649780      54.31155045      84.85080090
C      87.86462787      62.47138867      82.65871838
O      89.14964177      62.34666673      80.75198453
N      85.40987338      63.19515384      82.50754027
H      84.50847394      63.52396622      84.15727134
C      84.37052392      64.37623279      80.18695637
H      85.12641444      63.56931965      78.45029788
C      81.59262624      63.85655805      80.17372828
H      80.65343226      64.94504041      81.64771480
H      81.15609946      61.85533789      80.38915708
C      80.45501100      64.72205271      77.79078340
O      79.44022796      66.84232563      77.63015667
O      80.78193365      63.42192100      75.92373380
C      85.09806854      67.19948390      79.96207893
O      85.47790353      68.21804638      77.95518958
N      85.17554732      68.51095396      82.04266760
H      84.78248426      67.65301822      83.70184731
C      86.20544817      71.03751804      82.44706903
H      87.79092855      71.29452082      81.15827569
C      84.28737596      73.16723960      81.92172512
H      83.11196620      73.42991156      83.59224317
H      82.97212645      72.41323880      80.52521738
C      85.44577818      75.47837488      80.90883182
H      86.69488728      74.93413370      79.36303568
H      86.61929822      76.19458115      82.44328957
C      83.48991145      77.55329437      80.06979334
O      83.98124029      78.76271921      78.10258824
O      81.59073650      77.98793142      81.38504285
C      87.29582025      71.03940777      85.19095164
O      86.84228594      69.17613763      86.56856212
N      88.80571158      73.06897383      85.90715791
H      89.45955688      74.36154663      84.66560773
C      89.59372745      73.48471362      88.56600284
H      90.92598449      75.04751728      88.74174738
H      90.75212967      71.82742364      88.95528645
C      87.40164492      73.71337050      90.44817025
O      85.43066038      74.84153711      89.82078111
N      87.78147990      72.75905871      92.80276922
H      89.51057948      71.97671202      93.00496994
C      85.97490156      72.90834709      94.89280652
H      84.13430812      72.52095320      94.04809887
C      86.65520302      70.70114676      96.74473832
H      88.28603684      71.28696192      97.85589738
H      86.94244142      69.00228280      95.61279225
C      84.79949179      70.06241927      98.97839482
H      84.75035891      71.70648116     100.22372445
C      82.02348384      69.83754183      98.22817348
H      80.70445487      69.52006781      99.77963877
H      81.70034064      68.28607653      96.91292395
H      81.34507208      71.65545855      97.53275418
C      85.71222959      67.76073262     100.68859714
H      87.74368538      68.04986074     100.86245196
H      85.65931725      65.88234466      99.84766892
H      84.87130139      68.06119910     102.54619809
C      86.00324744      75.47081597      96.14191562
O      88.08383611      76.42134831      96.86379107
N      83.73935532      76.59331340      96.50096362
H      82.09718316      75.81096671      95.92837654
C      83.62786148      78.93090485      97.97495015
H      85.53648505      79.66789812      98.21872484
C      82.22001538      80.98125790      96.57844241
H      81.61908241      82.49681841      97.83700013
H      80.47201854      80.07607900      95.97750944
C      83.58817723      82.18312384      94.30132220
H      85.48924189      82.90688902      94.62635511
H      82.57528391      83.81773710      93.56054947
C      83.50502926      80.37465576      92.00719445
H      81.74002488      79.31451929      92.05254788
H      85.14342197      79.14822338      92.25285888
N      83.71289916      81.73525870      89.53543243
H      84.27981705      83.54372678      89.76408932
C      83.22723949      80.88110241      87.21106907
N      82.92866274      78.52083424      86.94272793
H      82.50725377      78.12399172      85.12292150
H      83.17621689      77.17723883      88.27498499
N      83.08928948      82.25493344      85.22685644
H      82.51481268      81.34030590      83.65271441
H      82.93622165      84.13521112      85.51598456
C      82.58473255      78.50949589     100.68670740
O      80.49847469      77.42668271     100.95693826
N      83.83195191      79.68490565     102.56131591
H      85.42688093      80.60898182     102.06620761
C      83.29526964      79.62632414     105.36944920
H      81.59829541      78.50760616     105.69826159
C      85.44388847      78.54729041     106.91713505
H      85.99379881      76.67835109     106.24817194
H      84.77681508      78.19202186     108.83331754
C      87.76069291      80.29150780     106.87556109
H      87.38274766      82.31162523     107.03051863
C      89.42554180      79.36365218     108.99205456
H      89.96978298      77.42857243     108.53852023
H      88.36540534      79.41656452     110.75516920
H      91.06771396      80.60709209     108.95803947
C      89.28759179      79.98537214     104.43403469
H      91.13007494      80.89055104     104.61166895
H      88.38052315      80.79228527     102.77107553
H      89.62207334      77.98793142     104.05986888
C      82.62819626      82.16989575     106.43903431
O      82.00080712      82.43823689     108.69158806
N      82.81338944      84.19190291     104.81575940
H      83.51258817      84.01237891     103.04886530
C      81.91576944      86.83563002     105.25795536
H      80.83295625      87.09263280     106.99083438
C      84.17021293      88.63842892     105.56220129
H      83.51636763      90.53571414     105.10299779
H      85.64419944      88.06584185     104.24128260
C      85.30215899      88.49858918     108.28340718
H      86.35851600      86.74870261     108.53474078
H      83.71667862      88.58551659     109.59487724
C      86.89519827      90.93066694     108.74261068
H      88.05171078      90.47335317     110.38289312
H      85.83884126      92.65598706     109.12811484
C      88.73957115      91.48057730     106.57509459
H      87.78714909      92.82795216     105.34110331
H      89.07216299      89.80439006     105.42236155
N      91.12062631      92.61441309     107.52184747
H      92.01257713      91.67332938     108.92213467
H      90.77102694      94.27170306     108.40245995
H      92.29603608      93.01692479     106.07242740
C      80.43800346      87.46112943     102.91091528
O      80.68744734      86.39343406     100.85300333
N      78.34607643      88.99369747     103.14524134
H      78.09096338      89.78549279     104.86300256
C      76.67177892      89.70423456     100.93804101
H      75.74014385      87.99781170     100.25962925
C      74.56284436      91.48624648     101.78463840
H      75.24692527      93.25880976     102.57832344
C      72.81484751      92.25536509      99.54531271
H      71.39755278      93.51770226     100.34466695
H      71.93045560      90.56406004      98.77052492
H      73.85797644      93.31361182      98.12045908
C      72.75626600      90.23524766     103.89735242
H      73.93734495      89.23369271     105.25606563
H      71.66778364      88.83496046     102.85044404
C      71.17645480      92.08528972     105.34866221
H      70.28639370      93.50636391     104.15624492
H      72.24226043      93.24558167     106.67336037
H      69.64766621      91.03649161     106.25384113
C      78.22891340      90.81161418      98.65714135
O      79.78982734      92.62764117      99.00863044
N      77.79805580      90.15398943      96.20238686
H      76.35052545      88.97480021      95.81499297
C      78.86197172      91.39176016      94.07266531
H      80.24525138      92.71834803      94.83044556
C      80.25470001      89.52093111      92.67615757
H      81.70034064      88.78015840      93.94038446
H      81.45089677      90.70767924      91.48940943
C      79.01126010      87.50270341      91.09634636
C      78.86197172      87.74269865      88.41671446
H      79.50447866      89.44723178      87.49452802
C      78.11552982      85.72825040      86.95784575
H      78.12119900      85.65266135      84.91883104
C      77.42577972      83.43790211      88.21640347
O      76.92311252      81.28739357      86.91438203
H      76.92311252      81.52171963      85.11725232
C      77.50325850      83.18278906      90.89414565
H      76.82673647      81.33841618      91.44783546
C      78.15332435      85.20857566      92.35868354
H      78.27048738      84.91188863      94.37313180
C      76.94389950      92.85440833      92.42671369
O      74.68756629      92.69756104      92.74607743
N      77.80372497      94.14887085      90.39714764
H      79.70101020      94.09973797      90.18171883
C      76.32028983      95.35451624      88.43372200
H      74.37576144      95.00680660      89.01386797
C      76.87020018      98.19666461      88.32600759
H      78.86008198      98.51602836      87.89326027
H      76.49225491      99.00168802      90.18171883
C      75.38487530      99.47978878      86.21518331
H      73.40066266      98.93743733      86.32856688
H      76.26170831      98.75980306      84.49364263
C      75.72124658     102.29170153      86.24352920
H      74.79150123     103.07782768      87.90459863
H      75.00504030     103.02869480      84.45584811
C      78.52182097     103.24223387      86.47029635
H      79.78982734     102.47878444      85.03977353
H      79.26637315     102.66586734      88.30144115
N      78.40843739     105.87840208      86.14904287
H      77.93978527     106.37540010      84.36703096
H      80.08651436     106.68909466      86.56478266
H      77.11586460     106.64374123      87.32634237
C      77.02326801      94.00147220      85.94495244
O      79.25125533      93.82761738      85.26843042
N      75.08440882      93.17566180      84.53143715
H      73.34208116      93.50258445      85.23819479
C      75.30550680      92.16843768      82.01621144
H      77.06106253      91.09129368      82.06156487
C      73.11153455      90.33351343      81.54377985
H      71.24826440      91.10263204      81.97274773
H      73.31373526      88.75937141      82.85524992
C      72.91878246      89.19211873      78.88493493
O      70.92512120      89.65510168      77.54511898
O      74.61008750      87.79372126      78.06290398
C      75.54928148      94.15831948      79.94129194
O      75.18456431      96.40142462      80.44395915
N      76.22769324      93.27770702      77.64527448
H      76.50737273      91.41443688      77.33535936
C      76.30139256      94.81027506      75.30012411
H      77.92844691      96.07261224      75.24910150
C      76.35619463      92.88653367      73.11560049
H      74.62331560      91.77537460      73.16095394
C      76.92500225      93.86730163      70.44919667
H      76.05761786      92.38575620      69.30780197
H      78.97157584      94.04871536      70.29045967
H      76.16911172      95.75513822      70.12227401
O      78.39520932      91.30672248      73.69574647
H      77.90199075      89.71746265      72.97198130
C      73.87120452      96.36174036      74.93540694
O      74.13576621      98.49902082      74.03589722
N      71.59597404      95.32617034      75.44563304
H      71.55817952      93.50636391      76.01633039
C      69.24137505      96.82094386      75.09225423
H      69.31318466      98.20989270      73.57291427
C      66.91512196      95.12774908      74.30612808
H      65.43357654      96.35229173      73.56535536
H      65.91734647      94.23390854      75.86893173
C      67.54062138      93.03204260      72.52600588
H      68.64800099      91.67332938      73.60881907
H      68.87476814      93.82194820      71.17107212
C      65.28050871      91.78104378      71.16351321
O      63.99171536      89.93289145      72.08380994
O      64.74004698      92.47835279      68.97709987
C      68.54973523      98.46878520      77.44307376
O      66.56552260      99.69521758      77.60936968
N      70.20702519      98.56516125      79.31579254
H      71.95124259      97.88108032      78.95296508
C      70.16734095     100.20733341      81.48519834
H      69.26972095     101.95533025      80.87103728
H      72.12509740     100.49646154      82.05589568
C      68.73870786      99.19255038      83.72074456
O      68.18501804     100.63819101      85.47252085
N      67.92234609      96.83417194      83.59980208
H      68.39855712      95.65687245      82.17494845
C      66.45780820      95.81371973      85.63692704
H      65.43168680      97.28581653      86.64793063
C      64.54918462      94.11296605      84.41616386
H      63.29251662      93.43455431      85.90148874
H      65.60743136      92.49347060      83.70751649
C      62.82197477      95.26380938      82.41494368
C      62.73882681      94.07328180      79.99042482
H      63.60999064      92.26103426      79.63893573
C      61.08720602      95.29971418      78.28778142
H      60.78673953      94.54571338      76.41506265
C      59.59999141      97.47100971      78.99075960
O      57.92380417      98.67665510      77.38071279
H      57.41735752     100.23189985      78.16305948
C      59.97604694      98.63130167      81.34913804
H      59.21448724     100.47189509      81.80078263
C      61.59365267      97.50691451      83.06500954
H      62.12655549      98.58594823      84.71474061
C      68.14911324      94.48146268      87.74964106
O      70.25426835      93.53848925      87.26776086
N      67.24960352      94.57216955      90.07589416
H      65.71514576      95.63230601      90.48218532
C      68.46469753      93.56305569      92.29065339
H      70.47914579      93.85218382      91.97695882
C      68.01494268      95.20144841      94.63769347
H      68.91067295      94.06194344      96.09845191
H      66.00805333      95.50002517      94.99107230
C      69.03917434      97.89808786      94.40525715
C      67.44991451     100.04481695      94.74918733
H      65.57719574      99.95599981      95.55610047
C      68.54406604     102.53925568      94.45250029
H      67.36487683     104.12284633      94.96272641
C      71.08385821     102.81326600      93.73251458
O      72.10431042     105.07526839      93.61157209
H      71.15377808     106.53224738      94.13124683
C      72.64288242     100.64386019      93.47551179
H      74.64788204     100.65897800      93.09000762
C      71.59786376      98.20422352      93.88747213
H      72.82051669      96.57716916      93.75708102
C      68.24926874      90.69823060      92.64781167
O      66.15923144      89.67777840      92.73473909
N      70.35820331      89.36219410      92.97095487
H      72.05139809      90.23713738      92.85190212
C      70.35631358      86.66366493      92.66670894
H      68.50060233      85.78116274      92.81032813
C      71.37487606      86.03816552      89.85290646
H      73.35908869      86.58618615      89.94928250
C      71.00071026      83.33963634      89.00630907
H      71.71880624      83.33585689      87.07500878
H      69.00137982      82.91066847      88.75686519
H      72.06273644      81.96958476      90.12124758
O      69.91600734      87.62553562      88.19183703
H      70.61898554      89.29416395      88.28443362
C      71.94179396      85.32195924      94.74351816
O      73.51215652      86.67122383      95.90192039
N      71.62620965      82.80484379      95.10256616
H      70.19190739      81.94690805      94.18415917
C      73.02271741      81.25715794      97.02252809
H      74.80283959      82.29083824      97.15291920
C      71.67723227      81.55951415      99.67570382
H      70.97425409      83.49459390      99.57743805
C      69.18090381      79.99293104      99.83066139
H      68.06974474      80.38410439     101.52007671
H      69.54562098      77.96714443      99.82499221
H      68.12454680      80.19891121      98.07510565
C      73.38176541      80.69024005     101.93770622
H      74.08474359      78.79106511     101.56354042
H      72.35753375      80.64299689     103.72538732
C      75.74203357      82.47603142     102.44037342
H      76.93445088      81.60297786     103.87467570
H      75.09196772      84.37709609     102.89579747
H      76.89854608      82.86909449     100.78119373
C      73.36475787      78.51894452      96.00396560
O      72.08541315      77.91612182      94.28998384
N      74.89165672      77.06007580      97.14725003
H      76.05950759      77.91801155      98.38691048
C      75.47180271      74.36532608      96.49907390
H      73.76160040      73.21637248      96.52175062
H      76.67555837      73.67935543      98.02597275
C      76.96657623      74.16501509      94.11801875
O      79.06984160      75.12688578      93.89881049
N      75.81951234      72.62488815      92.52497945
H      73.96380111      72.21103808      92.68560619
C      76.49225491      72.40756962      89.90581879
H      77.94545446      73.83620271      89.59779341
C      78.09852229      69.90368226      89.50141736
H      77.03460637      68.40323956      90.43116270
C      78.62197647      69.41235341      86.66304844
H      79.86352666      67.78151961      86.45139908
H      79.55361154      71.03751804      85.80511269
H      76.90988444      69.03818760      85.58401471
C      80.64587335      69.79974731      90.94894772
H      80.06005820      70.44414398      92.81599732
H      81.91387970      71.26050575      90.24030035
C      82.11230098      67.21838116      91.02453676
H      83.60140531      67.46593531      92.42860341
H      82.84740451      66.92547359      89.12347210
H      80.78571310      65.82565287      91.76341976
C      74.41733543      73.30518962      88.04821782
O      73.00948933      71.74427568      87.04666288
N      74.08096414      75.83553315      87.71373626
H      75.22613828      76.97881757      88.72473984
C      72.27627552      77.01283265      86.03943875
H      72.05139809      76.08308730      84.21396314
H      73.13421125      78.81374182      85.52921265
C      69.56640798      77.57786081      87.03343480
O      67.86565430      78.33942052      85.60858115
N      69.16200654      77.27172515      89.49196872
H      70.65300061      76.73504288      90.55399492
C      66.75071578      77.31140940      90.68438603
H      65.42790736      76.38922296      89.40504132
C      66.66378837      75.69380368      93.02386720
H      67.88833102      76.36276679      94.53753799
H      67.40456108      73.82675408      92.56655344
C      63.96903864      75.22326183      93.89881049
N      62.37221991      73.29385126      93.10134598
H      62.96937342      71.59876676      92.45316985
C      59.99305448      73.74171640      94.13691600
H      58.37544876      72.50583539      93.98762762
N      60.21415246      75.91301193      95.54854156
H      58.82520362      76.89755934      96.41214648
C      62.61788433      76.66512300      95.45405525
H      63.39456185      78.25438283      96.47072801
C      65.92301565      79.92112144      91.19461213
O      67.02094664      81.16267163      92.79710005
N      64.02384070      80.81118253      89.70739753
H      63.50038652      79.70380291      88.24096991
C      63.47204062      83.54372678      89.86235508
H      65.33909021      84.39032417      90.06077634
C      62.28340277      84.49047967      87.37925470
H      60.75272446      83.17145070      86.98052245
H      63.72904340      84.15788783      85.95062161
C      61.24972248      87.19278829      86.98430190
H      62.47048568      88.60063440      87.85924519
C      61.08342656      87.57073356      84.00609324
H      59.88722981      86.11375457      83.17839312
H      62.96370425      87.66521987      83.17083421
H      60.15557094      89.40376808      83.83223842
C      58.55497276      87.57073356      87.94806232
H      57.38901162      85.98714291      87.33957046
H      57.92002472      89.38487082      87.20539988
H      58.39623575      87.57640273      90.00219484
C      61.78640475      84.16544674      92.02987117
O      59.68691882      82.97680889      92.18104927
N      62.44780896      85.94178947      93.67393305
H      64.22226197      86.61642177      93.48496042
C      61.06074985      86.57673752      96.01152451
H      60.34454358      84.84952767      96.87512943
C      62.87677684      87.48380615      98.06754674
H      61.66168282      88.12631309      99.60200450
H      64.04084823      89.06928652      97.46094458
C      64.74760589      85.39943802      99.13146264
H      65.67357177      84.15410838      97.77841861
C      66.72992878      86.86019646     100.61867725
H      66.03261978      88.58740631     101.49928972
H      68.27761463      87.38931983      99.36767843
H      67.63699741      85.79439082     102.13045830
C      63.29251662      83.92167205     101.14213144
H      62.53095692      85.27849554     102.49139604
H      64.56619216      82.75571091     102.26462887
H      61.69947734      82.80673352     100.46560942
C      58.79685773      88.36252888      95.60901280
O      56.72949714      87.72380139      96.46316910
N      59.32220164      90.45067646      94.34100645
H      61.12122109      90.77192993      93.79487554
C      57.31909175      92.14198151      93.56432893
H      55.56731546      91.15365465      93.12024325
C      56.88445470      93.86730163      95.77719845