 %block lattice_cart
   137.793   0.000   0.000
   0.000 143.498   0.000
   0.000   0.000   162.326
 %endblock lattice_cart

 %block positions_abs
N      85.97206697      39.42050710      75.81885399
H      87.39503088      38.85925839      74.67367985
H      84.52831606      39.94207157      74.68879766
H      85.41648743      37.89171852      76.81851921
C      86.78275955      41.41794782      77.63488098
H      88.24918717      40.49576138      78.74981950
C      88.29454060      43.60058171      76.30073420
H      86.92448903      44.92339013      75.51649778
H      89.53987025      42.87681653      74.83052713
C      89.81577029      45.02543535      78.38888178
H      91.55620822      44.09380028      78.98603529
H      88.47595433      45.28810731      79.93278817
S      91.01574650      48.00742347      77.30039942
C      92.39713643      49.11291336      80.15955533
H      93.38168384      47.62569876      81.18945617
H      90.89291429      49.71006688      81.43512059
H      93.36845576      50.86468966      79.68523403
C      84.60579484      42.38359796      79.34130384
O      82.56866988      42.77099186      78.39455096
N      84.93271749      42.54611443      81.85463983
H      86.59000747      42.06045476      82.66533242
C      82.87858499      43.36058647      83.47224556
H      81.24586146      42.19840478      82.99603453
C      83.55888646      42.68028499      86.16699528
H      84.90248187      44.02199068      86.96445979
H      84.51319825      40.88126554      86.46557204
C      81.20995666      42.62170348      87.74680648
O      79.93817085      44.50387089      88.26081204
N      80.55233190      40.44662849      88.54994016
H      78.97063098      40.42395178      89.61763553
H      81.24586146      38.81768441      87.83562362
C      82.23040887      46.09313072      82.85808451
O      84.01431051      47.59357341      82.49714678
N      79.77565439      46.78666027      82.65399407
H      78.51331721      45.43172651      83.11319756
C      78.85346795      49.24519421      81.71857954
H      79.93817085      49.53810178      79.99136969
C      76.07179081      49.11480309      80.91922531
H      75.83557502      47.68239054      79.45846687
C      74.22174875      48.11702760      83.07729276
H      74.38237549      49.38314423      84.69300876
H      74.86047625      46.25942663      83.69712299
H      72.29800737      48.07356389      82.34596868
C      74.99842627      51.62813909      79.99514914
H      74.78677692      52.79032077      81.68456447
H      73.19184791      51.12925134      79.14099285
C      76.48186142      52.87724818      77.81062552
H      78.08812879      53.90714902      78.58541331
H      75.34046673      54.28131483      76.82607812
H      77.10547111      51.44294591      76.47080957
C      79.32589952      51.24263492      83.71224080
O      80.25753460      53.27787016      83.12075646
N      78.90638028      50.58123071      86.21045899
H      78.16560757      48.87480785      86.63942686
C      79.68683725      52.04387888      88.32695246
H      78.84212959      53.92226683      88.36663671
C      78.83646041      50.50564166      90.81950146
H      79.71518314      51.54499113      92.36718731
H      79.68494752      48.63103315      90.76469940
C      76.13226205      49.95951075      91.45633923
C      74.94929338      51.37113631      93.41598542
H      75.92439216      52.88480708      94.37596638
C      72.42083958      50.95728625      93.99613140
H      71.48542505      52.17993917      95.33405763
C      71.14149486      49.04110376      92.76402984
H      69.19507676      48.74252701      93.30071211
C      72.17139570      47.71262617      90.83461927
H      71.09992088      46.46351707      89.62330471
C      74.69795978      48.16805021      90.20534041
H      75.28188521      47.04177332      88.60663195
C      82.53465480      52.61646595      88.68977991
O      83.37558301      54.44194157      89.90298420
N      84.02186941      51.36546713      87.07973309
H      83.35290630      50.14659366      85.77204248
C      86.76764174      51.85490624      86.82650976
H      87.48006856      53.11535369      88.29671684
C      88.27753307      49.42660793      87.18744749
H      90.27686351      49.74219223      86.79816387
H      87.71439463      47.72018507      86.18022337
C      88.07344263      48.37025092      89.89353557
H      89.52664216      46.91894111      90.05227258
H      86.24607728      47.47074120      90.19400205
C      88.66303724      50.32422793      92.10829481
O      87.14369728      50.39225808      93.90353481
O      90.38646763      51.90781858      91.91932218
C      87.52164254      53.13236123      84.28671760
O      89.32633117      54.58367104      84.32073267
N      85.81521968      52.90181462      82.37053512
H      84.52264688      51.49774797      82.36108649
C      86.17804713      54.39658813      80.04050257
H      88.18493648      54.29832237      79.58507853
C      84.45083728      53.53865239      77.96180363
H      84.55666196      54.84256354      76.37065407
H      82.50441918      53.39881264      78.61753866
C      84.97996065      50.89870473      77.14922132
H      84.96106339      49.68172098      78.81029074
H      86.87724587      50.69461429      76.37254380
S      82.84645964      49.24330448      75.06485319
C      82.56111097      51.55632949      72.55529665
H      81.85813278      50.72673964      70.80729981
H      84.22407013      52.59189951      71.92034861
H      81.22885392      52.95850641      73.26205429
C      85.63569568      57.15936800      80.58474375
O      86.88669450      58.81476825      79.41878262
N      83.60801935      57.72061672      82.13242960
H      82.66882537      56.20505622      82.80895162
C      82.68961236      60.28497533      82.72769339
H      82.83134183      61.16936724      80.87387188
C      79.96084756      60.13946640      83.63665175
H      79.24086184      61.93281667      84.35474775
H      79.90604550      58.82043743      85.21457322
C      78.05411371      59.09633748      81.70157200
H      78.48497131      57.08377895      81.64488021
C      75.32156947      59.48184164      82.33463032
H      75.01732353      59.30231764      84.36419638
H      74.03466585      58.15147432      81.43134114
H      74.79433582      61.43770838      81.95668506
C      78.12592331      60.23395272      79.08997024
H      80.02509826      60.00529583      78.32652081
H      78.00309110      62.28808522      79.13343394
H      76.56878883      59.33822244      78.08085639
C      84.40548385      61.65880636      84.60419162
O      84.61335375      63.97372109      84.56261764
N      85.84734503      60.19237874      86.05550143
H      85.69805665      58.32343941      85.70023288
C      87.56132680      61.23739739      88.06805995
H      86.46717526      62.59800033      89.15654231
C      88.48918242      59.00563061      89.62330471
H      89.82332919      57.83022085      88.58017578
H      86.84889998      57.98517840      90.34140071
C      89.71561479      60.06576707      92.06105165
H      88.30776869      61.13724189      93.11740866
H      91.32755134      61.32054535      91.80782833
C      90.61701424      57.89825099      93.88274782
H      91.56754658      58.70327440      95.52303026
H      91.99651445      56.64347272      93.00591481
N      88.61579408      56.24096102      94.43832735
H      88.80665644      54.41737512      93.91109371
C      86.62402254      56.36379323      95.83483510
N      86.06277383      58.39713874      97.21811476
H      84.31477699      58.57099356      97.96077720
H      87.48573774      59.67081427      97.19165859
N      85.11602095      54.45139020      96.07105089
H      83.41337754      54.55343542      96.93087636
H      85.47695867      52.90181462      95.01847333
C      89.81766001      62.47516812      86.75281044
O      91.15936570      63.89813204      88.07561886
N      90.36190119      61.97439065      84.31128404
H      89.34333871      60.60055962      83.46279693
C      92.50485083      62.98728395      82.87509204
H      93.65947361      64.15891427      84.11286278
C      94.40024632      60.99740215      82.10975289
H      96.08966165      61.92903722      81.38976716
C      95.47172114      59.49695945      84.35096829
H      97.27452004      58.61256754      83.89554425
H      94.09411066      58.15525377      85.09174101
H      96.01218287      60.80653979      85.84574181
C      93.37979411      59.16058817      80.15388615
H      92.51240974      60.20749655      78.60431058
H      91.98517609      57.96439141      81.08363150
C      95.39424236      57.58644615      78.72714279
H      94.44182030      56.23907129      77.49315150
H      96.70760215      56.65670081      80.01404641
H      96.42414320      58.94893882      77.57629946
C      91.65069454      64.54441844      80.50915470
O      93.17381395      65.57620900      79.09563942
N      89.07877702      64.85433355      80.10475327
H      87.79943231      63.94537519      81.19134590
C      88.07722208      66.03352277      77.83141251
H      89.30365446      65.55353229      76.24971159
C      85.48451758      64.85433355      77.16622885
H      84.15603998      65.49495077      78.60431058
H      85.39381071      62.81153941      77.40622409
C      84.59067703      65.49873022      74.61320860
O      83.23574327      67.48861203      74.26927841
O      84.84767981      63.89057313      72.94835972
C      87.78809395      68.90212731      78.30762355
O      87.81832957      70.49327687      76.59553151
N      87.42526650      69.62211304      80.75103967
H      87.17960208      68.09710390      81.86975765
C      87.15503564      72.25261207      81.60141651
H      87.93927206      73.54518486      80.20112931
C      84.31855644      73.04251767      82.02660493
H      84.32611535      74.47115076      83.51192981
H      83.12802887      71.44758866      82.55950775
C      82.97307131      74.52406309      79.93656763
H      81.10602171      74.98704604      80.67356089
H      82.91448979      73.39022731      78.21691668
C      84.32233590      76.93535387      78.99359420
O      85.75096899      78.15233762      80.46758072
O      83.77809472      77.58541972      76.78828359
C      88.87657631      72.86299367      83.84830109
O      89.14302772      71.16790916      85.58306985
N      89.73262233      75.19302621      84.02782509
H      89.28286747      76.37977433      82.60108173
C      91.29164654      76.09820511      86.17455419
H      92.10989803      77.91234237      85.64165137
H      92.83933239      74.76972752      86.46935149
C      89.82899837      76.55362915      88.65576484
O      87.56888570      77.04873745      88.59151414
N      91.22172666      76.30418528      90.80249393
H      93.06798927      75.88655577      90.56438841
C      90.32599639      76.86354427      93.33094773
H      88.40981391      76.14355854      93.57661215
C      91.95494047      75.12688579      95.02981169
H      93.91647639      75.67112697      94.70855822
H      91.62423837      73.20503413      94.37029721
C      91.34266915      75.10609880      97.86062171
H      91.41447875      77.11109842      98.32171493
C      88.68760368      74.03273425      98.52391564
H      87.33266991      75.23648991      97.54692714
H      88.57044065      74.32186238     100.56104061
H      88.36446048      72.01639628      98.25746423
C      93.45160371      73.56975131      99.29681370
H      93.44593453      73.97793219     101.31504141
H      95.29408687      74.14422811      98.57304853
H      92.94137761      71.57231059      99.25712945
C      90.49607176      79.77939197      94.00180057
O      92.51240974      80.72425513      94.16998622
N      88.50618995      80.98503736      94.71044794
H      86.74118558      80.31985370      94.40809173
C      88.45705707      83.51538089      95.91231388
H      90.39780599      84.15032893      96.17498583
C      87.02653425      85.52793942      94.28336980
H      87.21361715      87.34396640      95.23579186
H      85.03098326      85.08007428      94.02636702
C      88.16414949      85.95690729      91.68499611
H      90.20883336      86.19501280      91.57539199
H      87.28920621      87.71813221      91.07650424
C      87.45550212      83.68545626      89.84062323
H      85.81332996      82.61020199      90.46801237
H      88.91437084      82.23603618      89.77070336
N      87.32511101      84.49614885      87.15154269
H      87.75218915      86.32918337      86.83784812
C      86.83000271      83.11853837      85.10874855
N      86.20072385      80.72047567      84.94056290
H      85.75852789      79.83797349      83.30594964
H      86.43127046      79.64144195      86.49769739
N      86.76764174      84.22402826      82.90343794
H      86.25741564      83.27160620      81.32929592
H      87.17204318      86.08918813      82.91855575
C      87.41581787      83.27349592      98.57304853
O      85.21050726      82.69901912      98.66375539
N      88.66681669      84.22213853     100.49112073
H      90.35812174      85.00637495     100.08482958
C      87.76352751      84.12954194     103.14240675
H      86.34245332      82.63665816     103.18209100
C      89.89513879      83.44924047     104.91308031
H      89.16192498      83.27538565     106.83115251
H      91.14802734      85.08385373     104.86961660
C      91.24062393      80.94535311     104.11561580
H      91.50707534      80.88110241     102.07471138
C      93.86923323      80.72047567     105.43464477
H      94.89157516      82.40989100     104.85260906
H      94.89724434      79.08586241     104.72032822
H      93.76907773      80.45024481     107.47365946
C      89.63435656      78.62476919     104.55781176
H      88.15659058      78.78539593     103.13106839
H      88.73862629      78.45280410     106.40218464
H      90.82299441      76.97692785     104.20632266
C      86.44260882      86.63342931     103.82270822
O      86.36135059      87.37609175     106.02990856
N      85.59979088      87.95434800     101.73456065
H      85.70561556      87.17578076      99.99412271
C      84.72673733      90.53949360     101.72133256
H      83.62502689      90.68311280     103.45421159
C      86.96417328      92.38386648     101.42653526
H      86.10434781      94.25469553     101.50590376
H      87.76730696      92.34796168      99.52925004
C      88.92004001      92.09473835     103.52602119
H      90.17859774      90.53571414     103.05358961
H      88.04320701      91.72057254     105.35149681
C      90.17103883      94.58539763     103.80381096
H      88.83311260      95.96111839     104.55403231
H      90.85700949      95.32806007     102.01046069
C      92.55776317      94.23390854     105.48944683
H      94.13757436      93.16621317     104.70710014
H      91.81132127      93.26636867     107.14484708
N      93.85033597      96.55260273     106.46076616
H      92.66925702      97.29715489     107.76089786
H      94.37190043      97.80360154     105.11717075
H      95.36967592      96.25969515     107.57759441
C      82.95984322      90.94389503      99.55570621
O      83.29621451      89.57762290      97.66597990
N      81.07578609      92.68055351     100.03947614
H      81.20428748      93.74257970     101.62117707
C      79.10480154      93.32117073      98.23289779
H      78.17505620      91.63553486      97.50346343
C      77.01476424      94.88019494      99.57460347
H      77.90293561      96.55449245     100.38151661
C      74.93795502      95.52837106      97.57716276
H      74.52977414      93.77470505      96.57560781
H      75.42172496      96.86818702      96.08994815
H      73.32412875      96.22568007      98.65052730
C      76.09824698      93.31928100     101.83471614
H      77.72152188      93.04338096     103.07248688
H      75.49731401      91.52215128     101.02591328
C      74.40694193      94.96523262     103.53546982
H      75.25731877      96.81149523     103.86995138
H      74.29166863      94.02792837     105.36472489
H      72.44729574      95.12774909     102.91752932
C      80.34824146      94.73279629      96.02380773
O      81.88269922      96.45433696      96.19766255
N      79.49975434      93.93722151      93.76369506
H      78.31867540      92.44055827      93.82794575
C      80.53154491      94.74224492      91.30327140
H      81.20617720      96.64141986      91.73412900
C      82.60835413      93.03771178      90.31872399
H      83.98974406      92.83740079      91.83428449
H      83.62313716      94.00714138      88.81261212
C      81.78065400      90.48091208      89.37008138
C      81.68805741      89.98958324      86.70745701
H      82.03954651      91.47490812      85.35630269
C      81.19672857      87.55939520      85.79471920
H      81.36869367      87.17011158      83.79916821
C      80.92271826      85.55817504      87.42555301
O      80.43327914      83.20357605      86.44478505
H      80.60335451      83.13932536      84.64009642
C      80.82445249      86.00226072      90.10140546
H      80.58634697      84.46780295      91.42421388
C      81.13814706      88.46457411      91.05004807
H      80.86413674      89.01070501      92.99646618
C      78.52276584      95.20144841      89.32472795
O      76.38359565      94.39264555      89.97479380
N      78.94795426      96.27292323      87.09296117
H      80.76776070      96.65464795      86.65643440
C      76.97130054      96.45622668      85.08796156
H      75.17795027      95.63230601      85.67944589
C      76.72752584      99.20955792      84.32262240
H      78.52087611      99.78025527      83.48736337
H      76.40816210     100.25835603      86.06495006
C      74.70551869      99.52325249      82.16644468
H      72.81579238      98.78814895      82.52549268
H      75.49731401      98.79570786      80.40899921
C      74.49386934     102.32382689      81.44078977
H      76.37981620     102.76224339      80.74159104
H      74.12348298     103.40475034      83.15477154
C      72.46808273     103.00223863      79.59074771
H      70.61426122     102.75657421      80.45057318
H      72.62115056     101.77769598      77.94290637
N      72.62681974     105.61761985      78.76871677
H      72.19785187     106.67586658      80.29750535
H      71.14149486     106.07115416      77.66133715
H      74.21418985     105.99745484      77.78038990
C      77.75742668      94.78948808      82.85619478
O      79.89848660      94.84429014      82.06062000
N      75.94328942      93.23802277      82.00581794
H      74.24064602      93.39298033      82.85619478
C      76.47808197      91.30672248      80.16333478
H      78.36591856      90.60185457      80.59608211
C      74.59969401      89.04849954      80.39010194
H      72.80823347      89.79872088      79.70791074
H      74.55812004      88.41166177      82.34974813
C      75.20818589      86.86208619      78.60809003
O      74.24631519      86.75626152      76.42167668
O      76.75965119      85.20101676      79.34886274
C      76.41950045      92.40465347      77.43645971
O      75.07401532      94.26792361      77.13599323
N      77.58735132      91.25192042      75.53728477
H      78.60213435      89.65510168      75.78861837
C      77.28310538      92.16843768      73.02961795
H      77.74419860      94.16209894      72.78962271
C      79.05566866      90.70201006      71.33075400
H      79.15960361      91.83962530      69.61866196
C      81.77120537      90.10107709      72.47592814
H      83.06944735      89.63242497      70.94713956
H      81.74852866      88.38142615      73.61165366
H      82.34946162      91.66199103      73.68913244
O      78.01253974      88.32284463      70.90745530
H      79.06889674      87.88442813      69.49771947
C      74.50520770      92.21946029      72.07152671
O      73.90805418      93.62352694      70.28384562
N      72.79878484      90.87019570      73.33197416
H      73.25609861      89.56250509      74.64722368
C      69.89805495      91.15743410      72.79340216
H      69.47475625      91.11963958      70.77706419
C      68.83602876      88.89165225      74.31085239
H      69.03067057      89.13542695      76.34608763
H      70.05112278      87.25892872      73.98959892
C      66.19797083      87.91844320      73.52472625
H      64.92051584      89.28093587      74.39400035
H      65.75955432      86.18745390      74.54895791
C      65.38727824      87.70112468      70.70903404
O      63.75266498      89.15243448      69.88322364
O      66.12994068      86.04950388      69.18024545
C      68.86248493      93.67454955      73.84786945
O      66.89905929      94.64775860      72.89733711
N      70.17017554      94.77625999      75.62421218
H      71.84636278      93.95233932      76.01160607
C      69.61459600      97.21778639      76.77694523
H      68.38249444      98.46122630      75.69224233
H      71.45707916      98.13808310      76.74293016
C      68.57335680      97.04582129      79.51893811
O      67.91951150      98.99223940      80.62064855
N      68.66973284      94.82350315      80.65655335
H      69.13649524      93.36463444      79.51893811
C      67.38849840      94.55516201      83.09807975
H      66.44741470      96.25024652      83.79727848
C      65.25499740      92.60874391      82.85619478
H      64.34225959      92.36118976      84.68544985
H      66.31702358      90.84751899      82.76926737
C      63.35771218      93.07361658      80.76237803
C      63.01378199      91.21412589      78.94635104
H      64.27611917      89.61352770      79.05784489
C      61.01823100      91.38231153      77.19457475
H      60.65351382      90.00281132      75.73381631
C      59.64439997      93.73691052      76.99426376
O      58.12883947      94.04304618      75.07430182
H      57.35594141      95.68521835      74.98548469
C      60.18864115      95.72112315      78.74981950
H      59.02268002      97.39731039      78.68745853
C      62.00277841      95.37152378      80.62442800
H      62.18986132      96.83228222      82.03794329
C      69.14027470      94.24335717      85.24291911
O      71.23787090      93.09629330      85.05016703
N      68.47698076      94.99168879      87.65043044
H      66.81969078      95.85529372      88.03971406
C      69.94340838      94.35674075      90.01069860
H      71.86903949      94.89342302      89.50992113
C      69.40105693      95.91576496      92.34073115
H      70.86181537      95.31294226      93.66164984
H      67.52833815      95.41498748      93.03426070
C      69.72797958      98.71822908      91.92877081
C      67.65494981     100.25079712      92.13664070
H      65.82947420      99.33994904      92.17443523
C      67.97242383     102.78303038      91.59428925
H      66.34347975     103.98867577      91.83428449
C      70.27033103     103.89229972      90.79493502
O      70.50087764     106.44720970      90.41510003
H      68.82846985     107.14262898      90.30738563
C      72.36414779     102.28603236      90.80249393
H      74.20096176     103.06837905      90.38486441
C      72.12604227      99.74057102      91.30894058
H      73.75120690      98.50469001      91.32783784
C      70.13238101      91.60907869      90.40754113
O      68.18974236      90.32217507      90.68722062
N      72.39249368      90.67555389      91.04626862
H      73.89104665      91.86041229      91.02737136
C      73.18617873      87.82773634      91.08406315
H      71.37204147      86.89043209      91.35429401
C      74.29544808      87.07184581      88.57639633
H      76.06423191      88.12064392      88.48002029
C      74.77165911      84.25804333      88.56883742
H      72.97641911      83.37176169      89.04126900
H      76.07557027      84.04072481      90.15053835
H      75.54833662      83.46435828      86.83406867
O      72.44729574      87.65577124      86.68100084
H      72.40761149      89.43967288      86.35596791
C      74.89071187      87.48380615      93.41409569
O      76.20407165      89.38676055      94.09817662
N      74.96630092      85.19345786      94.53659312
H      73.99876105      83.83096519      93.61440668
C      76.75209229      84.38843445      96.50568794
H      78.30733704      85.72447095      96.31104613
C      75.55967498      84.70023929      99.18154040
H      74.93417557      86.65043685      99.39507947
C      73.32223903      82.95035272      99.57082402
H      72.53800261      83.13932536     101.46621951
H      73.95529734      81.04739833      99.09839244
H      71.84258332      83.54372679      98.26691286
C      77.33979717      84.20702072     101.62684625
H      78.09190824      82.30028687     101.41330717
H      76.34013195      84.32229403     103.42397597
C      79.44495228      86.17044636     101.76668599
H      78.75709190      88.07340076     102.15596962
H      80.59201615      86.03060661     100.06215286
H      80.67705384      85.60541819     103.31437185
C      77.90293561      81.73714843      96.03514609
O      76.89760121      80.34253041      94.44777598
N      79.80211055      80.82441062      97.43732301
H      80.60335451      82.04328409      98.67131429
C      80.65815657      78.20524995      97.48645590
H      79.21629540      76.79740385      97.91164432
H      82.07545131      78.17123488      98.98311914
C      81.85624306      77.40400600      95.05059868
O      83.76108718      78.52650343      94.04148483
N      80.91137990      75.35743240      93.94888824
H      79.46195982      74.58642406      94.92209729
C      81.38570120      74.79618368      91.34484538
H      82.55544179      76.28339829      90.52848361
C      82.56489042      72.11277232      91.00469464
H      81.09657308      70.71626457      91.37319127
C      83.23196381      71.74427569      88.30049629
H      84.75508322      72.95559025      87.62964345
H      81.75419784      72.43780525      87.04193856
H      83.74030019      69.76006306      88.09262639
C      84.92893804      71.78018049      92.71300723
H      84.49808044      72.13355931      94.69533013
H      86.47851362      73.02362040      92.17632496
C      86.28198208      69.17424790      92.73001477
H      85.06499834      67.59821616      93.25724841
H      87.86368301      69.23282942      94.04715401
H      87.02275480      68.73394167      90.85729599
C      78.79488643      74.87933164      89.87463831
O      77.37570197      72.95936971      89.70078349
N      78.04466508      77.01472238      88.90709843
H      79.11236045      78.56051850      89.23969027
C      75.85447229      77.33219640      87.22335229
H      75.90171544      75.75805438      85.89676442
H      75.91116408      79.14822338      86.25392269
C      73.25987806      77.53439711      88.44222576
O      71.42306408      77.55518410      87.07973309
N      73.02177254      77.57975054      90.97256929
H      74.64126799      77.62699370      91.97979342
C      70.61993040      78.00682869      92.27837018
H      69.09492126      76.72559425      91.76625435
C      70.97897840      77.47203614      95.15264390
H      72.30556627      78.73815277      96.09372760
H      71.79722989      75.59175846      95.34350626
C      68.45241432      77.47581560      96.52836466
N      67.11259836      75.28184335      97.09906200
H      67.65494981      73.51116979      96.63796878
C      65.03578914      75.97537290      98.34628137
H      63.29346148      74.95114124      98.63163004
N      65.11137820      78.50760616      98.72233690
H      63.73565744      79.52238919      99.56515484
C      67.23543057      79.48270494      97.66220044
H      67.61526556      81.43668195      97.21433531
C      69.56168366      80.67512224      91.99113178
O      70.26466185      82.53083348      93.29315321
N      67.85148135      80.98692709      90.29793700
H      67.52455870      79.50916111      89.13575532
C      66.36615647      83.24703976      89.91621229
H      67.52644843      84.92133727      89.60062799
C      64.55390893      82.89933011      87.54649549
H      63.67518620      81.06629559      87.87152842
H      65.53278716      82.59319445      85.76070412
C      62.53001205      84.97802906      87.52381877
H      61.46042696      84.87787356      89.27937452
C      63.17818818      87.66144042      87.10807898
H      61.54168519      88.82173238      86.64509604
H      64.48398906      87.73325002      85.51692943
H      64.19297121      88.48158164      88.70111827
C      60.62327820      84.55473036      85.37142050
H      59.75400410      82.68957049      85.49425271
H      61.63050233      84.73614409      83.58373941
H      58.94709096      85.73580931      85.57173149
C      65.04334805      83.90466451      92.31805443
O      63.70920127      82.19635193      93.12685729
N      65.27956384      86.32918337      93.05504769
H      66.57969554      87.34963558      92.09884618
C      64.14383832      87.57262329      95.28114529
H      63.93785816      86.11375457      96.71733729
C      66.09214615      89.46423933      96.55671055
H      65.14728300      91.01192518      97.53369905
H      67.10881891      90.30327781      94.97500963
C      68.01021836      88.08284939      98.30092794
H      68.52989310      86.27627104      97.45811000
C      70.46308312      89.55116674      98.66942457
H      71.49298396      89.32439958      96.90064074
H      71.36826202      88.71968716     100.32482482
H      69.93584947      91.48246703      99.15508423
C      66.96330998      87.48758560     100.94843450
H      68.15005811      86.15532855     101.98022507
H      65.13216519      86.63720876     100.52513581
H      66.65339487      89.28093587     101.91219492
C      61.48499340      88.54394261      94.66131506
O      59.58392873      87.35152531      95.42287476
N      61.32436667      90.57917785      93.08906277
H      62.95331075      91.32939920      92.43899691
C      59.25322663      92.03993629      92.41443047
H      57.87561614      90.52437579      92.18388386
C      58.45387240      94.02603864      94.48746024