 %block lattice_cart
   137.793   0.000   0.000
   0.000 143.498   0.000
   0.000   0.000   162.326
 %endblock lattice_cart

 %block positions_abs
N      85.88419469      39.71624927      77.68401386
H      85.22656993      38.22147576      78.67045099
H      87.34117369      38.98303546      76.69190755
H      84.49713558      40.24915209      76.48214793
C      86.37741327      41.72880779      79.60019635
H      87.72478813      40.93890219      80.94190203
C      87.66998606      43.97191292      78.33596943
H      86.25080160      44.81284113      77.10386788
H      89.32538632      43.35964159      77.27394326
C      88.60918004      45.73880702      80.39766085
H      89.45577743      44.60119178      81.89054463
H      87.05393528      46.84996609      81.16866918
S      91.10550850      47.64743060      79.16555929
C      91.71966954      49.39920690      82.07573781
H      93.40530542      50.55571939      81.81684531
H      92.12596071      47.95734572      83.49114282
H      90.12852000      50.66154408      82.40643992
C      83.95667385      42.38265310      80.98158627
O      82.02159411      42.59052299      79.81184570
N      84.09651361      42.94012235      83.41366405
H      85.81238509      43.02704977      84.24136417
C      82.10663179      43.76215330      85.12197663
H      80.45312128      42.54139011      84.99347524
C      83.02125933      43.36153133      87.81861607
H      84.59729107      44.67111166      88.03215515
H      83.80360602      41.45857693      87.93388939
C      81.28649057      44.06450951      89.93321982
O      79.10385669      44.70890619      89.57606155
N      82.16332359      43.91144168      92.27459072
H      80.94256039      44.28938695      93.69188546
H      83.98690948      43.50704024      92.66954352
C      81.40554334      46.55516880      84.69867794
O      83.08362030      48.27481974      84.60041216
N      78.97157584      46.98602639      84.38876283
H      77.70167975      45.56117276      84.42655735
C      77.86986541      49.59951788      83.79727849
H      78.74858814      50.51225570      82.17022413
C      74.96157661      49.30094113      83.55539352
H      74.70268411      47.82695460      82.13998851
C      73.49703872      48.52237389      86.01770690
H      71.54495144      48.05372175      85.54905478
H      73.54239215      49.88864600      87.55783385
H      74.20001691      46.77626677      86.85863511
C      73.73136478      51.66120928      82.36675566
H      74.07718469      53.33739653      83.51004008
H      71.69801926      51.34751472      82.27982825
C      74.47591694      52.31883405      79.62098334
H      73.24192566      53.80415892      78.90288734
H      74.44946078      50.55193995      78.56273660
H      76.48280629      52.77047864      79.51704838
C      78.69378607      51.36452225      85.96668430
O      79.55361154      53.46967738      85.53960615
N      78.76181622      50.41965911      88.37230589
H      78.35552506      48.58095540      88.68600045
C      79.67644376      51.90309425      90.45100484
H      78.62764566      53.67565753      90.35462879
C      79.07929025      50.55571939      93.04181961
H      80.09785272      51.45333940      94.59517464
H      79.81250406      48.68300063      92.59773392
C      76.30895147      50.45367418      94.07549991
C      75.43589791      52.29426761      95.74601797
H      76.65477139      53.88541717      96.12963240
C      72.94334890      52.29426761      96.77591881
H      72.22525290      53.84573291      97.88896761
C      71.27283084      50.30060635      96.28458996
H      69.31696410      50.26092209      96.86473593
C      71.99848575      48.67544172      94.28714924
H      70.79661982      47.23736000      93.48023611
C      74.41733543      48.77937667      93.24213060
H      74.89354646      47.49625250      91.72845982
C      82.49402568      52.64197725      90.25825275
O      83.24802648      54.47123232      91.55271527
N      84.05493963      51.33428663      88.64631621
H      83.35196143      49.89620491      87.60885645
C      86.59095233      52.24702445      88.18333326
H      87.01425104      53.48479518      89.77259308
C      88.59217251      49.98313232      88.20223051
H      90.57071595      50.46879198      87.90743321
H      88.02336489      48.45623346      86.93989335
C      88.47311974      48.62252937      90.80249393
H      89.72600829      46.98791612      90.80438365
H      86.59851124      47.78916007      91.00469465
C      88.92665406      50.39509267      93.01158399
O      87.30715861      50.60674201      94.75580138
O      90.76346803      52.00891893      92.82639081
C      86.84984485      53.76447468      85.68322534
O      88.64130539      55.18176942      85.58684931
N      85.42688093      53.18999788      83.69901271
H      84.02092455      51.92766071      83.97113330
C      85.38908641      54.60918233      81.24992742
H      87.30148942      54.83783922      80.52049306
C      83.74502451      53.34495544      79.15800038
H      83.37085870      54.65075631      77.61031454
H      81.84395983      53.08984238      79.91200118
C      84.68232875      50.90531877      78.02227488
H      84.69366712      49.37086100      79.39610590
H      86.56260645      50.94500301      77.18323639
S      82.62252707      49.64865076      75.43523955
C      83.75258342      51.06216604      72.50238432
H      82.95700863      50.10785427      70.86021215
H      85.79726729      50.86941397      72.35120620
H      83.40487377      53.09173211      72.45325143
C      84.54815820      57.26802727      81.73747681
O      85.60262547      58.89508161      80.50915470
N      82.65465242      57.57794238      83.29839073
H      82.06316810      56.03781543      84.26026144
C      81.57750842      60.12907290      83.88231617
H      81.40365360      61.20810662      82.13809878
C      78.76181622      60.10639619      84.85174577
H      77.92277774      61.93187181      85.31283898
H      78.80150048      59.01791383      86.59974261
C      76.79083167      58.91208916      83.03949823
H      77.08184952      56.87307447      82.96390919
C      74.09797169      59.42042554      83.94467714
H      73.78616683      61.41219707      84.36797583
H      74.09986141      58.39619387      85.73046851
H      72.79406052      58.77602886      82.48769814
C      76.88153854      59.90041602      80.19923959
H      75.41700065      59.14074604      78.96713802
H      78.81661829      59.59239063      79.56618126
H      76.48658575      61.92242316      80.25782109
C      83.32172582      61.70321492      85.53015751
O      83.37652787      63.96710705      85.41488421
N      85.00736169      60.35017088      86.93800361
H      85.00736169      58.46611375      86.63753714
C      86.99724349      61.40085871      88.57450660
H      86.17143309      62.95610346      89.64598143
C      87.88541487      59.21822481      90.39431305
H      89.23278973      57.93321092      89.51181086
H      86.25647077      58.10328630      90.98579738
C      89.14397259      60.22922840      92.85095725
H      87.67376552      61.13818674      93.97345467
H      90.60662075      61.63707450      92.50891678
C      90.33072071      58.20911097      94.68021232
H      91.12629548      59.00846519      96.40175299
H      91.81793531      57.36440330      93.53125873
N      88.57138552      56.37607644      95.30949118
H      88.67154100      54.64697686      94.50635750
C      86.87630100      56.60662306      97.19732776
N      86.61929824      58.37540689      98.87162529
H      85.04893566      58.31304592      99.95254874
H      87.84195116      59.83616532      98.97178077
N      85.07917129      54.91153854      97.39763876
H      83.56739024      55.03437075      98.55604098
H      85.18688568      53.43377258      96.19577283
C      89.14964177      62.50445887      86.83406867
O      90.41953785      64.23544818      87.81105718
N      89.56160210      61.47833748      84.58907380
H      88.34272863      60.12907290      84.00703811
C      91.58927844      62.47800271      82.79572354
H      92.69287861      63.93120225      83.75192506
C      93.24656842      60.10072700      82.03416384
H      94.79425427      60.86984562      80.91355614
C      94.48244941      59.07838507      84.46624159
H      93.13318484      57.83872460      85.40921502
H      94.70921657      60.59961476      85.83440345
H      96.27768941      58.11084519      84.17711347
C      92.01257713      58.04848422      80.42411702
H      91.69510310      58.87429463      78.56462633
H      90.24190358      57.39463892      81.24803768
C      93.52813764      55.86774007      79.77027172
H      94.79614398      56.48757029      78.26982901
H      92.51713406      54.25580351      78.98036611
H      94.40308092      55.10429063      81.47291512
C      90.60095158      64.05970362      80.46191155
O      92.09950453      64.43575917      78.68367908
N      88.32194164      65.02913322      80.62064856
H      87.44888808      65.21621613      82.30817414
C      86.99724349      66.31414713      78.51549343
H      87.90053267      65.69809634      76.76938632
C      84.28170679      65.22377504      78.50415509
H      83.21023196      65.83037719      80.15577588
H      84.32706021      63.16397335      78.60809002
C      82.84740450      65.85872308      76.09664376
O      81.61908241      67.90907612      76.01916497
O      83.06472303      64.56804001      74.18046127
C      86.79882223      69.14495713      78.92745378
O      86.93866198      70.64728956      77.20402338
N      86.66654138      70.00289288      81.27071441
H      86.57394479      68.61961322      82.58218446
C      86.70244619      72.64284054      82.16455495
H      87.55849220      73.86927293      80.75103967
C      84.11163142      73.74644070      82.91666602
H      84.43666433      75.41884849      84.07317853
H      82.94378055      72.32725625      83.85019082
C      82.53370994      74.70642168      80.67923006
H      80.58729184      74.88216622      81.32362674
H      82.48457705      73.49888656      79.00871201
C      83.51825736      77.29723646      79.70602102
O      82.06505781      78.32146812      78.03739269
O      85.36263024      78.38760853      80.73781159
C      88.47500948      72.68441452      84.47191077
O      88.43910468      70.85893891      85.93455895
N      89.78270008      74.78201072      84.86875330
H      89.55593293      76.29757123      83.72735861
C      91.42865170      75.14294845      87.11563788
H      92.69098887      76.75110555      86.85296594
H      92.58138475      73.46298176      87.41610438
C      89.99434942      75.75144033      89.52503893
O      87.80226691      76.67740622      89.60629717
N      91.07527287      75.26389093      91.74735709
H      92.77413684      74.39272710      91.68877557
C      89.99056997      75.97820748      94.21344993
H      87.93454775      75.86860336      94.23612664
C      91.14897221      74.12816542      96.06916116
H      93.17475881      74.18485721      95.69877480
H      90.31749262      72.26678501      95.77247413
C      90.84661600      74.96531418      98.81304377
H      91.67998529      76.82102543      99.12484860
C      88.03659297      74.96342445      99.58594183
H      87.77581073      75.39995124     101.58149282
H      87.22023119      73.17007419      98.99067804
H      87.22212093      76.59803772      98.63163004
C      92.02013604      73.02456525     100.58560705
H      91.52691746      71.13861839      99.92231311
H      91.53636610      73.41384887     102.54903269
H      94.02135620      73.47620984     100.41364196
C      90.55559815      78.72586954      94.66131506
O      92.70232724      79.47231143      94.61785135
N      88.64697456      80.24520951      95.31705009
H      86.82716812      79.71419640      95.52680971
C      89.00602256      82.85492154      96.28081051
H      90.96377903      83.48231067      96.40175299
C      87.45077781      84.67850744      94.59328491
H      87.39408601      86.44351180      95.65531110
H      85.43632955      84.30812108      94.37407665
C      88.45611221      85.14526982      91.80971806
H      90.45166320      85.62526032      91.64342213
H      87.34495313      86.80822898      91.31460976
C      87.80793608      83.07601951      89.79715952
H      86.18466118      82.01399333      90.49068908
H      89.28570206      81.65683506      89.59117935
N      87.24290791      84.02277240      87.15343241
H      87.02180993      85.90116036      86.89642964
C      86.49646602      82.41461530      85.40354586
N      86.47756875      79.99198617      85.71724042
H      85.88419469      79.08302781      84.14876758
H      87.13708325      79.13782989      87.29138244
N      85.54593368      83.19885172      83.19256606
H      85.42688093      81.87037412      81.82629393
H      85.35318161      85.07157050      82.89209958
C      87.71533949      83.37270654      98.92264789
O      85.40042475      83.04767363      99.36484386
N      89.49546168      84.05489775     100.70277008
H      91.33605511      84.16072243     100.20955152
C      88.68854855      84.29678271     103.23500334
H      87.17676750      82.93806949     103.57137463
C      90.91653586      83.50498740     104.93764674
H      90.13040972      83.84702785     106.81225525
H      92.60406147      84.67283826     104.77324056
C      91.68187503      80.73275888     104.58048847
H      92.58138475      80.45874858     102.74934368
C      93.68498492      80.33024719     106.60438536
H      94.31237405      78.38004962     106.40218465
H      92.59839228      80.66472875     108.32214658
H      95.28180364      81.61904053     106.43808945
C      89.56916101      78.78067160     104.89985223
H      88.24446285      79.12460180     103.35972528
H      88.98145612      78.71642092     106.87083677
H      90.39308167      76.97409325     104.34427269
C      87.24479765      86.77988310     104.01735004
O      86.46434067      87.09357766     106.19431474
N      87.10117844      88.64126350     102.24478676
H      87.89108404      88.07245588     100.60450431
C      85.72545769      90.97885496     102.37706759
H      84.46312051      90.80688987     103.99656305
C      87.66053743      93.10857651     102.77202039
H      86.75913797      94.93594185     102.47722309
H      89.11751642      92.90826553     101.33015921
C      88.56949578      92.99897239     105.64818385
H      89.84695078      91.38514611     105.69353727
H      86.86118319      92.94417033     106.79902716
C      90.01891586      95.38380700     106.43808945
H      91.76691271      95.80710568     105.43653450
H      90.52536252      95.13058367     108.41852262
C      88.21044779      97.76486214     106.39084628
H      86.85929347      97.48707239     107.92341432
H      87.24668737      97.75352379     104.56915011
N      89.75057473     100.07032825     106.96154363
H      90.68976871     100.05898989     108.62261306
H      88.74713006     101.68982370     106.87650595
H      91.12629548     100.48228858     105.70487564
C      84.20044856      91.56278038      99.93554119
O      84.67099040      90.63681449      97.82093746
N      82.22190510      93.06133336     100.18120561
H      82.19166947      93.89470266     101.89896683
C      80.13564726      93.66793551      98.31415603
H      79.08306970      91.91426949      98.06660188
C      78.19678806      95.60868442      99.45744045
H      79.14354094      97.40770387      99.79003228
C      76.12564801      95.75797280      97.46755864
H      74.73480944      97.19794425      97.94565938
H      75.16188759      94.00241705      96.98000925
H      76.85697210      96.59134210      95.73090016
C      77.32751394      94.62791646     102.12573400
H      79.05283407      94.16682325     103.15374510
H      76.14265556      92.98574430     101.74589900
C      75.91966784      96.63669554     103.63373560
H      75.65510617      96.05843928     105.58960233
H      73.96569084      96.91070586     103.03847181
H      77.05350363      98.35634649     103.60538969
C      81.17499672      94.62035756      95.71389262
O      82.83417643      96.28709618      95.62129603
N      80.05249929      93.72084784      93.58417105
H      79.03393682      92.11269074      93.74290806
C      80.72524186      94.33122943      90.99524602
H      81.56805980      96.20772766      91.11051932
C      82.77937436      92.45473121      90.07872875
H      84.01336564      92.12780856      91.69633448
H      83.74313478      93.33534368      88.48568947
C      81.93088725      89.76187121      89.37764028
C      81.54160362      89.14582044      86.86052484
H      81.79482695      90.63870422      85.49236298
C      80.92555284      86.71752213      86.14053911
H      80.41910620      86.26209809      84.21679773
C      80.92366312      84.75598620      87.86963868
O      80.66099117      82.36548242      87.02871047
H      80.56839458      82.19918651      85.22402186
C      81.60774405      85.28888903      90.46045347
H      81.67766392      83.73364428      91.77948244
C      82.00458657      87.84757846      91.18421865
H      82.79827163      88.08190452      93.04937852
C      78.51804153      94.44461302      89.31149987
O      76.45257066      93.80210607      90.10329520
N      78.82228746      95.35168164      86.96445979
H      80.60996855      95.68805294      86.38431381
C      76.96657623      95.50474947      84.94623209
H      75.09007800      95.47640358      85.79660893
C      77.02515773      98.05588000      83.65554902
H      75.79872536      98.10879234      82.00014877
H      78.91677377      98.67759996      83.13209482
C      76.10675076     100.18371183      85.50748080
H      77.10263652     100.25174198      87.31216943
H      74.23025252      99.80387683      86.26337132
C      75.97069046     102.75751906      84.22435664
H      77.76593045     103.46238698      83.50437091
H      75.60408355     104.09544530      85.74558631
C      74.18867854     102.97483759      82.04550219
H      72.39910772     102.16225527      82.66533243
H      74.93134098     101.82210455      80.50915470
N      73.67467299     105.54108593      81.06851368
H      72.53327830     105.61478526      79.54161482
H      75.24314582     106.36311688      80.35608686
H      72.85453176     106.74862104      82.29683580
C      77.15176941      93.44116834      83.06784413
O      79.17188684      92.84590456      82.12487069
N      74.80472933      92.53032027      82.44801390
H      73.40822157      92.99330321      83.66310791
C      74.16789156      91.00531112      80.38443276
H      75.41511092      89.36880813      80.27293891
C      71.40700141      90.15115483      80.63576636
H      70.00860393      91.63836944      80.35797659
H      71.12165273      89.41038212      82.53683104
C      70.98748216      87.97607985      78.79139349
O      70.45457935      88.38615045      76.55773697
O      70.90622393      85.88037336      79.72491828
C      74.50237312      92.56622506      77.93156801
O      74.33796692      94.86035281      78.01660569
N      75.18267459      91.39081529      75.79617728
H      75.69856986      89.56344995      75.58452793
C      75.31117597      92.89314771      73.36976868
H      76.43934258      94.60335002      73.56818995
C      76.46957821      91.32845432      71.25138549
H      76.37131243      92.49252574      69.55441126
C      79.21724026      91.05255428      71.62933075
H      80.32650961      92.52465109      72.54773775
H      79.90321091      90.69350628      69.72259691
H      79.49691975      89.35180060      72.75371791
O      75.16944650      89.11936427      70.59187101
H      76.01982334      88.36347374      69.17646600
C      72.61264679      93.85879785      72.62710625
O      72.28572414      95.35924055      70.93580119
N      70.57552183      92.98763403      73.91212015
H      70.88543695      91.72718658      75.31240734
C      68.00360432      93.83045196      73.49071118
H      67.77872690      94.48429726      71.55185198
C      66.22726159      91.64592835      74.16912292
H      66.33686572      91.51175777      76.21947597
H      66.82441510      89.90549042      73.24126730
C      63.43802555      91.92182838      73.25260565
H      62.60087679      93.56966974      74.16156401
H      62.25694661      90.30611239      73.74015504
C      63.64400571      92.37347297      70.33486824
O      65.06319018      90.99586249      69.03095708
O      62.19458564      93.99674789      69.40890234
C      67.42156861      96.10946189      75.12721416
O      65.64333616      97.42660113      74.62265724
N      68.95980583      96.66126198      77.06796309
H      70.60953690      95.71072965      77.19079530
C      68.62910374      98.74563011      78.73470169
H      66.82441510      99.65836791      78.33785916
H      70.18434849     100.09111524      78.61564893
C      68.21147422      98.20327866      81.54661445
O      68.61020647      99.87379671      83.18311743
N      67.44991452      95.98851941      82.25148237
H      67.20047064      94.81688909      80.76426776
C      66.67701644      95.04176653      84.76670809
H      65.59609299      96.62724690      85.50937052
C      65.09909497      92.69283672      84.48891832
H      64.53973598      92.01820444      86.35407819
H      66.39166778      91.35491049      83.60641612
C      62.85787957      93.06133336      82.78627490
C      62.25883632      91.40593311      80.64143555
H      63.26228100      89.71651778      80.09341491
C      60.16501958      92.08812430      79.14099284
H      59.64723456      91.00531112      77.48937206
C      58.62111317      94.10446228      79.82507378
O      56.36289024      94.61468838      78.66856128
H      55.55030791      96.09812354      79.32240658
C      59.27495848      95.75041389      81.81495559
H      58.02206993      97.30187920      82.24959263
C      61.37066497      95.11546585      83.35130308
H      61.88089107      96.24363247      84.97457798
C      68.70658251      94.47106919      86.65076522
O      70.87787804      93.85312869      85.95156649
N      68.40800576      94.82633773      89.11307860
H      66.77150277      95.48018303      89.84251296
C      70.46591771      94.32556025      91.12185768
H      72.09864125      95.07389188      90.11274382
C      70.05584709      96.08111600      93.39897789
H      71.46369320      95.62569197      94.83139042
H      68.17556941      96.01686530      94.23801637
C      70.46024852      98.81177053      92.81694217
C      68.47036672     100.65992286      93.27047649
H      66.64300137     100.20071936      94.04715400
C      68.83697362     103.20727392      92.60340310
H      67.43479670     104.64535566      92.96812028
C      71.18023425     104.01796651      91.61129679
O      71.56006924     106.51240526      91.15965220
H      70.18812793     107.60466707      91.62830433
C      73.10586536     102.19060117      91.33350703
H      74.98803277     102.90491771      90.99902547
C      72.80539888      99.59789668      91.82105641
H      74.25859841      98.16548412      91.87963792
C      70.72103075      91.53821394      91.81349751
O      68.81051745      90.25320005      91.58295089
N      72.93956945      90.62547613      92.49001952
H      74.27371622      91.98985853      92.41065101
C      73.71624697      87.90049079      92.51269624
H      72.13454605      86.70996322      93.07772440
C      74.88976701      87.28255028      89.91999173
H      76.60563849      88.41071689      89.73101911
C      75.23558693      84.41772520      89.62141499
H      73.45357501      83.52388466      90.14108972
H      76.61697685      83.41428052      90.77225830
H      75.49447943      83.80356414      87.66932770
O      73.38554486      88.08190452      87.89420514
H      72.62965433      89.67305407      88.32128327
C      75.76282056      87.75876132      94.63296917
O      76.74358851      89.60313421      95.59106041
N      76.24281104      85.53455345      95.38885968
H      74.98425332      84.15316352      95.00524524
C      78.16277299      84.77110402      97.37874149
H      79.73313555      86.10336107      97.36173396
C      76.92311252      85.19062326     100.10183711
H      76.22580350      87.12759273     100.09994739
C      74.81039850      83.21019008     100.44954676
H      73.64632710      83.34436066     102.14463126
H      75.77415892      81.39038365     100.50434882
H      73.39877294      83.65049631      99.01902394
C      78.56150523      84.80133964     102.47911282
H      79.37975672      82.91350305     102.53958406
H      77.53538385      85.00165064     104.25545555
C      80.76114667      86.75909610     102.32415526
H      80.18666986      88.73386009     102.22211004
H      81.97435096      86.35847413     100.71032899
H      81.95923315      86.48130633     103.97766578
C      78.79583129      82.09147210      96.98756814
O      77.35019067      80.69118491      95.84806319
N      80.89909668      81.23164664      98.07794023
H      81.96868177      82.60547766      98.86028692
C      81.84584957      78.65783939      97.89085732
H      80.79894118      77.37660496      99.12106916
H      83.74691423      78.59547842      98.68076292
C      81.85718793      77.72431459      95.15453362
O      82.21812564      79.16617577      93.33661692
N      81.40554334      75.27144984      94.60084382
H      80.81783845      74.25099764      96.10128651
C      81.45089677      74.22076202      92.06294137
H      83.01181070      75.12405119      91.06894533
C      82.22946401      71.42585680      92.09884618
H      80.76492612      70.64728956      93.32338882
C      82.19355921      70.45075802      89.35874302
H      80.45312128      70.86460809      88.33451136
H      82.75291820      68.47221457      89.22079301
H      83.54282380      71.53924037      88.24380450
C      84.90531646      71.01011700      93.04937852
H      85.19444459      72.14773225      94.74068356
H      86.23568378      71.65829313      91.61696597
C      85.19633432      68.16796863      93.60117860
H      86.82149895      67.91285559      94.84083906
H      85.36074050      67.00767667      91.90609410
H      83.59384640      67.44420345      94.67076368
C      78.92055323      74.73854703      90.71556652
O      77.23113790      73.15117693      90.66454391
N      78.48969564      77.05535149      90.09006711
H      79.85785749      78.35926265      90.34518015
C      76.39398915      77.85659544      88.57261687
H      76.42233505      76.81724596      86.79249470
H      76.58674124      79.83702861      88.04538324
C      73.83529972      77.62037965      89.97101435
O      71.91722752      77.66951253      88.71812580
N      73.78238738      77.62982829      92.47112227
H      75.35463967      77.61660020      93.55393543
C      71.46369320      78.02667080      93.98101358
H      70.12576698      76.52622811      93.53314844
C      72.14966386      77.53156252      96.65308660
H      73.42144967      78.92807027      97.47700726
H      73.02649687      75.70041772      97.00268596
C      69.72514499      77.37660496      98.13085256
N      68.36832150      75.13349983      98.27636150
H      68.67634689      73.55935781      97.24457093
C      66.23482050      75.74388142      99.57271375
H      64.79295931      74.40595520     100.11695493
N      66.25560748      78.32146812     100.12640355
H      64.79295931      79.48931898     100.50812828
C      68.44580027      79.31357442      99.23256301
H      69.05051270      81.25999253      99.31760069
C      70.25426837      80.64961093      93.73156972
O      71.34086099      82.46752765      94.67643286
N      68.06785501      80.81023767      92.59017501
H      67.11354323      79.21908812      92.14797907
C      66.77717194      83.15160857      92.00813931
H      68.31351943      84.29867244      91.25413851
C      64.87043809      82.60169821      89.95400681
H      63.75360984      81.04078427      90.70044870
H      65.70380739      81.70218848      88.29860657
C      63.05441110      84.81078827      89.31338960
H      62.15868083      85.48164112      91.04248917
C      64.52083873      87.12192355      87.99247089
H      65.62443889      88.15938329      89.38897864
H      63.17346387      88.49386485      87.25169818
H      65.83041907      86.39248919      86.58273506
C      61.01728614      83.95285252      87.45956808
H      59.57353524      85.42116988      87.47468588
H      60.07053326      82.33902625      88.32506274
H      61.61821911      83.47664149      85.54905478
C      65.60365190      84.06245666      94.55549038
O      64.53028735      82.70941262      96.07105089
N      65.89089030      86.51721113      94.95422264
H      66.71292124      87.58112705      93.59928887
C      64.77028259      87.85891682      97.21055585
H      64.67579628      86.67594814      98.89430200
C      66.41245477      90.05288907      98.22911833
H      65.47704024      90.96184743      99.82215761
H      66.54095616      91.35302076      96.63796878
C      68.95980583      88.93039163      99.00768557
H      69.96891969      87.86458599      97.56204494
C      70.78906091      91.08090017      99.75601719
H      72.52005020      90.11713975     100.31726592
H      70.02372175      91.98607909     101.43787362
H      71.14055000      92.55299697      98.35573000
C      68.82563527      87.24475576     101.29236468
H      70.61709581      86.59280019     102.07093194
H      68.15856188      85.38526507     100.71032899
H      67.45747342      87.94395449     102.66430600
C      62.21915207      88.83590532      96.66442495
O      60.32942576      88.01954355      97.74156894
N      61.86766299      90.45729049      94.74257329
H      63.28306800      90.76153643      93.50102311
C      59.38456260      91.58734684      94.03959511
H      58.13923296      89.95651302      93.87896837
C      58.39056657      93.42982998      95.90286525