 %block lattice_cart
   137.793   0.000   0.000
   0.000 143.498   0.000
   0.000   0.000   162.326
 %endblock lattice_cart

 %block positions_abs
N      86.07600192      37.51849756      80.32018207
H      84.64169964      37.95313461      79.13910312
H      85.82466832      35.99915761      81.44645895
H      87.38369252      36.89110843      79.08052161
C      86.89614314      39.73325680      81.80172750
H      88.48540296      38.90933613      82.82028998
C      87.82588848      41.89888316      80.12554026
H      86.23662865      42.74737027      79.12776476
H      89.14113800      41.02205015      78.80273184
C      89.16003526      43.91144168      81.74314598
H      90.81354578      43.25759637      82.78249545
H      87.81077067      44.86764319      82.97335781
S      90.21072309      46.41910850      79.51704838
C      91.99840418      48.18978205      81.71857954
H      90.56599164      49.16110138      82.83351806
H      93.23428519      49.50881102      80.73025268
H      93.27396944      47.07862298      82.89398931
C      84.62091265      40.55528775      83.50626063
O      82.44016849      40.24348291      82.69745777
N      85.30121413      41.59652695      85.69645343
H      87.16070482      41.85352972      86.04227334
C      83.41337754      42.47713941      87.52570850
H      81.86947114      41.11464674      87.58806947
C      84.97618120      42.18423183      89.97479380
H      86.58244857      43.45790736      89.79904925
H      85.52231211      40.23970345      90.37541578
C      83.56455565      43.04972648      92.35395923
O      81.30255325      43.33129570      92.28214963
N      85.06688806      43.49192244      94.26825198
H      84.14281190      44.07962732      95.83105564
H      86.91504040      43.77349166      93.87707864
C      82.54599316      45.27960353      86.95690088
O      84.05210503      46.86886336      86.08762677
N      80.14604075      45.87108787      87.64287153
H      79.01598441      44.34985818      87.86019006
C      79.07267620      48.33340125      86.77548715
H      79.61502765      48.72268487      84.82528960
C      76.08312917      48.33529098      86.90776799
H      75.39337907      46.47391056      86.35218846
C      75.28944412      48.76236912      89.66298896
H      73.25798833      48.98157738      89.92377119
H      75.99431204      50.58217556      90.32439317
H      76.13415178      47.12019696      90.57383704
C      74.60725292      49.86785902      85.04827730
H      75.11936875      51.79915931      85.55283423
H      72.64382728      49.38597881      85.44511983
C      75.11180985      49.54093637      82.23636455
H      74.45985427      51.18499826      81.18000754
H      74.45229536      47.67388677      81.66566720
H      77.09791220      49.89998436      81.81873503
C      80.32745447      50.52926323      88.28159902
O      80.93405662      52.55316011      87.17043995
N      80.89626209      50.08328782      90.66832336
H      80.32745447      48.43544647      91.44500087
C      82.44205822      51.87663809      92.11774344
H      81.41215738      53.64164246      92.37474622
C      82.94094596      50.74658175      94.82572125
H      83.91415501      52.11852306      96.01813855
H      84.20517287      49.12330685      94.73690411
C      80.49752984      50.10407481      96.18821392
C      78.95929262      52.10151552      97.08583392
H      79.45629064      54.07816924      97.01969350
C      76.66327515      51.64798120      98.37840671
H      75.81100858      53.18999788      99.40641783
C      75.98864286      49.09118150      98.70532937
H      74.38615494      48.70567733      99.91097475
C      77.45884993      47.13909422      97.70377442
H      76.82957107      45.25314736      98.16108819
C      79.69250643      47.63798197      96.32427421
H      80.92082853      46.14131873      95.67798781
C      84.97807093      52.47568133      90.77414803
O      85.57900390      54.70177893      90.34518016
N      86.41804238      50.55571940      90.17510479
H      85.93805189      48.82850955      90.83083982
C      88.97862153      50.78248655      88.99780530
H      90.09544978      52.03915455      90.19211233
C      90.21639227      48.32773207      88.61797031
H      91.57888494      48.57528622      87.09296117
H      88.78397972      46.96901885      88.02837570
C      91.51274452      47.32806685      90.85540626
H      90.36568065      47.85152104      92.48435034
H      93.28908725      48.29371700      91.25035906
C      91.64691509      44.50481574      90.70422816
O      92.86200911      43.40688475      88.97512858
O      90.31087858      43.30672926      92.30104689
C      89.13357909      52.33773131      86.60352206
O      91.04220267      53.56038423      86.08195760
N      87.04921097      52.14308950      85.17866842
H      85.62435733      51.00358453      85.74369659
C      86.83000271      53.41865476      82.81651053
H      88.60445572      53.26369720      81.78283023
C      84.77398049      52.01458811      81.16866918
H      82.86724664      52.54749093      81.73558708
H      84.96673257      50.03415493      81.70157200
C      85.36546482      52.11474360      78.37754342
H      86.60323556      50.56516803      77.82196388
H      86.57299994      53.67565754      77.78227963
S      82.46662466      51.67065792      76.46325066
C      81.02287375      54.78303716      77.16055967
H      82.42694041      56.28347985      77.32118641
H      80.18761472      54.67532276      79.04083735
H      79.54321805      55.38585985      75.86042797
C      86.03442794      56.20600107      83.06217495
O      87.24574250      57.93888010      82.01148712
N      83.97651598      56.64441758      84.45301351
H      83.43605426      55.14397488      85.50181162
C      82.73307607      59.15208439      84.99536497
H      82.53843426      60.15174961      83.20579415
C      80.07045169      58.93854532      86.06306033
H      79.43928310      60.77346957      86.75658989
H      80.25186542      57.67431842      87.67877633
C      77.85191300      57.85006296      84.51159503
H      78.41694117      55.94710857      83.96168467
C      75.55967498      57.81604789      86.34651928
H      74.36347823      59.49223513      86.40699052
H      75.93006134      57.19810739      88.27592984
H      74.15938779      56.52536482      85.56606231
C      77.07901494      59.27302688      82.14754741
H      75.64093322      58.34328153      80.99859381
H      78.78165835      59.38263100      80.99292463
H      76.37036757      61.12873812      82.69556804
C      84.53020579      60.86039698      86.44856450
O      84.40926331      63.16964253      86.10463431
N      86.28009236      59.82104751      87.97735309
H      86.00041286      57.94643901      88.20223052
C      88.28887143      61.29881348      89.33795603
H      87.53487063      63.12617883      89.92188146
C      88.93704755      59.95332835      91.82105641
H      90.69260330      60.64496818      92.65064626
H      89.19971951      58.00124107      91.22579262
C      86.77331093      60.13852153      93.79771013
H      85.14625657      59.32027003      92.83394971
H      86.34812250      62.08871908      94.30793624
C      87.37991307      58.70232953      96.26569270
H      87.88635972      56.74835252      95.85751181
H      85.66782103      58.75713159      97.41086684
N      89.47939901      59.81348860      97.59228057
H      90.48662313      61.00023673      96.49057013
C      90.07466279      59.52247075      99.94498983
N      88.99751880      57.96155682     101.49834486
H      89.31121336      58.30359728     103.34838692
H      87.49518638      56.95622242     100.88607353
N      91.97761719      60.63551955     100.89363244
H      92.64847003      60.40686266     102.66619572
H      92.93003925      61.94698961      99.88829804
C      90.63402178      61.86384165      87.75058593
O      92.29887066      63.09216376      88.74269224
N      90.70583138      61.13629702      85.27693419
H      89.30176473      59.98167424      84.69111903
C      92.44437959      62.00557113      83.35508253
H      93.63490717      63.55325698      84.00892783
C      94.36623125      59.91364410      82.55005912
H      95.76084927      60.73945450      81.27827331
C      95.88179175      58.94988368      84.97268825
H      97.23105634      57.49857387      84.41143953
H      94.44559976      57.90108557      86.01392745
H      96.78130148      60.40686266      86.11597267
C      92.92437007      57.72534103      81.29906030
H      91.66203290      58.39052469      79.81373542
H      91.71494523      56.89953063      82.74848038
C      94.48906346      55.52003042      80.27482864
H      96.07643356      56.25702368      79.18634628
H      93.34766877      54.07627952      79.35453192
H      94.95960531      54.42776861      81.95668505
C      91.17826296      63.22633432      81.08741095
O      92.47272549      64.63418043      79.71357992
N      88.72917766      62.94854456      80.94568148
H      87.86935219      61.58605188      81.96613369
C      87.14369728      64.65118796      79.31295794
H      87.99785358      64.59638590      77.43834944
C      84.56233114      63.51735218      79.05028598
H      83.56077619      63.71388371      80.84363626
H      84.77775994      61.47077858      78.96902775
C      82.85968773      64.53024548      76.98292540
O      80.79610660      65.65841209      77.44401862
O      83.80644061      64.39607491      74.74737917
C      87.17015345      67.39507057      80.59419238
O      87.14558701      69.21298728      79.13721340
N      87.10590276      67.61427882      83.12831537
H      87.18527126      66.19131491      84.39632172
C      87.46306103      70.09926892      84.27537924
H      89.15625581      70.96665330      83.49114282
C      85.16515383      71.85104522      83.97302303
H      84.74563459      72.50111107      85.88353633
H      83.46251042      70.94586631      83.25303730
C      85.76230735      74.21131338      82.42533718
H      84.00108242      75.17507380      81.96802341
H      86.87346642      73.82391949      80.73403213
C      87.31944183      76.04623763      83.79916821
O      89.48506818      75.51900399      84.62875806
O      86.40859375      78.07769342      84.48702859
C      88.23595909      69.85927368      87.20067557
O      87.88824945      67.80325145      88.23435587
N      89.48695791      71.55624791      88.34962917
H      89.95938949      73.08692623      87.31405915
C      90.23717926      71.64506505      91.06705561
H      91.50329589      73.25889132      91.24468988
H      91.32755134      69.98210589      91.60940706
C      88.32855568      72.19686513      93.13252647
O      86.63158145      73.80313250      92.83961889
N      88.74429547      71.00255810      95.36240352
H      90.16536966      69.73266202      95.26791720
C      87.52920145      71.69419793      97.70566415
H      85.52231211      71.65640341      97.24268120
C      88.00163303      69.40762909      99.50468360
H      89.83088810      69.59471200     100.43820840
H      87.79565286      67.66341171      98.42942932
C      86.00041286      69.37550375     101.66842023
H      86.51252869      70.96665330     102.87217589
C      83.26975834      69.59093255     101.05425917
H      81.99041363      69.05425027     102.57359913
H      82.86157746      68.44575840      99.38941029
H      82.87858499      71.53924037     100.51757690
C      86.66559653      67.06625819     103.31815130
H      88.68571395      67.18909040     103.69798629
H      86.22529029      65.27101819     102.40919294
H      85.60357034      67.15885478     105.08126595
C      88.06966318      74.30202024      98.78091842
O      90.28064296      74.94263746      99.07193627
N      86.23662865      75.79112458      99.58972128
H      84.53776470      75.01066761      99.19665821
C      86.65236844      78.39138799     100.71221871
H      88.63280162      78.61815514     101.23378317
C      85.87569093      80.63071367      98.79603623
H      85.42971552      82.36170297      99.82026789
H      84.16359889      80.00710398      97.83605526
C      87.87691109      81.36770693      96.90064074
H      89.73451206      81.52833367      97.77747375
H      87.61801859      83.18562364      95.96900567
C      87.96761795      79.43073746      94.71044794
H      86.24040810      79.84647725      93.66731902
H      87.86746246      77.50888580      95.44555148
N      89.97261757      79.95230192      92.76402984
H      91.18582187      81.37148638      93.15898264
C      90.00285319      79.44396554      90.37352605
N      88.39280638      77.71675569      89.52881839
H      88.63280162      77.00054942      87.77515237
H      87.44416377      76.83992268      90.93477477
N      91.63179728      80.39260815      88.82772993
H      91.46739109      80.00899371      86.96445978
H      93.21727765      81.28644870      89.40976563
C      85.00263737      78.77689215     103.10650195
O      82.80866512      78.19863590     102.97611083
N      86.17426768      79.73120394     105.09638376
H      88.08100153      79.70096832     105.03024334
C      85.27664769      80.43985131     107.56814577
H      83.40581864      79.59136419     107.71365470
C      86.85834861      79.16239632     109.62605773
H      86.52386705      77.17629397     109.20086931
H      85.95694916      79.75577038     111.38161347
C      89.67404082      79.54979022     109.82069954
H      90.58866835      79.13027097     108.02356982
C      90.53008684      82.11981800     110.89595381
H      89.94994086      82.44485093     112.84615137
H      89.77230658      83.39349354     109.46921045
H      92.55776317      82.06690566     110.53879554
C      91.04598212      77.57691594     111.62349844
H      92.99995913      77.25944192     111.04902164
H      90.00474292      75.81191157     111.42507718
H      91.04598212      78.22320234     113.57936518
C      84.87413598      83.25932297     108.16907874
O      83.42660562      83.62781960     109.89250914
N      85.69616693      85.02432734     106.60249563
H      86.61646364      84.35158478     105.07370704
C      84.85523872      87.70773871     106.60627508
H      83.65904196      88.04788945     108.24844725
C      87.07188768      89.45006637     106.56470110
H      88.22840019      89.05889302     104.90552140
H      88.26619471      89.01164986     108.18419655
C      86.47284444      92.23741268     106.33982367
H      84.93649695      92.24875104     107.70987525
H      85.52420183      92.82511756     104.60883437
C      88.58933791      94.07611638     107.29791491
H      88.92192974      93.80210607     109.31425289
H      87.96005905      96.03576257     107.20720805
C      90.97228279      94.05721912     105.84093592
H      90.61323479      94.75452813     103.93609180
H      91.79620347      92.17505171     105.69731672
N      92.96972351      95.69561183     107.07681693
H      94.76685323      95.42727070     106.49478123
H      92.93759816      95.29498986     108.94197680
H      92.58988852      97.56266143     106.97099226
C      83.16960285      88.01576410     104.22899938
O      83.62124744      86.75720637     102.28825046
N      81.15893405      89.36124923     104.46899462
H      80.63736959      89.99619727     106.19242502
C      79.57534340      90.27776649     102.43942856
H      78.46418433      88.73386010     101.65330241
C      77.58924104      92.34890653     103.26523896
H      78.74008437      93.98351979     103.76412671
C      75.75998597      93.06511281     101.08071534
H      74.83590981      94.80177129     101.69109694
H      74.53166387      91.48530161     100.59694541
H      76.73130530      93.40904300      99.29681370
C      76.21163056      91.57411875     105.70865508
H      77.58735132      90.99775222     107.12972927
H      75.29322357      89.85446780     105.05103033
C      74.38615494      93.50352931     106.68375386
H      73.53010892      92.85157373     108.44119933
H      72.82146156      93.68683276     105.35527626
H      75.23653178      95.37624809     106.77257100
C      81.22318474      91.40593310     100.33994263
O      82.89181308      92.79488194     100.78213858
N      80.56933944      90.64815285      97.98534364
H      78.92527755      89.67872325      97.91920322
C      82.05466432      91.27176254      95.78003303
H      82.96173295      93.11991487      95.74223851
C      83.88958857      89.04377521      95.40775695
H      84.61524348      88.65260187      97.29559354
H      85.51097375      89.67872325      94.30415678
C      82.95795350      86.55878511      94.19266293
C      83.27731725      85.94462406      91.65665022
H      84.16548861      87.32790372      90.44533565
C      82.54221371      83.79978469      90.64564664
H      82.55544179      83.67695248      88.60852168
C      81.33278887      81.95541181      92.07616946
O      80.61091342      79.72553476      90.97445902
H      81.17783131      79.54790049      89.26047725
C      80.88492373      82.28233446      94.64430752
H      79.78510302      80.96330550      95.74790769
C      81.60679919      84.68606633      95.60050903
H      81.17405186      85.03566570      97.56582440
C      80.28588049      91.39081529      93.48401556
O      78.05222399      90.50831310      93.63519367
N      80.99641759      92.34512708      91.24091043
H      82.78409868      93.01409020      91.17477001
C      79.14259607      93.06133335      89.36252247
H      77.23397250      92.97629567      90.13164108
C      79.43928310      95.75986253      88.18144353
H      78.72874601      95.87891529      86.25392269
H      81.45562108      96.17182286      88.06805995
C      78.37536719      97.69494227      89.89164584
H      79.06511729      97.61179432      91.82861531
H      76.31745524      97.60045596      89.96156572
C      78.89693165     100.45961187      89.34929439
H      78.47174323     100.68070985      87.34429477
H      80.89626209     100.80732151      89.70078348
C      77.15082454     102.01296690      91.02359190
H      77.86892054     102.05643060      92.95300247
H      75.39337907     100.95472016      91.20311590
N      76.73886420     104.67748100      90.10707464
H      75.18928863     105.55431401      90.79682475
H      76.85791696     104.75684950      88.20412024
H      78.16371784     105.73950719      90.80627338
C      78.90449056      91.09223854      87.15343241
O      80.76587098      90.01131508      86.20478981
N      76.55934020      90.49508502      86.42399806
H      75.10803039      91.28121117      87.38397903
C      75.90738463      88.88503820      84.24892307
H      76.79177654      87.02554751      84.35474775
C      73.03122118      88.63937378      84.18467238
H      72.09202720      90.39115007      84.71946492
H      72.76288004      87.36758797      85.78149111
C      71.92762101      87.36191879      81.66566720
O      71.21708392      88.59213062      79.81940459
O      71.64227234      85.05834242      81.86219874
C      76.65193679      90.40626788      81.75448434
O      77.17350126      92.71929289      81.87542682
N      76.75965119      89.13448208      79.51893811
H      76.07557027      87.35624961      79.39043672
C      77.81978765      90.46295967      77.15489049
H      79.63581464      91.31522624      77.61976317
C      78.50575831      88.76409572      74.71336410
H      79.80400028      89.82234245      73.51527761
C      79.94006058      86.31123096      75.40122447
H      81.13436761      85.88415282      73.77983930
H      78.83835014      84.63504372      75.87932523
H      81.25531009      86.70996322      76.93379251
O      76.12281343      87.87592435      73.73070641
H      76.27777098      87.05956258      72.11876987
C      76.09068808      92.53032026      76.31207256
O      76.51587650      93.86635676      74.43746405
N      73.85514185      92.89692716      77.41189327
H      73.05956707      91.35680022      78.20746805
C      72.28477928      95.16837819      77.02071992
H      72.76665949      96.14158724      75.27083336
C      69.35003432      94.15359516      76.62009795
H      68.20863963      95.86757693      76.66167193
H      69.18184868      92.71740316      78.08841529
C      69.09492127      92.82322784      74.10298250
H      70.14371937      91.06389264      73.88566397
H      70.14371937      93.82856224      72.64411378
C      66.33214140      92.43394422      73.33197416
O      65.31168919      94.04021158      71.92034861
O      65.23987959      90.53476927      74.33541883
C      72.51910535      97.09211958      79.10697777
O      71.14905377      98.97239726      79.11453668
N      74.03844530      96.75952775      81.07040341
H      75.20440644      95.25530560      80.92489449
C      74.43717755      98.38091292      83.17366880
H      74.04600421     100.33866938      82.66344270
H      76.27210180      98.10123343      84.06372989
C      72.66272455      97.77809023      85.35063351
O      72.68729099      99.21995141      87.17988858
N      71.14527432      95.78442897      85.48669381
H      71.52132985      94.27264792      84.38120391
C      69.37271104      95.11357613      87.49169342
H      68.32958211      96.76519693      88.14553873
C      67.21275386      93.41282245      86.59974261
H      65.84648173      92.94794977      88.07183940
H      67.88927588      91.53821395      86.08006787
C      65.51577963      94.37847259      84.52104366
C      64.81847062      92.84212510      82.50281596
H      65.36082207      90.88436864      82.32329196
C      63.65061976      93.93249718      80.32018207
H      63.60715605      92.85724291      78.58730304
C      63.07614296      96.60268046      80.25404165
O      61.83648250      97.67415528      78.18668106
H      61.84404140      99.48640282      78.15455571
C      63.63550195      98.10879234      82.43856526
H      63.04779707     100.04954126      82.66344270
C      64.89028022      96.95227983      84.45490324
H      65.30035083      98.17304303      86.03849389
C      70.92984552      94.00619651      89.72912938
O      72.94051431      93.09345870      89.36441220
N      69.76766383      94.13847735      91.87585847
H      68.02533617      94.91326514      91.80215914
C      70.94874278      93.21440118      94.24368554
H      72.99909583      93.39014573      94.17565539
C      70.27977967      94.73563087      96.55671055
H      71.38526956      94.14036708      98.18943408
H      68.36548691      94.26508901      97.15386406
C      70.87315373      97.49274156      96.23545708
C      68.96075070      99.23884867      95.36807270
H      67.14283399      98.36579511      95.06193703
C      69.59380901     101.72950795      94.78792672
H      68.07257933     103.03719856      94.40998146
C      72.05423267     102.70082728      95.48901518
O      72.67406290     105.11022833      95.09028293
H      71.48542505     106.00406887      94.05093346
C      73.88348774     101.03975785      96.40175299
H      75.84313393     101.57455039      96.61151261
C      73.34302602      98.36579511      96.74001400
H      74.68284197      96.92393394      97.28236545
C      70.73898316      90.37036308      94.22100883
O      68.69618901      89.19306359      94.11896360
N      72.92539650      89.16849715      94.68777122
H      74.52599469      90.20595689      94.65375615
C      73.15594311      86.34146658      94.91642811
H      71.25109899      85.70840827      95.37941106
C      73.56790345      85.04700406      92.37663594
H      73.94017953      83.03822499      92.64875653
C      71.46274834      85.15282873      90.53226306
H      72.04667377      84.18906831      88.80505321
H      71.09236198      87.12948246      90.08817738
H      69.70152341      84.31379025      91.18610837
O      75.71085309      86.10525080      91.15776247
H      76.57256829      87.18050507      92.33695169
C      74.82268172      85.38148562      97.02158322
O      76.25887372      86.93106119      97.95699775
N      74.60914265      82.96830512      97.80392992
H      73.38460000      81.93651455      96.76269072
C      76.34013195      81.67384259      99.64641307
H      78.30922677      82.19351733      99.33271850
C      75.46140922      82.15194335     102.39785458
H      75.13637629      84.17772996     102.57548886
C      73.12381777      80.52299927     103.00445673
H      73.60002880      78.51988937     103.07815605
H      71.65172097      80.95763632     101.63251543
H      72.45296493      80.91795207     104.91119058
C      77.54955679      81.47164188     104.34994186
H      79.33156870      81.96486044     103.44476296
H      77.69506572      79.44396554     104.68064397
C      77.18294989      82.80767838     106.99555870
H      75.19117835      83.15160857     107.40184986
H      78.15615894      84.62181564     106.98799980
H      77.95773767      81.50376722     108.38828699
C      76.39682374      78.72775927      99.11351025
O      74.88126324      77.78478584      97.69432579
N      78.01820892      77.42384811     100.45521593
H      79.27676664      78.30068112     101.59094145
C      78.05411372      74.68185523     100.38340633
H      76.08690863      74.07336336     100.28136111
H      79.03488167      73.68974892     101.89896684
C      79.42605502      74.06769418      97.92487240
O      81.55766630      74.95775527      97.58661139
N      78.12970277      72.71087069      96.19010364
H      76.51587650      71.83592741      96.71355783
C      78.87803439      72.46709599      93.48590529
H      80.50886820      73.64817494      93.05693742
C      79.72841123      69.80447162      92.84906752
H      78.39993363      68.40985360      93.57472243
C      80.02320854      69.25078181      90.03148559
H      78.56245010      70.12761482      88.87497309
H      79.90982496      67.20609794      89.79338007
H      81.89025813      69.91218602      89.46834715
C      82.36079998      69.13361878      93.99802112
H      82.24741641      70.17107852      95.77247413
H      83.80833034      70.15029153      92.94166411
C      82.92960760      66.34627247      94.13597114
H      84.95350449      65.97021693      94.10951497
H      82.20395270      65.35605588      92.48057089
H      82.26064449      65.52613125      95.90286524
C      76.56122993      73.37416462      91.98357287
O      74.77921802      71.97765688      91.89853519
N      76.53099431      75.73821224      90.92343641
H      78.05411372      76.86259940      91.17099056
C      74.47497208      76.63205279      89.33228685
H      74.01198913      75.09381557      88.04349351
H      75.00409545      78.29501194      88.23624559
C      71.93517992      77.26133165      90.54360142
O      70.44040640      78.38760853      89.22835191
N      71.23409145      76.60181717      92.95111274
H      72.68162181      75.78545540      93.88652727
C      68.75477053      76.81913569      94.15108895
H      67.57369159      75.69852799      92.88686205
C      68.72453491      75.58514441      96.70410920
H      69.75254602      76.90417338      97.90786486
H      69.64861108      73.74833043      96.58127699
C      66.15639685      75.44341494      97.95888747
N      64.86004460      73.28345776      98.44265741
H      65.28145357      71.51089448      97.87762924
C      62.81347100      73.84848593      99.90908503
H      61.17318856      72.78079056     100.48734128
N      62.62449837      76.37505001      99.86940078
H      61.26767488      77.43140702     100.70088035
C      64.79201445      77.48620908      99.03792120
H      65.14539327      79.49687788      99.05114928
C      67.86848889      79.64616626      94.17943485
O      69.26499664      81.27322061      95.02414251
N      65.61971458      80.28300402      93.20244634
H      64.47643016      79.07168946      92.27081127
C      64.83169870      82.94562840      93.03804015
H      66.49465786      84.14371488      92.84528807
C      63.04023816      83.31979421      90.64942609
H      61.58703863      81.91194811      91.04437889
H      64.03234447      82.97208457      88.87875254
C      61.78168044      85.95785214      90.31872399
H      60.84059673      86.44351181      92.08561809
C      63.76967252      88.00820519      89.72534993
H      62.83992717      89.80344519      89.32283822
H      64.84681652      87.59435513      88.01892707
H      64.92996447      88.47496759      91.36185291
C      59.75589383      85.62715004      88.24947368
H      58.21765661      84.45363000      88.95623132
H      60.62138848      84.79000128      86.57706589
H      58.77701560      87.38270578      87.80538799
C      63.51833892      83.95852170      95.29059392
O      61.55491328      83.15349829      96.17687556
N      64.65028498      85.89360145      96.34128175
H      66.05435163      86.68728650      95.32082954
C      63.93785816      87.19940233      98.66186566
H      63.01378199      85.70651854      99.73900966
C      66.08647698      88.13670658     100.28136111
H      65.38727824      89.35369033     101.78936271
H      67.42440321      89.14771016      99.08516436
C      67.70786215      86.15816313     101.53991884
H      68.43540678      84.75409648     100.21711042
C      70.04545360      87.52254553     102.67375462
H      70.57457697      86.67216869     104.47466380
H      69.47475626      89.39715403     103.31248212
H      71.50621204      87.53010444     101.22055509
C      66.09592561      84.77299374     103.70176574
H      67.21086413      83.77710798     105.12095020
H      64.76177883      83.48042095     102.81170464
H      65.06035559      86.26587753     104.66552616
C      62.10671336      89.26487319      98.03447653
O      60.05069113      89.37258759      99.13618697
N      62.84559635      91.06956182      96.38096600
H      64.45564317      90.69539601      95.42476449
C      61.10893787      92.96117786      95.38319051
H      59.18330676      92.33756818      95.00524525
C      60.78201522      95.11924531      97.33527779