 %block lattice_cart
   137.793   0.000   0.000
   0.000 143.498   0.000
   0.000   0.000   162.326
 %endblock lattice_cart

 %block positions_abs
N      91.39369176      38.65327822      80.85119516
H      90.96472389      37.30212390      82.12865015
H      93.27018999      38.66650630      80.50537525
H      90.67181631      37.76510685      79.32618603
C      90.42993134      41.24220327      81.43323087
H      91.54109041      42.33068562      82.78060573
C      90.27875324      42.64815964      78.89154897
H      88.94460646      41.72408348      77.62165289
H      92.16658982      42.66327745      78.06951803
C      89.46995037      45.38826280      79.29028123
H      87.45361240      45.33912991      79.70602101
H      89.64191547      46.47863488      77.55173302
S      90.93070881      46.91705138      81.82818366
C      93.71238595      48.31922831      80.47136017
H      93.31365369      49.40582094      78.76682704
H      94.94448750      46.76776301      79.90444228
H      94.47016620      49.66093399      81.83952202
C      87.74840970      40.91717034      82.73903175
O      86.55788212      39.01799540      82.21557756
N      86.62213282      42.78799939      84.01081756
H      87.50652473      44.46607636      84.22246690
C      84.01242078      42.94862613      85.03504922
H      82.79354731      41.75053964      83.88609562
C      84.11446600      41.71652457      87.60507700
H      85.67160048      42.57823977      88.63875730
H      84.33178453      39.66995097      87.51625987
C      81.84301497      42.47808427      89.29260260
O      81.56144575      44.64371063      90.00124997
N      80.08179005      40.73008744      89.50425195
H      78.53032475      41.38771219      90.39998222
H      80.38036681      38.86114811      89.24535944
C      83.09590352      45.71518545      85.01426223
O      84.64547910      47.46507201      85.32606707
N      80.71862782      46.29155197      84.81962042
H      79.65282218      44.71552023      84.95001153
C      79.71329342      48.92772018      84.42466762
H      80.54666272      49.64392645      82.68233996
C      76.78043818      48.73874755      83.96924358
H      76.20029220      47.31200418      82.60297145
C      75.34802564      47.89215016      86.34840901
H      75.74864761      49.20550995      87.88286677
H      76.32123469      46.13659442      86.81706113
H      73.33924657      47.55766860      86.03093498
C      75.65038185      51.25586300      83.09996947
H      76.10202644      52.77331323      84.42088817
H      73.60191852      51.03287529      83.02438042
C      76.66705460      52.18938780      80.63954581
H      75.58991060      53.77108872      79.87420666
H      76.79744572      50.56422317      79.37909836
H      78.53410420      53.02653655      80.87576160
C      80.38225653      50.65115058      86.59029397
O      80.95484361      52.80921803      85.96668429
N      80.42005106      49.88014224      88.95056214
H      80.12336403      48.04143854      89.36441220
C      81.06633746      51.59601374      91.03493026
H      80.24619624      53.47629142      90.84784736
C      80.32367502      50.58689988      93.64653203
H      80.91704908      51.78876582      95.20933569
H      81.19861830      48.75197563      93.97345468
C      77.49097528      49.95951075      94.02636701
C      76.14171069      51.41837946      95.79137139
H      77.00531561      53.00197011      96.74757291
C      73.53577810      50.98374241      96.23923653
H      72.35469916      52.09490148      97.47889699
C      72.29044846      49.13370035      94.71611712
H      70.30056665      48.85213113      95.06004731
C      73.75498635      47.39326241      93.25157923
H      72.85547663      45.96273960      92.10640508
C      76.31934496      47.86380427      92.79993464
H      77.38515060      46.73752738      91.47145704
C      83.91604474      52.15726245      91.12185767
O      84.64925855      53.68038186      92.74702230
N      85.46184086      50.82122595      89.63275334
H      84.77209076      49.27542982      88.75403060
C      88.13580360      51.35790822      89.37008138
H      88.70461122      52.41237550      91.04437889
C      89.87246208      48.92772018      89.38708892
H      91.81132128      49.54944014      89.06772517
H      89.34144898      47.62947820      87.87908732
C      89.76096823      47.62002957      91.91554272
H      90.84945058      45.89470945      91.63019405
H      87.82210903      47.51609463      92.59962365
C      91.01952595      49.04866267      94.17943485
O      93.22861601      49.42282848      94.13219169
O      89.84411618      49.33212161      96.16553720
C      88.87657631      53.10401533      87.02304130
O      90.20694364      54.96728548      87.49358315
N      87.91281589      52.77331323      84.71379574
H      86.94527602      51.17271504      84.33207103
C      88.21895155      54.56099432      82.56895638
H      90.22584090      54.80665874      82.17589331
C      87.02086507      53.47251196      80.25593137
H      87.98084604      51.65459525      80.14632725
H      87.28164730      54.60445803      78.55328796
C      84.17115779      52.70339335      80.40144030
H      83.20550765      54.39658813      81.06662396
H      83.79888171      51.16704586      81.72235899
S      82.73685552      51.30688561      77.53661521
C      82.53654453      54.08478329      75.39744502
H      80.60713397      54.80476901      75.43334982
H      82.86724664      53.57077773      73.43023993
H      83.94250091      55.43404788      76.06640814
C      87.15881509      57.12157347      82.79005436
O      88.23784882      58.92815183      81.72802817
N      85.04799080      57.52030573      84.18278265
H      83.89525775      56.06899592      84.64009642
C      84.01620023      60.21883490      84.49080804
H      84.26186465      61.14291107      82.66533242
C      81.22129502      60.36623355      85.44511983
H      80.74886344      62.31832084      85.89676442
H      81.12113952      59.24184640      87.17043995
C      79.37125296      59.18893406      83.51759899
H      80.33690310      57.51841600      82.79383381
C      76.72374639      58.74673810      84.53616147
H      76.89004231      57.89636126      86.40321107
H      75.76565515      57.59211533      83.12642564
H      75.58991060      60.46449932      84.52104366
C      79.22196458      61.03708639      81.14599247
H      80.74508399      60.64213360      79.81562514
H      79.48274681      62.99862231      81.71668981
H      77.31334100      60.76496581      80.42033756
C      85.81332996      61.90069132      85.99125073
O      85.25775042      64.13434782      85.94400757
N      87.75218915      60.84433431      87.27815435
H      87.93360288      58.94326964      87.23847010
C      89.64758465      62.33721810      88.77670732
H      88.57988928      63.59199637      90.01447805
C      90.92314991      60.70071511      90.80249392
H      92.11367749      61.88179406      91.99869068
H      91.95116102      59.20594160      89.82550542
C      88.91248111      59.12279364      92.20089140
H      87.82399875      57.86423592      90.98579738
H      87.57077543      60.39646917      93.10796003
C      90.21639227      57.29731802      94.03203619
H      91.53542123      58.39335928      95.17154116
H      91.25385201      56.05765756      92.75647093
N      88.34934267      56.03876030      95.83294537
H      86.97173219      54.88224779      95.18854870
C      88.14147278      56.88724741      98.17998545
N      89.45483256      58.75618674      99.26279863
H      88.94838591      59.30231764     101.02024410
H      90.94771635      59.54987179      98.38029644
N      86.56922048      55.84789794      99.70310486
H      86.38213758      56.53386859     101.47188869
H      85.76230735      54.20194632      99.16642259
C      91.58266439      63.79041763      87.24791873
O      93.02641529      65.18314593      88.43088740
N      91.77730620      63.42947991      84.69489848
H      90.39024709      62.31454138      84.00514838
C      93.36845576      65.14724113      83.05650577
H      94.40024632      66.43603447      84.28860732
C      95.42069853      63.61845254      81.52204800
H      96.36745142      64.98661439      80.30506426
C      97.42191870      62.41847633      83.31161882
H      98.28741335      63.63168062      84.73458273
H      99.04141415      61.71738787      82.24959263
H      96.69437407      60.76874526      84.30750459
C      94.08277230      61.60589402      79.82318405
H      92.60689605      62.47327839      78.67989963
H      93.19271121      60.07710543      80.87954106
C      95.69659857      60.28875477      77.91078102
H      96.80964737      61.66258580      76.85253428
H      94.73472788      58.90169566      76.73159180
H      96.92681040      59.15869844      79.11264695
C      91.75462949      66.76484685      81.27071440
O      92.80342759      68.42780600      80.04806148
N      89.30743391      66.18659060      80.84552598
H      88.43815981      64.84110546      81.88109600
C      87.69171791      67.41869215      78.89154897
H      88.81610507      67.26373460      77.17189803
C      85.27664768      65.80108643      78.63643592
H      84.18438588      65.97305152      80.37498413
H      85.80766078      63.81876353      78.46825028
C      83.89147830      66.45115228      76.21191706
O      81.59924028      67.01429072      76.30262393
O      85.15570520      66.38501186      74.20502772
C      87.05488015      70.11911106      79.67200594
O      86.93771711      71.68002499      77.98637007
N      86.69016297      70.68602895      82.21368783
H      86.67126570      69.26684449      83.48925309
C      86.44638827      73.24849783      83.11697701
H      87.32511101      74.52784254      81.76393297
C      83.54754811      73.88533560      83.48547364
H      82.66126647      72.55307855      84.78371562
H      82.58189796      73.72470886      81.67322611
C      83.14314668      76.66701273      84.10908332
H      83.96139817      76.92401551      85.98180210
H      81.16460323      77.24715871      84.13364977
C      84.27887219      78.51894452      82.21368783
O      86.59000747      78.92145622      82.25526181
O      82.77465005      79.78128169      80.86820270
C      88.04320701      73.56786158      85.50559107
O      88.75752355      71.68191472      86.81517140
N      89.03342359      75.76561328      85.90621305
H      88.48162351      77.01472237      84.57206627
C      90.91370128      76.31930309      87.89987431
H      92.16658982      77.88777593      87.44633999
H      92.09855967      74.68657955      88.31561410
C      89.62679766      76.72181479      90.48690963
O      87.63691585      78.01060814      90.45856374
N      91.16314515      76.07363867      92.38797430
H      92.78453033      75.17790840      91.92499135
C      90.55465328      76.54040107      95.02981169
H      88.52508722      76.34764898      95.32082954
C      92.07021378      74.58075488      96.68710166
H      93.99395517      74.44091513      95.97089539
H      91.24251365      72.74961008      96.23923653
C      92.14958229      74.80374259      99.50279387
H      93.19082148      76.54418052      99.86562132
C      89.55876751      75.14767277     100.81237420
H      88.86712768      73.21826221     100.61206322
H      88.24918717      76.47615037      99.94310010
H      89.97072785      75.50294132     102.80036629
C      93.50640578      72.55496827     100.68954199
H      92.26863504      70.93925227     101.00134684
H      94.36434152      72.95936970     102.51690734
H      94.90102380      71.82931337      99.35728494
C      91.30676435      79.11609803      95.91231388
O      93.53664140      79.75293580      96.14286049
N      89.41325858      80.48803933      96.72300646
H      87.68415901      79.70569264      96.92898663
C      89.83844700      82.70468830      98.21777998
H      91.83021854      83.18656851      98.42376015
C      88.48540296      85.05739756      96.94221472
H      88.93326810      86.65610602      98.15730874
H      86.47095471      84.64543722      97.07260583
C      89.23373458      85.68100724      94.19266293
H      91.27652873      85.92667166      94.06605127
H      88.35879130      87.50270341      93.79582040
C      88.63469134      83.93112068      91.94766807
H      86.71661914      83.20924523      92.15175851
H      90.03308881      82.41933963      91.91554272
N      88.78209000      85.27849554      89.48535468
H      88.92192974      87.17767048      89.39653755
C      88.46272625      84.43000842      87.24224955
N      88.22084128      82.05273272      86.82273031
H      88.27753307      81.40266687      85.02749031
H      88.12257551      80.92645584      88.35907780
N      88.35312212      85.87186960      85.32228762
H      88.53453585      85.25392910      83.52515789
H      88.66870642      87.75214728      85.43189174
C      88.69705231      82.46469306     100.88796326
O      86.76386229      81.13810519     101.07315644
N      89.72506343      83.90088506     102.71910805
H      91.27841845      84.86086602     102.15974907
C      89.06932839      83.73836859     105.44598312
H      87.50841446      82.39288346     105.43464477
C      91.43337601      83.05995685     106.96532308
H      91.13857871      83.53994733     108.94575626
H      92.89035500      84.35252964     106.29824969
C      92.45193850      80.37087630     106.56848055
H      93.05854064      80.01371803     104.63151108
C      94.82921420      80.15922696     108.18041710
H      94.46260729      80.57496674     110.16274000
H      96.30131099      81.50093264     107.65696291
H      95.47172114      78.20336022     108.09726914
C      90.62079370      78.43201711     107.64940401
H      89.84033673      78.97625828     109.47865908
H      91.64124591      76.65189492     107.83270746
H      89.03909277      77.94635744     106.42108190
C      88.06966318      86.23658678     106.36816957
O      87.10212330      86.19690253     108.50545003
N      87.94872069      88.20757132     104.73922548
H      89.13546882      88.22835831     103.24445197
C      86.18182659      90.38264631     105.10583239
H      84.91759969      89.85919212     106.64973879
C      87.77675560      92.79582681     105.62172767
H      89.08444621      93.20967687     104.08538018
H      88.85578932      92.17032740     107.26389984
C      86.36701977      95.24869157     106.50800931
H      85.91348545      94.81216479     108.47143495
H      84.66626609      95.57372449     105.39118106
C      87.97895631      97.71856386     106.32092641
H      86.93582739      99.18499148     107.32248135
H      88.16225976      98.13052419     104.31025761
C      90.73417728      97.70344605     107.31492245
H      91.53920069      95.94033140     106.62328262
H      90.60945534      97.66187207     109.37094468
N      92.15903092      99.92198474     106.50234013
H      91.49573698     101.37140482     107.55113824
H      91.90391786     100.49646154     104.69954123
H      93.97127845      99.48545796     106.91052102
C      84.57933868      90.56972921     102.81170464
O      85.23696343      89.78738252     100.76135159
N      82.51008836      91.99836231     103.28224650
H      82.01498007      92.33662332     105.09260430
C      80.84901893      92.88653367     101.24323180
H      79.99297291      91.23680260     100.35128098
C      78.71929738      94.71011957     102.29391963
H      79.46951872      96.45244723     103.09705332
C      76.83524024      95.17310251     100.19065425
H      75.64471267      93.50069473     100.02057888
H      77.79900066      95.77025603      98.46911358
H      75.54833663      96.74535481     100.52891526
C      77.25286976      93.56494542     104.47277407
H      78.79488643      93.33061936     105.82014893
H      76.53855321      91.67899856     104.04947538
C      75.28377494      94.99357851     105.90329689
H      73.69073566      95.11830045     104.60505492
H      76.10391616      96.87196647     106.09793870
H      74.91338858      94.05249481     107.69853689
C      82.30788765      94.23579826      98.95666297
O      83.94439063      95.88552933      99.40830755
N      81.78443346      93.40053923      96.69655030
H      80.27265241      92.23268837      96.64363796
C      82.56300070      94.40020445      94.30226706
H      83.41715699      96.25591569      94.57060819
C      84.57177977      92.59551582      93.31960937
H      85.93805189      92.39898429      94.84839796
H      85.68671829      93.67265982      91.96467561
C      83.76108718      90.21446067      92.02136740
C      83.64203442      90.24280656      89.39842727
H      84.47351400      91.92655271      88.59907304
C      82.77465005      88.08095966      88.10963393
H      82.44394794      88.25670421      86.10274458
C      82.16426845      85.83218535      89.40409645
O      81.13058815      83.86120080      88.29293738
H      81.51042314      83.69112544      86.52793300
C      82.46851438      85.71502232      92.14419961
H      81.72774167      84.17300564      93.25535868
C      83.12424941      87.97702471      93.42354432
H      83.18283093      88.01292951      95.46444874
C      80.28399077      94.85562849      92.51458596
O      78.15237948      94.25847498      93.19299771
N      80.70162028      96.01214100      90.26770138
H      82.42316095      96.79070824      89.99558079
C      78.80811452      96.05182525      88.27970930
H      77.09224302      95.55482723      89.30583068
C      78.63425969      98.67098592      87.05894610
H      77.47774719      98.47445438      85.36575132
H      80.54855245      99.35506684      86.72068509
C      77.05255877     100.42087248      88.60474222
H      77.94639932     100.83661227      90.41510003
H      75.15905300      99.69143813      88.96190050
C      76.84657860     102.99656945      87.24035982
H      75.95462778     102.73578722      85.40354585
H      78.67394395     103.85828465      86.82650976
C      75.00220572     104.83149370      88.49513810
H      74.37859604     104.12284633      90.32628289
H      73.28633423     104.89952385      87.36130231
N      76.04344492     107.54703041      88.66521346
H      74.79244610     108.76212443      89.43622180
H      76.23430728     108.31803875      86.92855498
H      77.70451435     107.64340645      89.60062799
C      79.35613515      94.14131195      86.25014324
O      81.47829780      93.93911123      85.47157600
N      77.30767182      93.07550631      85.31472871
H      75.75242707      93.66699064      86.25392269
C      76.99397725      91.54860744      82.95824000
H      78.44717679      90.10296682      82.77304682
C      74.36914741      90.24658601      82.92044547
H      72.83657937      91.61096841      82.73714202
H      74.01954804      89.33573793      84.73458273
C      74.02521722      88.13387200      80.92300476
O      75.14960437      86.10619566      81.10441849
O      72.67217318      88.62898029      79.00682228
C      77.25286976      93.24558167      80.63765609
O      76.98452862      95.46034091      80.94001230
N      77.63081502      92.08717944      78.44935302
H      77.99553220      90.21446067      78.49281672
C      77.60057940      93.18133098      75.84531016
H      78.68717203      94.93121754      75.75271357
C      78.68150285      91.27081768      74.06140852
H      77.65538146      89.48502631      74.10865168
C      78.90449056      92.11930479      71.39878414
H      77.22830332      91.35774509      70.47470798
H      80.59201615      91.29916357      70.55218675
H      79.35046597      94.12808386      71.30051837
O      81.12680870      90.71901759      74.94957989
H      81.22696420      89.03716117      75.62232245
C      74.93417557      93.87486054      74.91745454
O      74.48631044      95.26191965      73.16945770
N      72.94051431      93.25125085      76.31396228
H      73.32034930      92.10229725      77.78983853
C      70.49709819      94.36618938      76.20813761
H      70.03600497      94.78948807      74.24471197
C      68.66973285      92.24591645      76.74481988
H      68.58469516      91.92088353      78.77816540
H      69.22909183      90.43933810      75.93034784
C      65.91829133      92.62953090      75.83397180
H      65.00744325      94.21879072      76.77505550
H      64.72209458      90.97035119      76.07396704
C      65.89561462      92.96212273      72.88221930
O      65.39294742      95.03893194      71.95058423
O      66.31702359      91.20278753      71.44602730
C      70.24765432      96.75102398      77.85219950
O      68.35036910      98.11918583      77.57818919
N      72.01265869      97.39542066      79.46602577
H      73.43373288      96.12174512      79.56618127
C      71.82557579      99.48545796      81.35953154
H      70.71252699     101.02747463      80.56773621
H      73.65672059     100.32827589      81.77716105
C      70.58024615      98.81838457      83.91444151
O      70.79945440     100.29237109      85.62464383
N      69.22909183      96.71133973      84.07317852
H      69.12893634      95.53404024      82.57462556
C      68.38249445      95.85340399      86.59029397
H      67.01433260      97.16865350      87.39153793
C      66.68363049      93.46856938      86.11219322
H      65.54223580      93.02826315      87.76948319
H      67.88171697      91.79616159      86.03471444
C      64.73343294      93.43077485      83.93144905
C      63.86604856      91.11208067      82.89398930
H      64.66540279      89.41699616      83.70657162
C      62.04057294      91.01381490      80.95890956
H      61.31680776      89.26203861      80.19923958
C      60.97665703      93.29849401      80.11231217
O      59.18897593      93.15298508      78.32841053
H      58.77701560      94.76303190      77.60086590
C      61.79868797      95.66821081      81.20835343
H      60.98043648      97.39353093      80.49025743
C      63.62983277      95.67010053      83.10941810
H      64.19864039      97.52959123      83.72735861
C      70.49142901      95.20522786      88.56883742
O      72.66461427      94.63642024      87.88664622
N      69.82813508      95.31483199      91.03681999
H      68.00265946      95.05027030      91.52625910
C      71.68384632      94.38697637      92.96056137
H      73.58491099      95.09751346      92.61285173
C      71.24920926      95.33561898      95.62129602
H      72.90838897      94.75736272      96.69466057
H      69.39160830      94.79893670      96.32616394
C      71.56668328      98.16642899      95.94065977
C      69.45018981      99.62718743      95.97656457
H      67.61715529      98.75035442      95.76680495
C      69.68451588     102.32571661      96.18632419
H      68.04234371     103.53136200      96.31482558
C      72.14682926     103.44632431      96.15419884
O      72.42272930     105.90485824      95.71956179
H      70.79756467     106.70610220      95.81593783
C      74.22363848     101.95344052      95.96900566
H      76.07557027     102.71122078      95.57405287
C      74.00820968      99.27947779      95.98412348
H      75.68250719      98.11351666      95.89341661
C      71.77266345      91.49758483      93.37819089
O      69.73364876      90.17288669      93.50669228
N      74.13671107      90.62264155      93.77125396
H      75.63337431      91.80372050      93.80904849
C      74.70362896      87.93734046      93.99235194
H      72.98586774      86.96791086      94.58761573
C      75.64282294      86.83751975      91.30894058
H      76.76532037      85.11975853      91.48468512
C      73.63026442      86.07973949      89.52503894
H      72.74209305      84.47158240      90.45856374
H      74.54489195      85.50526270      87.76948319
H      72.41139095      87.68222741      89.08473271
O      77.06578685      88.76504059      90.08250820
H      78.85724740      88.48158164      90.12786163
C      76.69540050      87.42144518      96.02191800
O      78.30544732      89.00692555      96.74379345
N      76.76721010      85.13676606      97.20488667
H      75.41416606      83.83285491      96.87229484
C      78.82701178      84.22780771      98.83194103
H      80.56555999      85.25959827      98.43131905
C      78.13159250      84.85897630     101.65330241
H      77.57601296      86.83374029     101.46244006
C      75.81289831      83.26215756     102.37328814
H      74.12915216      84.05773234     101.49078595
H      75.23464206      83.33963634     104.34994186
H      76.10769561      81.29684220     101.83849559
C      80.51453738      84.82874068     103.61861778
H      82.11324584      85.78305246     102.73800532
H      81.20428748      82.88799175     103.65263285
C      79.91171468      85.79628055     106.27557298
H      79.77565439      87.85041305     106.33226477
H      81.39137039      85.42022501     107.65885264
H      78.26576306      84.95157289     107.18075188
C      79.28621527      81.32329836      98.46722385
O      78.13537195      80.04395365      96.96678116
N      81.14381624      80.30284616      99.82971652
H      82.01498007      81.31762919     101.19220919
C      81.84112525      77.58164027      99.52358086
H      80.21596062      76.31741336      99.57838292
H      83.22440491      77.02228128     100.94465505
C      82.98818912      77.06196553      96.88363320
O      84.40359413      78.51705479      95.72523097
N      82.20017325      74.82452957      95.87073990
H      81.38192175      73.52439787      97.00457568
C      82.84645965      74.04029315      93.39141897
H      84.43005030      75.17223922      92.71867641
C      83.69872621      71.12633518      93.52747927
H      82.28899038      70.07942680      94.60273354
C      84.04265640      70.05863981      90.77792748
H      84.94216613      68.20859775      90.87430352
H      85.21239699      71.42302221      89.76881363
H      82.22473969      69.77329114      89.85196159
C      86.17615741      70.84287623      94.97123017
H      86.27253345      71.99938874      96.67198385
H      87.76541724      71.35688179      93.76747451
C      86.36324031      68.05930937      96.01813855
H      88.16792894      67.75506344      96.95922225
H      86.05143547      66.73839068      94.46667325
H      84.75697295      68.04797102      97.30693189
C      80.37847708      74.53918090      91.97979342
O      79.13503717      72.70614638      91.23713098
N      80.10824622      77.09598060      91.39208853
H      81.61624782      78.23737530      91.64531186
C      78.06167262      78.12210199      89.75936500
H      78.03521645      76.82197029      88.16254627
H      78.63048024      79.94568788      88.99024639
C      75.37826126      78.09942527      90.79871447
O      73.68317675      78.24115475      89.29071287
N      74.95118311      77.73848755      93.25535868
H      76.40816210      78.17501433      94.40998146
C      72.43028821      78.02005677      94.24746499
H      71.12259760      76.87488262      93.14197510
C      72.41328067      76.94291277      97.02158322
H      73.70774320      78.24871365      97.94943884
H      73.55089591      75.24782827      97.28803463
C      70.13993992      76.53662161      98.60517387
N      68.85303630      74.33698019      99.07760545
H      69.17995895      72.55874773      98.46533412
C      66.64205651      74.93602343     100.05648368
H      65.09815011      73.64345063     100.38718578
N      66.63449761      77.40778544     100.55159197
H      65.03956860      78.32430271     101.05803863
C      68.73209381      78.45658355      99.54058840
H      69.11192880      80.45591399      99.39885892
C      71.32101886      80.75638047      94.24179581
O      72.30367655      82.30784577      95.61562684
N      69.13460552      81.01149352      93.02292234
H      68.35036910      79.69246456      91.88719683
C      67.85526081      83.43979184      93.00780453
H      69.28389390      84.84763794      92.53915241
C      65.87482763      83.26026784      90.90075969
H      64.64461580      81.65211074      91.27492550
H      66.86126476      82.95413217      89.11685805
C      64.28367807      85.60730792      90.46612264
H      63.27456422      86.08540867      92.19711194
C      65.92018106      87.91655347      89.85385132
H      67.93273958      87.59907945      90.15431780
H      65.00366380      89.51715166      90.77036858
H      65.77278241      88.12253364      87.81105717
C      62.42040793      85.31440034      88.39687233
H      63.49755193      84.87031465      86.69611865
H      61.22610090      86.96224168      88.08128803
H      61.26578515      83.64199255      88.74269224
C      66.78189626      84.37331663      95.65531110
O      65.89750434      82.82563078      97.12551817
N      66.71764556      86.80350467      96.06349198
H      67.63794228      87.88631785      94.78792672
C      65.38349879      88.09985692      98.14408065
H      64.56146784      86.57295806      99.25523972
C      67.16929015      89.73824964      99.93554120
H      65.98821121      90.70578951     101.32071058
H      68.29178758      91.08940395      98.86217665
C      69.14405415      88.15843844     101.30559277
H      70.15316800      87.17011158      99.80703981
C      70.73520371      90.08217983     102.67375462
H      72.04667377      89.16566256     103.97199660
H      69.55034531      91.29160467     103.85105412
H      71.77455318      91.14042656     101.24701126
C      68.37115609      86.16477718     103.29169513
H      67.49999226      87.05672800     104.93197757
H      70.13427074      85.23503183     103.81325959
H      67.04834767      84.92322699     102.31659635
C      63.00433336      89.38109136      97.23890175
O      61.00500292      88.89354197      98.26691286
N      63.24810805      91.39364989      95.76491522
H      64.81091171      91.94733970      94.81816234
C      60.96531867      92.98101999      95.17721034
H      59.27590334      91.83584584      94.91075893
C      60.35493707      94.69878121      97.37874149