 %block lattice_cart
   137.793   0.000   0.000
   0.000 143.498   0.000
   0.000   0.000   162.326
 %endblock lattice_cart

 %block positions_abs
N      87.21928633      38.89894265      76.89694285
H      88.95216536      38.17706719      76.55301266
H      86.43127046      39.68884825      75.34925700
H      86.11946562      37.51944244      77.62448748
C      87.74274052      40.88126555      78.73753628
H      89.11468182      40.23497914      80.13404403
C      88.77831054      43.47208031      77.71519435
H      87.22117606      44.69095379      77.13126892
H      89.92915387      43.20373919      76.02955848
C      90.13324431      44.54166541      79.80145220
H      91.66581235      43.30011522      80.38726735
H      88.95972427      45.03488398      81.42094765
S      91.44093492      47.58601450      79.10036373
C      92.44815904      48.69717357      82.19006626
H      90.71150056      49.40204148      83.04611228
H      93.87679213      50.11635804      81.75920866
H      93.14924750      47.16271581      83.37114520
C      85.22940453      41.38582247      80.27388377
O      83.16960284      41.21196765      79.15516580
N      85.43727442      41.95651981      82.77021223
H      87.07755686      41.82423898      83.73775211
C      83.13936722      42.50076099      84.19884533
H      81.56711493      41.33479985      83.55633838
C      83.42849535      41.69006841      87.01453753
H      84.81933392      42.90138298      87.93294452
H      84.25430575      39.86081334      87.46807185
C      81.02476348      42.11336710      88.47151652
O      80.25942432      44.32434688      89.08189812
N      79.55266668      40.25576614      88.98741180
H      77.88970753      40.72063880      89.80188384
H      79.91171468      38.42651106      88.57545147
C      82.30599792      45.29188675      83.91916583
O      83.87636048      46.96051510      84.04010832
N      79.79455165      45.66227312      83.72263430
H      78.64559805      44.14482288      83.57901510
C      78.63048024      47.99986456      83.15193695
H      79.53943860      48.41938380      81.35291750
C      75.83935448      47.73152342      82.59446769
H      75.42928387      46.04210810      81.49086752
C      74.19529258      47.70506726      84.93772831
H      74.91905776      46.37092048      86.33045661
H      72.37926560      46.88114658      84.41805358
H      74.22552820      49.57778604      85.79377433
C      74.69418033      49.92549567      80.94473662
H      76.02454765      50.49808275      79.48019872
H      74.17261587      51.63380826      81.97274773
C      72.05990185      49.51542507      79.59169258
H      70.59158450      48.99008115      80.93717771
H      72.21107995      48.00553374      78.20085401
H      71.50054286      51.27664999      78.68273422
C      79.28810500      50.15415257      84.98497147
O      79.73030095      52.27253575      84.05333640
N      79.49786462      49.80455319      87.45484376
H      79.22385430      48.02632073      88.09168153
C      80.10824622      51.74341239      89.35023926
H      79.14070634      53.37046675      88.53387749
C      79.02354331      50.76075470      91.78798620
H      79.75297767      52.04765833      93.22039874
H      79.68872698      48.88236675      92.31333011
C      76.11525452      50.61335605      92.13380611
C      74.75654130      52.44828030      93.52086523
H      75.79400104      53.86746476      94.55643525
C      72.05990185      52.27064603      93.61913100
H      71.14149486      53.43471745      95.02130792
C      70.73142425      50.34312519      92.31333011
H      68.69240956      50.31099984      92.33978628
C      72.11848337      48.49497286      91.04343403
H      71.28322434      47.07011922      89.84534755
C      74.73386458      48.59323862      91.01886759
H      75.78455241      47.08334731      90.13258595
C      82.81055484      52.59378924      89.17260498
O      83.38314192      54.85579162      89.63369820
N      84.53965442      50.90059446      88.49419324
H      84.01808996      49.13747980      87.98396713
C      87.14558701      51.22373765      87.91971644
H      87.58211378      52.48229537      89.49196873
C      88.88980439      48.86913866      88.29766170
H      90.81354578      49.60235248      88.24096991
H      88.76319273      47.67105218      86.62714364
C      88.72161875      47.23074596      90.61068671
H      90.46583614      46.14982251      90.77698262
H      87.18716099      45.96840878      90.07022498
C      88.16981867      48.62725371      93.10890489
O      89.80254220      50.08045323      93.84967761
O      85.93238271      48.58190027      94.01030434
C      87.67848983      52.65426048      85.41771880
O      89.38302296      54.27753537      85.32701193
N      86.23284920      52.02309188      83.46185206
H      85.20294836      50.41682452      83.41271918
C      86.52386705      52.94338860      80.92961880
H      88.50241050      52.71095227      80.40427489
C      85.01208600      51.18405341      79.34791788
H      83.04866036      51.39948220      79.93562276
H      85.61490869      49.25275312      79.73720150
C      85.18405109      51.86246515      76.58702774
H      87.20605825      52.02687133      76.22797974
H      84.29776945      53.71250720      76.41695237
S      83.52865084      49.81778128      74.46486509
C      84.16548861      51.54877058      71.45264134
H      83.42282617      50.59823825      69.78212328
H      86.17237796      51.86435488      71.10304198
H      83.21117682      53.37424619      71.46020025
C      85.69805665      55.74585272      80.80111742
O      87.08133631      57.28031049      79.68428916
N      83.70439539      56.39591857      82.17494844
H      82.82378293      54.96161630      83.07256844
C      82.65937674      58.99051280      82.32045737
H      82.95417404      60.00340610      80.55167354
C      79.78510302      58.78642236      82.80233758
H      78.94606453      60.66481031      82.72674853
H      79.39015022      57.62802013      84.46151728
C      78.33568294      57.25385432      80.69718247
H      78.61158298      55.21861909      80.55923245
C      75.54266744      57.58644616      81.32079215
H      74.22174875      56.53575833      80.14160293
H      74.91905776      59.54609233      81.44362436
H      75.13070711      56.87779878      83.21240819
C      78.90449056      58.25918871      78.06101426
H      77.82923628      57.31432557      76.57757911
H      80.83012167      57.78486741      77.50921418
H      78.59268571      60.24529107      77.60559022
C      83.95194954      60.79520143      84.23097067
O      83.57022482      63.06287301      83.85869459
N      85.20294836      59.76719031      86.15282233
H      85.34089838      57.88502290      85.87125311
C      86.19883412      61.37345769      88.24474936
H      84.77587021      62.82287777      88.58490010
C      86.56355130      60.05820816      90.70895247
H      84.69083253      59.39302450      91.24941420
H      86.75819311      61.59644538      92.06388624
C      88.60823517      58.00974485      90.67304767
H      90.20505391      59.05476350      89.89825989
H      88.12824469      56.49607407      89.36346734
C      89.31499281      57.11023513      93.31110561
H      88.99562907      58.58611138      94.71139281
H      91.25196228      56.42426446      93.48496043
N      87.55565762      55.08444852      94.20305643
H      87.62179804      53.30999551      93.50763714
C      85.79821215      55.08822797      95.94538409
N      85.26341960      57.11401457      97.24551579
H      83.68360840      57.02141798      98.31321116
H      86.12513480      58.80531962      97.05087398
N      84.33178453      53.07000027      96.39702868
H      82.90882061      53.01519821      97.67259394
H      84.78720857      51.38436440      95.62602034
C      88.44004953      62.96082778      87.30933484
O      89.12035100      64.81842875      88.60946654
N      89.52286271      62.18981944      85.08890642
H      88.90492220      60.55520619      84.31789808
C      91.58455412      63.49751005      83.76042882
H      92.00596308      65.13779249      84.93205914
C      94.05442641      61.95738311      83.93239392
H      95.49628758      62.92492298      82.82501430
C      95.10889369      62.25973932      86.66871762
H      95.64179651      64.19292934      87.13170056
H      96.90980287      61.27330219      86.82556490
H      93.73506266      61.62857073      88.07089454
C      93.89757912      59.21350050      83.07823762
H      92.13635420      58.54075794      83.90593775
H      95.48683895      58.19115858      83.89648912
C      93.48372906      58.79776071      80.09435977
H      93.26263108      56.75874602      79.91483577
H      95.07109916      59.40247313      78.93028837
H      91.89257950      59.91080951      79.40838912
C      90.71905946      64.68047873      81.15638596
O      92.26674531      65.69904121      79.79389329
N      88.35501185      64.51040337      80.56301190
H      87.13046920      63.66002652      81.75353948
C      87.18338153      65.67636450      78.40305472
H      88.11501660      64.78441367      76.79867708
C      84.33178453      65.11511579      78.39360609
H      83.31889122      66.07887621      79.90538714
H      83.81022006      63.17058740      78.82824314
C      83.32456040      65.88423439      75.80657077
O      81.53687931      67.34121338      75.60625978
O      84.14281190      64.83354656      73.87149103
C      87.49140692      68.57709439      78.42384171
O      87.96950768      69.65612812      76.43395991
N      87.31755210      69.84699047      80.54033518
H      87.05299042      68.85110470      82.14660255
C      86.91693012      72.62299843      80.71230028
H      87.93549261      73.50172115      79.15516580
C      84.03887695      73.45258827      80.62537287
H      83.66849059      74.18013291      82.51509918
H      82.82378293      71.94647640      79.91672550
C      83.57778373      75.59364819      78.76021300
H      81.56711493      75.97726263      78.52777666
H      84.35635097      74.68468984      77.08213603
C      85.06688806      78.07674857      79.23264458
O      87.50274528      78.21658831      79.03044386
O      83.94250091      80.14032970      79.69184807
C      88.06777345      73.54140541      83.29933560
O      88.13202414      71.99749902      85.04355299
N      89.13546881      75.79206946      83.36358630
H      88.88413521      76.87488262      81.81401072
C      90.74173618      76.54040108      85.53866128
H      91.51652397      78.42067875      85.21362836
H      92.20438435      75.11176798      85.78432570
C      89.25452157      76.44402503      88.10490962
O      86.98118082      77.08653197      88.16916031
N      90.48662313      75.90923249      90.30077159
H      92.37068026      75.68435505      90.09479142
C      89.56821614      76.49126818      92.83300485
H      87.52353227      76.28528802      92.97662405
C      90.80220742      74.34642883      94.59234005
H      92.79586868      74.48248912      94.09345230
H      90.14836212      72.48315867      94.00841462
C      90.51307930      74.49949666      97.46472404
H      90.94582662      76.47426065      97.85400766
C      87.72006381      74.01194727      98.18282004
H      87.19849934      72.26772988      97.21905962
H      86.65047871      75.68435505      97.63479941
H      87.85045492      73.54707459     100.18215048
C      92.23461997      72.56441691      98.87068042
H      94.20371479      73.16346015      98.76107629
H      92.19493571      70.76539745      97.86912547
H      91.84533635      71.97482229     100.80576016
C      90.03497854      79.18223846      93.66448443
O      92.18926654      79.92868035      93.91581803
N      88.03753783      80.54473112      94.47517702
H      86.38402730      79.60553716      94.31266055
C      88.05832482      83.07885411      95.50885731
H      89.97261757      83.79695012      95.74885255
C      86.64858899      84.82307151      93.80999335
H      86.43693964      86.71279782      94.59800923
H      84.66248663      84.28260977      93.79298582
C      87.83533711      85.21613457      91.10012582
H      89.82899837      85.70746342      91.28153955
H      86.91504040      86.83374029      90.21195445
C      87.55754734      83.04483905      89.11024401
H      85.73396145      82.18312384      89.53732216
H      89.14491745      81.81651693      89.56377833
N      87.98651522      83.88576724      86.45139909
H      88.96161399      85.46935790      86.01865177
C      86.77709038      82.88421231      84.55789333
N      85.59979088      80.71480650      84.67127690
H      84.64547909      80.18946259      83.10469379
H      85.63002650      79.63010360      86.24352920
N      86.84134107      83.67600762      82.23164023
H      85.93238271      82.64799652      80.90505236
H      87.68982818      85.34841542      81.87448196
C      86.83756162      83.15444317      98.25651937
O      84.61524347      82.82941025      98.75351739
N      88.54398448      83.66088982     100.05175937
H      90.35056283      83.97647412      99.51885655
C      88.08100153      83.77805285     102.77485498
H      86.51819787      82.52705404     103.26240437
C      90.20316418      82.63854789     104.42836551
H      89.81010111      82.33997113     106.42769595
H      91.55809795      84.17867483     104.62300732
C      91.39180203      80.19324203     103.41736193
H      92.12690557      80.45969344     101.51062808
C      93.54042085      79.10853914     105.28630125
H      94.32465727      77.33975530     104.58332306
H      92.63146249      78.65122537     107.07965152
H      94.95204641      80.55984894     105.66613624
C      89.44160448      78.09564583     103.18114614
H      87.96194877      78.58130549     101.83377128
H      88.53642557      77.84242251     105.01418066
H      90.35812174      76.38544352     102.48383713
C      87.32322128      86.35563955     103.82554281
O      86.48985198      86.68445191     105.94770546
N      87.45172267      88.21324051     102.20415764
H      88.50241050      87.96001718     100.63190534
C      86.04954574      90.68500253     102.18526037
H      85.01964490      90.94956421     103.95026475
C      87.95250014      92.68244324     101.73361578
H      87.11724111      94.49280105     101.21583077
H      89.19971951      92.10796644     100.19726829
C      89.52664216      93.14920564     104.09388395
H      90.49040258      91.38042180     104.52474155
H      88.24918717      93.45345158     105.67936433
C      91.41447875      95.24869157     104.00506681
H      90.34678338      96.95322470     103.55720168
H      92.49162275      95.19955868     102.25140079
C      93.21727765      95.67576972     106.30486374
H      94.70638198      94.26603388     106.51084390
H      92.04942679      95.73057178     108.00183796
N      94.52874771      97.99257418     106.29541510
H      93.48561879      99.50246551     105.77007119
H      96.10100000      97.90753650     105.21638138
H      95.11834232      98.21934133     108.09632428
C      84.06344339      90.81728337     100.09711280
O      84.45461674      89.72124211      98.03731112
N      82.11135611      92.41599183     100.50340395
H      82.21340133      93.41943649     102.12289940
C      80.15737910      93.23235360      98.64202354
H      79.20873649      91.48624649      98.09967208
C      78.09757742      94.94633536      99.76452097
H      79.34290706      96.52047737     100.22939364
C      76.08123944      95.68899780      97.85211794
H      74.79811528      97.18566105      98.45305091
H      74.93795502      94.04493591      97.37968636
H      76.84468887      96.39197599      96.07199575
C      76.74264365      94.04682564     102.21171654
H      78.17316647      93.39298034     103.54208387
H      75.55400580      92.47079389     101.62590138
C      75.01921326      96.12552458     103.40224412
H      73.45451987      96.45433696     102.10400214
H      76.26643262      97.75824812     103.54019414
H      74.37670631      95.38097242     105.21260193
C      81.41026765      94.39264555      96.37057251
O      83.03921173      96.03859716      96.38946977
N      80.68272302      93.54982761      94.17471053
H      79.38259131      92.15520960      94.27864548
C      81.45184163      94.60429489      91.64814645
H      82.20773215      96.51669793      91.71239715
C      83.51920221      92.89220286      90.53131820
H      84.82689282      92.54260349      92.08656296
H      84.36957905      93.84273520      88.91371248
C      82.61024386      90.36374905      89.26709130
C      82.67260482      89.91777364      86.70273269
H      83.16582339      91.30861221      85.29110714
C      82.10190748      87.52349041      85.81078187
H      82.17749653      87.30050270      83.78310554
C      81.48774643      85.57518257      87.54366090
O      81.04932992      83.30373155      86.57801075
H      81.09090390      83.51916035      84.77710158
C      81.34790668      85.95879702      90.15337294
H      81.13058815      84.38843445      91.43649710
C      82.05655405      88.48158165      90.96784498
H      81.92805266      88.83307074      92.97284460
C      79.03299194      94.73279629      90.10990923
O      76.86547586      94.51925721      91.21539913
N      79.19172895      94.88964357      87.60791159
H      80.79610659      95.57183477      86.82934435
C      76.91838820      95.00302715      86.02054149
H      75.22897288      94.36807911      87.01075808
C      76.41005182      97.70344606      84.94339749
H      74.72630568      97.44266382      83.78688499
H      77.88403835      98.34595300      83.65460415
C      76.03210656      99.95033064      86.94650739
H      77.40971704     100.00135325      88.47718570
H      74.16505696      99.60829018      87.74775134
C      76.03588601     102.41075430      85.35724756
H      74.40505220     102.47878445      84.10246928
H      77.79144176     102.48067416      84.28388301
C      75.65416130     104.43843063      87.39815197
H      77.11491974     104.34583405      88.84757206
H      73.72664046     104.34961349      88.11624797
N      75.91494353     107.02168649      86.28321345
H      77.42483485     107.08782693      85.12103177
H      76.05289355     108.27646478      87.71751572
H      74.27466109     107.55836878      85.46874141
C      77.42483485      93.27581729      83.69050895
O      79.48274681      93.38542143      82.54533480
N      75.42172496      92.09095891      82.63226221
H      73.83246513      92.16087878      83.68483977
C      75.30645166      90.81539364      80.13026457
H      76.97885944      89.62297634      79.96585838
C      72.75910059      89.33195849      80.13593375
H      71.18495857      90.59996484      80.53088655
H      72.77232867      87.81450826      81.53244150
C      72.23942585      88.22079942      77.56023679
O      70.85803591      89.33384820      75.99932285
O      73.36948218      86.25737378      76.88560449
C      75.48030648      92.92810766      78.02888891
O      75.30267220      95.19199979      78.47864378
N      75.89415654      92.05694383      75.71397418
H      75.97163532      90.16154834      75.48909675
C      76.19273330      93.77848450      73.48409713
H      77.87647944      94.82161342      74.05290475
C      76.64059843      92.53693431      70.91217962
H      74.80189473      92.30260825      70.01078017
C      78.35835965      94.12052497      69.28512526
H      79.94761948      94.56839009      70.51722682
H      77.15082454      95.67010054      68.66529503
H      79.15771388      93.21345634      67.61649693
O      77.75742668      90.06517229      71.14839541
H      76.40816210      88.85763718      71.03879128
C      74.08568846      95.65876218      73.19685873
O      74.45040564      97.73935085      72.34459216
N      71.70274358      94.93310727      73.95841844
H      71.31912914      93.23802278      74.74832403
C      69.48231516      96.74535481      73.70708484
H      70.03978442      97.86974197      72.07436130
C      66.82913942      95.42065666      73.21764572
H      65.50255154      96.80771578      72.47120383
H      66.16017630      94.80649562      75.06768778
C      66.66851268      93.17944126      71.50177423
H      67.44330047      91.46168004      72.33514353
H      67.94407794      93.26636867      69.88605823
C      63.94730679      92.41788156      70.77800905
O      62.61504974      91.33884783      72.43718875
O      63.33125601      92.92243848      68.59348543
C      69.18751785      98.51602836      75.86326256
O      67.30157099      99.83127787      76.01822012
N      70.98653730      98.69555236      77.59614159
H      72.51154644      97.57872411      77.33913881
C      71.24542981     100.44165948      79.86948234
H      70.62182013     102.37484950      79.52555215
H      73.25042943     100.48512319      80.34002419
C      69.92073166      99.60262100      82.26376558
O      70.49898792     100.71566979      84.26498575
N      68.40895061      97.57872411      82.24864777
H      67.67195735      97.03259320      80.57623998
C      67.22031276      96.59417671      84.68072554
H      66.51544485      98.18721599      85.78054625
C      64.78256582      94.99924770      84.19128642
H      63.80368759      95.01247579      86.00353396
H      65.30979946      93.10763166      83.57523564
C      63.03267925      95.99891292      82.07668268
C      62.78890456      94.72334765      79.72964260
H      63.90006363      93.02070425      79.55200832
C      61.32247694      95.71923342      77.72464298
H      61.28657214      94.72145792      75.94452079
C      60.20942814      98.14375229      77.97597658
O      58.64473475      99.22278601      76.22609001
H      58.08915522     100.91031161      76.60214555
C      60.72154397      99.45711207      80.17183855
H      60.17730279     101.40541990      80.44017969
C      61.81947496      98.37996808      82.37714916
H      62.03490376      99.34561822      84.16105080
C      69.08169318      95.32806007      86.43439155
O      70.69740918      93.99769276      85.38937290
N      68.97397878      95.99324374      88.85702069
H      67.41306485      96.97212196      89.35590843
C      70.78055714      95.23357376      90.80721824
H      72.57012795      95.70789507      89.90203934
C      70.33269200      96.35985065      93.43582754
H      71.92006210      95.68521834      94.56210443
H      68.59414379      95.68143889      94.30321192
C      70.46686257      99.22467574      93.28086999
C      68.08013823     100.54937388      93.14480969
H      66.27922906      99.61584907      93.38291521
C      67.91195259     103.21766743      93.07488982
H      66.09214615     104.14174360      93.02953639
C      70.09458648     104.52724776      92.59300961
O      70.02466661     107.09538583      92.24718969
H      68.33714101     107.63962701      92.63458359
C      72.51910534     103.32916128      92.67048839
H      74.15371860     104.52724776      92.43994178
C      72.70807798     100.70622117      93.06166173
H      74.55434058      99.83694705      93.00119049
C      70.74087288      92.26670345      91.14925871
O      68.83791849      91.04405053      91.56310877
N      72.99531637      91.11208068      91.18705323
H      74.52977414      92.24780619      91.10579500
C      73.46396850      88.44756657      91.54421150
H      71.73864838      87.45168081      92.07711433
C      74.41639056      87.28538488      89.07244949
H      75.20062698      85.39565857      89.30677555
C      72.19974160      86.93767525      87.25075332
H      70.72575507      85.80194974      88.13514524
H      73.01799309      85.75281684      85.78054625
H      71.50621204      88.77826868      86.64415118
O      76.06234218      88.94834404      87.84223766
H      77.61380748      88.83307074      88.77576246
C      75.45762976      88.09796721      93.61913100
O      76.91649847      89.74580855      94.21439479
N      75.47463730      85.87564905      94.72084144
H      74.23119738      84.56417900      94.11423929
C      77.60624858      84.95535235      96.20049714
H      79.35802487      85.80383946      95.52964430
C      77.24153140      85.59596957      99.01807907
H      76.44784635      87.48191643      99.25429486
C      75.26865713      84.02371727     100.18592993
H      75.53699827      81.98281286     100.18781966
H      73.52443974      84.30150704      99.12768320
H      74.75087212      84.86086603     101.99628774
C      79.79455165      85.45801954     100.52986012
H      81.17972104      86.27438131      99.23917705
H      80.04399552      83.43034320     100.77174509
C      79.88336879      86.62587041     103.11689545
H      79.18605978      88.56095015     103.00729132
H      81.72963139      86.53138408     104.02585380
H      78.54166310      85.61108737     104.30742302
C      78.12592331      82.13966013      95.68082240
O      76.43839772      80.89810995      94.61690649
N      80.08367977      81.03794970      96.77875339
H      81.31011215      81.95446696      97.91447891
C      80.57311889      78.30540545      96.67859790
H      78.75331245      77.53817657      97.26819251
H      82.03009788      77.83486360      98.05620838
C      81.34979640      77.40589573      93.90070022
O      82.86724663      78.71736578      92.80465896
N      80.26887295      75.44247008      93.03331584
H      78.85913712      74.57886516      93.98951735
C      80.45973531      74.73571245      90.40659626
H      81.93561156      75.70325232      89.34645980
C      81.21184638      71.80285721      90.32155858
H      79.66416053      70.72382348      91.14547925
C      81.64648344      70.83720706      87.70995682
H      80.33312365      71.63467157      86.33801551
H      81.49908478      68.78307455      87.74397189
H      83.53432002      71.38522769      87.09201631
C      83.46062070      71.31719754      91.97884856
H      83.21684600      71.93135860      93.93093584
H      84.91948941      72.60410117      91.29854708
C      84.67760444      68.68669852      91.84845744
H      83.32645013      67.24672707      92.43049315
H      86.31032798      68.65079372      93.10323571
H      85.45239223      68.24450255      89.99274620
C      78.01442946      75.46514679      88.84757206
O      76.50264841      73.91179177      88.02554111
N      77.53443898      77.95958554      88.41860418
H      78.68717203      79.28050423      89.17827416
C      75.35369481      78.83641855      86.85391080
H      75.09291258      77.32841695      85.47630031
H      75.95651751      80.40489138      85.66338322
C      72.98775747      79.35042410      88.39781719
O      71.14338459      80.23292629      87.18083345
N      72.88193280      78.99515555      90.83934359
H      74.33702206      79.16712064      92.06199651
C      70.40828105      78.99137610      92.21128489
H      68.83035958      77.99360060      91.34201079
C      70.85425646      78.10131501      94.97217504
H      72.24320530      79.38443917      95.79042653
H      71.52510930      76.16245581      94.76808459
C      68.51855474      78.04084377      96.56710404
N      67.02189150      75.86009960      96.87890889
H      67.43952101      74.15178701      96.13813617
C      64.88083159      76.48559900      98.14502552
H      63.44652932      75.20247484      98.82721672
N      65.04523778      79.03861926      98.91414413
H      63.76778279      80.05718174      99.90058126
C      67.31290935      79.99482078      97.85778712
H      67.98565192      81.91478271      98.02408303
C      69.25176855      81.69935391      92.15081365
O      70.41583996      83.45679938      93.10512544
N      66.86315449      81.85998065      91.19461214
H      65.92207079      80.36898659      90.46517778
C      65.59514813      84.28827895      90.94516826
H      67.03889904      85.59407984      90.27809488
C      63.39361698      84.19757209      88.97229399
H      61.95931471      82.80295408      89.45417420
H      64.29312670      83.54750624      87.23563551
C      62.12750035      86.78271769      88.56978229
H      61.25822624      87.24948009      90.37825037
C      64.08147736      88.56850906      87.33390128
H      63.09504022      90.17477641      86.49864225
H      65.13594464      87.53104930      85.89959901
H      65.64806047      89.14487558      88.53765694
C      60.07147812      86.22146898      86.53076760
H      58.80158204      84.69834957      87.08823686
H      60.98610566      85.48447572      84.83757282
H      58.93575261      87.92222265      86.29833126
C      64.72398430      85.29550307      93.52275495
O      63.65250948      83.84986244      94.99296203
N      65.46664674      87.60663836      94.29943247
H      66.40584072      88.70456934      93.05410283
C      64.42918700      88.59874468      96.69560543
H      64.17596367      87.03027184      98.00707550
C      66.21308864      90.45445591      97.98439878
H      65.24365904      91.28215603      99.60578396
H      66.65717432      92.07206163      96.79198148
C      68.68485065      89.08629407      98.99918181
H      69.32546787      87.82017744      97.50629802
C      70.87504345      90.88342379      99.77963878
H      70.76543933      91.97379586     101.52385616
H      70.83535920      92.16465822      98.16581251
H      72.59469440      89.75147773      99.84199975
C      67.90439369      87.57451302     101.32921435
H      69.50877133      86.61453205     102.19659873
H      66.70630720      85.97391483     100.82843688
H      67.12771617      88.85952690     102.73895018
C      61.73821673      89.71179348      96.49151499
O      59.91274111      89.03338172      97.80298505
N      61.40184544      91.49002594      94.77375377
H      62.85504498      92.02103903      93.65881525
C      59.12472524      92.82795216      94.02542215
H      57.59215720      91.54671773      93.52086523
C      58.16663400      94.94066618      95.88869230