 %block lattice_cart
   137.793   0.000   0.000
   0.000 143.498   0.000
   0.000   0.000   162.326
 %endblock lattice_cart

 %block positions_abs
N      86.19127522      41.40755432      76.09569889
H      87.73518161      40.85197479      75.12060012
H      84.96484284      41.80439685      74.68785279
H      85.58467307      39.88254519      77.07268740
C      86.82055408      43.62042383      77.72653270
H      88.58933791      43.35775188      78.74887463
C      87.44605350      45.84274198      76.15428040
H      85.82466831      46.89720926      75.44563304
H      88.66114751      45.04905693      74.69352197
C      88.93137838      47.86474913      77.70385599
H      90.50174094      46.84996610      78.56557118
H      87.82777820      48.59985267      79.27988774
S      90.18804637      50.19856113      75.69318718
C      92.38768780      51.71412163      77.86259299
H      93.71238594      53.12763692      77.16150453
H      93.62923799      50.32706252      78.74698491
H      91.45605273      52.42087927      79.55767749
C      84.65303800      44.17978282      79.51988298
O      82.52709590      44.03238417      78.87170685
N      85.08578532      44.56528699      82.05400595
H      86.90559176      44.45757259      82.62470330
C      83.30944260      44.89598910      84.07223366
H      81.89403759      43.40310531      83.97963707
C      84.78531885      44.70323701      86.44950936
H      86.26686427      46.12998038      86.34557442
H      85.66971075      42.84185659      86.47407580
C      83.26597888      45.15299187      88.95906591
O      80.98318950      45.53849604      89.21039950
N      84.62280238      45.08496173      90.97162443
H      83.49841523      45.13598434      92.51175138
H      86.50685952      44.83740758      90.76375454
C      81.99041363      47.54727511      83.85680487
O      83.28865561      49.48991376      83.52421302
N      79.42983448      47.59640800      84.00420352
H      78.32623430      46.04494269      83.86436376
C      78.15993839      49.88675629      83.36925548
H      78.80244533      50.59351393      81.54566958
C      75.30645165      49.41810416      83.35413766
H      74.80756392      47.69278404      82.34502380
C      74.26143300      48.69433898      85.98841615
H      72.65138619      47.46979633      85.59535306
H      73.97041515      50.40076185      87.10524439
H      75.46896813      47.39987646      87.03721425
C      73.87214939      51.56672298      82.02943951
H      74.10647545      53.30527119      83.10658351
H      71.95974635      50.79760437      82.04455732
C      74.77165912      52.01458812      79.27988774
H      72.99909583      52.06183127      78.22731017
H      75.77888323      50.36485705      78.56746091
H      76.04533464      53.61707603      79.04934112
C      78.92716727      52.00891894      85.33457083
O      79.40337830      54.13864049      84.57679058
N      79.10480154      51.44578050      87.81389176
H      78.71740765      49.67888639      88.42049391
C      79.96651675      53.23913077      89.67338245
H      78.67016449      54.83783923      89.59212422
C      79.65660163      51.93899906      92.26419723
H      80.72240727      53.12574719      93.56810839
H      80.72996617      50.18155359      92.29254312
C      76.90138067      51.44767022      93.03142610
C      75.52754963      53.20511569      94.56210443
H      76.47052306      54.72634538      95.54476211
C      72.91972732      52.94433346      94.82099693
H      71.83124496      54.26525216      95.93215600
C      71.76699428      50.98468728      93.56243921
H      69.72797958      50.87886260      93.59456456
C      73.14460475      49.03259999      92.39647806
H      72.20352105      47.34318467      91.74830194
C      75.72030172      49.33873566      91.96939993
H      76.70673885      47.95734572      90.83556413
C      82.76709114      54.22178845      89.23496594
O      83.34534740      56.16631683      90.21195445
N      84.37146878      52.95756155      87.76664861
H      83.64770361      51.45333940      86.84257243
C      86.95472466      53.65298083      87.40949032
H      87.46117130      55.07783447      88.80599808
C      88.80098725      51.53648736      88.01798220
H      90.68126494      52.25458336      87.57389652
H      88.45894680      49.99069124      86.70084296
C      88.57422010      50.41587966      90.64092233
H      90.09544978      49.07417397      90.99619087
H      86.80354654      49.36897128      90.73918810
C      88.65547833      52.53993203      92.70639318
O      87.02086507      52.26592172      94.38824960
O      90.10867787      54.44477616      92.61190686
C      87.38180279      54.89642074      84.78655020
O      88.92192974      56.62363059      84.56356250
N      85.75474844      54.49201931      82.92705951
H      84.53398524      53.05582732      83.22374654
C      85.72829228      55.45577973      80.33624473
H      87.67093092      55.31782971      79.67295080
C      84.04265641      53.72668016      78.72430819
H      82.02820815      53.89297607      79.12115071
H      84.45272701      51.73112917      79.04367194
C      84.45272701      54.10273569      75.91050571
H      86.47662389      53.97234458      75.55145771
H      83.87636048      55.97923392      75.28689603
S      82.74252470      51.86529974      74.01322049
C      83.65337278      52.88575195      70.81202412
H      85.71128473      52.98023826      70.79879603
H      82.92204870      54.71689674      70.21865005
H      83.32456040      51.56483325      69.26811772
C      84.68705307      58.13541164      80.17561801
O      85.58278334      59.51680158      78.61659380
N      82.97874049      58.76469051      81.83101826
H      82.32678491      57.37007249      82.96107459
C      82.05277459      61.19109909      82.34313409
H      81.96773691      62.19454376      80.54600435
C      79.18605977      60.90575042      83.18973148
H      78.39615419      62.77280002      83.56578701
H      79.15582416      59.83994478      84.95095640
C      77.80655957      59.45066116      81.02788456
H      78.51709666      57.51747114      80.92583934
C      74.92661666      59.04437000      81.76109838
H      73.92317199      60.81126410      82.09369021
H      74.65260635      57.81793762      83.39193219
H      74.18206450      58.05415341      80.11514677
C      77.73097051      60.80748465      78.40305473
H      76.43083881      59.86073177      77.11615111
H      79.64715299      60.66953463      77.65472311
H      77.28877456      62.79925619      78.66950613
C      83.54376866      62.73311576      84.22341176
O      83.28487616      65.03669214      84.15916108
N      85.13491821      61.53691901      85.81456132
H      85.29365522      59.63585434      85.84101748
C      86.81110545      62.90697058      87.54366090
H      85.63191624      64.26568380      88.54899529
C      87.98084603      60.92275796      89.43905639
H      89.58900313      59.90797493      88.64726106
H      86.50308007      59.67742832      90.14959348
C      88.67626533      62.29847871      91.95617183
H      86.87346643      63.05058978      92.60623768
H      89.97828675      63.87451046      91.70105879
C      89.97639702      60.76024149      93.99329680
H      90.66614713      61.89596701      95.56743882
H      91.68093017      59.79648107      93.35267959
N      88.32288650      58.69288091      94.93438050
H      88.57422010      57.10362108      93.91014884
C      86.57488967      58.74768297      96.71450269
N      86.21584166      60.64118874      98.12045907
H      84.54721333      60.46544419      99.02941743
H      87.48762747      62.05470402      97.95605289
N      85.25775042      56.69732992      96.94693903
H      83.88769884      56.57638744      98.26974744
H      85.85301422      55.21200504      95.90569983
C      88.95783454      64.34694204      86.26998536
O      89.99907375      66.14407176      87.29232729
N      89.55687778      63.77813442      83.85113569
H      88.95594481      62.13596225      83.08579652
C      91.48817808      65.15196544      82.31856765
H      92.53130701      66.49178140      83.48641851
C      93.70671676      63.33593846      81.44362435
H      95.03897381      64.26946326      80.17939746
C      94.76874295      62.20777185      83.95129117
H      96.09722056      60.68843189      83.54877948
H      93.40436055      61.26668815      85.17772356
H      95.46416224      63.83293648      85.00764818
C      92.68815428      61.04936962      79.71641451
H      91.70171715      61.84872385      78.09313961
H      91.29164654      60.00246124      80.81245578
C      94.74417651      59.52625021      78.48998214
H      96.10100001      58.99334739      79.94507139
H      95.59833280      60.57126886      76.93284764
H      93.76718801      57.84628352      77.80401147
C      90.43749024      66.78846843      80.05089607
O      91.87557197      67.64451445      78.47486432
N      87.97517686      66.81303487      79.81845972
H      86.96228355      65.61872784      80.90694208
C      86.45961636      68.11883576      77.93251286
H      87.30432401      67.72955214      76.09380916
C      83.71384402      67.13050889      78.09124988
H      82.71984799      67.77868502      79.77688575
H      83.39825973      65.09527366      78.09502933
C      82.27954175      68.10749740      75.72153309
O      79.94950920      68.90685163      75.82735775
O      83.27164806      68.19442481      73.61259852
C      86.47851363      70.96098413      78.35392183
O      86.32166634      72.47843436      76.57190992
N      86.61457391      71.75466918      80.67261602
H      86.51819787      70.30713883      81.91416621
C      86.72795749      74.52689768      81.44929353
H      87.26652949      75.68529991      79.83357754
C      84.04454612      75.45475330      82.33746491
H      83.33022958      74.08281200      83.69806786
H      82.78787813      75.35837726      80.70852082
C      83.63069606      78.15706193      83.28043833
H      84.43005030      78.42540307      85.16071602
H      81.60868891      78.34414484      83.63192743
C      84.42060166      80.33402664      81.53622094
O      86.80921573      80.46252803      81.17150376
O      82.95606377      81.85147687      80.61025505
C      88.93137838      74.86704842      83.45618289
O      89.89324906      73.06991870      84.66938717
N      89.78931413      77.21975768      83.89648911
H      89.00507770      78.67484694      82.94028760
C      91.72061442      78.06635507      85.71440583
H      92.74673580      79.75766012      85.13992903
H      93.04720228      76.53000758      86.07912300
C      90.48473340      78.74665654      88.22207264
O      88.98807016      80.50410201      88.36758156
N      91.36723559      77.66573309      90.31777913
H      92.59933714      76.21820273      90.15526266
C      90.44126969      78.07958315      92.86324047
H      88.38146801      78.02667082      92.85757128
C      91.55053904      75.97253831      94.57911196
H      93.54420031      75.69663827      94.14447490
H      90.64913960      74.22454147      93.96306119
C      91.15936569      76.34481440      97.44393705
H      92.46327686      77.68085090      98.31699061
C      88.44949816      77.31613372      98.23195293
H      88.54020503      77.66762282     100.25962925
H      86.99440891      75.94608214      97.73306517
H      88.14903168      79.06413056      97.18504454
C      91.47306026      73.87116265      98.85367288
H      93.30987425      73.07558788      98.36234403
H      89.95938949      72.54646451      98.40958720
H      91.32377188      74.10926817     100.89268757
C      91.16881432      80.82913494      93.86290569
O      93.37979411      81.35447885      94.18037970
N      89.22806540      82.43162285      94.05376804
H      87.55943708      81.80990289      93.36590766
C      89.46050174      84.75598622      95.43326826
H      91.47117055      85.18495409      95.55232102
C      88.18304675      87.10869548      94.22762287
H      88.32099677      88.55433610      95.68838130
H      86.17048823      86.76476529      93.94983310
C      89.24318321      88.30300251      91.85412661
H      90.95527526      89.25731429      92.48718494
H      87.84289602      89.67116436      91.22106831
C      89.74774014      86.48130634      89.63558792
H      88.25863580      85.05834243      89.62613930
H      91.29920544      85.18495409      90.02298181
N      89.88946961      87.79277640      87.23941496
H      90.47717449      89.60691366      87.23374578
C      89.15625581      86.82334680      84.93583858
N      88.04509673      84.75409649      84.66371799
H      87.75974806      84.07757447      82.90249307
H      87.66715147      83.78277716      86.26242645
N      89.52097298      88.09324288      82.87792663
H      89.20916815      87.26365303      81.18851131
H      90.17103883      89.88470343      82.98375130
C      88.36257076      84.45551973      98.22061457
O      86.14970124      83.71285729      98.63257490
N      90.04631690      84.97897392     100.09522306
H      91.89446924      85.10558558      99.64168876
C      89.26397020      85.11314449     102.81831868
H      87.92037479      83.62592988     103.29452971
C      91.80754182      85.11125476     104.51151346
H      91.47117055      86.11847889     106.27840756
H      93.28341807      86.21674466     103.59121674
C      92.93948789      82.64138247     105.04630601
H      91.55998768      81.22219801     105.61889308
C      94.07332367      81.48864942     102.62934605
H      95.03708409      82.89838525     101.48228219
H      92.58043989      80.59669860     101.52574588
H      95.49061840      80.06946496     103.10555709
C      94.95582587      82.83980373     107.06831316
H      95.70604721      80.93684934     107.31586730
H      94.11111819      83.18373392     108.91457578
H      96.34666443      84.32134916     106.73005215
C      87.64825421      87.52821472     103.40791330
O      86.09111972      87.50742773     105.00851148
N      87.99218439      89.48786090     101.98683911
H      89.27152911      89.12125400     100.62056698
C      86.56544103      91.91237976     101.96416240
H      85.20483809      91.93316675     103.50995851
C      88.45138789      94.12146982     102.40635835
H      87.47628911      95.92426873     102.20226790
H      90.11056759      93.94572528     101.19882323
C      89.43026613      94.41626713     105.10677725
H      90.74173619      92.88558881     105.53196567
H      87.82210903      94.39925959     106.39557059
C      90.72661837      97.01086136     105.53763484
H      89.20727841      98.39792047     105.42236155
H      91.98139664      97.25841550     103.92569830
C      92.17981790      97.05054561     108.07931674
H      93.77852637      95.75986254     107.93380781
H      91.20471912      96.16804342     109.66290740
N      92.77697142      99.67348573     108.90512714
H      93.68026059      99.68671381     110.58320410
H      91.22361639     100.78086535     108.96370866
H      93.99017571     100.63724615     107.78829889
C      84.80799556      92.40370860      99.81743330
O      84.96106339      91.32089543      97.77841860
N      82.77465004      93.95517391     100.26151898
H      82.83890074      94.77531513     101.98116993
C      80.86413674      94.66382127      98.42659473
H      79.97218592      92.91015526      97.81432340
C      78.77976863      96.20016877      99.69271136
H      79.85124344      97.67793474     100.64324369
C      76.84846834      97.04865588      97.62535078
H      75.34424619      98.26563963      98.33399814
H      75.95084833      95.37813782      96.82599654
H      77.91616369      98.05776973      96.18348961
C      77.24720059      94.78287403     101.62212193
H      78.35646992      93.89659239     103.11311598
H      76.28532988      93.28054161     100.59411081
C      75.10992013      96.10190300     103.10177764
H      75.87147982      97.80076695     103.98616954
H      74.12348298      94.97751584     104.51529292
H      73.56412399      96.59134211     101.82999182
C      82.08678966      95.93938654      96.05687794
O      83.35479602      97.84612039      96.13435671
N      81.40270874      94.88302953      93.85912624
H      80.39548461      93.26731353      94.00085570
C      82.09812802      95.63325087      91.14736897
H      82.84079046      97.52675664      91.47051217
C      84.04832558      93.84179033      90.16471130
H      85.47695867      93.34857176      91.56310876
H      85.20483809      94.79421239      88.75119602
C      83.29243505      91.29632899      89.25008376
C      83.21117682      90.82011795      86.62336418
H      83.89147829      92.16749282      85.24953315
C      82.60835413      88.49386486      85.57078662
H      82.75764251      88.16694221      83.56011782
C      82.01498007      86.39437893      87.10902384
O      81.56522520      84.05111830      86.18494768
H      81.37058339      83.96041144      84.38214878
C      81.89781704      86.83279543      89.69605916
H      81.51609232      85.20952053      90.86957920
C      82.47607329      89.37636705      90.79210043
H      82.56678016      89.77887876      92.78954115
C      79.71329342      95.92615845      89.42582830
O      77.57601296      95.72962692      90.31022022
N      79.94384003      96.46284072      86.98808136
H      81.44617245      97.50785938      86.44950936
C      77.81789792      96.32678043      85.24764342
H      76.07934972      95.58033854      86.06022574
C      77.55522597      99.00830207      84.20262478
H      76.62359090      98.89113904      82.36959026
H      79.40904749      99.76608232      83.71696511
C      75.93006134     100.81865988      85.84668666
H      76.98641835     101.00952223      87.60413214
H      74.11970353      99.89647344      86.18872713
C      75.28755440     103.38301848      84.60702620
H      74.23497683     103.27719381      82.83824237
H      76.98263890     104.48661865      84.21774258
C      73.58869044     105.00251393      86.30589016
H      73.90994391     104.76818787      88.32789732
H      71.59691890     104.48283920      86.19061686
N      73.59435962     107.72371982      85.71629556
H      71.89360593     108.53630214      86.01865177
H      74.24631519     108.19237195      83.98530625
H      74.80756392     108.62889873      86.87658751
C      78.57000901      94.44650275      83.18406230
O      80.81689359      94.26886848      82.53588616
N      76.78232790      92.98952376      82.15983064
H      75.12692766      93.20873201      83.08390680
C      76.87870395      91.74797357      79.82790836
H      78.67016449      90.73697000      79.97908646
C      74.61481183      89.98674865      79.52366242
H      72.98019856      91.22640911      79.34224869
H      74.74898239      88.82267724      81.21874693
C      74.92094750      88.32001004      77.11426137
O      73.07090543      88.18394975      75.62515704
O      76.99964643      87.46207430      76.56246130
C      77.04688959      93.55455193      77.51677308
O      76.75965120      95.91293037      77.90416697
N      77.70073489      92.74763879      75.25099124
H      77.66671983      90.83901522      75.25666041
C      77.56467460      94.19894860      72.90206142
H      78.67961313      95.87891529      73.32913957
C      78.52465556      92.74763879      70.60037477
H      78.11647468      94.04021159      69.04890948
C      81.32145051      92.02765307      70.75344261
H      82.31733628      93.70195058      71.42240573
H      81.98474444      91.62136191      68.84670875
H      81.53309985      90.33634802      71.90995510
O      77.16405262      90.60279943      70.01833908
H      78.07490071      89.85635753      68.63694913
C      74.94929339      95.00775146      72.28601065
O      74.64693718      96.75196885      70.86115700
N      73.03689035      93.67738414      73.24977107
H      73.25609861      91.96907155      74.07747120
C      70.31379473      94.52020208      73.09670323
H      69.91128303      94.85657336      71.10493170
C      68.51666502      92.22229488      73.74865881
H      67.96108548      92.22607433      75.73287145
H      69.54278640      90.52154120      73.21008681
C      65.96364476      92.38859079      72.37482778
H      66.46253251      92.62669631      70.39061515
H      64.99232544      94.04966022      73.10993131
C      64.04557255      90.11525004      72.40317368
O      61.90073319      90.38926035      71.45075162
O      64.70319731      88.02710246      73.35559573
C      69.61081655      96.72740241      74.92595830
O      67.74943613      97.95950396      74.65383771
N      71.27377570      97.18660590      76.73442638
H      72.81012319      96.06032902      76.86481751
C      71.38715928      99.24262813      78.46352597
H      70.85614620     100.96794825      77.47330937
H      73.35436437      99.73017752      78.83391233
C      69.66939806      98.96105891      80.74442563
O      69.46719735     100.68826876      82.34124436
N      68.78500615      96.61023938      81.20173940
H      68.96264042      95.37813782      79.75609877
C      67.82313545      95.68616321      83.63759660
H      66.68740994      97.19605453      84.45773782
C      66.12427150      93.34668203      83.09524516
H      65.45152893      92.36402435      84.77521185
H      67.41117512      91.98796882      82.23919913
C      63.81502594      93.66793551      81.40205038
C      62.94386211      91.60435437      80.16616937
H      63.54101563      89.70328970      80.60269614
C      61.08059197      91.92560785      78.37092938
H      60.74233096      90.35146583      77.11426137
C      59.94675618      94.33689862      77.70952517
O      57.86427778      94.62413702      76.21475166
H      57.46932499      96.39481058      76.22797974
C      60.89728852      96.39481058      79.07768701
H      60.08281648      98.20516839      78.60714517
C      62.85693470      96.09812355      80.84647084
H      63.52967727      97.81399504      81.72519358
C      69.89049604      95.21940081      85.56511744
O      71.91439292      94.31989109      84.77710158
N      69.54845558      96.02253449      87.86113491
H      67.92896013      96.97684628      88.20128565
C      71.26810653      95.57088991      89.97195921
H      73.12948694      96.27575782      89.44850503
C      70.24387486      96.92015449      92.27175614
H      71.20196610      96.10757218      93.90447966
H      68.20674990      96.65559281      92.42293423
C      71.09803116      99.55065352      92.30388147
C      69.21775347     101.45171819      92.28687394
H      67.25999701     100.87913112      92.39269862
C      69.95285701     103.96127473      92.57411235
H      68.62059996     105.50329141      92.46261848
C      72.56445877     104.57543579      92.66670894
O      73.43184315     106.99806492      92.75363635
H      72.14682927     108.20371031      93.19016312
C      74.33135289     102.63090741      92.86324047
H      76.25131482     103.08255200      93.38480494
C      73.60380825     100.10623306      92.52686918
H      74.95118311      98.59256228      92.78576168
C      71.59502918      92.63614494      90.48596477
O      69.77900220      91.23018856      90.65037095
N      73.83057540      91.81033454      90.96028607
H      75.07401533      93.24841627      90.79399016
C      74.71874677      89.24219648      91.33445188
H      73.15405338      87.96474150      91.73885332
C      75.79589078      88.32756895      88.73040903
H      76.62737035      86.46051935      88.98741180
C      73.58869044      87.79844558      86.86713887
H      72.97452938      89.46896364      85.82967913
H      72.17706488      86.60224882      87.77231778
H      74.28410973      86.58146183      85.35535782
O      77.43050403      90.14737539      87.69483901
H      79.07834537      89.45762528      87.37358552
C      76.74453338      89.08156975      93.40748165
O      77.56656433      90.91271454      94.46950784
N      77.28310538      86.72697076      94.12179819
H      76.58957582      85.24353560      93.13914051
C      79.18039060      86.06745628      95.95861217
H      81.02098402      86.95184819      95.68460185
C      78.32623430      86.73263994      98.62501599
H      77.50609309      88.61102789      98.43415364
C      76.06612164      84.86748007      99.33177364
H      76.96374163      83.05523253      99.72861617
H      74.56756867      84.64071291      97.93715561
H      75.29322357      85.33802192     101.18181569
C      80.49375038      86.66272007     100.58277245
H      82.12647392      87.64915720      99.80609494
H      81.23641283      84.76543485     100.87945948
C      79.82667699      87.59057569     103.24350710
H      78.92905701      89.42549994     102.99028377
H      81.43672381      87.72852571     104.52285181
H      78.40371308      86.42839400     104.17514218
C      79.70573451      83.10625514      95.43893743
O      78.33379321      81.96297073      93.96306119
N      81.71451358      82.07446458      96.70316433
H      82.95606377      83.12326268      97.70660901
C      82.30599792      79.35703814      96.84111436
H      80.53154491      78.34981401      97.10945549
H      83.75919745      79.27955936      98.29809334
C      83.39448028      78.38004964      94.27675575
O      84.43760921      79.77655738      92.70828291
N      82.64803839      76.16529040      93.48307069
H      81.62569644      75.14483819      94.73217979
C      82.79732677      75.05224160      90.88280729
H      84.42249139      75.88561090      89.92660577
C      83.50219467      72.20253432      91.18516351
H      81.77498482      71.65262396      92.16404173
C      83.57211455      70.83248274      88.62269462
H      85.32767029      71.12161087      87.58145543
H      82.11702529      71.33703967      87.25264304
H      83.37747275      68.80291668      88.91749192
C      85.82466831      71.72443356      92.82355621
H      85.88513955      72.65039945      94.66225991
H      87.37613361      72.62961247      91.81822182
C      86.59567666      68.96921260      93.47740151
H      85.20672781      68.16607891      94.77186405
H      88.53453584      68.90685163      94.16715163
H      86.72228831      67.67852953      91.87680334
C      80.33123392      75.69096909      89.29165774
O      78.75520217      74.00344349      88.70962203
N      79.89092769      78.10792905      89.10268510
H      81.21373611      79.31735389      89.75653040
C      77.96340685      79.21152921      87.59090405
H      77.85569245      78.26855578      85.76353871
H      78.39048500      81.21274938      87.33768072
C      75.41794551      79.03200521      88.65670970
O      73.60569797      79.22286757      87.30933484
N      75.10047149      78.72586955      91.10579499
H      76.66894433      79.04712302      92.14892393
C      72.65894510      79.01877713      92.48529520
H      71.28133461      77.56368787      92.01097391
C      73.06712597      78.59169898      95.33878194
H      74.32001453      80.08836222      95.99829642
H      74.07057065      76.80968707      95.57688746
C      70.80134412      78.63705241      97.00363081
N      68.96075070      76.85881995      97.14913974
H      69.30279117      75.12027175      96.44049238
C      66.95386135      77.76210913      98.27919608
H      65.31546864      76.64339115      98.76485575
N      67.41117512      80.15450264      98.86312152
H      66.22631673      81.32235351      99.79853603
C      69.73553848      80.84236302      97.84266931
H      70.51599545      82.72453043      97.72928572
C      71.48542506      81.53778230      91.89381086
O      72.54178207      83.47664150      92.76875415
N      69.30657061      81.40928092      90.72029082
H      68.50910611      79.82191081      90.02298181
C      67.63038337      83.68640112      90.36502228
H      68.87004383      84.98275337      89.35212897
C      65.44208030      83.02499691      88.56600283
H      64.07958763      81.80234399      89.50897627
H      66.15639685      82.13304609      86.85202107
C      63.77156224      85.46652331      87.96318014
H      63.27456422      86.10714053      89.85857563
C      65.16429053      87.35813935      86.45328881
H      65.54601525      86.65327143      84.55411387
H      66.93118463      87.95151341      87.32823210
H      63.97565268      89.03999577      86.48541416
C      61.34893311      84.89582596      86.44006074
H      60.07903702      83.73931346      87.57767598
H      61.69286329      83.69773948      84.79977829
H      60.40406995      86.65138171      85.92227573
C      66.86504421      84.70685333      93.00119048
O      65.85026118      83.24042571      94.51297154
N      67.43196212      87.18428453      93.46039398
H      68.56768762      88.12914768      92.25096914
C      66.10348451      88.45984979      95.53342374
H      65.48743373      87.15215918      97.00174109
C      67.78534093      90.40815762      96.96772601
H      66.56268800      91.21129130      98.41714611
H      68.32391293      91.77254002      95.52208540
C      70.02466662      89.17605606      98.24329128
H      71.49298395      88.41638608      97.01685890
C      71.75754564      90.97696524      99.70216000
H      72.31690463      92.51142300      98.44738172
H      73.36003356      90.16816238     100.70938411
H      70.75410098      92.00875581     101.17614651
C      69.30090143      87.15404891     100.08388471
H      68.05557179      87.89104217     101.54842260
H      70.82969002      86.25075973     101.12890336
H      68.34281019      85.65171649      99.05209414
C      63.42763205      89.74486368      94.79832022
O      61.52845711      88.76787518      95.68082241
N      63.46731630      91.62703109      93.12402269
H      65.07169394      92.35646545      92.38891917
C      60.96153921      92.55299698      92.31710956
H      59.71620957      90.91460427      92.37758080
C      59.78801917      94.34067808      94.18415916