 %block lattice_cart
   137.793   0.000   0.000
   0.000 143.498   0.000
   0.000   0.000   162.326
 %endblock lattice_cart

 %block positions_abs
N      84.18911018      38.31879666      78.38226773
H      82.49969486      38.61170424      77.54133952
H      84.02281427      36.82213342      79.55578777
H      85.50813915      38.01833018      77.03678260
C      84.68421848      40.46174630      80.15294128
H      86.33583928      39.73798112      81.14504761
C      85.21901102      42.81823501      78.63171160
H      84.97712606      44.57568048      79.67861998
H      83.98501974      42.99586928      76.99331889
C      87.99879843      42.82579392      77.87393135
H      88.28225738      41.84313623      76.08814000
H      89.10617805      41.99998352      79.40083021
S      89.00980201      46.07801290      77.39961006
C      92.19588057      46.00998275      76.49065169
H      92.44721417      46.73752738      74.58013840
H      93.16531017      44.19395577      76.52466677
H      93.16908962      47.13625964      77.91361560
C      82.66788050      40.76977169      82.13526419
O      80.49091579      40.08947021      81.53433122
N      83.09306892      41.90360748      84.31789808
H      84.88452947      42.43462057      84.69962280
C      81.38664606      42.57635004      86.33612579
H      79.96368215      41.09480461      86.49486279
C      82.63008598      42.40816440      88.93449946
H      84.23257389      43.70262693      88.88158713
H      83.28582101      40.46174630      89.08567758
C      80.81783844      43.01098709      91.04721348
O      78.58229221      42.95240558      90.76186481
N      81.72868652      43.55522827      93.33189259
H      80.80838981      44.16560987      94.88902708
H      83.61841284      43.41160907      93.55488030
C      80.40776783      45.32968128      85.85235585
O      81.88364408      47.03610414      85.98274696
N      77.99458733      45.67739092      85.37992428
H      76.97413512      44.09569000      85.05678108
C      76.78138304      48.31544886      85.04544272
H      77.78860716      49.40582094      83.61869935
C      73.93545521      48.19639610      84.21585286
H      73.68034216      46.70162258      82.81934512
C      72.23092208      47.36302679      86.37203059
H      70.38654919      46.62603353      85.82212022
H      72.07029534      49.05622157      87.53232254
H      73.17011605      46.00998275      87.60791159
C      72.87909820      50.67571702      82.95351568
H      72.87153930      52.27064603      84.25742684
H      71.01015888      49.98407719      82.43384094
C      74.20568607      51.43727672      80.54411463
H      74.20946553      49.68550043      79.46130145
H      76.18611925      51.87569323      80.90883181
H      73.37420649      53.03787491      79.54822886
C      77.16310775      50.10690940      87.35846772
O      77.64498796      52.25363849      86.83879298
N      77.27460160      49.14503871      89.68094135
H      76.69823508      47.32901172      89.76597904
C      77.75648181      50.43761150      92.02798144
H      76.82484674      52.27253575      92.08845268
C      76.69256590      48.94850717      94.33911672
H      77.14232076      50.08612241      95.99640669
H      77.52593520      47.08145757      94.08967284
C      73.79939492      48.89937429      94.33911672
C      72.47847622      50.94027870      95.41815045
H      73.35341951      52.76953378      95.65436623
C      69.88388199      50.75697525      95.93215600
H      68.92201130      52.47662620      96.46505882
C      68.56674275      48.59890780      95.38980455
H      66.55607396      48.61591534      95.75263201
C      69.80640322      46.40682528      94.52808935
H      68.76138456      44.67205652      94.26541739
C      72.49737349      46.53154722      94.06699614
H      73.54050241      44.82701408      93.65503580
C      80.62319663      51.06311091      92.35679382
O      81.35641044      51.94750283      94.36557289
N      82.27859688      50.39036835      90.49730313
H      81.60207486      49.67983125      88.86080014
C      84.94500071      51.10846435      90.72218055
H      85.13397334      52.46717756      92.25852805
C      86.49268656      48.69717357      91.50641698
H      86.37741325      47.27043020      90.02676127
H      85.49491107      47.98285702      93.16181722
C      89.28381232      49.11858254      91.94294375
H      89.80159733      50.49619302      90.50486204
H      90.26080083      47.31767336      92.15837255
C      89.74301582      50.42249369      94.49407428
O      87.94021692      50.99508077      95.90381010
O      91.84250175      51.44294590      95.09500725
C      85.77837001      52.41048578      88.24096990
O      86.92732361      54.44950047      88.32222814
N      85.15476033      51.33712123      86.12636617
H      84.41398762      49.58156548      86.22274221
C      86.15064610      52.18749807      83.65649387
H      88.19721969      51.98718708      83.74342129
C      85.32861515      50.31477929      81.60236137
H      85.63475081      48.41938380      82.34691353
H      86.40575915      50.50753138      79.85814398
C      82.50347431      50.60957660      80.99009004
H      82.13497768      52.38213988      80.01121181
H      81.41310223      50.66248894      82.73619715
S      81.09940766      47.99419538      79.07957674
C      82.63386543      48.66693795      76.04656601
H      84.67288012      48.38536873      75.99365367
H      82.20678728      50.63792249      75.62704676
H      81.70034063      47.31011446      74.81068501
C      85.35696105      55.01452863      83.05178145
O      86.69110782      56.32599870      81.79700318
N      83.29337991      56.07844455      84.03632887
H      82.37497292      55.12224303      85.41015989
C      82.45434143      58.65036206      83.76420827
H      82.81149970      59.24562585      81.82723881
C      79.59896497      58.79209153      84.24797821
H      79.03204708      60.63079524      84.98497148
H      79.06606215      57.37857625      85.64637569
C      77.90010101      57.79242631      82.06723404
H      78.40276821      55.88380274      81.47952917
C      75.23936637      57.67526328      83.13303968
H      74.83874439      59.30231764      84.32923644
H      74.99937112      55.99151714      84.30089054
H      73.93167576      57.58266669      81.54566958
C      78.07773529      59.42326012      79.75231931
H      80.02037394      59.73884442      79.14571717
H      77.29349887      61.30164808      80.06790360
H      77.21790982      58.47083806      78.14038276
C      83.74691423      60.56654454      85.56322772
O      83.48613200      62.83232639      85.25898179
N      85.24357747      59.74073414      87.44161568
H      85.43066037      57.84155920      87.51342528
C      86.52670163      61.52274606      89.27465021
H      84.99602332      62.31265166      90.40470654
C      88.10084365      59.92592732      90.99808060
H      89.65797813      59.13980118      89.90392906
H      86.83283730      58.37635175      91.48374026
C      89.01169173      61.38668576      93.37535630
H      87.26369490      62.04053107      94.24840986
H      90.26835973      62.93815107      92.86513020
C      90.78992420      59.73506496      94.89280654
H      91.45888731      60.88968774      96.45938964
H      92.25824154      59.26452311      93.52653441
N      89.52002811      57.54865162      95.81121351
H      89.93954735      55.92348699      94.90225516
C      87.80982580      57.41070160      97.69338092
N      87.34684285      59.21161078      99.22972842
H      86.12418993      58.95082854     100.67158960
H      88.24824230      60.89157747      99.13146266
N      86.92543389      55.30932594      98.42470500
H      86.02214471      55.23562661     100.10467170
H      87.26558462      53.62180034      97.59889462
C      88.12163064      63.49562033      87.81011230
O      88.96633830      65.33243430      88.95339673
N      88.88319035      63.07232163      85.44228523
H      87.96856281      61.61156319      84.62403374
C      90.39875085      64.80520066      83.91538637
H      91.25290714      66.16958306      85.20040027
C      92.67398133      63.66191624      82.52832727
H      93.60561640      65.08110070      81.36425586
C      94.62228916      62.92870243      84.58812894
H      96.47611067      62.70193528      83.72263430
H      94.17442402      61.08055010      85.37992428
H      94.79047480      64.39890951      86.02054150
C      92.10139426      61.31109671      80.98820032
H      91.36629072      59.79931566      82.17872790
H      93.89474453      60.50607330      80.37214954
C      90.44221455      61.65502690      78.53722529
H      91.35684209      62.69248664      77.01032643
H      88.56571633      62.40524824      78.93784727
H      90.17009396      59.78986703      77.70385598
C      88.88508007      66.34721733      82.01999088
O      89.99245969      67.99505868      80.73875645
N      86.39631052      66.01273578      81.71007578
H      85.43632955      64.98472466      83.00075885
C      84.87697056      67.05964415      79.58980285
H      85.79537755      66.76295712      77.77188613
C      82.39387019      65.95037481      79.69184806
H      81.55861116      66.56264613      81.47008052
H      82.70000585      63.91513957      79.58980285
C      80.50603360      66.72516260      77.75109914
O      78.25347984      67.23727843      78.31234786
O      81.39231524      66.98594483      75.60814951
C      84.59918079      70.04163228      79.80145219
O      84.27981705      71.38522768      77.93818205
N      84.48012804      70.87122213      82.14093338
H      84.45367187      69.52762672      83.49775686
C      84.36107528      73.59809720      82.87792663
H      84.96389797      74.57130625      81.16583460
C      81.63231048      74.46737130      83.33335067
H      80.75169802      73.29952044      84.78088103
H      80.72335213      74.10076440      81.52110314
C      81.42633031      77.36243201      84.13459463
H      82.55071747      77.47770532      85.85613531
H      79.53282455      77.94257799      84.70718171
C      82.26725852      79.25971723      82.05967513
O      84.63319587      79.43546178      81.58913329
O      80.83484598      80.84330788      81.32646132
C      86.24135296      74.17446372      84.97741257
O      86.92921334      72.38300318      86.31533880
N      87.51691822      76.30229555      85.00575846
H      87.06338391      77.63644233      83.71885485
C      89.46522605      76.84086755      86.94083821
H      90.37607413      78.64555618      86.54399568
H      90.76913721      75.25349745      86.78399092
C      88.43154576      77.12054704      89.68094135
O      86.61173932      78.48492944      90.00975374
N      89.83750213      76.42701749      91.71995606
H      91.64597022      75.89789412      91.40626148
C      89.02869927      76.87677235      94.32777837
H      87.00102294      76.52906271      94.24274067
C      89.99434942      74.85854465      96.29309373
H      92.05226137      74.76405833      96.25718893
H      89.24034862      73.06330465      95.62224088
C      89.11562668      75.25349745      99.09744757
H      89.62018361      77.13566485      99.76263123
C      86.33017010      75.53506667      99.35067090
H      85.77081111      76.97314839      97.99006796
H      85.87096660      76.34009008     101.19126433
H      85.41743229      73.72848831      98.96705646
C      90.01702613      73.18424713     100.88323894
H      89.08917051      71.38144823     100.52041149
H      89.50680003      73.49227252     102.85422349
H      92.05037165      72.85165530     100.83221633
C      89.13452395      79.76427416      95.47295250
O      91.26424550      80.53150304      96.16837179
N      87.18621612      81.27227575      95.43326826
H      85.65364808      80.59953319      94.51675099
C      87.02558938      83.75348640      96.64080337
H      88.90208761      84.30528649      97.28708976
C      85.89364332      85.84541343      95.05154354
H      85.57427957      87.51593149      96.21372522
H      83.97368138      85.30684143      94.53753799
C      87.15409077      86.71468754      92.54576646
H      89.16098011      86.97924922      92.92371171
H      85.99946799      88.36819806      92.12246776
C      86.72512290      84.60197352      90.61635588
H      84.78059452      83.96891520      90.87524838
H      88.12352037      83.17145070      91.10768472
N      87.10873734      85.68100724      88.04821782
H      88.15753544      87.27593625      88.00664384
C      86.68165919      84.51126665      86.00353395
N      86.07127759      82.13399095      85.84668668
H      85.42499119      81.53494771      84.15349190
H      86.23379405      81.15889218      87.47941020
N      86.89708799      85.89076686      83.88515075
H      86.72323317      85.02527221      82.19384571
H      87.12952433      87.77671372      84.06467475
C      85.67065561      83.51160143      99.25240514
O      83.42377103      83.37176169      99.33933254
N      87.01425102      83.65144118     101.33866298
H      88.87563144      83.87820834     100.97394580
C      86.11663102      83.55695487     104.08254559
H      84.99224387      81.85998064     104.39812989
C      88.38808205      83.34719525     105.90991093
H      87.72478812      83.55128569     107.85065986
H      89.53703565      85.01771331     105.55086293
C      90.02458504      80.93401474     105.88156505
H      90.92976394      80.92078666     104.03152299
C      92.06737918      80.97936818     107.76562218
H      91.37573935      80.91322775     109.70448138
H      93.19743552      82.65744514     107.36877964
H      93.32782663      79.36932136     107.52184748
C      88.17454298      78.71358633     106.03274314
H      87.22779010      78.30540544     104.25073123
H      87.03314829      79.19546654     107.67680504
H      89.39908563      77.06763471     106.25573085
C      84.43666433      85.76226547     104.96504777
O      83.24991621      85.46746817     106.94170150
N      84.49902530      87.85608223     103.47216399
H      85.56672067      87.81639798     101.89046307
C      82.76236682      90.07273119     103.68570306
H      81.46979402      89.71557292     105.24850672
C      84.14942593      92.55961102     104.36222509
H      85.40231448      92.25347536     105.96849245
H      82.82283806      94.00147220     104.99717312
C      85.69900151      93.56872487     102.06809734
H      84.44422324      94.26981333     100.59222109
H      86.93110306      92.14576096     101.23283832
C      87.64730934      95.59640121     102.94304063
H      88.57327523      96.26914377     101.23094858
H      88.94555131      94.73279628     104.28852575
C      86.27347831      97.91131594     104.11845039
H      84.99413359      97.21967611     105.57731910
H      85.08295073      98.85050992     102.72383238
N      88.14997654      99.53270112     105.34866222
H      88.92854378      98.55571261     106.79241312
H      87.34117367     101.02936436     106.21415687
H      89.55593291     100.09772928     104.18648053
C      80.73846994      90.43555865     101.67125481
O      81.13909192      89.56250509      99.57365860
N      78.81472855      91.96056778     102.28352614
H      79.00370118      92.74291447     104.01262571
C      77.03649609      92.51614732     100.33521831
H      76.39776860      90.71334841      99.56609970
C      74.56284435      93.94667014     101.29708901
H      74.99370195      95.91198550     101.73928496
C      72.37643100      93.51392281      99.27130239
H      72.83941395      94.41721199      97.47795213
H      70.71347185      94.50791885      99.96672169
H      71.73203433      91.58640197      98.93871057
C      73.54617159      92.95267409     103.85955788
H      75.08251908      92.64464871     105.19559438
H      72.61075706      91.14042656     103.56476058
C      71.78305694      94.71767847     105.19937384
H      71.84919736      94.43232980     107.23649880
H      69.91222789      94.36429965     104.41135797
H      72.54083719      96.60362533     104.85166420
C      78.28182573      94.08839961      98.24140156
O      79.19267381      96.23512870      98.64013381
N      78.34418670      93.20589742      95.92270737
H      77.61286261      91.46545949      95.64302788
C      79.19078409      94.45689624      93.62480017
H      79.97879996      96.26536432      94.21817423
C      81.52459608      93.11897001      92.54198700
H      82.82283806      92.94322546      94.12935710
H      82.26725852      94.40776336      91.11524363
C      81.15420973      90.50358879      91.38925395
C      81.57750842      90.32973397      88.71907067
H      82.13875713      91.92844243      87.57956569
C      80.92555284      88.00348088      87.47374103
H      81.08051040      87.81072880      85.44795441
C      80.03360202      85.93234084      88.76820355
O      79.17377655      83.81395764      87.50586638
H      79.17377655      84.09552687      85.71440583
C      79.70667937      86.04005524      91.49696834
H      78.93945049      84.50748720      92.60812741
C      80.24525137      88.34174189      92.67993702
H      79.76904034      88.60819330      94.64525238
C      77.01003992      94.74413464      91.71428687
O      75.22802801      93.22479468      91.56121905
N      77.07618034      96.80204659      90.28376406
H      78.70512442      97.79037346      90.41604489
C      75.59463491      97.26125009      88.11624797
H      73.65955517      96.74724453      88.59812819
C      75.38109584     100.11473682      87.55310954
H      74.61197723     100.16575943      85.64259623
H      77.27082215     100.93676777      87.59279378
C      73.49892843     101.34872810      89.49952763
H      74.54205736     101.32416166      91.27587037
H      71.78683639     100.20166423      89.47307147
C      73.08129892     104.12662578      88.59434873
H      71.40700140     105.02802523      89.38992350
H      72.76193517     104.14930250      86.55911349
C      75.44534653     105.71966507      89.21795841
H      77.10830569     104.71811012      88.53198776
H      75.72502603     105.64596574      91.25697310
N      75.35652940     108.34071546      88.42427337
H      75.25070472     108.49567302      86.52509842
H      76.81917756     109.34793959      89.12725155
H      73.95813193     109.43486700      89.12347210
C      76.30895146      95.77403548      85.64826540
O      78.58985112      95.54726832      85.03788381
N      74.33607719      95.04460112      84.21774258
H      72.62587487      94.93310727      85.05489134
C      74.86142110      93.32117073      82.02188061
H      76.52626998      92.10985616      82.12203611
C      72.68823584      91.30294302      82.01054225
H      70.91189311      92.33662332      81.85747442
H      72.67878721      90.41477166      83.86814323
C      72.96791534      89.32628930      79.96018921
O      74.68567656      87.71246303      79.85058507
O      71.45991374      89.55305646      78.17628756
C      75.09385744      94.73657573      79.51988298
O      74.64410258      97.03070348      79.28555692
N      75.77604864      93.33250908      77.51866280
H      76.70957344      91.72813144      77.96085876
C      75.47180270      93.98068521      74.77289047
H      76.78138304      95.46601009      74.21164176
C      76.06328704      91.71679309      73.27622723
H      74.58930051      90.34107233      73.71086428
C      76.00470552      92.13064315      70.38494597
H      74.13576620      92.74480420      69.77645410
H      76.85508236      90.48847098      69.47598762
H      77.24814544      93.70289544      69.91818358
O      78.43867301      90.63209018      73.75810745
H      77.95868253      88.89543170      73.96786707
C      72.91311327      95.17499224      74.17573696
O      72.89421601      97.00991649      72.75088332
N      70.69646431      94.36618938      75.20563781
H      70.80606844      92.75992201      76.23175919
C      68.12265707      95.44711283      75.12626929
H      67.98659678      96.40142462      73.30457313
C      66.18379787      93.39675978      74.71808842
H      65.43924571      92.83740079      76.55490238
H      67.26094187      91.71490336      74.21542121
C      63.92935438      93.92588315      73.02111418
H      63.08653645      95.76458685      73.41039781
H      62.51394937      92.48780142      73.42740535
C      64.88366617      93.88808862      70.32825418
O      65.60554162      91.93411161      69.34181706
O      64.38855788      95.78348411      68.96576151
C      67.53306246      97.30849325      77.31268264
O      65.44491489      98.26091531      77.60936968
N      69.42089905      98.20422352      78.88682465
H      71.01015888      97.14786651      78.86981712
C      69.10153530      99.85584432      81.06189965
H      68.04139884     101.56226718      80.60269615
H      70.96102599     100.48512318      81.68550932
C      68.03006048      98.60862495      83.45429315
O      67.70502756     100.16953888      85.17394411
N      67.46692204      96.19355472      83.51098494
H      67.47637067      95.12207990      81.93117376
C      66.12143691      95.06727784      85.67850103
H      64.80996684      96.44110887      86.47596554
C      64.29407156      92.92999738      84.68828444
H      63.29629607      92.06450273      86.26809564
H      65.46192242      91.51459237      83.75286991
C      62.16435001      93.88241944      83.01020747
C      61.53507114      92.36685894      80.85214003
H      62.65189939      90.75492239      80.29278103
C      59.72093388      93.22290496      79.06445894
H      59.16346462      92.24024727      77.36181552
C      58.27529325      95.44900255      79.63893573
O      56.51595806      96.22190062      77.86070327
H      56.03974703      97.94155156      78.19329511
C      59.05575022      96.93054798      81.67795043
H      58.08065144      98.72389825      81.67606069
C      60.96059434      96.29371022      83.40516027
H      61.35176769      97.55793712      84.95851530
C      67.92045636      94.33217430      87.86491437
O      70.08986216      93.66510091      87.38114444
N      66.96992402      94.36052020      90.10235033
H      65.11043333      94.67232504      90.40470654
C      68.47414617      93.79927148      92.32088902
H      70.40544646      94.48524213      92.10734995
C      67.38566381      95.06727784      94.80020995
H      68.21903311      94.21312155      96.48017663
H      65.36554638      94.85940794      95.13469149
C      67.88077210      97.80738099      95.10445587
C      65.85687522      99.57616482      95.23673672
H      63.93124411      98.90531198      95.31232578
C      66.19513623     102.21422275      95.22728808
H      64.59264832     103.47844966      95.22539836
C      68.66311880     103.14018865      95.23862644
O      69.22436751     105.65352464      95.05910245
H      67.76738852     106.60783643      94.55454553
C      70.66811841     101.36195619      94.97784422
H      72.59374953     102.04036793      95.00996957
C      70.29584233      98.72011880      95.02319765
H      71.78116721      97.33494941      94.82477639
C      68.72359004      90.93822584      92.49474384
O      66.93401922      89.49447494      92.05632733
N      70.93079037      89.93856063      92.98985214
H      72.44446115      91.09885258      92.91426308
C      71.80195420      87.35341503      92.66859866
H      70.24481972      86.03438606      92.95394734
C      72.79783997      86.92255743      89.89259071
H      74.71402245      87.56884383      89.50330708
C      72.62587487      84.21457962      89.35401870
H      73.21735921      84.05395289      87.38870335
H      70.68890540      83.52482952      89.46929202
H      73.91655795      83.11286918      90.52564903
O      71.26905138      88.12064391      88.06711508
H      71.58652540      89.88942774      88.31277951
C      73.78805656      86.89988071      94.64903183
O      75.15810813      88.64220837      95.52397511
N      74.15088401      84.55662009      95.53720320
H      73.12854207      83.19412741      94.67548801
C      76.05383841      83.83474463      97.38724526
H      77.64498796      85.04227975      96.89024724
C      75.08818826      84.45457487     100.06687718
H      74.37009226      86.38398543     100.13490733
C      72.62587487      82.99570615     100.67347932
H      73.10586536      80.99259626     100.64513343
H      71.21235959      83.32073908      99.20894143
H      71.81518229      83.79695011     102.38935082
C      77.20279201      84.24103579     102.21549599
H      78.89031760      85.29361335     101.67881372
H      77.57695782      82.22280809     102.40446862
C      76.34107681      85.31817979     104.75528815
H      74.83307521      84.06907070     105.39590537
H      75.76282055      87.28160543     104.52474154
H      77.85096813      85.33329760     106.15746508
C      76.96846594      81.06440586      96.95449794
O      75.63620889      79.66033921      95.79420598
N      79.18322518      80.43134754      97.69905010
H      80.33595823      81.61620594      98.65147217
C      80.04305065      77.75171563      97.71605765
H      78.65410181      76.55173942      98.64958244
H      81.82884202      77.75927454      98.74406876
C      80.61941718      77.10164978      94.95138804
O      81.84395983      78.54351096      93.55299057
N      79.90132118      74.70547682      94.32021946
H      78.94700939      73.79462873      95.69971967
C      80.14131642      73.54896431      91.87491360
H      81.79482695      74.47304048      91.06422102
C      81.23924741      70.72193375      91.98262801
H      79.68211293      69.80919594      92.97284459
C      81.85718791      69.24794722      89.52976326
H      80.33028905      69.45581712      88.16349113
H      82.03671191      67.22216062      89.86424482
H      83.56927995      70.09643434      88.75686519
C      83.53148543      70.62933716      93.76652964
H      82.89464766      71.23593931      95.62979979
H      84.78059452      72.07686751      92.99741103
C      84.81460959      68.08009636      94.29943246
H      85.63664054      67.51317847      92.49852329
H      83.49369090      66.63823519      94.94760859
H      86.26969885      68.59221219      95.66381487
C      77.98702842      74.22737606      90.24596952
O      76.60563849      72.55874772      89.50519682
N      77.56372973      76.64622574      89.61291121
H      78.82417718      77.90667319      90.29510242
C      75.38109584      77.87076839      88.36758158
H      75.21102047      77.17345938      86.43628129
H      75.95557264      79.84364266      88.51120077
C      72.69768447      77.54006629      89.42960776
O      71.03661505      77.81974578      87.88570136
N      72.56729336      77.12243677      91.88247251
H      74.14521483      77.33786557      92.93316035
C      70.11064915      77.35676283      93.02008775
H      68.83886334      76.04907222      92.06955541
C      70.35442385      76.63488738      95.80554434
H      71.36353770      77.93879854      97.04331508
H      71.43345757      74.90389808      96.08333411
C      67.94124335      76.13788936      97.08299933
N      66.81496646      73.85321025      96.97717465
H      67.49337821      72.52284292      95.78664707
C      64.54729489      73.89478423      97.93715563
H      63.08842617      72.55118882      97.45905486
N      64.04462769      76.30040582      98.58911119
H      62.31363838      77.06007580      98.84611398
C      66.18190815      77.80462797      98.09211318
H      66.25938693      79.84175294      97.98628851
C      68.97492364      80.09686599      92.73284935
O      69.75916006      81.74281761      94.04809886
N      67.08141787      80.51449550      91.20217105
H      66.28773282      79.25593778      90.00597429
C      65.44113543      82.88421230      91.34767996
H      66.76583358      84.42433924      91.00563951
C      63.69124887      82.83885887      89.00063988
H      62.32119729      81.32896754      89.29732691
H      64.96303468      82.30028687      87.47374103
C      62.21915207      85.26526745      88.36191239
H      63.25094264      86.93578551      88.98363235
C      61.78640474      85.66777916      85.53677156
H      60.52595729      84.14843920      84.94717694
H      63.57219611      85.24448046      84.60513649
H      60.97949161      87.49325478      85.02087628
C      59.72282361      85.43723255      89.69605917
H      58.19403502      84.39032417      88.79843917
H      59.13511873      87.40443764      89.84345783
H      59.91179624      84.67756257      91.60279302
C      64.03517906      83.29617264      93.84589815
O      62.72181927      81.62754430      94.84745309
N      64.11832701      85.66777916      94.65281128
H      65.28806760      86.84318892      93.70416868
C      63.02795493      86.44256695      97.15858839
H      62.28151304      84.69457011      97.95227343
C      65.16901484      87.37042257      99.00863044
H      65.99293552      89.07495570      98.19415839
H      66.66756781      85.95879701      99.00485098
C      64.39422706      88.09418774     101.76763085
H      62.57253089      89.03716117     101.56920959
C      63.68557969      85.78305246     103.32665507
H      63.21314811      86.26115322     105.27496289
H      65.05752099      84.25237415     103.44759755
H      61.83931708      85.15188387     102.66714058
C      66.30285063      89.82139759     103.05453447
H      65.90789783      90.18044559     105.04252655
H      66.37654996      91.53537936     101.91502951
H      68.20580503      89.04472008     102.90524609
C      60.89445392      88.26237339      96.92237259
O      58.85543923      87.46679861      97.68204256
N      61.27428891      90.48658126      95.72995528
H      63.03740356      91.11774984      95.36334838
C      59.24850231      92.34985140      95.05343326
H      57.51751300      91.24625123      94.90792434
C      58.90079266      94.35863047      97.14725003