 %block lattice_cart
   137.793   0.000   0.000
   0.000 143.498   0.000
   0.000   0.000   162.326
 %endblock lattice_cart

 %block positions_abs
N      84.37241364      39.32413106      78.42478657
H      85.93521731      38.30178913      78.02605432
H      83.65620738      40.14238256      76.85442401
H      83.02692851      38.24887679      79.24492779
C      84.99791305      41.22141628      80.42600674
H      86.49835574      40.51276891      81.64299048
C      86.00135772      43.72719337      79.03894762
H      84.24391225      44.70040242      78.58730304
H      86.99913322      43.35491729      77.27583297
C      87.65108879      45.34290937      80.86442324
H      89.20066438      44.29978045      81.73369735
H      86.63252632      45.89093000      82.57084610
S      88.98712531      48.36269202      79.64177032
C      90.60473103      49.22251749      82.56895638
H      89.33672466      48.85780031      84.15065730
H      91.10928795      51.21995820      82.61430981
H      92.31682306      48.09624061      82.77682627
C      82.59040174      41.94140201      81.83952202
O      80.67610898      42.68973363      80.64143554
N      82.63764488      42.03777805      84.39065254
H      84.29493486      41.57479510      85.21646294
C      80.84240489      43.39838099      85.94967675
H      79.03771627      42.44406921      85.68700479
C      81.57561871      43.10736314      88.78048677
H      83.15731963      44.41505375      88.96001077
H      82.41654690      41.33102041      89.39842727
C      79.52904510      43.95018108      90.63619801
O      77.48058178      44.94228739      90.02203696
N      79.75959171      43.28877687      93.04748878
H      78.05127913      43.25665152      93.89786562
H      81.41877142      42.50076100      93.56527379
C      80.34162742      46.14037387      85.27504446
O      81.93655642      47.77687686      85.35252324
N      77.98324898      46.72051985      84.71757520
H      76.72847071      45.28243813      84.70434711
C      77.01759884      49.26598120      84.12609086
H      77.87742431      50.05777652      82.42911663
C      74.09797169      49.21684831      83.34752362
H      74.17545046      48.01120292      81.68078501
C      72.71280229      47.85813509      85.52259860
H      72.38587964      49.27542983      86.98335704
H      73.72569559      46.43706091      86.61486041
H      70.80039927      47.25153295      85.05772593
C      72.81106807      51.72640486      82.82217970
H      72.87342903      53.28920852      84.16199566
H      70.79284036      51.36735686      82.61997899
C      73.83529972      52.56166389      80.17467314
H      72.93956945      51.43727673      78.69879689
H      75.89321168      52.51442073      80.09152518
H      72.99437152      54.42493403      79.92711899
C      77.41066191      51.33901096      86.17644391
O      77.90577021      53.44227635      85.54149587
N      77.23491735      50.57367180      88.65954428
H      76.72091180      48.76142427      88.97890803
C      78.11364009      52.01364326      90.93855422
H      77.09318788      53.80132435      91.05004807
C      77.12153378      50.42249370      93.18732853
H      78.14009627      51.01208831      94.87674385
H      77.63931880      48.43639134      93.01725316
C      74.24914978      50.36580191      93.59172996
C      73.10964481      52.13269601      95.15831307
H      74.20946553      53.70872776      95.84239400
C      70.48670470      52.00608435      95.61373712
H      69.55884907      53.36479757      96.82316196
C      69.06563051      50.09179159      94.42131981
H      67.06818979      50.03132035      94.82572124
C      70.20513547      48.10757897      93.10607030
H      68.98626201      46.68083560      92.30482634
C      72.74492764      48.41749408      92.37663594
H      73.45735446      47.00019935      91.09162205
C      80.88208915      52.44450085      91.03115081
O      81.74758379      54.23785113      92.21600921
N      82.47701815      51.18027395      89.59873826
H      81.89687217      49.67416208      88.58395523
C      85.23979802      51.65270553      89.72912938
H      85.88797414      52.88669681      91.24657961
C      86.28481668      48.97496334      90.21667877
H      88.32950055      49.24330448      90.19211232
H      85.52136724      47.69561863      88.79371485
C      85.71600906      48.06411526      92.79993464
H      86.95000033      46.56178284      93.47456693
H      83.81683410      47.27420966      92.93410520
C      85.88986388      50.07478406      94.83516988
O      84.04360127      50.43761151      96.33939202
O      87.89108404      51.30310616      95.17910006
C      86.17332283      52.87157900      87.11752761
O      88.02525460      54.44950047      86.83406867
N      84.58784245      52.45205976      85.09174101
H      83.17810661      51.18594313      85.33551570
C      84.85807331      53.34590031      82.46313170
H      86.76480715      52.89803517      81.82251448
C      83.02314906      51.87947269      80.87765133
H      81.12586383      52.64103239      81.12520547
H      83.18377580      49.89148061      81.38976716
C      83.32550527      52.23285151      78.05440022
H      85.26814391      51.94561311      77.43645971
H      82.90976548      54.16037235      77.46102615
S      81.14287137      50.19005736      76.30829310
C      81.63042076      51.25397328      73.07308165
H      80.61185829      50.17871901      71.64066911
H      83.64486902      51.19917121      72.64978296
H      81.03515698      53.22684755      73.05418439
C      84.39886982      56.21072540      82.19290084
O      85.50813916      57.54676190      80.61686910
N      82.69244696      57.15558855      83.74247642
H      81.85718793      55.91592809      84.92733482
C      81.90065162      59.87490472      83.34563389
H      81.91576943      60.27363697      81.32362674
C      79.11708476      60.29820341      84.23380526
H      78.63142511      62.29942358      84.18845183
H      78.90354569      59.35711971      86.05550143
C      77.14421050      59.03208678      82.43667554
H      77.76215100      57.10645567      82.03794328
C      74.38332035      58.92248266      83.64421065
H      72.93956945      58.01919348      82.48391869
H      73.74648258      60.88212884      83.62909284
H      74.46268886      58.27808598      85.59818766
C      76.70579399      60.45505070      79.86853748
H      76.16155281      62.40902770      80.22380602
H      75.38676502      59.44215739      78.64777428
H      78.52182097      60.41914590      78.89910788
C      83.73935532      61.86289680      84.46057242
O      83.44077857      64.10600193      83.89365452
N      85.59128712      60.92937200      85.94778703
H      85.60451520      59.02452788      86.05739115
C      87.53770521      62.34099756      87.42555300
H      86.60795988      63.60333473      88.76158951
C      88.91342597      60.55520619      89.14331422
H      90.41575840      61.61345293      90.07116984
H      89.59750690      59.08499912      87.87341814
C      87.32605588      59.37412724      91.21445426
H      85.84262072      58.17982021      90.43210757
H      86.37552354      60.78953225      92.36718731
C      89.09106024      57.93226607      93.03048125
H      90.21355768      59.47050329      93.81660739
H      90.30804399      56.45072064      92.27459072
N      87.61896344      56.60189874      94.84272878
H      87.13141407      54.77642312      94.58383628
C      86.63063658      57.65636603      96.80237497
N      87.11818597      59.90136089      97.52802987
H      86.95944897      60.27741642      99.39318974
H      88.11596146      61.12968299      96.45844478
N      84.85429386      56.40536721      98.03258680
H      84.37241364      57.27842076      99.65964115
H      84.28737595      54.60067858      97.78125320
C      89.32916576      63.87356560      85.66054863
O      90.53859060      65.71226930      86.34085010
N      89.53514594      63.14413124      83.21524278
H      88.73201224      61.46983373      82.77493655
C      91.34361401      64.13812728      81.27071440
H      92.63807654      65.58754736      81.95479533
C      93.04814715      62.11045095      80.19357040
H      94.29536652      62.95326888      78.78761403
C      94.88685084      61.28653027      82.27982825
H      94.00623838      60.44182261      83.94089768
H      95.96021540      62.94948943      82.84485642
H      96.09438596      59.92214787      81.31984728
C      91.64219077      59.65758619      79.22414080
H      89.93765763      60.36056438      78.30384409
H      91.14330302      58.44060245      80.80962118
C      93.25412732      58.04564965      77.43645971
H      92.23178537      56.31277062      76.99237403
H      95.08149266      57.51463655      78.22447558
H      93.61506504      58.96972581      75.63177108
C      89.80915624      65.64045970      79.28461205
O      90.58583376      66.24328239      77.16055967
N      87.36762985      66.30564336      79.97436215
H      87.10684761      66.11856046      81.85463983
C      85.44010901      67.67758466      78.40210986
H      86.26969887      67.85899839      76.52561163
C      83.02503878      66.09588374      77.94290636
H      81.95356397      66.13367827      79.70224156
H      83.55227243      64.13434783      77.59708645
C      81.46034539      67.22594007      75.62988136
O      79.23991697      67.96671279      76.12309992
O      82.54504829      67.52262711      73.50393925
C      84.81649932      70.28351725      79.68523402
O      84.38564172      71.91813051      78.18101188
N      84.96767744      70.70114676      82.07384808
H      85.82939264      69.40857397      83.18311743
C      84.82972742      73.20125468      83.19445579
H      85.20956240      74.61099051      81.74314598
C      82.12930851      73.71148078      84.12987031
H      81.85151874      72.45859224      85.74180686
H      80.53248977      73.50739034      82.84107697
C      81.66443584      76.44024558      85.13898416
H      82.89086822      76.65378465      86.78115633
H      79.79360679      76.64811547      85.97424319
C      82.15387495      78.49248835      83.22091196
O      84.24391225      79.60364742      82.99036535
O      80.24714110      79.08208296      81.89054463
C      86.92921334      73.70014242      85.18433759
O      87.85895870      72.10521341      86.53738163
N      87.61896344      76.15111745      85.39220749
H      87.01236131      77.37754983      84.05995044
C      89.12507533      77.09409088      87.47279616
H      89.76569255      78.95547130      86.86997347
H      90.80504201      75.92246057      87.67688660
C      87.84006142      77.36621147      90.08817738
O      85.65553782      78.12021227      90.30171645
N      89.40475481      77.13188541      92.16309687
H      91.17542837      76.51394490      91.80215914
C      88.66398211      77.42101353      94.77091918
H      86.62685713      77.35487311      94.46856297
C      89.94332682      75.20625429      96.38474545
H      91.92564971      75.20625429      95.82538646
H      89.16853903      73.46959581      95.59672958
C      89.75057473      75.41979337      99.40263837
H      91.23589961      76.70669699     100.02246860
C      87.19944420      76.30040583     100.27947138
H      86.71756400      78.14666844      99.50279387
H      87.17109831      76.37788461     102.33738334
H      85.68388370      75.02673029      99.70877404
C      90.00001861      72.83275805     100.45332620
H      90.65386391      72.83275805     102.40730321
H      91.39652635      71.85010036      99.30059315
H      88.21233752      71.81419556     100.39474469
C      89.43121099      80.02694612      95.88018853
O      91.64030105      80.58063593      96.41309135
N      87.51502851      81.62187513      96.38285573
H      85.82183373      81.12865656      95.65342137
C      87.87785596      83.98592274      97.93999021
H      89.79403844      84.70212902      97.69432579
C      86.40953860      86.27816076      96.62663042
H      86.65331331      87.95245828      97.80015046
H      84.36863419      86.00415045      96.67387358
C      87.03314829      87.20790611      94.01691838
H      88.88885953      88.09796720      93.92243207
H      85.91632004      88.82929128      93.41220596
C      86.87819074      85.32006952      91.86263038
H      85.16609869      84.21835908      92.17065577
H      88.59595196      84.19001319      92.00435986
N      86.76858660      86.53894299      89.34929439
H      86.93677225      88.44000766      89.41354508
C      85.82939264      85.57896203      87.12508652
N      85.20956240      83.12420755      87.03626938
H      85.05082540      82.22658755      85.36008214
H      85.27570282      82.06785054      88.62552921
N      85.59128712      87.19656775      85.32795679
H      85.32294598      86.50870737      83.56673187
H      86.52670165      88.81795293      85.69834315
C      87.08417091      83.62498502     100.61773239
O      84.91476510      82.73303420     101.02780300
N      88.66020264      84.25048443     102.42242102
H      90.29859537      84.94968316     101.73645037
C      87.90998131      84.30717622     105.16063445
H      86.45111259      82.86531504     105.35338653
C      90.26647002      84.00104056     106.87650594
H      89.90931174      84.37520637     108.87016720
H      91.76691271      85.28038527     106.28502161
C      91.48723322      81.34219563     106.62139289
H      92.29225662      81.05306751     104.74678439
C      93.34105472      81.01905243     108.80969596
H      92.46422172      81.12865656     110.67107638
H      94.59016382      82.65366569     108.75300417
H      94.25001309      79.17278983     108.73788636
C      89.64286033      79.19357681     107.16374434
H      88.37107453      79.21814326     105.54235916
H      88.52603207      79.55640427     108.85693912
H      90.77480640      77.47392587     107.15429571
C      86.35284681      86.71846699     105.63873521
O      85.13586308      86.88476291     107.61538893
N      86.08072623      88.44945630     103.76034725
H      87.10117844      88.17166653     102.17108742
C      84.92610346      90.97413065     104.10616717
H      83.83573137      90.84751899     105.84849483
C      87.00858185      93.12463919     104.48600216
H      87.86651760      92.87519532     102.63218064
H      88.45422247      92.64653844     105.87495100
C      86.02214471      95.74191014     105.02268443
H      85.23979802      96.01969991     106.90863129
H      84.48201776      96.17843692     103.72633218
C      88.02336489      97.79037346     104.73922548
H      88.88885953      97.65242344     102.87406561
H      89.47467468      97.50880424     106.17163803
C      86.69488728     100.39819577     104.85827824
H      85.16798843     100.45488756     106.24344763
H      85.57994876     100.81204584     103.17831155
N      88.75846842     102.27847345     105.37984270
H      89.74490556     101.87218230     106.96343335
H      88.15564572     104.08505181     105.46299066
H      90.00190833     102.17264878     103.93420207
C      83.06283330      91.52404101     102.02746822
O      83.40298405      90.71901760      99.86940077
N      81.10885630      92.96023301     102.60194502
H      80.93689120      93.49691528     104.42364119
C      79.02259846      93.67643928     100.78969749
H      78.23836203      91.96056779      99.96010764
C      76.94767896      95.23168403     102.07282165
H      77.66955441      96.94377607     102.96099302
C      74.78583205      96.34662256     100.34750153
H      75.70612877      97.58061384      98.97744995
H      73.46491337      97.51447342     101.40952772
H      73.87309425      94.89531275      99.20799656
C      75.58140683      93.54982761     104.03624729
H      76.68689672      92.75047338     105.57826396
H      74.96346633      91.90009654     102.96855193
C      73.13043181      94.66665587     105.37417352
H      72.53138856      93.09251385     106.56470110
H      71.69612954      95.22979431     104.00979112
H      73.53861270      96.43166024     106.35494148
C      80.04116093      95.14853608      98.43509850
O      81.77970914      96.73023700      98.74312389
N      78.94889912      94.47768323      96.28270023
H      77.52404548      93.21156660      96.37151737
C      79.67644376      95.59451149      93.84873274
H      80.39831921      97.44077409      94.40620200
C      81.74002488      93.99769275      92.54482158
H      83.35385117      93.88997835      93.82038685
H      82.65087297      95.02381414      91.00847409
C      80.83106653      91.37475263      91.79648996
C      80.79138228      90.51303743      89.30205123
H      80.95578847      91.94922943      87.86019005
C      80.41154729      87.91088430      88.70300799
H      80.42477537      87.36475339      86.73580290
C      79.89376229      86.10430594      90.53037333
O      79.43644851      83.69112544      89.99369106
H      79.82006295      83.21869386      88.28348875
C      80.01659449      86.91877798      93.09473194
H      79.89565200      85.45424009      94.51202668
C      80.55705621      89.47368796      93.73534916
H      80.81972817      90.01603941      95.68554672
C      77.19145366      95.83828618      92.32561333
O      75.14110060      95.04460113      93.19866689
N      77.17633585      96.87763565      90.06172121
H      78.69567579      97.92265430      89.57417182
C      75.36408830      96.67543494      88.07183940
H      73.47247228      96.41276298      88.84095801
C      74.89354646      99.28703670      86.79627414
H      73.74648258      99.07916681      85.09929991
H      76.65666111     100.28859165      86.43911587
C      73.11342427     100.98401093      88.37419561
H      74.05639770     101.33738975      90.16943561
H      71.27283084     100.07316285      88.53671207
C      72.77705299     103.52191337      87.07217418
H      72.05517754     103.32916128      85.15221225
H      74.51560119     104.62740326      86.99847486
C      70.58308074     104.70488204      88.53482235
H      71.18212397     104.68409505      90.50580689
H      69.00137982     103.38963253      88.46490247
N      69.75538062     107.16908515      87.37830984
H      71.12921164     108.47488603      87.59373864
H      68.14533379     107.74734140      88.22301751
H      69.38688398     107.00089951      85.51314997
C      75.99525690      94.71578875      85.90243359
O      78.07017638      94.78570862      85.05205675
N      73.97513947      93.46478993      84.86875330
H      72.27060633      93.85785300      85.63409246
C      73.82963054      91.99836231      82.59541255
H      75.47369244      90.76059158      82.62375844
C      71.37676579      90.58106758      82.58974337
H      69.81018267      91.91899381      82.54061048
H      71.20291097      89.34896602      84.22813608
C      70.92890066      88.72535634      80.44301428
O      68.87665788      88.82173238      79.39043672
O      72.84697286      87.51215204      79.66444703
C      74.06584634      93.54604816      80.15766560
O      73.70301889      95.87419098      80.24459301
N      74.24348061      92.38764593      77.93345773
H      74.22458335      90.48280181      77.81062552
C      74.48725530      93.77470505      75.48626216
H      75.86108634      95.20522787      76.04184169
C      75.53038423      92.06639246      73.41134266
H      75.48314107      93.09440357      71.62555130
C      78.17600107      91.23869233      74.20502772
H      78.86953063      90.11430518      72.62710624
H      78.07584557      90.22012985      75.99270881
H      79.21912998      93.00369671      74.39589007
O      74.37576144      89.70990375      73.13922208
H      75.15810814      88.78771731      71.78617804
C      72.08352343      95.16176416      74.73982026
O      72.21391454      96.83039249      73.10898645
N      69.83852857      94.52681612      75.84531016
H      69.80451350      93.07361658      77.07930144
C      67.33464120      95.79860193      75.70736014
H      67.15133776      96.58850753      73.81574410
C      65.31641350      93.68210846      76.03806224
H      64.92712988      93.34384745      78.03172350
H      66.06096568      91.92655271      75.25382582
C      62.91835081      94.44933734      74.45447159
H      62.10009932      96.27481296      74.94202098
H      61.37822387      93.17944126      74.96658742
C      63.22448647      94.15076058      71.58775677
O      62.77851106      96.10851704      70.31030179
O      63.83108862      92.14954042      70.66746006
C      67.08897678      97.85840361      77.68023441
O      65.29940597      99.33050041      77.38732683
N      68.98626201      98.18532626      79.42256207
H      70.58686019      97.21778639      79.04461680
C      69.00893871      99.92765392      81.60519596
H      68.80673800     101.85895421      80.91733558
H      70.85142187      99.93521283      82.52738240
C      67.29873640      99.15097641      83.88231617
O      66.59575821     100.71000061      85.46212736
N      66.62599384      96.85306921      83.98625111
H      67.09464596      95.74191014      82.50659541
C      65.40901009      95.67199026      86.12731102
H      63.97659754      96.98535005      86.80950222
C      63.98037701      93.20400770      85.23347048
H      62.92779944      92.45756581      86.83973784
H      65.27106008      91.76403625      84.52482311
C      62.08687123      93.51203309      83.05650577
C      61.57097596      91.53537937      81.43134114
H      62.85221040      89.94611954      81.49937128
C      59.50739481      91.48246703      79.72680800
H      59.19181053      89.84218459      78.55328796
C      58.13923296      93.78226395      79.44712851
O      56.17580733      93.78226395      77.82007415
H      55.29330513      95.36396488      77.90133238
C      58.80252691      95.92143414      80.95513011
H      57.65924249      97.61273919      80.90977667
C      60.70548129      95.76458685      82.80517217
H      60.64501006      97.40486929      84.02215591
C      67.47448095      95.13908744      88.06050104
O      69.37932507      94.05249481      87.40854547
N      67.01338774      95.56616559      90.55682950
H      65.20680938      95.86096290      91.09351178
C      68.87287842      94.89909220      92.52781405
H      70.56796292      95.86663207      91.87207902
C      68.38910849      96.16520883      95.06004731
H      69.71002719      95.60962930      96.53970301
H      66.47859518      95.62852656      95.60995766
C      68.64611127      99.03381338      94.82383152
C      66.60142740     100.68543417      94.89753084
H      64.67390656     100.02025051      94.95233291
C      66.72992878     103.27624895      94.77847809
H      65.12555115     104.47433543      95.17910006
C      69.18090381     104.33638541      94.46856297
O      69.67223266     106.90641320      94.25502390
H      68.16801050     107.91174759      94.40431228
C      71.25582331     102.62429337      94.20778074
H      73.14554961     103.35939691      93.97534440
C      70.97425409     100.04859641      94.24746499
H      72.58430090      98.79381813      94.22667800
C      69.30373603      92.05505410      93.06071687
O      67.42912752      90.60563402      93.35551417
N      71.59975349      91.43900332      93.51047173
H      73.06996057      92.65220762      93.45755939
C      72.45579951      88.83873992      93.75802588
H      70.80228899      87.78427263      94.38919447
C      73.45924418      87.81828771      91.32216866
H      74.76315535      86.30083748      91.80215914
C      71.44101649      86.85641701      89.43055262
H      72.35186456      86.18178472      87.71090168
H      70.04828819      88.29260901      88.93733405
H      70.29773206      85.23881129      89.99936024
O      74.89732592      89.63242497      89.96912462
H      76.57351316      89.60596880      90.66265418
C      74.38709980      88.61008303      95.85562208
O      75.43967736      90.54138332      96.78914688
N      74.91055399      86.24792514      96.65875577
H      74.17922992      84.84385849      95.59483985
C      76.80783922      85.50715243      98.69021155
H      78.38387095      86.81295331      98.46533412
C      75.66833425      85.93612030     101.36984347
H      74.87464919      87.82206716     101.59472090
C      73.48192091      84.07662961     102.19376414
H      71.84163846      84.82874068     101.19787837
H      73.03216603      84.56606872     104.14396169
H      74.10175114      82.12454233     101.96132780
C      77.82262224      85.66966889     103.39563007
H      79.36463892      86.83374030     102.67564435
H      78.49536481      83.73080969     103.58649243
C      77.34452149      86.41233133     106.16407912
H      76.37698162      88.22646859     106.25856544
H      79.04716490      86.87909373     107.22421558
H      76.22013433      85.01771331     107.18075188
C      77.68845168      82.82752051      98.07038132
O      76.62642548      81.45368949      96.53025438
N      79.67266431      81.93934915      99.32893905
H      80.92177340      83.10342056     100.17931589
C      80.44178292      79.23893025      99.28547534
H      78.83929499      78.09375610      99.88829804
H      82.00269685      78.94602267     100.59694540
C      81.05405423      78.23359585      96.65875577
O      82.49024624      79.66600839      95.40964667
N      80.27548699      75.89600440      95.95955703
H      79.13598204      75.04562756      97.23323257
C      80.56839458      74.90011863      93.41976487
H      82.16143386      75.75994410      92.43899691
C      81.22223988      71.94080723      93.55582516
H      79.69156157      71.11877628      94.66320478
C      81.61530296      70.82775843      90.85351653
H      79.78415816      70.98838516      89.92755064
H      81.95356397      68.79441291      90.87052407
H      83.08362030      71.91624078      89.90298420
C      83.72423751      71.80096748      95.19799733
H      83.19511415      71.91246133      97.18598941
H      84.86941167      73.41290402      94.61974108
C      85.05271512      69.24605750      94.81627261
H      86.69299756      69.28574176      96.05971253
H      85.80104673      69.08543077      92.90197986
H      83.83951082      67.67002576      95.34539598
C      78.12875790      75.58419956      92.03648521
O      76.14832473      74.42012815      92.43521746
N      78.03994077      77.63455261      90.49446853
H      79.58006772      78.74382195      90.30171645
C      75.91966784      78.52839315      88.95245186
H      75.40566229      77.25282789      87.41988382
H      76.48658574      80.22914683      87.94144829
C      73.37798595      79.24270970      90.33195207
O      71.45991374      79.76049471      89.26425670
N      73.29672773      79.01594254      92.90386958
H      74.97669441      78.85153635      93.79393068
C      71.00448970      79.08208296      94.26636226
H      69.82152103      77.61376562      93.44055186
C      71.43534730      78.12021227      96.87985375
H      72.60508789      79.48270494      97.89274705
H      72.37265156      76.29662638      96.69655029
C      68.96736474      77.84242250      98.40486288
N      67.49337822      75.64089135      98.27258204
H      67.91478718      74.07052878      97.27669627
C      65.46003271      76.17001471      99.66531033
H      63.93691329      74.81886040      99.78625282
N      65.44680461      78.53973151     100.61017349
H      63.81975026      79.21436380     101.34716675
C      67.66723304      79.66789812      99.64452334
H      68.31729888      81.60108814      99.56515484
C      69.54184154      81.66722856      94.25502390
O      70.48292524      83.49270418      95.26224802
N      67.39511244      81.72958953      93.04181960
H      66.94535758      80.10442490      92.14608933
C      65.69246904      83.90466451      92.77725792
H      66.82630482      85.54872641      92.27648045
C      63.71959476      83.15066371      90.75147131
H      62.71992954      81.41967441      91.25035906
H      64.53973598      82.92767601      88.87497308
C      61.89033970      85.38620994      90.31872399
H      61.23649440      86.09674704      92.14042015
C      63.02417549      87.51404177      88.72568471
H      64.62855312      88.38709533      89.67999649
H      61.71837461      89.07873516      88.41765932
H      63.74605093      86.82807112      86.92477553
C      59.51117428      84.49236940      89.05071763
H      59.90234761      83.75726586      87.16666050
H      58.41891246      86.20635116      88.72001553
H      58.53229604      83.26782675      90.38675413
C      64.58886888      84.46969268      95.42854394
O      63.61188036      82.89555066      96.85528730
N      64.73248807      86.98680813      96.01435909
H      65.83986770      88.09796720      94.92398701
C      63.52306324      88.09040830      98.20644162
H      63.25850155      86.54461217      99.54436785
C      65.50160668      89.75525718      99.55192675
H      64.51705928      90.69445116     101.09772288
H      65.75671973      91.22924370      98.13652174
C      67.80140360      88.58551659     100.54403307
H      68.48548453      87.01893348      99.39507947
C      69.86687446      90.49791962     100.86906599
H      71.13488083      90.09729764     102.44320801
H      68.86531952      92.15143014     101.57771336
H      70.84197324      91.14042657      99.17398149
C      67.19291173      87.28916434     103.15563483
H      66.15734172      88.63464947     104.32159597
H      68.85587089      86.53138409     104.10616717
H      65.88900057      85.70368396     102.99878755
C      61.06263957      89.29983314      97.62062646
O      59.01417625      88.35685971      98.14030120
N      61.20814849      91.31239166      96.10506596
H      62.91457135      92.05505410      95.67987754
C      59.10866257      92.82795216      95.30949118
H      57.56664590      91.69411638      94.54982120
C      58.25639599      94.62697161      97.52991960