 %block lattice_cart
   137.793   0.000   0.000
   0.000 143.498   0.000
   0.000   0.000   162.326
 %endblock lattice_cart

 %block positions_abs
N      88.83027802      38.88099024      81.01560135
H      90.43276593      38.41422784      80.08963546
H      87.38463739      37.88321475      80.27671836
H      89.05326572      38.14021752      82.76170847
C      88.21611696      41.66266737      81.03638834
H      89.73356719      42.51682367      82.13809878
C      88.50146564      42.91366619      78.38321260
H      86.98401541      42.29005651      77.13977268
H      90.15686589      42.10864278      77.46102616
C      88.60162113      45.77282210      78.75359896
H      86.67976947      46.34729890      79.21658190
H      89.08350134      46.37375507      76.84497538
S      90.96377902      47.21279355      80.86442325
C      94.09883498      46.83862774      79.17122847
H      94.27835898      48.04049368      77.50637959
H      94.43520626      44.83740758      78.82351883
H      95.56904205      47.36775111      80.51104443
C      85.87096661      42.22958527      82.41021937
O      83.82061356      42.54894901      81.36709045
N      86.02970362      42.40910927      84.91221701
H      87.70589086      41.86675781      85.64354109
C      83.95856358      43.05350594      86.63753713
H      82.29182497      41.85541946      86.46557204
C      84.97145689      42.71146548      89.31149987
H      86.49079684      44.02860472      89.75936500
H      85.71033987      40.80473163      89.54960538
C      83.15920935      43.45034846      91.40720635
O      82.36741403      45.62164400      91.40153717
N      82.38631129      41.61542421      92.91898740
H      81.05027479      42.17289348      94.16053759
H      83.13653264      39.86553765      92.77347847
C      83.22912922      45.85219061      86.20101035
O      84.89208838      47.38664837      85.88731579
N      80.78382338      46.49658728      86.07439869
H      79.54227319      45.24936791      86.81328168
C      79.95801298      49.10818905      85.53771642
H      80.86697133      49.94911725      83.89176480
C      77.06862144      49.09118151      84.75536973
H      76.64343302      47.36775111      83.71035107
C      75.17322595      48.92488559      87.04004884
H      75.15999787      50.72579477      88.03971406
H      75.91588839      47.77971145      88.58206551
H      73.25893320      48.26348138      86.66021385
C      76.50359328      51.43822159      83.27760375
H      77.76970991      51.60451751      81.66188775
H      76.55083643      53.03315060      84.58151490
C      73.79561547      51.27948458      82.18912139
H      72.40288718      51.48357502      83.68956408
H      73.36853732      49.47290622      81.29717057
H      73.61042229      52.82339098      80.83418763
C      80.63264527      51.12074757      87.53704686
O      81.39042552      53.23724104      86.96823924
N      80.81216927      50.37997485      89.94833763
H      80.87641996      48.52237389      90.38486441
C      81.57750843      51.89553536      92.02703658
H      80.87641996      53.77203359      91.55082555
C      80.24147192      50.92610576      94.55926984
H      80.95389874      51.95789633      96.19388310
H      81.03893643      49.05338698      94.87107468
C      77.46168452      50.45745363      94.59139518
C      75.92722675      52.46434298      95.43421312
H      76.70957344      54.22556790      96.10695569
C      73.35341951      52.05616209      95.83483510
H      72.07596453      53.32794790      96.79103661
C      72.29895223      49.64865077      95.03548087
H      70.29584234      49.34251511      95.25090967
C      73.88821206      47.66443814      94.10573552
H      73.06429139      45.82195499      93.80337931
C      76.50548300      48.07639848      93.88274782
H      77.80939416      46.60430168      93.34417582
C      84.40075954      52.28103953      92.27648045
O      85.30404872      53.46778765      94.03203620
N      85.64797891      51.50814146      90.28848837
H      84.90342674      50.18344332      89.13386559
C      88.28792656      52.14497923      89.86707940
H      88.81893966      53.55282533      91.27114605
C      90.20410905      49.81494669      90.38486441
H      92.02769494      50.48768925      89.70078349
H      89.76569254      48.25403275      89.11496833
C      90.20221932      48.92299587      93.21000525
H      88.35028753      48.25970193      93.82794575
H      90.64252555      50.39887212      94.57627737
C      92.03714357      46.83484829      93.38763952
O      94.35205830      47.45089907      93.70322382
O      91.32849620      44.67678084      92.54860104
C      88.58461360      53.52258971      87.29138244
O      89.52002812      55.65042154      87.33862560
N      87.71344977      52.34340049      85.23158076
H      87.15975996      50.51981460      85.37708968
C      87.34306341      53.57739178      82.73903175
H      89.00791229      53.25424858      81.57307061
C      85.23601857      52.16009704      81.35386236
H      83.49936009      52.78181700      82.27226935
H      85.33239461      50.10218509      81.33496510
C      85.11885554      53.11818828      78.57785441
H      86.80827086      52.51914504      77.56496110
H      85.14342198      55.17798996      78.54572906
S      82.58095310      51.78971068      76.86387264
C      82.54882775      53.69833426      74.19935854
H      84.38375200      53.34684517      73.33197416
H      82.28804552      55.67876744      74.70202574
H      81.09373849      53.03504032      72.90489602
C      86.61362905      56.30993602      82.95635028
O      87.95722446      57.63274444      81.67511584
N      84.59729108      57.12062861      84.37364501
H      83.55605188      55.86396061      85.36197187
C      83.74502451      59.79459135      84.32262240
H      84.20611773      60.64307846      82.50470569
C      80.88208914      59.68498722      85.01615196
H      80.20556712      61.57282381      85.48480408
H      80.73091104      58.56626924      86.73958235
C      79.06795188      58.39997333      83.24169895
H      79.70478965      56.44788605      83.04705714
C      76.31273092      58.44721648      83.95979495
H      76.09919185      57.58172183      85.81739591
H      75.00315058      57.58928074      82.62186872
H      75.64376780      60.35584006      84.33396076
C      79.10007723      59.53569884      80.44112455
H      77.71112839      58.73823434      79.14477230
H      80.92744258      59.11051042      79.59074771
H      78.68433744      61.55014709      80.47136017
C      85.35507133      61.62573614      86.04605280
O      84.99602333      63.88584881      85.58118012
N      87.35062231      60.78480793      87.46523726
H      87.55660248      58.89319189      87.61452564
C      89.03436846      62.33249378      89.02048201
H      87.85706897      63.41719669      90.31683426
C      90.42709675      60.48056200      90.89886997
H      91.53069692      61.75234781      92.08372837
H      91.71966955      59.28058579      89.83306433
C      88.80949103      58.83083093      92.65631544
H      87.61329427      57.61006773      91.50547212
H      87.71533949      60.12907290      93.82038685
C      90.77102694      57.35873413      94.44399653
H      91.97667233      58.71933707      95.41531586
H      91.81982504      56.00569009      93.29693266
N      89.48979250      55.76758457      96.41687080
H      88.97200749      54.06494116      95.72145152
C      88.54681907      56.44788605      98.61273278
N      88.46556084      58.76469051      99.44232263
H      87.71344977      58.99712684     101.18087084
H      89.20066437      60.21411059      98.44265741
N      87.55282303      54.56949809     100.01868916
H      86.85929347      54.70177893     101.79503189
H      87.17676749      52.86874441      99.24012191
C      90.85606462      63.93309197      87.46145781
O      91.93131890      65.72644224      88.57072715
N      91.12251603      63.29247475      85.03126977
H      89.79592816      62.14919033      84.27159979
C      92.95366083      64.47166397      83.24736813
H      94.01379729      65.96832721      84.18656211
C      95.03424950      62.53847395      82.72769339
H      96.11328323      63.26034940      81.12898493
C      96.82382032      62.13596225      84.96512935
H      95.76935304      61.36306419      86.55438918
H      97.56081358      64.00490157      85.42811229
H      98.27513013      60.79047711      84.39632173
C      94.04781237      60.11773455      81.42756169
H      92.60217174      60.66008600      80.06317929
H      93.24089923      58.83083093      82.81840025
C      96.14729830      58.55115143      80.00648750
H      95.31203927      57.06393682      78.84997500
H      97.20932449      57.51936086      81.44078977
H      97.35294369      59.78514271      78.87832089
C      91.70833119      65.67919908      80.97969655
O      93.11428757      66.65051841      79.35831138
N      89.21389246      65.58093332      80.85686434
H      88.05926968      64.91008047      82.22313647
C      87.91187103      66.43131016      78.45313247
H      89.01736092      65.60361003      76.92434388
C      85.29648981      65.08582502      78.21880641
H      84.05493962      65.74344978      79.72491828
H      85.57427958      63.04492060      78.16022489
C      84.32139103      65.67730936      75.55618203
O      82.25403045      66.69398211      75.32752515
O      85.45522682      65.07259694      73.59464612
C      87.81171553      69.33204005      78.22258586
O      87.42999082      70.36761007      76.21569652
N      88.28036766      70.65673819      80.24081356
H      89.08161162      69.80069217      81.74692544
C      88.01013680      73.41195916      80.70568624
H      88.62996703      74.34926341      78.97658666
C      85.28326173      74.10548871      81.42000278
H      84.48390750      72.83181318      82.82784889
H      84.13619785      73.78423524      79.74003609
C      84.75224863      76.82480488      82.09463508
H      85.68388371      77.28589810      83.87286754
H      82.71512367      76.89850420      82.39132211
C      85.34373297      78.64650104      79.93278817
O      87.48479288      79.63104845      80.00648750
O      83.82439301      79.02255658      78.17534270
C      89.79214871      74.01100240      82.86186396
O      90.24001385      72.53134670      84.56261764
N      90.81071119      76.30701987      82.75414956
H      90.26647001      77.60148239      81.46157676
C      92.44721418      77.36715633      84.83095878
H      93.13696428      79.20963949      84.22246691
H      93.99301030      76.03300955      85.10685882
C      91.21322290      77.79612420      87.45011945
O      89.26869452      79.11704290      87.51437014
N      92.55492858      76.90417338      89.42299372
H      94.18009321      75.98954585      89.02426147
C      91.74045654      76.93251928      92.05349275
H      89.76758227      76.35615275      92.17065578
C      93.67364656      75.26578067      93.54070735
H      95.41975367      76.34670412      93.36685253
H      93.71711026      73.37605436      92.72245586
C      93.11428757      75.16940463      96.50001876
H      93.17664854      77.06102067      97.31449080
C      90.39308168      74.34548396      96.75891127
H      90.29103646      73.58581398      98.67320402
H      89.75246446      72.81858509      95.53436861
H      89.01736092      75.87238282      96.88552293
C      95.08527211      73.45542286      97.78125320
H      96.88051211      74.46264699      97.87007034
H      95.27991392      71.75466918      96.63229960
H      94.67709123      73.27211941      99.79192200
C      91.90675245      79.76521902      93.12874702
O      93.83049384      81.01621784      92.80749355
N      89.85639940      80.61937531      94.38352529
H      88.23501423      79.62348955      94.23045746
C      89.93954736      83.01554828      95.79326112
H      91.90108328      83.50309767      96.19199337
C      88.69988690      85.06590133      94.29281843
H      88.60918004      86.62114608      95.63830356
H      86.72134345      84.67472798      93.87707864
C      90.03214395      86.22808301      91.89475574
H      92.03525384      86.61736663      92.17632496
H      89.17798766      88.06111754      91.49791321
C      89.68632404      84.54055741      89.48535469
H      87.90998130      83.49742849      89.49858277
H      91.10172904      83.04578390      89.48535469
N      89.94332681      86.11469943      87.09485090
H      90.26647001      87.98930794      87.24791873
C      89.27814315      85.41361097      84.75536973
N      88.57138551      83.07790925      84.30750459
H      87.95722446      82.66405919      82.54816939
H      88.37863343      81.78533645      85.69834316
N      89.65608842      86.87814886      82.85052560
H      89.41420345      86.35847413      81.03260889
H      90.52158307      88.52410048      83.29083183
C      88.68098964      82.69807426      98.40108343
O      86.58906261      81.80045426      98.58249716
N      90.15497616      83.41428053     100.31348646
H      91.92187026      84.06245666      99.99601244
C      89.38774728      83.03633527     103.01201564
H      87.95722446      81.57557683     103.25201088
C      91.66864694      82.04800841     104.62395218
H      90.98267629      81.90816866     106.56092165
H      93.06515468      83.55601001     104.76190220
C      92.96310946      79.58947447     103.83026713
H      93.83616302      79.91639713     101.99534288
C      95.09094129      78.57469144     105.56314616
H      96.30603531      80.11292866     106.19809420
H      96.25123325      77.16117616     104.61261382
H      94.13662950      77.87549271     107.24689230
C      91.32849620      77.33503098     103.42964515
H      92.38863266      75.71553553     102.72666696
H      89.70711103      77.94730231     102.31848608
H      90.31371317      76.81913570     105.14740637
C      88.23501423      85.40038289     104.20065349
O      87.09739899      85.26243287     106.21888119
N      88.50146564      87.64159829     103.09705332
H      89.82805351      87.93450587     101.75723736
C      86.81960922      89.77698903     103.50334448
H      85.78403920      89.55022187     105.27023858
C      88.44855330      92.20906679     103.83215686
H      89.76758227      91.86702633     105.37795298
H      87.09550926      93.63769989     104.43875900
C      90.06615903      93.18416557     101.52480103
H      88.93043351      93.71706839      99.89018777
H      91.46455650      91.75175302     101.03158246
C      91.63841132      95.51041866     101.92353328
H      90.29103646      97.05810451     102.10683673
H      92.88752041      95.90726119     100.33427345
C      93.31459856      95.08900969     104.24033774
H      94.11395279      93.19172448     104.32537542
H      92.10139426      95.09089942     105.90329689
N      95.31203927      96.90314695     104.38395694
H      96.58949426      96.43638455     105.72377289
H      94.88874058      98.75885819     104.53324532
H      96.36083737      96.80866064     102.79091766
C      85.24735693      90.08123496     101.13929686
O      85.54971314      88.82645669      99.10217189
N      83.37274842      91.71017905     101.57771336
H      83.33873335      92.82133812     103.12728894
C      81.56239062      92.52465109      99.56137539
H      80.80083091      90.92783235      98.50501838
C      79.30038822      94.18194106     100.30592756
H      80.17344178      95.96206325     100.86528654
C      77.45223589      94.79232266      98.11384503
H      78.53504906      95.77875980      96.66820440
H      76.00281580      96.13213862      98.70532937
H      76.44501176      93.19361420      97.29181409
C      78.00781542      92.96873677     102.52635597
H      79.29093959      92.38103189     104.02490894
H      76.94578923      91.29632898     101.96510726
C      75.84407879      94.39548014     103.70932464
H      74.80850877      93.34479231     105.14740637
H      74.35875391      94.98507475     102.40919294
H      76.56406452      96.00363723     104.78268919
C      83.22534977      93.85312868      97.49779425
O      84.79193289      95.53687483      98.17431627
N      82.87008123      93.21062174      95.17532062
H      81.46034540      91.96718182      94.84272878
C      83.51069845      94.41059795      92.81505245
H      84.55949655      96.14347698      93.19488744
C      85.47412408      92.88369909      91.19366727
H      87.08606063      92.15993391      92.25191401
H      86.37363381      94.18194106      89.87085885
C      84.36296501      90.75208781      89.65165060
C      84.20233828      90.66705012      87.00225431
H      85.14909116      92.21662570      86.07061924
C      83.41243268      88.38804019      85.87786716
H      83.46534501      87.98552848      83.87664699
C      82.82850725      86.26587754      87.31027970
O      82.04427083      84.12103817      86.10652404
H      81.80238586      84.48197590      84.34529912
C      83.34818198      86.19028849      89.93510955
H      82.94378055      84.46685809      90.94800285
C      83.90187179      88.45796006      90.99146656
H      84.21934581      88.48819568      93.00780453
C      81.13909192      95.13058367      91.18043919
O      78.94511967      94.87169117      91.99680096
N      81.60207487      96.10001327      88.88253199
H      83.39353541      95.98473997      88.23624559
C      79.71423828      96.40425921      86.78682551
H      78.23647231      95.07011243      87.30838997
C      78.80150047      99.19160552      86.57895562
H      78.03616132      99.52419735      84.69489848
H      80.43422401     100.44071461      86.71123646
C      77.02893719     100.17426320      88.79938404
H      77.89821130      99.61301449      90.57950622
H      75.17133623      99.35412198      88.45545385
C      77.00059130     103.09200063      88.87686281
H      78.85252308     103.98962063      88.80127376
H      76.19934734     103.81576581      90.63052883
C      75.59652465     104.08032749      86.58462480
H      73.55562023     103.83466307      86.73769263
H      76.00848498     103.29987052      84.72135465
N      75.90077058     106.99806492      86.39565217
H      75.75148220     107.87867738      88.08128804
H      74.49859366     107.79930887      85.37708968
H      77.51837631     107.51962938      85.52637806
C      80.64209390      95.39136590      84.11475251
O      82.72646203      95.83545159      83.23791950
N      78.83740527      94.42193631      82.78060573
H      77.12909269      94.59201167      83.61775449
C      78.96401694      92.80244085      80.55450813
H      80.69122679      91.68183315      80.49214716
C      76.58863096      91.11491526      80.82284927
H      74.88031837      92.25819968      80.70190678
H      76.37131243      90.28343568      82.69556804
C      76.22958296      88.89448684      79.07296270
O      74.46835804      89.02676768      77.47992342
O      77.80183525      87.14649000      79.20524354
C      78.65599155      94.30288355      78.02416460
O      78.17600106      96.58000375      78.03550296
N      78.83173609      93.01786965      75.89633277
H      79.43077934      91.20940157      75.79806700
C      78.30261273      94.11391092      73.36409951
H      79.59518552      95.69561184      73.09008920
C      79.00748064      92.13347774      71.29862865
H      78.17411134      92.82133812      69.54685236
C      81.87608518      91.98985854      70.74871829
H      82.84551478      93.78887799      71.00950052
H      82.20867702      91.38136667      68.81174882
H      82.86063259      90.79933096      72.11121097
O      78.16277298      89.75809176      71.99593766
H      78.24214148      88.72630120      70.50683333
C      75.58140684      94.87925007      73.00883096
O      74.99181223      96.61023938      71.69358145
N      73.77671821      93.89092321      74.49037639
H      74.04883880      92.16371336      75.25382582
C      71.26527194      95.07578161      74.73037164
H      70.46591771      95.68238376      72.93135219
C      69.44546550      93.04432582      75.65255808
H      69.31696411      93.05944363      77.70858030
H      70.16734095      91.22262966      75.01949976
C      66.76583359      93.56022111      74.70202574
H      65.80018344      95.15515011      75.57696902
H      65.48837860      92.09568321      75.37854776
C      66.49749245      93.44305807      71.80885476
O      65.09720525      95.00964119      70.80163063
O      67.81841114      91.93883593      70.59754019
C      71.10464520      97.53431554      76.45380203
O      69.21491889      98.95161028      76.14766637
N      72.97547425      98.05588000      78.04684131
H      74.38898953      96.77275584      78.06006940
C      73.13421126     100.30843377      79.66822649
H      72.08541316     101.91470114      78.91611542
H      75.09574717     100.88669002      79.90444228
C      72.02305219      99.78686931      82.27226935
O      72.46524815     101.29487091      84.01081756
N      70.86842941      97.54187445      82.68422969
H      70.82496571      96.60268047      81.02316026
C      69.63065868      96.63291609      84.94812181
H      68.54595577      98.01619575      86.02337608
C      67.65967413      94.33122944      84.66655259
H      67.14755830      94.04399104      86.64131659
H      68.72925923      92.60590932      84.31695322
C      65.41467927      94.67704936      82.96201945
C      64.84776138      92.89503744      81.10630822
H      65.93057456      91.17160705      80.97402737
C      62.64245077      93.32211559      79.61909361
H      62.16057056      91.94072566      78.19801942
C      61.24216357      95.58978717      79.67767512
O      59.24472286      95.91104064      78.09030502
H      58.82142417      97.66470666      77.91456047
C      61.87900134      97.46061622      81.36520072
H      60.91902037      99.25396649      81.52582746
C      63.93124412      96.98251546      82.98658590
H      64.54540517      98.39036156      84.33207103
C      71.69990899      95.94505571      86.78682551
O      73.78994629      95.16837820      86.04227334
N      70.95157737      95.96206325      89.22457246
H      69.25649287      96.76141748      89.58928963
C      72.62209543      95.12680422      91.32594812
H      74.51749092      95.86757693      91.01225355
C      71.53361307      96.14914616      93.75802588
H      72.64477215      95.29687959      95.26980693
H      69.61743059      95.44427824      94.02447729
C      71.24826440      98.91570548      94.23612664
C      69.01271817     100.19127074      93.75802588
H      67.33275148      99.12168565      93.31205047
C      68.82374554     102.78586497      94.30226706
H      67.02283636     103.70238223      94.00369030
C      70.93456983     104.20693915      94.92965619
O      70.79284036     106.81665119      95.20933569
H      69.14310929     107.29097250      94.62352053
C      73.28727909     103.03719857      95.24901994
H      74.98992250     103.93103911      95.93310087
C      73.36853732     100.40480981      95.03926032
H      75.24125610      99.61490421      95.21122542
C      72.77516326      92.23930241      91.36941182
O      70.84953215      90.96373715      91.59050980
N      75.12220334      91.13759197      91.41098580
H      76.49225492      92.45284149      91.20500563
C      75.67211370      88.38426073      91.25224879
H      73.94868330      87.29955783      91.56972281
C      76.77949332      87.67939282      88.59718332
H      77.95112363      85.98997750      88.72757444
C      74.76315534      87.21640987      86.54494054
H      75.83274044      86.57957211      84.90276838
H      73.68223189      88.94550945      86.24636379
H      73.20791059      85.90871926      86.88131183
O      78.43300384      89.67494381      87.79404964
H      80.02982258      89.42927939      88.62174976
C      77.61286262      87.85702709      93.38763952
O      79.06984161      89.42927939      94.30604651
N      77.83018115      85.40983152      94.09439716
H      76.70390427      84.09836146      93.28748403
C      79.66510540      84.41205603      96.02569746
H      81.53404472      85.17739518      95.61373712
C      78.71079361      85.02054790      98.81115404
H      78.06828666      86.97641463      98.78847733
C      76.21446515      83.76954908      99.36862330
H      75.51148696      84.17395051     101.26212907
H      76.31462065      81.73431384      99.07760545
H      74.79528069      84.63126428      98.14786011
C      80.60996855      84.52732933     100.88229408
H      82.37119348      85.31723493     100.16041863
H      81.08240013      82.52610916     100.97111122
C      80.04494039      85.40416234     103.63184587
H      79.51770675      87.39215442     103.74333972
H      81.71734817      85.16038765     104.80914536
H      78.48591618      84.34213615     104.46143572
C      80.00525613      81.56423847      95.45877956
O      78.34607643      80.51921982      94.21533965
N      82.16521331      80.52110955      96.20900091
H      83.54660325      81.68518096      96.82505169
C      82.66221133      77.74699132      96.36773792
H      80.93311175      76.66795759      96.64552769
H      84.11352114      77.08747684      97.66975935
C      83.64297929      76.77945145      93.87707864
O      85.28326173      78.01722218      92.67899216
N      82.79260245      74.58358947      93.04559906
H      81.83262148      73.48187903      94.27203144
C      82.69244695      73.85793457      90.35651852
H      84.45934105      74.39650657      89.44378071
C      82.46945925      71.02523482      89.79715953
H      80.46823908      70.68697381      90.15242808
C      83.06283331      70.59626695      86.96068033
H      85.00736169      70.92318960      86.36541654
H      81.66065638      71.48443832      85.74180686
H      82.73780038      68.56859062      86.77926661
C      83.93588687      69.08637563      91.43366252
H      83.40109432      67.31192262      90.53226306
H      83.10251756      69.00700712      93.31582992
C      86.65709276      69.40762910      91.36563237
H      87.42999082      68.30213921      92.92276685
H      87.23345928      71.27089924      92.03081603
H      87.44510863      69.17330304      89.47779578
C      80.41154729      75.31491355      89.18866766
O      78.27615656      74.37005040      88.82772993
N      80.85563298      77.65250500      88.14553873
H      82.61118872      78.38760854      88.00758871
C      79.22290944      78.66539831      86.22557680
H      78.69189635      77.27455974      84.80261288
H      80.20745685      80.30001157      85.44889928
C      76.73036043      79.76143957      87.21957284
O      75.25259446      80.84614247      85.87030825
N      75.98013909      79.27766963      89.57039237
H      77.32751395      78.47831540      90.66454391
C      73.46302364      78.90350382      90.60785212
H      72.62965434      77.75832968      89.11307860
C      73.50837707      77.05535149      92.78292710
H      74.52127037      77.86793380      94.38163556
H      74.42489433      75.23743478      92.46734281
C      70.93456983      76.37693974      93.88652727
N      69.26783122      74.57036139      92.96812028
H      69.80829295      73.22865570      91.72468037
C      67.31763367      74.51177987      94.68966095
H      65.89278003      73.05480088      94.80115481
N      67.62187961      76.39394728      96.30537695
H      66.38599860      76.79078980      97.70566415
C      69.81585185      77.72620433      95.81971729
H      70.71536158      79.28900799      96.77780853
C      72.06462617      81.35258912      91.05382753
O      72.89232629      83.07790925      92.34073115
N      70.04450874      81.60392272      89.76881363
H      69.53428263      80.23009169      88.54616071
C      68.43635165      83.89994019      89.81038761
H      69.79695459      85.44195687      89.67432732
C      66.56363287      83.90560937      87.56917221
H      64.83642302      82.82657565      87.87152842
H      67.39133300      82.83602428      86.01392745
C      65.92490538      86.60224882      86.42777751
H      67.66723304      87.42427977      85.70023288
C      64.31485856      86.32634878      84.10341415
H      65.37877447      85.11125476      82.82406943
H      64.03139961      88.01198465      82.95446055
H      62.47426513      85.57801716      84.64387587
C      64.60020723      88.59024090      88.10774420
H      64.34887363      90.23052334      86.88698101
H      65.83608824      89.13637181      89.66298896
H      62.86543848      87.79844558      88.88442172
C      67.12488159      84.10214091      92.45411472
O      66.00994306      82.24831940      93.18543881
N      67.30062613      86.23564192      93.69755464
H      68.44957973      87.52065581      92.87741342
C      66.40489586      86.76287556      96.19010365
H      65.88522112      84.96385611      97.04992912
C      68.53650714      88.10836069      97.73023059
H      68.53650714      90.04721989      97.03859076
H      70.27316562      87.07657013      97.32582916
C      67.98659678      88.23308263     100.56482006
H      66.09876020      89.04566494     100.68009337
C      67.92423582      85.70084937     102.06526275
H      69.75349089      84.86748007     101.61361816
H      66.55418424      84.43473274     101.19409892
H      67.51605493      85.76510007     104.08349045
C      69.97458887      89.92438768     101.78936271
H      69.76104979      90.03966099     103.83593631
H      69.60798196      91.80088591     101.02780301
H      71.78683640      89.14393071     101.19598865
C      63.88400096      88.20284701      96.26947215
O      61.96970820      87.13137219      97.20299695
N      63.85565506      90.41949597      94.96934045
H      65.45814298      90.78610288      94.00369030
C      61.54074033      91.88592359      94.49690887
H      60.00061339      90.53854873      94.23801636
C      60.85665941      93.65470742      96.78914689