 %block lattice_cart
   137.793   0.000   0.000
   0.000 143.498   0.000
   0.000   0.000   162.326
 %endblock lattice_cart

 %block positions_abs
N      87.17676749      36.08702989      76.94418601
H      88.89452871      35.60703940      76.26388454
H      85.89364333      36.27411279      75.54011936
H      86.65331330      34.60926391      78.03077864
C      86.90086745      38.34147338      78.54478420
H      87.93454774      37.88415962      80.26443514
C      88.04226214      40.66016756      77.22386551
H      87.36385040      40.74520524      75.28311657
H      90.07371793      40.35970108      77.05756958
C      87.87785596      43.09980423      78.66383695
H      88.60351086      42.82768364      80.57246054
H      85.93143785      43.73853173      78.87737603
S      89.74301583      45.52243336      77.08969493
C      90.26647002      47.82600975      79.41972748
H      91.57605035      49.14692844      78.53344583
H      91.27369414      46.97941235      81.00520785
H      88.55248825      48.84079277      79.93940222
C      84.17588211      38.74965427      79.46319118
O      82.41654691      37.37960268      78.71485956
N      83.61085394      40.37859835      81.39638120
H      85.00358223      41.34802794      82.26943476
C      81.05405424      40.99653885      82.47352521
H      79.64431841      40.61859358      81.02032567
C      80.82350763      39.25043174      84.82434473
H      82.58473255      39.44885299      85.87503256
H      80.62508637      37.29078555      84.21774258
C      78.79583130      39.92884349      86.58179021
O      79.12275395      41.31968204      88.39025829
N      76.60185905      38.91028099      86.31722853
H      75.14299033      39.32413107      87.47752048
H      76.33351791      37.93518223      84.70151252
C      80.58162266      43.81978996      82.94973624
O      82.42032636      45.33346074      83.23508490
N      78.21190586      44.45473800      83.39949110
H      76.95901732      43.05634052      83.74342128
C      77.27082216      47.10602402      83.59791236
H      77.52026603      47.91104743      81.71763467
C      74.40221762      47.14759799      84.07412338
H      73.60475311      45.86636356      82.67194647
C      73.54239215      46.02510057      86.67438680
H      74.47591694      44.19017632      86.74619639
H      71.48636992      46.13659442      86.58367994
H      74.04694907      47.20051034      88.28821306
C      72.98681261      49.70061825      83.72830348
H      73.84285863      51.10846435      84.96229476
H      70.99315135      49.46818190      84.18561725
C      73.18523387      50.88358691      81.12426061
H      72.48981459      52.80921804      81.36425585
H      72.04950836      49.77809702      79.80712137
H      75.11086498      50.93271981      80.39860570
C      78.52749016      48.66315850      85.61991952
O      79.22479917      50.86279993      85.22874617
N      78.93756077      47.64270629      87.81956095
H      78.36497370      45.85313548      88.14648360
C      80.39453976      48.74063727      89.84912700
H      79.60463416      50.63603278      90.01164347
C      79.87486502      47.06445004      92.18104928
H      80.85563298      47.91671661      93.77975774
H      80.34918632      45.09346550      91.82578073
C      77.22168928      46.98508154      93.46039398
C      76.34107681      49.16960515      94.73029007
H      77.43711808      50.89303555      94.74729760
C      73.84663808      49.36235724      95.79042653
H      73.27594073      51.04232393      96.79954038
C      72.19123783      47.20617952      95.49940867
H      70.19946630      47.08334731      95.93026627
C      73.06051194      44.97063329      94.28242493
H      71.73959324      43.41916799      94.12368792
C      75.50203833      44.94795656      93.12024324
H      76.08029458      43.22452617      92.19616708
C      83.36329979      48.97496335      89.40882077
O      84.60107053      50.19005737      90.83934358
N      84.36863419      47.96207003      87.29988620
H      83.17432716      46.91327193      86.24541892
C      86.86874210      48.63103315      86.29077236
H      88.03281351      49.32456271      87.84412738
C      88.15186627      46.25753690      85.42716742
H      90.10206383      46.85280069      85.13614958
H      87.39597575      45.56022789      83.64326578
C      88.25202177      44.13537426      87.46240266
H      86.50402493      43.32468166      88.18994729
H      89.45010825      44.78166065      89.00819879
C      89.40853427      41.71085539      86.45895800
O      88.59784168      40.53733535      84.56545223
O      91.35873182      41.01732583      87.61169105
C      86.71378455      50.69083484      84.30278028
O      87.99690871      52.69583445      84.62781320
N      84.95633908      50.47540604      82.42439232
H      83.83762110      48.92960991      82.37336971
C      84.55571710      52.39347824      80.51198928
H      86.17710227      52.24230013      79.25154183
C      82.35418594      51.46373290      78.89249383
H      80.73658022      51.21617874      80.14538239
H      82.92866274      49.60424221      78.21597182
C      81.31105702      53.14747904      76.84403052
H      82.71134422      53.33267222      75.34736727
H      80.85374325      55.02964644      77.55078816
S      78.53126961      52.05710695      75.10359259
C      80.11108081      50.10879913      72.77733948
H      81.46034540      51.31444452      71.79468180
H      78.82228746      49.36424697      71.35437558
H      81.21657070      48.69528385      73.79023279
C      83.97368139      54.97673411      81.44362437
O      85.39286585      56.82488645      80.95418525
N      82.06316809      55.16381702      83.12359106
H      81.13531247      53.63313871      83.78877472
C      80.96901656      57.65447629      83.78310554
H      80.79327201      58.82232715      82.09557994
C      78.54260797      57.49573928      85.31378385
H      78.17978052      59.43837794      85.89770929
H      78.82228746      56.37513159      87.01642725
C      76.26359804      56.44694119      83.94373228
H      76.53382890      54.49674362      83.33901986
C      73.81262301      56.28442472      85.64070650
H      72.37076183      55.66837394      84.30655972
H      73.27594073      58.04375991      86.56856212
H      74.05639770      55.07877934      87.29610675
C      75.62109109      58.11367979      81.58724356
H      76.90232553      57.78297769      80.00554263
H      75.83085071      60.12056913      82.00487308
H      73.68790107      57.74518316      80.98253114
C      82.86063259      59.15680871      85.48574894
O      83.00803125      61.56243032      85.44417497
N      84.65020341      57.82266193      86.78399092
H      84.81271988      55.96695069      86.37769977
C      86.60795987      59.04531486      88.37891993
H      85.63286110      60.64591305      89.23307623
C      87.43754972      57.13669128      90.40092709
H      88.84350610      58.04942909      91.59523411
H      88.54492934      55.56254927      89.66960300
C      85.20956240      56.29387336      91.92593621
H      84.06438826      54.84823273      91.01130869
H      84.00391701      57.92848661      92.27553559
C      86.17899200      55.16759647      94.38447016
H      87.88541486      54.18304905      93.78731663
H      85.10562745      53.62369007      95.22539837
N      86.83094758      57.07433031      96.27608620
H      87.97801145      58.46705861      95.66381487
C      86.20544817      56.99307208      98.70438450
N      84.80138152      55.39436362      99.84199974
H      84.68988767      55.39436362     101.74873360
H      83.84706973      53.94872299      99.04075579
N      87.17487777      58.81287853      99.99317785
H      86.77803524      58.86768059     101.86022745
H      88.33705945      59.95994239      99.01052017
C      88.89074926      60.12623831      86.98430192
O      89.94521654      62.11045094      87.78365614
N      89.38207810      59.32499436      84.63915155
H      88.61484922      57.73573452      83.91349666
C      90.83716736      60.67425895      82.73430744
H      91.80659696      62.07454614      83.89081993
C      92.84972588      58.97161553      81.36047640
H      94.02702538      60.21883490      80.21908170
C      94.61473026      57.60723314      83.16894448
H      95.87139826      58.96783609      84.06656449
H      95.79391948      56.19371786      82.24486832
H      93.25601704      56.68693642      84.41427413
C      91.51746883      57.13669128      79.53311106
H      90.44410429      58.20249693      78.13660332
H      90.37418441      55.70049929      80.46474613
C      93.24089923      55.50207803      77.76243750
H      94.18009321      53.96762026      78.76966162
H      94.47300079      56.62268572      76.55112293
H      92.19021140      54.29265319      76.46608525
C      89.46900551      62.27485714      80.72363864
O      90.71622488      63.69404160      79.35169733
N      86.95377979      61.99139818      80.60836534
H      86.23190434      60.57788290      81.66472233
C      85.50624943      63.64679843      78.97942124
H      86.43788450      63.83388134      77.15394563
C      82.90787575      62.47705785      78.64493970
H      81.59451596      62.65658185      80.22286116
H      82.97968535      60.48717604      78.11581632
C      81.68522283      63.54097377      76.29600989
O      79.38353618      64.26851840      76.59836610
O      82.94944973      63.43892854      74.20597258
C      85.00925141      66.29241527      80.02066045
O      85.19066514      67.96482306      78.51832803
N      84.64453423      66.54185915      82.52265809
H      84.18344101      65.13023360      83.72074457
C      84.48768695      68.97771636      83.58846372
H      85.57616931      70.27028916      82.40927450
C      81.80805504      70.02651446      83.57901510
H      81.41877142      70.99594407      85.35535782
H      80.42477538      68.49961561      83.60547127
C      81.17310700      71.57797978      81.16583460
H      79.14354094      71.91813050      81.07701746
H      81.27326249      70.35154739      79.51232407
C      82.62630653      74.01383698      80.95985443
O      82.72457230      75.33097623      78.91517056
O      83.71289916      74.75838916      82.91572115
C      85.50435971      69.07031295      86.24919838
O      85.58372821      67.09932840      87.51531501
N      86.59095234      71.22082149      86.88981560
H      86.44166396      72.73260254      85.73708255
C      87.82305389      71.61010511      89.38614406
H      89.07972189      73.20125468      89.02709606
H      88.62996703      69.82053430      90.01731265
C      86.01269608      72.19214082      91.46484299
O      84.12296977      73.55652322      91.12847172
N      86.28670640      70.83342760      93.65692553
H      87.80226690      69.69014318      93.85156733
C      85.01492059      71.28318246      96.08144438
H      83.00992097      71.06208448      95.66381487
C      85.59317684      69.13834310      97.78975696
H      87.48479288      69.41424315      98.55131667
H      85.71033987      67.34499282      96.78253285
C      83.91887933      68.86811223     100.14813541
H      83.76203205      70.63311661     101.19315405
C      81.26759331      68.01773540      99.43570859
H      80.57784321      69.33298491      98.00707549
H      79.86541639      68.15568541     100.93615128
H      81.23168851      66.09777347      98.69115641
C      84.99035415      66.84988454     101.91691923
H      84.91665482      64.91291507     101.22716913
H      84.07761634      67.10688731     103.74617430
H      86.93299280      67.27129351     102.46116041
C      85.40609394      73.93446848      97.15858837
O      87.55660248      74.69980764      97.59700489
N      83.45778611      75.47837488      97.48740075
H      81.82506257      75.01917138      96.61056774
C      83.42566076      77.83675331      98.95193866
H      85.33239461      78.57752603      99.20327224
C      81.87041601      79.79262006      97.64046858
H      81.62853104      81.37243125      98.93682084
H      80.01848422      79.11231858      97.04331507
C      83.26503403      80.91889693      95.38791482
H      85.18121651      81.49904291      95.87168476
H      82.28237634      82.65177596      94.86446064
C      83.21779087      79.26727614      92.98040350
H      81.29215975      78.55484931      92.82922539
H      84.49713558      77.73092864      93.47362207
N      84.07005743      80.51260577      90.59367916
H      85.04137676      82.15477794      90.66170931
C      83.71289916      79.70002347      88.29010279
N      82.94756000      77.42290325      87.97451849
H      82.75291819      76.63299765      86.24730865
H      82.66410106      76.19647088      89.41260023
N      84.30249377      81.02850107      86.36258195
H      84.03226291      80.47670097      84.55411387
H      85.50246998      82.49114923      86.61202583
C      82.55449693      77.52305875     101.66369590
O      80.60618910      76.45536338     102.21360626
N      83.59195668      79.25404805     103.23783792
H      85.00925141      80.27261053     102.46305014
C      82.85874287      79.66411867     105.84188079
H      81.06161314      78.74760140     106.25006167
C      84.84862468      78.47737053     107.64845915
H      84.75035891      76.41945859     107.60310571
H      84.38564173      78.71547605     109.64023067
C      87.60573537      79.50727138     107.53129612
H      88.24068341      79.91167282     105.61322390
C      88.26336012      81.90344434     108.78607439
H      90.12096109      82.53650267     108.15868525
H      87.88163541      81.86942928     110.80997127
H      87.06338391      83.28672400     107.84310095
C      89.33294522      77.26416624     108.43269557
H      88.72634307      76.63677712     110.29785544
H      91.27180441      77.94446772     108.57253531
H      89.04381709      75.60120709     107.25539606
C      82.12930851      82.39855264     106.50328500
O      81.05972342      82.69901912     108.51584352
N      82.86819150      84.13899057     104.86111284
H      83.52203680      83.47569663     103.19626394
C      82.52615104      86.85074783     105.12189507
H      81.61530295      87.40821709     106.88500971
C      85.23790830      88.24725557     105.21071219
H      86.14119747      87.78616236     103.41736192
H      86.47000985      87.53860821     106.69981653
C      84.90909592      91.03082243     105.42047181
H      83.23479840      91.23869233     106.60344050
H      84.45934106      91.56939443     103.48539207
C      87.36196067      92.13064316     106.42580621
H      88.62618758      91.80372049     104.83276693
H      88.10651284      91.33317865     108.17380305
C      87.14464215      94.94822508     107.03051863
H      86.06938787      94.89153330     108.78607439
H      86.12796939      95.85718344     105.48661225
N      89.69955212      96.16520882     107.33476457
H      90.80315229      96.14253211     105.77574037
H      90.64630500      95.37719295     108.79174357
H      89.39341646      97.97745636     107.85065986
C      80.99358300      87.99781171     102.96193788
O      81.60396460      87.50648286     100.83599578
N      79.14354094      89.58707153     103.35122150
H      78.61441757      89.75903662     105.17669713
C      77.21224064      90.34107233     101.49928972
H      76.54894671      88.62898029     100.56576492
C      74.97291496      91.96434723     102.67469949
H      75.40566229      93.93911123     103.06965229
C      72.83563450      92.25536508     100.78686291
H      73.48003118      93.36841388      99.17681608
H      71.38432470      93.43833376     101.64290893
H      72.10620015      90.49036071     100.01396483
C      74.01104427      90.75303266     105.12945396
H      75.30361707      90.84751898     106.72816242
H      73.61798120      88.80850429     104.57198471
C      71.52227472      91.97379586     106.12722946
H      69.80262377      91.50136428     105.09921834
H      71.61109185      94.02981809     106.04597123
H      71.14621918      91.26514849     108.02451468
C      78.28938464      91.64309377      99.07477087
O      80.04683011      93.18133099      99.07099141
N      77.37097766      90.80783474      96.90158560
H      76.11053020      89.39809890      97.15858837
C      78.19678805      91.28782521      94.25218931
H      79.45156633      92.89976176      93.99896598
C      80.03171230      89.26959752      93.23740627
H      81.38475634      89.03716117      94.77375378
H      81.18822481      90.15398942      91.77853756
C      79.01881900      86.66744438      92.27931503
C      79.12464367      85.93612029      89.67905163
H      80.05060957      87.01893347      88.21829320
C      78.17789079      83.53616788      88.95150700
H      78.54449770      82.81240270      87.07689849
C      77.16121803      81.81462720      90.71273192
O      76.88909745      79.41845424      90.05699689
H      76.99114267      79.31640902      88.24852882
C      77.00815020      82.68957049      93.21095012
H      76.40910696      81.36487234      94.64147293
C      77.83396060      85.00637495      94.03865024
H      77.92088801      85.42211475      96.03420123
C      75.78738700      91.74135954      92.64970139
O      73.65010654      91.18389027      93.46795289
N      76.14454528      92.86385696      90.35179419
H      77.81884279      93.62352694      89.83967836
C      73.96569084      93.09062411      88.47529597
H      72.15155358      92.92243847      89.44094612
C      74.21324499      95.50380461      87.22429716
H      73.10586537      95.44711283      85.48763867
H      76.14832473      95.94033140      86.66871762
C      73.16633661      97.71289468      88.78143164
H      74.17545046      97.71667413      90.57667163
H      71.14621918      97.53903985      89.14803853
C      73.48570036     100.17520806      87.48507939
H      72.55595501     100.27536356      85.65015514
H      75.50959724     100.42654167      87.18650263
C      72.32918785     102.23123030      89.11024402
H      73.63498873     102.72255913      90.62391478
H      70.73614857     101.40730962      90.12313731
N      71.46747265     104.29859088      87.60413214
H      70.53961703     105.38140405      88.87402823
H      70.21458411     103.73734217      86.27943400
H      72.87342903     105.29447665      86.78399092
C      74.05639770      90.99869709      86.46840663
O      76.05950759      90.30516753      85.45173388
N      71.85675627      90.17855586      85.54433045
H      70.42434373      90.18044559      86.80477792
C      71.63376857      88.81039401      83.14059859
H      73.36664760      87.75970618      82.76076360
C      69.31885384      87.09074307      83.39571165
H      67.72203510      88.26048366      83.96262954
H      69.85553611      85.87942850      84.97174338
C      68.87098870      85.33518732      81.15071679
O      69.92356626      83.14499453      81.11670170
O      67.28361860      85.82840590      79.53122133
C      71.22369796      90.61130319      80.81623522
O      71.05929177      92.90543093      81.15827569
N      71.42022950      89.69478593      78.46919515
H      71.82085147      87.86931031      78.08180124
C      71.43534731      91.42010605      76.26199481
H      72.99248179      92.72590693      76.59080719
C      72.02494192      89.93667090      73.88849857
H      72.42367417      91.30483275      72.40128395
C      74.15088402      88.09418774      74.04534584
H      74.77071425      87.53293903      72.16128871
H      73.39310377      86.43500805      74.99965764
H      75.81951235      88.84818854      74.99020900
O      69.86687447      88.55339125      73.14772584
H      69.25271341      89.46990850      71.70775439
C      68.98437228      93.14920564      75.95018996
O      68.97114419      95.26947855      74.98453982
N      66.77906167      92.31583632      76.89316340
H      66.66567809      90.52626551      77.54889843
C      64.36588117      93.78415367      77.19362988
H      63.90100850      94.44744762      75.29823439
C      62.17190892      92.05127464      77.96463821
H      60.50517031      93.25314058      78.09313961
H      62.30041031      91.48057730      79.93940222
C      61.48971772      89.80627979      76.36970921
H      59.77762568      89.05416872      77.23142440
H      62.70670147      88.14332063      76.36781948
C      60.63745115      90.76059157      73.78267388
O      58.67780497      92.13253287      73.73165128
O      61.88467052      90.42799974      71.80790989
C      64.32619692      96.00269237      78.99075960
O      62.68024530      97.54848850      79.13248907
N      66.33119653      96.15009102      80.54789408
H      67.78439607      94.96712234      80.17939746
C      66.77528222      98.16264954      82.49242247
H      66.06285540      99.99946352      81.89148950
H      68.82941472      98.23634886      82.60958550
C      65.82852934      97.45589191      85.06811943
O      66.44080066      98.82027429      86.86146969
N      64.23360033      95.58128339      85.29299685
H      63.66668243      94.78003944      83.65460414
C      63.42101801      94.42099144      87.70806708
H      62.23615961      95.71545396      88.79088026
C      61.60310130      92.07962054      87.23185605
H      60.71115048      91.48813621      88.98930153
H      62.72370900      90.43366892      86.70651215
C      59.44314412      92.29882879      85.18717218
C      58.57575975      90.11241544      84.14593299
H      59.31842219      88.27560148      84.63348237
C      56.41202312      89.95178871      82.52076836
H      55.55408737      88.20190214      81.91038676
C      55.43125516      92.16843767      81.54566958
O      53.31098224      92.22135001      80.05845498
H      53.02374384      94.00525165      79.89782824
C      56.36289023      94.43799897      82.42439232
H      55.38590173      96.17276773      81.96896827
C      58.47560425      94.53626474      84.11380764
H      59.07653722      96.33906366      84.86213926
C      65.59042382      93.46101047      89.24630430
O      67.19669119      92.17410685      88.13892469
N      65.52995258      93.82761738      91.78231702
H      63.80652218      94.42666062      92.34167600
C      67.51794466      92.68811241      93.33000286
H      69.34908946      92.96023300      92.42671370
C      67.82219060      94.02603864      95.78286762
H      69.36420727      93.16999262      96.84678354
H      65.94191291      93.92588315      96.61623692
C      68.53272769      96.74346508      95.38413537
C      66.74315687      98.69366263      95.61468199
H      64.79106959      98.16075981      95.88869229
C      67.39511245     101.23912397      95.39169428
H      65.94569237     102.64130090      95.70538885
C      69.94057379     101.93265354      94.96083667
O      70.69079514     104.44787926      94.87957844
H      69.23570588     105.48344927      95.19705246
C      71.69423981     100.03725805      94.48084619
H      73.61231202     100.62118347      94.10290093
C      70.99315135      97.48423779      94.93627023
H      72.36887210      96.01214099      94.60556813
C      67.03795418      89.83462568      94.01975298
O      64.92524016      88.97668993      94.20494616
N      69.18279354      88.46268437      94.20872560
H      70.67189788      89.46423932      93.56243921
C      69.51349565      85.64132299      94.49218455
H      67.57652617      84.96858042      94.68304690
C      70.44513072      84.64165777      91.89192114
H      71.09330684      82.68768076      91.95428211
C      68.43257219      84.66244477      89.76975850
H      69.09586613      83.25837811      88.41482473
H      68.55162495      86.51059709      88.86835905
H      66.50127190      84.40733171      90.44061133
O      72.37454128      86.11753402      90.79399016
H      73.71435724      85.73580931      91.95428211
C      71.25771303      84.84385848      96.60300885
O      73.02271741      86.26304294      97.20394181
N      71.07629931      82.42311908      97.31543566
H      69.65900457      81.36676207      96.59733967
C      72.76382490      81.02094216      99.03697634
H      74.58552107      81.93179023      98.74784820
C      71.86620491      81.28739357     101.74873360
H      71.02149724      83.15633289     101.92258841
C      69.59286415      79.38443917     102.31187203
H      70.19568684      77.41912380     102.19470900
H      68.12265708      79.47892548     100.87190059
H      68.62910373      79.61309605     104.11656066
C      73.74459286      81.12676683     103.86144762
H      74.26048814      79.13688502     103.99939763
H      72.95090781      81.46124838     105.73416638
C      76.11430966      82.85208695     103.74239486
H      77.04594473      82.56484855     105.55653211
H      75.60597328      84.80795369     103.33232424
H      77.32751395      82.30973550     102.16825284
C      73.34019143      78.26194175      98.18282004
O      72.49926322      77.39077790      96.17215124
N      74.99937113      76.84464700      99.48106202
H      75.90266031      77.71959028     100.91536428
C      75.42078010      74.28028839      99.01996879
H      73.62931956      73.27306427      99.16358800
H      76.79272140      73.55841295     100.37490256
C      76.45257067      73.94769657      96.31577044
O      78.19867778      75.11365770      95.52019567
N      75.18078486      72.41323880      94.68871608
H      73.57073804      71.57231059      95.28209016
C      75.62298082      72.21292782      91.97317938
H      77.10830570      73.63400199      91.84467799
C      76.33351791      69.45581712      91.22106831
H      74.72725054      68.17269296      91.34012107
C      76.87964881      69.39534588      88.45828844
H      75.88376305      70.94303172      87.53421226
H      76.62642549      67.63601069      87.41893896
H      78.77126485      70.09076516      88.03310002
C      78.63898401      68.55063821      92.69316511
H      77.94356473      68.51284370      94.63202429
H      80.25281028      69.75439387      92.25663832
C      79.56117045      65.89557274      92.05443761
H      80.69311651      66.12611936      90.34990448
H      77.90388048      64.68047873      91.91270814
H      80.67988843      65.21716100      93.64558716
C      73.27783046      73.11810671      90.55399492
O      71.45613430      71.72915787      90.23652089
N      73.21924895      75.58608928      89.64881601
H      74.65733067      76.73315315      90.15715239
C      71.23881577      76.78984494      88.14648360
H      70.58686019      75.44435980      86.73107859
H      72.04194945      78.38477396      87.11658275
C      68.93334967      77.37943955      89.48629954
O      67.11921241      78.17312460      88.15971167
N      68.72547977      76.93535386      92.02609172
H      70.32796769      76.45347365      92.94260897
C      66.37843969      76.48181956      93.36023850
H      65.11232306      75.57853037      92.00719446
C      66.75638496      74.97570769      95.79042653
H      67.92990500      76.11143320      97.04520480
H      67.90155910      73.35999168      95.22350864
C      64.29785102      74.26139113      97.06221233
N      63.44747418      71.86143871      97.48551104
H      64.28840239      70.25139189      96.89780615
C      61.49349717      71.98427092      99.04642496
H      60.12533532      70.48382823      99.24862568
N      61.12311082      74.43146651      99.52263600
H      59.57542497      75.05696591     100.44671216
C      63.02984467      75.89600439      98.64580299
H      63.14700770      77.84809167      99.22594897
C      65.15200732      79.08964186      94.00463516
O      66.35198352      80.35764822      95.53342376
N      62.92213027      79.81151732      93.10701516
H      62.01506164      78.58130549      91.96562047
C      61.80719174      82.37776564      93.19016312
H      63.03173439      83.67033844      92.15459311
C      59.22204615      81.96580531      91.96751020
H      58.07687200      80.72803457      93.15236859
H      59.49038728      80.91511748      90.21573390
C      57.74994935      84.36575774      91.46862246
H      56.96382320      85.22747293      93.16748641
C      59.14267764      86.15910800      89.90959824
H      60.88311557      86.62776012      90.90548401
H      58.10899735      87.90143566      89.52787353
H      59.67935991      85.35975378      88.08979181
C      55.55030792      83.73458915      89.75842013
H      54.23127895      85.31062088      89.90581878
H      54.63568038      81.99037175      90.35557366
H      56.00195251      83.58341103      87.75531025
C      61.72215406      83.18467879      95.98128888
O      61.34042934      81.46313811      97.52519528
N      61.66924172      85.61297709      96.48584582
H      62.14356303      86.86775536      95.12902232
C      60.91524092      86.62776012      98.98406399
H      60.03840791      85.06306675      99.99695730
C      63.19803031      87.85230277     100.39002038
H      62.53473637      88.99558719     101.97172129
H      64.03328934      89.29605368      99.18248526
C      65.39767174      86.12131347     101.18937460
H      66.25182803      85.15377360      99.58310723
C      67.27228024      87.85419251     102.46493987
H      67.92990500      89.25070025     101.10244719
H      68.80673800      86.65988547     103.14713106
H      66.76016441      89.00692555     104.09199422
C      64.43769077      84.11253440     103.14713106
H      63.44369473      84.97047016     104.73450116
H      66.06852458      83.28294456     104.09388395
H      63.27739881      82.65744514     102.26651861
C      58.86866732      88.61764193      98.61745710
O      56.93169785      88.40599258      99.83444083
N      59.19936943      90.44689700      97.01118972
H      60.88878475      90.73980459      96.17593070
C      57.16980337      92.19678357      96.32332935
H      55.45204215      91.18011081      95.82066215
C      56.64068000      93.98068521      98.60044955