 %block lattice_cart
   137.793   0.000   0.000
   0.000 143.498   0.000
   0.000   0.000   162.326
 %endblock lattice_cart

 %block positions_abs
N      86.68543864      41.02771932      79.51799325
H      84.93177263      41.18645634      78.77911026
H      86.69488728      39.32318619      80.37403926
H      88.01013679      41.07685222      78.14416221
C      87.11440652      42.89098947      81.47574970
H      88.51847317      42.19179073      82.80989648
C      88.27847793      45.14165352      80.08302141
H      86.88197018      45.75581456      78.69974175
H      90.01135695      44.55016917      79.13626852
C      88.71500470      47.59640799      81.68172988
H      89.95466517      46.97468803      83.20295956
H      87.14275241      48.59229376      82.56801151
S      90.39875085      49.89053574      79.82979808
C      92.04470247      51.38152979      82.30911901
H      93.31081910      52.90842865      81.75731892
H      93.18987661      50.11919262      83.46374178
H      90.63496664      52.12419223      83.61491990
C      84.58217326      43.47680463      83.01398693
O      82.45245170      43.72246906      82.03699843
N      84.77303562      43.82829372      85.50275648
H      86.50780437      43.45979709      86.21140385
C      82.69811612      44.33096092      87.26965058
H      81.14854055      43.01004224      86.96918410
C      83.51636762      44.22135679      90.06077634
H      85.26058500      45.26826517      90.38014010
H      84.12674922      42.30328459      90.50486202
C      81.62475158      45.14732269      92.03365061
O      79.44400741      45.62920290      91.46484299
N      82.32395031      45.18889667      94.35801399
H      81.04460560      45.80872691      95.63357924
H      84.13808757      44.80339250      94.80965857
C      82.15576467      47.16555039      86.60635665
O      83.68077381      48.80583284      86.60635665
N      79.63864922      47.57373128      86.18116822
H      78.37064287      46.16021600      86.38147922
C      78.49158535      50.13808988      85.67472158
H      79.52715537      51.03570989      84.13648435
C      75.60786300      49.89620491      84.98686119
H      75.50581778      48.49213826      83.48074933
C      73.92411685      48.80583284      87.09579576
H      74.81606767      47.05027709      87.70239790
H      72.10997959      48.24647384      86.30022099
H      73.54050241      50.19667139      88.56789256
C      74.36064363      52.26403199      83.98719597
H      74.28316485      53.87785825      85.26654068
H      72.38587963      51.90120453      83.52232331
C      75.48125133      53.10307047      81.40582983
H      77.26137352      54.11029459      81.63826617
H      74.24159087      54.51280630      80.55734272
H      75.64754725      51.44200104      80.20018444
C      78.84496417      51.93710934      87.77231779
O      79.33062383      54.16509665      87.18461290
N      78.74291895      51.06405577      90.21006472
H      78.32906889      49.21590344      90.43494216
C      79.44022796      52.66276423      92.35112463
H      78.54071824      54.51658575      92.28687394
C      78.47457781      51.48735448      94.84178392
H      79.19456354      52.55504983      96.44805128
H      79.48936084      49.69589392      94.91926270
C      75.55495066      51.04704824      95.04776409
C      74.05450797      52.69677932      96.52553006
H      74.91244371      54.16509665      97.65369667
C      71.49581854      52.25080390      97.06977124
H      70.36576221      53.53770753      98.18282003
C      70.30529096      50.09462618      96.16081289
H      68.33619614      49.65998912      96.48395608
C      71.63376856      48.47891019      94.68493664
H      70.60953690      46.96523940      93.77408855
C      74.18111963      49.02693082      94.11234956
H      75.00504030      47.80049843      92.70450346
C      82.29938387      53.45833901      92.44183150
O      82.92866273      54.97767898      94.13313655
N      83.83195191      52.65142588      90.67115795
H      83.29904909      51.18499827      89.56944750
C      86.54370917      53.30149173      90.26486679
H      87.02369965      54.78681661      91.60846220
C      88.08572584      50.89209068      90.72407029
H      89.65041923      51.08484277      89.39937213
H      87.09550925      49.11763767      90.38391954
C      89.06082462      50.85240642      93.55488030
H      90.23434466      49.21590344      93.98762763
H      87.31282778      50.67855160      94.62824485
C      90.34016933      53.31094036      94.46950784
O      90.10206382      53.88163771      96.88835751
O      91.68754419      54.45422478      92.91237335
C      86.85740374      54.46367342      87.58901432
O      88.15942517      56.44599632      87.38114444
N      85.60640492      53.58873013      85.59535307
H      84.75035890      51.90309426      85.85424557
C      85.66687616      54.62618987      83.06123009
H      87.51691822      54.48823986      82.17305871
C      83.86218753      53.04826841      81.50598533
H      81.96301259      53.60384794      82.08235186
H      84.17588210      51.05082769      81.89526894
C      84.00202728      53.73234933      78.70919038
H      85.80293646      53.04070950      77.98542521
H      84.31383212      55.75624622      78.49754104
S      81.29971865      52.65898479      76.78355927
C      81.86285709      54.56193918      73.95274926
H      83.91132042      54.76791936      73.95085952
H      80.93122202      56.37040726      74.27778217
H      81.18255562      53.81927674      72.15561952
C      84.88263974      57.39463892      83.14626777
O      86.05993923      59.07460561      82.10313884
N      82.89464766      58.06171231      84.62781320
H      81.74569406      56.64819703      85.19662081
C      81.92143861      60.66197572      84.80733720
H      81.93088724      61.42353542      82.89493416
C      79.08306969      60.55993050      85.80322297
H      78.48213672      62.51579723      86.03565930
H      78.93189158      59.66608996      87.65137530
C      77.02137828      59.45633034      84.20073505
H      77.70734893      57.56660403      83.74909046
C      74.62331559      59.34294675      85.61047088
H      75.16377731      58.44154731      87.38114444
H      73.05106330      58.29225892      84.79032965
H      74.09797167      61.26668815      86.12636617
C      76.63965356      60.93787577      81.82534907
H      75.64376780      59.70766393      80.50632011
H      78.40843739      61.24212169      80.81434549
H      75.75337192      62.77846919      82.09557993
C      83.68455326      62.34761160      86.42683264
O      83.45400665      64.64173933      86.19628604
N      85.62719191      61.32337993      87.57767596
H      85.83884126      59.42609471      87.56633762
C      87.60006618      62.78224864      88.94961728
H      87.01992020      64.71732839      89.35590844
C      88.21233751      61.73911972      91.51019643
H      88.97389721      63.38318161      92.48718494
H      89.48412331      60.11962426      91.50074779
C      85.77837001      60.84716889      92.83489457
H      84.73713082      59.36751320      91.84656771
H      84.57083490      62.51012805      92.98796240
C      86.22812488      59.70010502      95.50507785
H      87.33172504      57.96155681      95.41437099
H      84.40831844      59.22200428      96.34222661
N      87.69266277      61.51424228      97.10378632
H      88.49768618      63.07326649      96.34978552
C      87.99501898      61.40274843      99.60956340
N      86.84228593      59.44877143     100.72828139
H      86.58906260      59.42987417     102.61989743
H      85.89931250      58.10895548      99.74940316
N      89.18554656      63.07137676     100.77174508
H      89.77514117      62.95421373     102.58210289
H      89.99623914      64.38851600      99.65491683
C      89.97734188      63.34916653      87.45106430
O      91.76691270      64.49623040      88.51875968
N      90.18710150      62.51957669      85.09079615
H      88.81327047      61.33849774      84.49175290
C      91.97667232      63.43420423      83.23697463
H      92.97444781      64.90252157      84.28010356
C      94.00434865      61.59927998      82.43384095
H      95.17030979      62.61217328      81.07134827
C      95.73155850      60.41253185      84.56734195
H      96.95799088      58.86106654      83.98908571
H      94.58449463      59.67175914      86.11124836
H      96.95043198      61.80337042      85.47063113
C      92.42831691      59.44499197      81.13370925
H      91.01102217      60.36528868      79.95829947
H      91.39274689      58.22233905      82.42817177
C      94.18198293      57.61006772      79.61625901
H      95.39707695      56.45355523      80.81056605
H      95.45754819      58.57382814      78.31612731
H      93.00846289      56.33450246      78.50887940
C      90.64441527      64.83449142      81.09591471
O      91.78392024      66.11383613      79.57846449
N      88.20855805      64.60205509      81.06945855
H      87.56227165      63.24712132      82.24675805
C      86.33961873      66.17997655      79.61814874
H      87.03314829      66.17619710      77.67928954
C      83.81683410      64.76079209      79.35547679
H      82.54504829      64.99889760      80.95985443
H      84.32139103      62.78413837      79.07579728
C      82.46001061      65.52046207      77.06890795
O      80.64209390      67.00956641      77.22575523
O      83.24046758      64.72677703      74.94107612
C      85.87285633      68.83315230      80.55356327
O      86.09017486      70.59059776      78.96808289
N      85.34373296      69.36038593      83.01776638
H      84.90531646      67.79002338      84.00987270
C      85.33050488      71.72443356      84.46151728
H      85.61207410      73.34581873      83.22185681
C      82.70378530      72.02678977      85.69739828
H      82.84929423      72.88283578      87.56633762
H      82.01403520      70.09926893      85.92227572
C      80.77437474      73.60849070      84.13837409
H      78.88464842      73.43841533      84.94339748
H      80.46634935      72.74488577      82.29400119
C      81.50569882      76.37505001      83.68106031
O      83.56927995      77.10637410      84.41805358
O      79.76526089      77.77911667      82.63226220
C      87.42810109      71.60349108      86.51187032
O      87.96478336      69.67785996      87.61358076
N      88.44099439      73.80313251      86.96351491
H      87.79848744      75.33192109      86.01676203
C      90.30237481      74.28501272      88.91560219
H      91.65352912      75.80435266      88.58112064
H      91.44754895      72.57292068      88.89103575
C      89.10617805      74.81413608      91.47618135
O      86.85551401      75.47176083      91.55554986
N      90.65197418      74.65161962      93.64747689
H      92.53036213      74.37194012      93.45283507
C      89.50113085      75.12972038      96.17593070
H      87.44321890      75.20719915      96.12679780
C      90.37040495      72.94708648      98.03164194
H      92.33383059      72.97165293      98.64580298
H      90.22300630      71.11216223      97.10945549
C      88.33327999      72.69575289     100.15191486
H      86.56449616      73.41384889      99.37523735
C      88.10651283      69.98210590     101.21016159
H      87.53203603      68.60260569      99.79475659
H      86.73646125      69.93675246     102.74461935
H      89.99623914      69.50400513     101.87345552
C      88.87374171      74.36627094     102.40446862
H      90.49701662      73.63494685     103.44003865
H      87.19566475      74.44752917     103.59877565
H      89.18743628      76.32402740     101.85644799
C      90.05104121      77.66573308      97.22472880
O      92.29981552      78.43863115      97.22094935
N      88.12729982      79.06224083      98.06187755
H      86.40953860      78.22887153      98.06565700
C      88.35028753      81.53589258      99.11445511
H      90.37796386      81.90627894      99.11256539
C      86.92543389      83.58813536      97.47984185
H      87.07850172      85.45518494      98.33210841
H      84.91665482      83.24609489      97.17559592
C      88.24635258      83.96041143      94.94949831
H      90.28158782      83.97930870      95.26508262
H      88.02714433      85.84257885      94.14825437
C      87.37329902      81.90627894      92.91237335
H      85.43632955      81.28455897      93.23551656
H      88.50524508      80.19418690      93.06922063
N      87.44888807      83.04389418      90.40281681
H      87.88541485      84.88448761      90.15337293
C      87.00669212      81.93273509      88.24285964
N      86.42465641      79.66884298      88.01420275
H      85.78592892      79.04523330      86.32667715
H      86.04104197      78.58602980      89.53921189
N      87.21834146      83.04956336      86.06589492
H      87.30148942      82.13682555      84.39159740
H      87.42999081      84.94495885      86.13203534
C      87.40353464      81.74376247     101.85644799
O      85.33617406      80.98031303     102.70493511
N      89.19688491      82.73208933     103.33988315
H      90.95055093      83.03066609     102.64824332
C      88.87185199      82.99098183     105.93825682
H      87.62085317      81.39038365     106.28218702
C      91.41542361      82.55067560     107.29697004
H      92.05604083      80.65716984     106.80186176
H      90.91275641      82.33335707     109.28307241
C      93.52057872      84.53110879     106.85477409
H      93.45632802      85.44195686     105.00851149
C      93.17853826      86.64193307     108.85599426
H      94.59772272      88.07623535     108.44025447
H      93.57349105      85.99186723     110.76650756
H      91.22645097      87.29010919     108.72371341
C      96.24367434      83.70340866     107.27240360
H      96.42886751      82.50532218     108.93914222
H      97.64396153      85.21141026     107.21193236
H      96.62728878      82.23698103     105.87778558
C      87.65486824      85.46085412     106.51840280
O      86.68165919      85.77265897     108.59899147
N      87.70400113      87.38648523     104.81197994
H      88.97578694      87.35813934     103.38901603
C      86.53803999      89.80533492     104.78741350
H      85.56861039      90.17761101     106.56753568
C      88.61106976      91.83490099     104.67591964
H      89.26113561      92.01442497     102.72950155
H      89.98112133      91.14893032     106.05353013
C      87.82116416      94.43516439     105.68692323
H      86.82527839      94.09312393     107.45570706
H      86.36607490      95.09656860     104.38679153
C      89.96978298      96.39481058     106.11211164
H      90.70488651      97.16770863     104.35088673
H      91.65730857      95.55955155     106.94926040
C      89.16853902      98.62846708     107.91491056
H      88.03659296      97.84423066     109.44558886
H      88.20288887      99.98151112     106.69792681
N      91.50235102      99.81521520     108.97882646
H      92.43776554      98.82310888     110.31486297
H      91.00535300     101.33833461     110.01439648
H      92.67776078     100.41614816     107.60121599
C      84.36485473      90.15871375     102.83721594
O      84.10974168      88.65449159     101.01551979
N      82.76047709      92.06166814     103.22838929
H      82.61685789      92.86102236     104.95559915
C      80.91988366      92.78921277     101.29897873
H      80.03171230      91.01853922     100.73206083
C      78.80905937      94.62602675     102.19659873
H      79.76715061      96.32867015     102.84477485
C      76.85319264      95.15515011     100.15380458
H      77.67900304      96.13402835      98.53997832
H      75.57195820      96.58000376     100.90969510
H      76.00659525      93.35991012      99.59822504
C      77.40499272      93.58289781     104.67969910
H      78.70701415      93.52998548     106.27651783
H      76.92311251      91.61947219     104.29041549
C      75.01448894      94.96428776     105.36944920
H      74.02049289      94.14603627     106.97949603
H      73.49514898      94.43894384     104.08065587
H      75.31495542      96.99952300     105.46015607
C      82.11041124      93.86257731      98.89902632
O      83.91132042      95.20806244      99.06532222
N      81.25247549      93.02164910      96.62379584
H      79.88809310      91.68939205      96.71639242
C      82.02537356      93.56966974      94.12935709
H      83.01936960      95.37435837      94.08778312
C      83.76959094      91.42483037      93.20339121
H      85.35696105      91.09601799      94.47895647
H      84.63508559      92.26386885      91.53476287
C      82.61874762      88.94361973      92.34734518
C      82.30694278      88.56000527      89.59968313
H      83.10062783      90.06800687      88.47907542
C      81.43766867      86.17328095      88.82678506
H      81.34696181      86.03533092      86.79343955
C      80.97279600      84.19284778      90.58045108
O      80.47957743      81.85525632      89.66582354
H      80.30194316      82.31445982      87.91971643
C      81.38853579      84.69740470      93.24307545
H      80.85563297      83.12137295      94.42415440
C      81.97246122      87.10680575      94.10101120
H      82.34662703      87.49608937      96.06821630
C      79.63675950      93.97218145      92.38891917
O      77.50892767      93.99863760      93.32811315
N      80.05438901      94.46351028      90.01731263
H      81.88931326      94.28965546      89.52409407
C      78.01915377      94.88113979      88.07278426
H      76.34107681      94.19138969      89.05166250
C      77.59774480      97.77053133      87.77609724
H      76.86831045      98.00107793      85.86180448
H      79.41566152      98.73429175      87.83089929
C      75.72502603      99.05554523      89.64503655
H      76.36375352      98.45839170      91.50830670
H      73.84852780      98.36390540      89.14992826
C      75.74770274     101.96194429      89.60724204
H      77.48247150     102.58744370      90.52564901
H      74.16978127     102.51941355      90.80910797
C      75.19023348     103.28664244      87.04666288
H      73.32885306     102.69515811      86.39659703
H      76.61130767     102.64791494      85.69928802
N      75.19779239     106.10611409      87.23374578
H      74.67433820     106.99806492      85.62747842
H      76.94956868     106.85066627      87.37358553
H      74.02427235     106.64090665      88.64159188
C      78.22513394      93.49030124      85.52543320
O      80.18666985      92.53409971      84.79977829
N      75.99714662      93.37880738      84.25553712
H      74.49481420      94.00430678      85.24953315
C      75.43967736      91.86324688      81.95007101
H      76.60374876      90.17383156      82.14849227
C      72.65044132      91.03176729      82.37903888
H      71.33897126      92.61913739      82.27321421
H      72.38776936      90.13981648      84.21585286
C      71.72636515      89.06456221      80.50254065
O      71.43534730      86.77232419      80.99953867
O      71.52983361      89.61258283      78.24431771
C      76.12375828      93.31644641      79.56145696
O      76.60563849      95.61246388      79.77310629
N      76.38831996      92.18261062      77.34102853
H      75.75904110      90.38170145      77.32024155
C      76.44690148      93.58856700      75.05256997
H      77.93033664      94.99263364      75.32658029
C      77.05161390      91.86513661      72.85481827
H      75.33952186      91.08090019      72.01577979
C      78.46890864      93.46762451      70.88194400
H      77.21224064      95.04554599      70.46431448
H      78.90543541      92.35268599      69.20386702
H      80.19233903      94.39170069      71.52445095
O      78.64843263      89.78643766      73.38016218
H      78.62197647      88.59402035      72.01389005
C      74.04694906      95.07389188      74.68596307
O      74.17356073      97.05054560      73.58236289
N      71.80384393      94.39548013      75.75365842
H      71.53550279      92.74952851      76.68340378
C      69.49648810      96.01119614      75.55145771
H      69.57207715      97.02786889      73.76377662
C      67.12866103      94.35012671      75.50232482
H      65.51672449      95.63325087      75.58925225
H      67.21747817      93.23896763      77.23520386
C      66.66189863      92.73441071      73.15528474
H      64.80807712      91.94450511      73.58236289
H      68.27383518      91.45884544      73.01166554
C      66.06852457      94.24808149      70.85170838
O      63.79896327      94.81499937      70.37927680
O      67.79006524      94.95294940      69.32291979
C      69.33964082      97.87824572      77.78133476
O      67.44424533      99.17459797      78.17817729
N      71.17456507      97.88202519      79.58980285
H      72.73358928      96.78031474      79.53500078
C      71.36542742      99.65836791      81.77621619
H      70.67945677     101.45171819      81.02977430
H      73.33830170      99.94560632      82.30156010
C      69.79506486      98.80988081      84.01176241
O      69.60798195     100.30276459      85.81645105
N      68.85776061      96.43827427      84.12703573
H      69.27161067      95.30065903      82.65115948
C      67.67668166      95.24018779      86.37203059
H      66.43135202      96.54787841      87.36224717
C      66.16112116      92.89503744      85.63503733
H      65.32775185      91.91237976      87.24319442
H      67.57841589      91.49663996      85.10591396
C      64.40556541      92.83834565      83.38059383
C      64.02006125      90.68783710      81.90849704
H      65.11988196      88.99842179      82.22975050
C      62.38733771      90.83523577      79.68806861
H      62.26639523      89.39148486      78.25187662
C      60.85099022      93.02920801      79.31012336
O      59.07842694      92.98763403      77.31079292
H      58.04663637      94.47295892      77.44307376
C      61.14200807      95.01342064      81.03544347
H      60.09887915      96.69716679      80.54222491
C      63.12622070      95.06066379      82.82879375
H      63.76872765      96.72362295      83.82656923
C      69.67223265      94.46351028      88.48285488
O      71.81140283      93.83234169      87.86302464
N      68.92390103      94.83578637      90.96028607
H      67.14188912      95.26475423      91.49696834
C      70.78906090      94.28209655      93.01252884
H      72.64099269      95.06444325      92.56277399
C      69.89144090      95.52553647      95.47862169
H      70.81929652      94.80744048      97.17181647
H      67.93179471      95.06066379      95.91703818
C      70.18245875      98.44327390      95.66003542
C      67.99982486      99.92859877      96.05120876
H      66.12899581      99.11601647      96.12679780
C      68.28328381     102.58366424      96.41781567
H      66.71859042     103.82521444      96.83355546
C      70.77772254     103.75340483      96.34978552
O      71.03283559     106.26485111      96.65970064
H      69.41711960     107.05286698      96.89969587
C      72.89232629     102.18304226      96.22884304
H      74.62520531     103.26207600      96.26285810
C      72.52382965      99.53742544      95.84711831
H      74.15844292      98.39603073      95.40492235
C      70.84008351      91.58356738      93.53598304
O      68.85209143      90.27398704      93.66826388
N      73.10586536      90.59146107      93.88558241
H      74.70646355      91.63081053      93.86290569
C      73.80506409      87.90049079      94.28053521
H      72.00226519      86.90838448      94.35612425
C      74.84441357      86.83657489      91.85979579
H      75.83463015      85.05078352      92.13569584
C      72.96602561      86.32634877      89.73952288
H      71.96447067      88.03655110      89.18205360
H      71.40511168      85.17172600      90.43116270
H      73.94490384      85.15282873      88.35813294
O      76.73791933      88.50898267      90.96028607
H      78.16088325      88.62236624      92.08278351
C      75.66077533      87.31467564      96.45372047
O      76.80783921      89.15337935      97.28897950
N      75.97069045      84.93928967      97.13402193
H      74.82362658      83.50687711      96.61245748
C      77.96435171      84.09647173      98.83477562
H      79.71234855      85.12070338      98.45872009
C      77.29538859      84.77677320     101.65046782
H      76.94389950      86.80633927     101.67692400
C      74.71402245      83.59569425     102.24762133
H      73.37231677      84.56512385     101.02307869
H      74.13765593      83.85458677     104.20915726
H      74.59874915      81.57746656     101.86022744
C      79.35141082      84.14371488     103.55153250
H      81.21657069      84.44040191     102.73139127
H      78.95645802      82.18406870     104.04853052
C      79.23613752      85.61770141     106.15557535
H      77.66388523      84.57079304     106.97571658
H      78.87708952      87.62837020     105.89290339
H      81.00870080      85.31345547     107.15713030
C      78.53315933      81.24109526      98.33210841
O      77.10074678      79.93151493      96.88646779
N      80.25281027      80.15828210      99.55854079
H      81.26948303      81.38093502     100.61867725
C      80.71768295      77.56746732      99.61523259
H      79.10385668      76.62638361     100.47883751
H      82.35985511      77.31046454     100.83221632
C      81.23924741      76.46386716      96.95449794
O      82.97968534      77.35203852      95.54287238
N      80.03927120      74.29824079      96.34411633
H      78.90732514      73.74266126      97.77652889
C      80.32839933      73.03590361      93.93471529
H      81.95545368      73.79557360      92.92560144
C      80.46256990      70.19942443      94.39391879
H      78.69189634      69.35849622      95.02886682
C      81.29404947      68.92763862      91.93727458
H      83.04582577      69.75344902      91.23807583
H      79.78604788      69.17897222      90.55588464
H      81.71923789      66.93775680      92.26797667
C      82.28615579      69.50022569      96.55198624
H      81.87041600      70.32981553      98.39257965
H      84.17966155      70.10682784      96.02097313
C      82.36741402      66.60705470      97.24173634
H      83.43510939      65.69998607      95.72995528
H      80.53626922      65.69809634      97.49873912
H      83.42377103      66.48800194      99.00485098
C      78.30639217      73.74455099      92.04120952
O      76.54516725      72.40851448      91.31933406
N      78.09474283      76.22387190      91.36090805
H      79.51014783      77.31613372      92.03176089
C      76.11619938      77.39172276      89.74708177
H      75.64187807      76.04812736      88.25986717
H      76.51115217      79.22475730      88.89292549
C      73.63687845      77.92084614      91.18894296
O      71.69423980      78.22698181      89.93416469
N      73.57073803      77.84714682      93.71172759
H      75.27149171      78.01155300      94.56210443
C      71.11976300      77.95486122      94.97784422
H      69.85742583      76.66228842      93.98573789
C      71.41456031      77.15550699      97.83511040
H      72.67311803      78.42729279      98.85745234
H      71.96636039      75.18074298      97.65180695
C      68.99949008      77.26889055      99.36578872
N      67.41589943      75.26200121     100.08010526
H      67.61054124      73.41951805      99.62279148
C      65.36176693      76.17095957     101.40480340
H      63.65534407      75.13916900     101.83566100
N      65.55640874      78.66728803     101.41236231
H      64.31863800      80.04300878     101.88101443
C      67.85053648      79.37593539     100.29364434
H      68.37777012      81.29967679      99.86656619
C      70.10309025      80.55512461      94.67737773
O      71.20291096      82.38060024      95.70160939
N      67.85242621      80.84425275      93.65881524
H      66.88110688      79.29278745      93.12024325
C      66.41434448      83.24798462      93.35078986
H      67.73337345      84.69740470      92.71395208
C      64.68146546      82.97964348      91.05099294
H      62.90890217      82.14816389      91.69727933
H      65.48459914      81.51888503      89.84345781
C      63.82730916      85.36825753      89.56566806
H      65.63577724      86.10903026      88.91371248
C      62.21726234      84.60858755      87.19217181
H      60.45225797      83.75821072      87.83089929
H      63.27172963      83.04578389      86.35880249
H      61.77695611      86.13737615      85.88448120
C      62.54418500      87.50364828      91.00752923
H      63.73282285      87.57167842      92.68749593
H      60.63934087      86.96696599      91.58389576
H      62.65189940      89.23274785      89.89259071
C      65.33153131      84.15883270      95.86412585
O      63.82352971      82.76421468      96.98284383
N      65.76427863      86.46429880      96.42348484
H      66.61087602      87.52254554      95.08177915
C      64.83831274      87.73986405      98.73273040
H      64.24493868      86.48886524     100.25773954
C      66.74882604      89.47463282      99.73995453
H      65.89278002      90.52343092     101.29141982
H      67.33842065      90.75397752      98.23762211
C      69.18657299      88.32378949     100.71883275
H      70.00671421      87.09357766      99.28264075
C      71.20480069      90.22674389     101.07788075
H      70.80984789      91.64970781     102.51407274
H      71.72069597      91.32089543      99.41114215
H      73.01893795      89.36124924     101.53141507
C      68.60075783      87.01231943     103.30208863
H      70.35631357      87.13137219     104.37167372
H      68.22470229      84.98842255     103.30208863
H      66.90378360      87.72096679     104.23183396
C      62.28151304      89.21951977      98.06943646
O      60.25194698      88.70929365      99.12012429
N      62.43458087      91.03932620      96.28931428
H      64.08620167      91.07901046      95.33311276
C      60.12722504      92.53787917      95.49184977
H      58.62111317      91.21129129      95.02697710
C      59.20881805      94.54854796      97.48551102