 %block lattice_cart
   137.793   0.000   0.000
   0.000 143.498   0.000
   0.000   0.000   162.326
 %endblock lattice_cart

 %block positions_abs
N      87.76825183      38.10903704      81.64299049
H      87.79092854      37.34180815      83.39098733
H      89.46711579      37.76888630      80.84363626
H      86.28292694      37.25677047      80.80017255
C      87.10873734      40.80756621      81.73936653
H      87.83439225      41.71085539      83.44389966
C      87.97423199      42.32879589      79.44334906
H      87.13330378      41.48975741      77.76149264
H      90.01135697      42.28344246      79.15233121
C      87.15031133      45.12937030      79.55862236
H      85.10751717      45.06322988      79.29595041
H      87.89297376      46.00242386      77.84842005
S      88.19344025      46.94728700      82.30061524
C      91.60628596      46.46162734      82.30817415
H      91.98801069      44.68339488      83.27571402
H      92.37729431      47.90159879      83.56484215
H      92.48689844      46.83201370      80.48458826
C      84.27225814      40.83591211      82.10408371
O      82.71890312      40.16505928      80.49403689
N      83.40865322      41.97919653      84.32640185
H      84.76358699      42.53099661      85.54905478
C      80.68744734      42.42895139      84.95001153
H      79.51770674      41.56534647      83.49303255
C      80.21879521      40.93984706      87.33862559
H      80.98791381      39.06523855      86.97579814
H      78.23458258      40.74520524      87.85452088
C      81.25814467      42.29478083      89.60629717
O      80.85563298      44.57568048      90.09384656
N      82.65654215      40.90394226      91.16910083
H      83.19133469      41.56534647      92.87552369
H      83.18377580      39.11248172      90.77036858
C      79.92210818      45.28621757      84.92922454
O      81.59073652      46.87169796      84.96323962
N      77.44467698      45.86447383      84.96134989
H      76.18800898      44.48119417      85.35063351
C      76.46957821      48.43828106      84.70623684
H      77.28405025      49.23196612      82.98847562
C      73.53105378      48.58756944      84.25837170
H      73.00382015      47.39137270      82.66722215
C      72.07596453      47.47452064      86.39754189
H      72.73169956      45.55266898      86.74714126
H      70.04450873      47.42916721      86.05361170
H      72.31029059      48.75764481      87.98869145
C      72.66366941      51.36924658      83.76137368
H      73.41578048      52.47851592      85.32795680
H      70.61709581      51.46751235      83.53649625
C      73.71246752      52.51442072      81.31984729
H      72.60319816      54.13580590      80.70757596
H      73.98647782      51.28609862      79.68712375
H      75.62298082      53.20417083      81.66377748
C      77.25759408      50.13336557      86.97201869
O      78.10419146      52.23096177      86.39376244
N      77.07618034      49.34912915      89.40976563
H      76.47713710      47.56144805      89.71968075
C      77.97946952      50.72107046      91.64342213
H      76.80405975      52.39914742      91.43177279
C      77.36908793      49.25086339      93.99424167
H      77.65065714      50.52453891      95.58728095
H      78.74291896      47.72396452      94.15675813
C      74.91622317      47.86569400      94.07738963
C      72.72414065      49.30188599      94.79548562
H      73.18145442      51.15381779      95.51547135
C      70.25804781      48.46473724      94.52147531
H      68.67445717      49.69683880      94.90697948
C      69.79884431      46.04966701      93.59928887
H      67.91667691      45.26921004      93.46889775
C      71.73014461      44.60402638      92.56371885
H      71.46747265      42.90138298      91.46956731
C      74.27749567      45.55455871      92.91331822
H      75.86864524      44.34513388      92.50702706
C      80.78760283      51.46940208      91.40720635
O      81.64175913      53.26842152      92.55049076
N      82.27481744      49.82911963      90.19589178
H      81.48869129      48.11891732      89.88219721
C      84.89019866      50.46973685      89.89920475
H      85.56672067      51.52798359      91.53192828
C      86.38686189      48.06222553      89.99180134
H      88.31249301      48.48930368      89.39842727
H      85.64797891      46.71107122      88.62174976
C      86.56071671      47.14381855      92.68844079
H      86.97078733      45.12748056      92.79615519
H      84.64075478      47.02287607      93.42354432
C      88.19155052      48.74252700      94.42887872
O      87.58116893      48.92583045      96.69277084
O      90.21355768      49.72707442      93.77881287
C      85.33428434      52.06655559      87.62397427
O      86.50780438      54.04320931      87.85641060
N      84.23635334      51.54121167      85.41110475
H      83.07984085      50.02376145      85.33929515
C      84.29871431      53.08322834      83.01682152
H      86.22623515      52.89992489      82.31573305
C      82.75102847      51.92671585      80.96268901
H      80.78004393      52.41426524      81.31039866
H      82.80394080      49.86502443      80.98158628
C      83.73935533      52.75063651      78.36809479
H      85.35507132      51.49396851      78.13376872
H      84.53304037      54.64981146      78.45691192
S      81.71356873      52.59189951      75.69224233
C      80.04494039      55.57199791      76.24215268
H      79.10574641      55.67215339      74.41100789
H      81.41310223      57.09700704      76.44813285
H      78.64276347      55.25641360      77.71802893
C      83.52770598      55.83278013      83.34374417
O      84.78248425      57.49384957      82.25148236
N      81.50569882      56.52441996      84.76103890
H      80.43044455      55.08066906      85.39220749
C      80.80838981      59.17759571      85.13520471
H      80.90287613      60.03553145      83.26437566
C      77.97757981      59.71427798      86.01959663
H      77.34830093      61.62101182      85.56417259
H      77.71868729      59.25696421      88.01136816
C      76.28060557      58.15336405      84.42844707
H      76.60752822      56.15214387      84.79316425
C      73.54995105      58.81476826      84.96512934
H      72.86964957      60.52119111      84.03160455
H      73.22302840      59.07932994      86.98335705
H      72.19123783      57.49573928      84.15254703
C      76.31840010      58.75240729      81.56173225
H      74.67055876      57.87368455      80.69056842
H      78.05316885      58.21005583      80.59230266
H      76.39020969      60.77063499      81.15544110
C      82.91543465      60.78764252      86.51659465
O      83.29715938      63.00051203      85.90243360
N      84.38564172      59.70671907      88.18522298
H      84.30060405      57.81132358      88.39309288
C      86.65520303      60.69315620      89.55527456
H      86.14308720      62.60555924      90.12975136
C      87.19755448      58.96594635      91.79271051
H      88.87374173      59.71805743      92.72812504
H      87.88541486      57.08188922      91.32783784
C      84.78815343      58.79398126      93.43866213
H      83.22534977      58.16848185      92.24813455
H      84.35729584      60.60055961      94.32683350
C      85.34940214      56.94015975      95.52114053
H      86.26969886      55.26586224      94.74824247
H      83.52014707      56.35812404      96.26569270
N      86.85929348      58.22517364      97.46755863
H      87.90053267      59.76341086      97.03103185
C      86.99157431      57.64313793      99.86184187
N      86.20544817      55.55688009     100.81615366
H      86.34339818      55.18271429     102.68320326
H      85.79915700      54.14525453      99.59916991
N      87.72100866      59.32688409     101.44732225
H      87.70211140      58.83933470     103.29358485
H      88.33139026      60.95960761     100.67631391
C      89.11184723      61.03330694      87.91877157
O      91.07527287      61.98572900      88.80127376
N      88.83594720      60.10734105      85.55283423
H      87.29582025      59.06988130      85.10307937
C      90.82582901      60.47016851      83.55539351
H      92.42831691      61.53975359      84.28671760
C      92.17887305      57.94738387      82.82217971
H      93.55648353      58.25540926      81.32362674
C      93.59994722      56.83622481      85.08796155
H      92.43209637      56.12001853      86.62619877
H      94.66764260      58.29131406      86.08384732
H      94.90574811      55.41137117      84.37364501
C      90.12852000      56.01419386      81.78849941
H      88.93043352      56.93638029      80.38632249
H      88.89452872      55.36223827      83.30217019
C      91.63463187      53.93738464      80.43923482
H      90.43465566      52.85835092      79.15800038
H      92.19021140      52.62213512      81.92266998
H      93.18042798      54.77264367      79.36776001
C      89.81860488      61.76652076      81.17244863
O      90.97133793      61.84966871      79.22414081
N      87.51880795      62.81909832      81.35953154
H      86.50591465      62.27863659      82.88454067
C      86.27158859      64.34221772      79.50382030
H      87.16731886      64.33087937      77.64810906
C      83.53904433      63.43892854      78.93123323
H      82.31639141      64.09466357      80.45435264
H      83.52770598      61.41314193      79.30539904
C      82.32961950      64.41213760      76.45947121
O      83.54849298      64.12867864      74.40344898
O      80.17911095      65.37778773      76.43490477
C      85.88797415      67.14846130      80.18034232
O      86.60607015      68.85110470      78.80462156
N      85.37963776      67.76073262      82.57273583
H      84.91854455      66.31887144      83.73680724
C      85.68388370      70.16068504      83.95601549
H      86.91787498      71.32853590      82.79761326
C      82.97779562      71.43814002      84.19601074
H      82.96456754      73.06708411      85.45645819
H      81.62475158      70.04730145      84.88576084
C      81.93088724      72.12033123      81.64676994
H      79.91076981      72.42079770      81.91700080
H      82.04238109      70.73138239      80.12931971
C      83.13842236      74.55996789      80.89465887
O      81.83829065      76.50449627      80.99481436
O      85.32105626      74.69413847      79.94601626
C      87.10117843      69.90935144      86.48257957
O      87.33172504      67.84766002      87.49358315
N      87.99690872      72.01072710      87.58617974
H      88.09517448      73.55085405      86.46368231
C      89.30081986      72.20725864      89.99936024
H      90.69732762      73.71903968      90.01447805
H      90.33827962      70.45548235      90.31872399
C      87.38841684      72.59276281      92.25569346
O      86.21678653      74.45225350      92.59395447
N      87.33928395      70.75783856      94.06416154
H      88.24257314      69.14590200      93.58606078
C      86.05804952      70.96570845      96.50568794
H      84.07950607      71.50428045      96.32616394
C      85.87474606      68.33709914      97.80581964
H      87.84384089      67.76073262      97.98534364
H      85.04326649      67.01240100      96.46789341
C      84.47445887      68.26151010     100.39852414
H      85.53270559      69.48416302     101.67597913
C      81.66443584      68.98716500     100.16986726
H      80.54760758      68.52229232     101.83660587
H      80.71012405      68.22560530      98.50879783
H      81.59073652      71.04507695     100.09805766
C      84.59918081      65.64234943     101.49078595
H      86.53804000      65.04519590     101.84983395
H      83.96234304      64.13812728     100.23789741
H      83.35574089      65.86722685     103.11973003
C      87.13897296      73.00661287      98.21966970
O      89.28759179      72.74205119      99.06437737
N      85.61963300      75.07964263      98.66186566
H      83.89620262      75.32530705      97.88140869
C      86.58150371      77.37377038      99.90530558
H      88.62429785      77.18101829      99.71444322
C      85.61585356      79.88143720      98.72233690
H      86.75346880      81.40644633      99.51035278
H      83.61463339      80.03639474      99.17398149
C      85.86340771      80.14599888      95.78192276
H      85.56105150      82.09808616      95.19799733
H      84.33083966      79.04428843      94.95611236
C      88.41264851      79.51860973      94.99012743
H      88.85484446      77.51172039      95.12240828
H      89.62207335      80.59575374      96.26191324
N      89.10617806      80.25182355      92.43521746
H      88.28414711      81.76549433      91.61129679
C      91.29637086      79.61687550      91.46767759
N      92.80248273      78.01438760      92.37852567
H      94.31804322      77.47770533      91.34673510
H      92.18832167      77.10542924      93.93943960
N      91.85761957      80.30851533      89.33606631
H      93.36562117      79.49404329      88.49891755
H      90.78236530      81.61053677      88.44789494
C      85.89175359      77.50794095     102.72477723
O      83.97179166      76.66323329     103.55247736
N      87.54337440      78.77027811     104.10616717
H      89.18176711      79.23326107     103.24445197
C      86.96511815      79.61876523     106.76690182
H      85.41176311      78.38288422     107.31492245
C      89.22523082      79.00082473     108.54513428
H      88.61862867      79.44491041     110.46320649
H      90.79559339      80.14032970     107.85349445
C      90.31749262      76.28528802     108.62261306
H      90.50268580      75.65222970     106.67052578
C      92.95744029      76.09631538     110.06447423
H      94.47489051      77.09409088     109.08748573
H      93.57916024      74.14233838     109.87928106
H      92.69287859      76.53473190     112.06002522
C      88.51469373      74.44847404     109.93597284
H      86.60984960      74.69035901     109.18953095
H      88.50713482      74.83397821     111.95986973
H      89.12318559      72.51906347     109.54668922
C      86.26025023      82.36264784     107.20153887
O      85.58561794      82.91633764     109.46543099
N      86.26025023      84.00859945     105.20787761
H      86.76291742      83.16389179     103.57326435
C      85.30971790      86.71846699     105.10016321
H      84.42154652      87.06428691     106.92752855
C      87.68321414      88.56850906     104.90363167
H      88.44288413      88.44000766     102.99311837
H      89.00791229      87.88631786     106.32470586
C      87.08606063      91.42199579     105.54235917
H      86.39253107      91.49191565     107.47932864
H      85.80671591      92.44244800     104.28947062
C      89.62585280      93.02448370     105.48188792
H      90.98078655      92.18922466     106.78957853
H      88.97011776      94.92743809     105.91841470
C      90.92598449      93.38920088     102.98555947
H      89.52758703      94.27926197     101.76290654
H      91.54770446      91.61663760     102.13707235
N      93.11239785      95.19766895     103.24634170
H      93.85883974      95.62285737     101.54180856
H      94.41819872      94.71200930     104.54836313
H      92.53792105      96.91543017     103.85105412
C      83.47101419      87.00570540     103.04792043
O      83.45211692      85.43156337     101.28291606
N      81.93088724      89.04660981     103.41074789
H      82.11797015      89.93856063     105.08693513
C      80.12052943      89.91966337     101.60416953
H      78.69000662      88.47780219     101.26023934
C      78.62764565      92.12875342     102.77202039
H      80.01092531      93.41754678     103.59027189
C      77.09129816      93.52904063     100.71032898
H      75.72880548      92.29315962      99.77869391
H      78.19867778      94.31327705      99.16453286
H      76.26548777      95.22412513     101.54180856
C      76.83051593      91.33695811     105.04914060
H      77.80372497      90.16910723     106.43997917
H      75.30550679      90.17855588     104.28947062
C      75.95368292      93.61596804     106.45131752
H      77.58262701      94.55327229     107.29791491
H      74.65355122      92.91110011     107.88373007
H      74.71402246      94.85940795     105.37606325
C      81.55672144      90.68311279      99.22689383
O      83.66754572      91.73380063      99.31571097
N      80.39265002      90.38831550      97.03670103
H      78.67299909      89.56817428      97.12929762
C      81.16932755      91.36530400      94.41376091
H      82.49213597      92.94322546      94.51769586
C      82.59796064      89.31117149      93.00024563
H      84.31572186      89.05038927      94.10951497
H      83.10062783      90.09540791      91.16343165
C      81.02192890      86.86964509      92.58639556
C      79.87297530      86.42744914      90.09573628
H      79.76526089      87.67277877      88.48191001
C      78.73913950      84.08040906      89.73668828
H      77.90765993      83.86120080      87.88664622
C      78.65410182      82.18879302      91.55460500
O      77.28405025      80.09119682      91.20878508
H      76.49603437      80.03450503      89.57606155
C      79.69912048      82.65933487      94.06416154
H      79.61597251      81.28928330      95.57594259
C      80.74035966      85.04794894      94.56682874
H      81.31861593      85.53171887      96.46411396
C      78.77315458      92.09851781      93.00024563
O      76.76248578      91.98702395      94.15675813
N      78.71835252      92.69000215      90.53604252
H      80.38698084      92.99991725      89.66298896
C      76.51304190      93.48368720      89.17921902
H      74.82551630      93.72746188      90.33573153
C      77.05728308      96.12552458      88.03782433
H      75.68534179      96.59795616      86.57328644
H      78.84496418      95.84395536      87.05327692
C      77.06106254      98.16264955      90.06172121
H      78.85252309      98.10406803      91.08028369
H      75.53416368      98.12296530      91.44500087
C      77.24436599     100.86873763      88.68600045
H      75.59274520     101.46022196      87.60885646
H      78.84307446     100.86684790      87.38964820
C      77.63364961     102.97767219      90.67777199
H      79.09251833     102.21611248      91.91743245
H      75.89510141     103.16097565      91.76436462
N      78.22891340     105.42297803      89.46456770
H      80.04871983     105.42108832      88.88253199
H      78.06828667     106.88751593      90.67588226
H      77.18389475     106.08627198      88.01325789
C      75.84407880      91.46734921      87.21957284
O      77.40688246      90.43744838      85.91944113
N      73.50459761      91.16877245      86.62052959
H      72.34808512      92.20245275      87.73546812
C      72.44824060      89.80627979      84.46435187
H      73.15499825      87.87308977      84.50214640
C      69.60798195      89.66832976      84.81206151
H      68.67445717      91.48813621      85.05583621
H      69.22625724      88.60819331      86.53738164
C      68.32296806      88.20946106      82.79761326
O      69.39444289      86.18178472      82.18534194
O      66.36899106      89.03338172      81.88298573
C      73.13421125      91.11774985      82.03227411
O      73.86175590      93.35329608      81.95857478
N      72.86775984      89.81572841      79.94601626
H      72.33107757      87.98458362      80.01404640
C      73.35908869      91.09318341      77.53472548
H      75.29605817      91.73002118      77.23614872
C      72.96224616      89.15054475      75.41067311
H      73.43467775      90.06328257      73.62677147
C      74.59307997      86.81484303      75.76972111
H      74.53827791      85.76226548      74.00093728
H      73.80695382      85.56006477      77.20024392
H      76.57540287      87.02649238      76.28939584
O      70.47914579      88.37575697      75.33886351
H      70.27316563      87.71813221      73.65889681
C      71.49959800      93.38353170      76.93379251
O      72.14588439      95.23546348      75.61665327
N      69.38121480      93.47801802      78.20935778
H      68.76705376      91.75269789      78.74981950
C      67.57085699      95.46034092      78.18668106
H      67.74093237      96.72267810      76.56907534
C      64.95925522      94.15076059      77.98637007
H      63.84431670      95.88174989      77.91267074
H      64.52083873      92.93188711      79.59074771
C      64.50194147      92.66165625      75.47114435
H      65.59798273      90.91932859      75.44657791
H      64.99516002      93.62541667      73.72125778
C      61.78262530      91.87175065      75.17823677
O      60.73193747      90.62642100      76.87332127
O      60.67713541      92.67299460      73.28095155
C      67.77305770      97.27258844      80.35041769
O      66.08931157      98.67287565      80.95890956
N      70.00860393      97.23857338      81.59952678
H      71.39755277      95.99513346      81.19134590
C      70.67756705      99.05271063      83.63098257
H      70.28072452     100.98023147      83.02438042
H      72.71469201      98.87696609      83.88798535
C      69.56073880      98.68799345      86.24447406
O      70.34875467      99.99379434      88.00758871
N      67.97714815      96.75291372      86.57895562
H      67.61621042      95.73813069      85.00103414
C      66.81496646      96.06694307      88.91465734
H      66.54095616      97.89430841      89.82739515
C      64.27895376      94.73468602      88.34207027
H      63.24527347      94.75547300      90.12597191
H      64.55296408      92.70700968      88.11719283
C      62.61221515      96.02725881      86.35029873
C      61.97537739      94.58161818      84.12798059
H      62.79740832      92.75047339      83.75003533
C      60.21982164      95.59262175      82.41588855
H      59.51306400      94.43799899      80.88898969
C      59.38078316      98.03981733      82.57084611
O      58.08632062      98.94121679      80.64332527
H      57.31153285     100.53047661      81.04772670
C      60.29163124      99.52514222      84.57773545
H      59.70770581     101.48100894      84.58529436
C      61.59932184      98.42721123      86.64887549
H      62.04340752      99.69710731      88.18522298
C      68.43635165      94.55705174      90.66265418
O      69.96325051      93.11897002      89.63842252
N      67.86754403      94.51736749      93.13063674
H      66.33875543      95.53026078      93.66542929
C      69.81018268      93.56683514      94.90508975
H      71.64699665      93.76903587      93.99613139
C      69.73837307      95.20522786      97.28992436
H      70.91189311      94.35107156      98.75257252
H      67.82408032      95.09940318      98.04392516
C      70.49615332      97.87730086      96.88741265
C      68.66311880      99.66309224      96.38096600
H      66.70725207      99.08105654      96.35450983
C      69.32263328     102.19532550      95.84239400
H      67.68613029     103.36884554      95.50791244
C      71.81140285     103.04948178      95.84806318
O      72.30651113     105.52880271      95.21689459
H      70.79473008     106.42642271      94.76147055
C      73.69734970     101.23345481      96.54537219
H      75.63998835     101.84194668      96.69088112
C      73.00759960      98.58972768      97.04237021
H      74.30206213      97.12141035      97.61873674
C      69.53806209      90.84562926      95.53058916
O      67.39511244      89.95556817      95.95955703
N      71.69423980      89.38298110      95.66098028
H      73.36475787      90.21635040      95.26413775
C      71.69801926      86.64854711      95.82916592
H      70.04072928      85.86053125      96.75891126
C      72.00982411      85.40510721      93.24213060
H      72.41800498      83.38687950      93.26291758
C      69.76671898      85.95312784      91.40342689
H      67.90911800      85.42589419      92.11396399
H      69.85364639      84.94401398      89.60818690
H      69.74026281      87.99592198      91.13697548
O      74.30017240      86.55406081      92.22545784
H      75.11464444      85.42400446      91.06327616
C      74.04316961      85.63187437      97.31449080
O      75.84218906      87.02271293      97.95888747
N      74.06395661      83.21491441      98.12518339
H      72.30084195      82.51949513      97.90597514
C      75.83463017      81.99604093      99.85050351
H      77.63175988      82.86909449      99.34972604
C      75.25259446      82.38532455     102.64162928
H      75.36219859      84.38276527     103.13106839
C      72.49926321      81.38565933     103.12917867
H      71.99659601      81.88265736     105.06425841
H      72.37832074      79.33341657     103.02146427
H      71.21424932      82.24359508     101.76479627
C      77.17822557      81.19101753     104.53702477
H      77.42011054      79.15200284     104.37639803
H      76.41288642      81.55006553     106.41541272
C      79.83329104      82.27005125     104.50678915
H      79.73880472      84.32229403     104.64473917
H      80.80272064      81.88643681     102.73044641
H      80.81972817      81.56707307     106.17352776
C      76.01415416      79.25593779      99.04925956
O      74.25103952      78.05029239      98.14786010
N      78.20056750      78.09186637      99.55948566
H      79.48180195      79.10853913     100.54025362
C      78.54449770      75.46892625      98.87162528
H      77.07807007      74.22737607      99.61428772
H      80.32461989      74.79240424      99.65208225
C      78.82039774      75.16090087      96.02380773
O      80.46634936      76.53851135      95.15453362
N      77.31050642      73.57542048      94.77091918
H      76.20690624      72.60599088      95.98790293
C      76.89665634      73.24660811      92.03459548
H      77.98702843      74.71492545      91.08406315
C      77.72057702      70.51028441      91.05193780
H      76.94956869      69.01740061      92.24057565
C      76.81917757      70.50083577      88.30616547
H      77.16688722      72.29985523      87.36697149
H      74.76126561      70.41579809      88.34773944
H      77.54672220      68.94937048      87.15910159
C      80.53060004      70.22682545      91.23335152
H      81.33373373      70.54240976      93.10229085
H      81.36018990      71.54207498      89.88219721
C      81.38853579      67.54341410      90.65131582
H      83.04393604      67.05775444      91.77381325
H      81.79860641      67.46782504      88.63497784
H      79.90510063      66.22816458      91.21067481
C      74.21135526      73.78706983      91.59806870
O      72.51249130      72.24316343      92.01569822
N      73.60664284      76.09442566      90.99335628
H      75.07307046      77.28873268      90.74580214
C      71.13299109      76.71425590      90.05038285
H      70.38276975      75.06830428      89.06772517
H      71.31062537      78.25438284      88.69355936
C      69.07696886      77.46636697      91.87585847
O      66.97559320      78.28839790      91.09729123
N      69.72703472      77.22259227      94.34762049
H      71.38054525      76.35520790      94.74068356
C      67.75416044      77.73470810      96.24301598
H      66.02128142      76.67646137      95.89341661
C      68.80106883      77.05440662      98.89619172
H      70.24859917      78.43012739      99.40830755
H      69.74971143      75.23648992      98.70343964
C      66.61843494      76.77472714     100.69899063
N      65.14066895      74.71303572     100.89363244
H      65.36932583      73.19747523      99.75601720
C      63.30763443      75.19680566     102.48100254
H      61.73727187      73.95336574     102.86839643
N      63.59109337      77.51361012     103.40885816
H      62.59142816      78.50193699     104.69765150
C      65.75105056      78.49815754     102.37517787
H      66.41245477      80.41811947     102.56604022
C      66.82441510      80.57685647      96.40931190
O      68.34186533      82.13777040      96.95355307
N      64.53028735      81.19857644      95.91420360
H      63.15267687      79.95324679      95.47389737
C      63.60810092      83.77238367      95.67231863
H      65.14066895      84.74748245      94.70288904
C      61.17980260      84.00670974      94.16053758
H      59.61888867      83.01649314      95.06949594
H      61.39334168      83.36420279      92.21600921
C      60.23871889      86.64854711      93.65598066
H      60.15179149      87.70112468      95.42287476
C      61.88467052      88.25670421      91.88530710
H      61.93758286      87.33073832      90.04660340
H      63.83675780      88.59496522      92.45222500
H      61.20625878      90.19367369      91.69444475
C      57.44948287      86.58618614      92.47868116
H      56.87878551      88.55717069      92.31238525
H      56.31942652      85.38054077      93.70511354
H      57.73294181      85.64510245      90.66643363
C      63.32842143      84.90432974      98.31415602
O      62.60276651      83.64955146     100.12640355
N      63.78573519      87.41766573      98.62218141
H      64.49627229      88.39087478      97.14252571
C      63.59487284      88.61008304     101.12606877
H      63.06008028      87.20223693     102.53013542
C      66.00616360      89.92911199     101.90652574
H      65.85120604      90.85318817     103.74144999
H      66.37088078      91.28971495     100.40419332
C      68.23982011      88.05828295     102.02557850
H      68.56296330      87.28727462     100.14152136
C      70.66622870      89.39809890     102.87973479
H      71.15944726      91.17633136     101.96699698
H      72.28950359      88.14898982     102.67375462
H      70.54528622      89.88375857     104.87906523
C      67.70880702      86.01926826     104.05136511
H      66.73937742      86.93956497     105.61983795
H      69.50971619      85.35219487     104.79780700
H      66.52961780      84.56795845     103.19342936
C      61.49538690      90.61508265     100.94087559
O      59.59432222      90.35619014     102.16919770
N      61.71459515      92.39898428      99.16453286
H      63.33975977      92.31961578      98.16864709
C      59.79085377      94.34729212      98.50690810
H      57.88034047      93.58384269      98.56359989
C      59.69825718      96.66031713     100.47600292