 %block lattice_cart
   137.793   0.000   0.000
   0.000 143.498   0.000
   0.000   0.000   162.326
 %endblock lattice_cart

 %block positions_abs
N      86.85267943      41.17606285      78.00621220
H      88.02242001      40.82835320      76.53789486
H      85.38058263      42.02832941      77.14449701
H      86.51063896      39.42995573      78.69974176
C      87.80699121      42.75020486      80.06601389
H      89.34522843      42.02832941      81.23008529
C      88.86523795      45.33157101      79.23264458
H      87.43471514      46.65059997      78.55612256
H      90.27875323      45.01787644      77.76999641
C      90.36379091      46.67327669      81.39827093
H      91.89446924      45.50731555      82.13526420
H      89.15625581      47.06633976      83.02154583
S      91.58266439      49.64203673      80.21530225
C      93.65191470      50.37525054      82.82879374
H      95.24873344      51.60357264      82.40549506
H      94.32087782      48.71796056      83.84924596
H      92.57099125      51.67727197      84.00420352
C      85.47506895      43.23775425      81.74409085
O      83.65526250      44.02954958      80.71796946
N      85.68104911      42.95996448      84.35380289
H      87.13235893      41.91305611      85.01898655
C      83.53243029      43.62325842      86.05455656
H      81.82033825      42.55556305      85.63692706
C      84.34123315      43.17728301      88.77009328
H      86.10434781      44.18450714      89.11024402
H      84.59445648      41.16472449      89.13292073
C      82.49875001      44.02954958      90.79776962
O      80.58067779      45.15204701      90.35179421
N      82.94472541      43.46263168      93.18071450
H      81.67293960      43.94640162      94.52053045
H      84.70406062      43.00342819      93.75519130
C      82.97874049      46.42572254      85.60858116
O      84.68138389      47.98285702      85.64637569
N      80.52587573      46.85469042      85.33646057
H      79.32400979      45.40527033      85.02654546
C      79.51676188      49.43794629      84.86780845
H      80.49941956      50.23163134      83.24075409
C      76.75209229      49.29999627      84.16294053
H      76.44595662      47.59924258      83.04233283
C      75.08913313      48.92205100      86.47596554
H      73.12192803      48.48552422      86.05455656
H      75.36314345      50.49052384      87.78554587
H      75.75998597      47.27231993      87.51531501
C      75.86203120      51.70372814      82.84769102
H      76.70484912      53.33078249      83.79255416
H      73.81545759      51.91159803      82.72674853
C      76.67650323      51.69427950      80.10191869
H      76.33446278      53.54999074      79.27232883
H      75.61636678      50.36580191      78.94162673
H      78.70417957      51.33523150      80.07168306
C      80.11202567      51.38247466      86.88225670
O      81.11358062      53.29865714      86.35691277
N      80.20651199      50.52264919      89.22929678
H      79.97596538      48.65182014      89.53165299
C      81.15893404      51.92860557      91.39870258
H      80.39548462      53.84289832      91.40815122
C      80.14415102      50.48863412      93.89314132
H      80.93594635      51.51097605      95.49562923
H      80.81878332      48.54221601      93.85912624
C      77.30011291      50.53020809      94.31832974
C      76.18706411      52.87346872      95.08933807
H      77.47774718      54.41359567      95.44649634
C      73.56034454      52.99441121      95.28020043
H      72.63059920      54.74429777      95.75641146
C      72.16761625      50.73618826      94.85501201
H      70.15505773      51.01397803      94.66037019
C      73.33924656      48.43261189      94.20683589
H      72.14871899      46.80366781      93.90825913
C      75.90927435      48.27387488      93.73251458
H      76.99586697      46.63359244      93.19205286
C      84.00864132      52.51631045      91.41948957
O      84.86090789      53.76352982      93.08811791
N      85.41270798      51.65837470      89.46362284
H      84.56233113      50.66437866      88.07089455
C      88.11312688      52.43316249      89.25575294
H      88.64225024      53.63880788      90.83934360
C      89.76096822      50.03321007      89.52976326
H      91.74518086      50.55477454      89.35401871
H      89.21483731      48.66126877      88.09168154
C      89.77230658      48.86913867      92.23963079
H      90.99118006      47.20995896      92.30010204
H      87.83344738      48.26631597      92.59678907
C      90.53386629      50.78154169      94.38824960
O      89.51341408      50.54343618      96.50663281
O      91.90769731      52.65426047      94.08022422
C      88.31343786      53.83911887      86.78210120
O      89.38113323      55.84978767      86.57612103
N      87.14936646      52.85268173      84.75442487
H      85.94183134      51.39759247      85.01709683
C      86.99062944      53.91092847      82.20707379
H      88.86901740      53.72195584      81.38693258
C      85.13491821      52.35757344      80.59135780
H      83.14881585      52.79787967      80.92583936
H      85.02909354      50.31477930      80.84269140
C      85.70750528      52.83945365      77.82668820
H      87.74840971      52.73173925      77.57535460
H      85.10657231      54.73106969      77.27299839
S      83.85557350      50.60390742      75.87649065
C      84.01431050      51.52987331      72.57702851
H      85.99285396      52.08923230      72.42207095
H      82.64047947      53.01141874      72.18018598
H      83.63258579      50.04832788      71.19752829
C      86.13458343      56.73984876      82.18439708
O      87.38180279      58.45760998      81.08646608
N      84.04454612      57.17448581      83.48074933
H      82.98818911      55.87624383      84.39915631
C      83.16960285      59.83144101      83.75475965
H      83.37180355      60.89157747      82.00109363
C      80.24241679      59.47995191      84.09868984
H      79.34668652      61.27708164      84.55600360
H      79.77376465      58.25162981      85.68228049
C      78.75520217      58.47272779      81.69306823
H      79.20306731      56.46394872      81.63070726
C      75.85447228      58.88657785      82.20140462
H      75.18172972      57.46172421      83.52799248
H      74.80756390      58.75807646      80.43262078
H      75.74297843      60.80276033      82.94595679
C      79.33912761      59.54231288      79.07201783
H      78.62859051      61.47550290      79.09280483
H      78.50008913      58.33666749      77.62637720
H      81.31389160      59.74640332      78.52021776
C      84.41304275      61.32432479      85.94117299
O      83.84801459      63.50884841      86.20762440
N      86.04576629      60.04686981      87.43027733
H      86.30276908      58.17793048      87.14492865
C      87.49896582      61.33566315      89.34079062
H      86.20072385      62.66603048      90.22518254
C      88.29643033      59.33255326      91.31555463
H      89.92726414      58.32154968      90.57289219
H      86.86779723      57.89636126      91.69538962
C      89.13546881      60.62701579      93.78731664
H      87.47628912      61.33377343      94.77942296
H      90.35245256      62.18415027      93.20150149
C      90.80787661      58.90736484      95.37657646
H      91.51652397      59.93915541      97.01307946
H      92.48595357      58.14013596      94.46194894
N      89.47939901      56.71150286      96.28931428
H      90.05387581      55.05799234      95.52775458
C      87.74274053      56.75307684      97.99951660
N      86.96228355      58.64847234      99.40925241
H      85.89458819      58.26674762     100.94748963
H      87.80321177      60.33977739      99.14469073
N      86.63347117      54.59311967      98.47572763
H      85.09523395      54.57422240      99.60389423
H      87.14558700      53.19094274      97.28520005
C      89.66837163      63.01185039      88.14837333
O      90.13702376      65.03007809      89.21228924
N      90.67370603      62.24273178      86.02243121
H      90.15781075      60.53063974      85.35724756
C      92.55020427      63.88301422      84.73363787
H      93.33633040      65.35322129      85.94495244
C      94.74039706      62.22950370      83.73775210
H      96.11422808      63.36711894      82.70974100
C      96.26162675      61.21094122      86.14148397
H      96.74161722      62.73406062      87.44350541
H      98.05686673      60.29253423      85.71818529
H      95.15991630      59.82955128      87.20162044
C      94.00907297      60.22450408      81.81590044
H      92.58421934      60.65725141      80.39104681
H      93.10578379      58.68059768      82.83635265
C      96.13501507      59.03775596      80.20018445
H      96.71327132      60.19993764      78.59958626
H      95.57187663      57.13669129      79.64082545
H      97.75451053      58.87334977      81.46063190
C      91.62612809      65.60266517      82.62281359
O      93.19082149      66.72327287      81.30756407
N      89.06176948      65.85777822      82.31856765
H      87.81643985      64.81275957      83.31823286
C      87.89769807      66.89712769      80.09247004
H      89.11468183      66.68169889      78.44462870
C      85.28042713      65.94092618      79.60870012
H      83.99163379      66.75728794      80.99197978
H      84.97996065      63.93403683      79.96963784
C      84.54532360      66.48327763      76.84592025
O      82.47985275      67.22216062      76.21097221
O      85.96639778      65.68392340      75.09981312
C      87.91470562      69.88667472      80.04900635
O      87.42526650      71.11499682      78.15550058
N      88.09611935      71.00161324      82.32423682
H      87.92982342      69.83565211      83.82467951
C      88.46650569      73.69447324      83.08201708
H      89.21483731      74.75083025      81.47952917
C      85.97017725      74.85287547      83.90215830
H      86.32166634      76.30229555      85.32323249
H      84.78909830      73.46581636      84.86591872
C      84.64547909      75.96403454      81.61936891
H      82.59890549      76.04718250      81.84802579
H      84.73996542      74.52406309      80.14727212
C      85.69427719      78.42634793      80.71796946
O      86.67315543      78.62665892      78.48242323
O      85.66404157      80.29906670      82.19951488
C      90.23339981      73.59998692      85.34779893
O      90.26930461      71.79907775      86.78777038
N      91.66581235      75.75238519      85.67661131
H      91.83588771      77.03172991      84.26876521
C      93.55364893      75.82797425      87.72696436
H      95.12968068      76.96747921      87.04288342
H      94.28119356      74.00060890      88.34301514
C      92.23650969      77.03739909      90.06455580
O      90.85134030      78.85531580      89.83589892
N      92.65791866      76.26639075      92.44939041
H      94.06576476      75.01728166      92.76497471
C      90.97984170      76.48559900      94.63391403
H      89.10712292      76.60087231      93.78353719
C      91.45794245      74.17824318      96.19482797
H      93.49128796      73.97604246      96.45372047
H      90.78519988      72.50772511      95.19516275
C      90.20694364      73.94769657      98.79320165
H      88.20761319      74.42012814      98.67792834
C      90.79086906      71.16035025      99.71727781
H      89.93104360      70.94681118     101.57676851
H      92.83555293      70.90334748      99.68326273
H      89.77608604      69.82809320      98.52108106
C      91.53920068      75.61821463     100.74906838
H      91.59022330      77.63266288     100.32954914
H      93.51207496      75.09853989     101.03441704
H      90.62268343      75.22137210     102.54997755
C      91.42203765      79.04617816      95.92459710
O      93.61034073      79.79073033      96.20616632
N      89.39436131      80.44079618      96.44427184
H      87.62746721      79.78128169      96.14947454
C      89.42459695      83.07129520      97.47606241
H      91.38991230      83.67978708      97.41748089
C      87.82966794      84.78905642      95.78475735
H      87.11535138      86.42366968      96.81465820
H      86.12702452      83.86498026      95.08177917
C      89.22617567      85.98525318      93.61724127
H      90.83622250      87.08507389      94.28053521
H      87.92982342      87.33451777      92.75552608
C      89.87057235      83.98403301      91.56121905
H      88.46461598      82.49492868      91.35523887
H      91.64313563      83.12798699      92.16971092
N      90.29954023      85.08385373      89.22740705
H      91.19904994      86.76571015      89.18016388
C      89.38113323      84.53772282      86.95406630
N      88.24351800      82.37398620      86.40226621
H      87.61234941      81.82029639      84.68828445
H      88.02997892      81.01527298      87.72507463
N      89.41325858      86.12320320      85.19284137
H      88.76508245      85.50715242      83.50720550
H      90.04631690      87.85797196      85.67661131
C      88.61579407      83.06751575     100.27096762
O      87.23818359      81.44613058     101.24417666
N      89.80821138      84.67756257     101.80164594
H      90.60945533      86.22713815     101.02685815
C      89.67404081      84.86464548     104.58332307
H      88.32288650      83.46057883     105.25039646
C      92.26296586      84.60386324     105.99872808
H      92.36690081      85.05550783     108.00372770
H      93.56498729      85.98147373     105.19370466
C      93.75773937      81.97903340     105.73794584
H      95.40180127      82.19068274     106.96248850
C      91.90769731      79.96269542     106.68658846
H      90.57166082      80.61465100     108.11144210
H      92.85633993      78.29973626     107.44814815
H      90.72661838      79.29751176     105.13323343
C      95.10889368      81.69179500     103.17358723
H      96.32020825      80.02505639     103.13390299
H      96.09344110      83.45490965     102.76540636
H      93.54231058      81.54439634     101.84510964
C      88.37390912      87.38554038     105.34488277
O      87.72006380      87.47813697     107.62011324
N      88.02619947      89.18455983     103.79719692
H      88.71972902      88.94267486     102.03597199
C      86.43882937      91.44467250     104.17325245
H      85.20483809      90.84373953     105.70771022
C      87.98462548      93.83139683     104.98205531
H      86.62402255      95.26002992     105.57542937
H      88.79720780      94.47768323     103.20382285
C      90.37512928      93.50258445     106.65068366
H      92.03052953      93.11708028     105.48850196
H      90.01608128      92.13820205     108.15112635
C      91.24062392      96.09339923     107.63145161
H      89.70805588      97.22345556     108.41568803
H      92.07210351      97.27069872     106.16124454
C      93.25696190      95.90253687     109.69125329
H      92.56154261      94.81405451     111.29563092
H      93.62734826      97.86407278     110.19581022
N      95.67392186      94.74602437     108.68024972
H      95.96682943      95.23924293     106.86044328
H      95.48305950      92.85440833     108.86922234
H      97.13468029      95.21656622     109.81597523
C      84.75886268      91.87930955     101.72983634
O      85.28420658      90.88342378      99.67003466
N      82.81055484      93.46290020     101.96983158
H      82.46284520      94.38130719     103.60633456
C      81.04366074      93.92399342      99.95349359
H      80.52398600      92.09851780      99.15035992
C      78.66638504      95.35073679     100.92292320
H      79.31834061      97.02314457     101.93392678
C      76.62359089      96.01592045      98.94626948
H      77.53821844      96.81149523      97.28142060
H      75.46140922      97.48234807      99.80420522
H      75.46896811      94.37941746      98.46249954
C      77.11869920      93.61407830     102.78430361
H      78.45473569      93.02259397     104.23561342
H      76.43272853      91.87741982     101.91313978
C      74.97385983      94.95578399     104.21671617
H      74.41828028      93.97501603     105.94203629
H      73.33168765      95.32994980     103.03185776
H      75.69573528      96.81338495     104.73261145
C      82.37969725      95.22979430      97.80487479
O      84.15226053      96.69244247      98.10723100
N      81.65404234      94.43044007      95.52019567
H      80.73563535      92.78259873      95.23295727
C      82.37024861      95.48490735      93.08244873
H      82.89937199      97.45400217      93.37724603
C      84.74563459      94.07895098      92.05065816
H      86.23284920      93.97312630      93.46984262
H      85.67915939      94.98601961      90.45194970
C      84.23162903      91.41632660      91.17382515
C      84.50941880      90.73224568      88.59812819
H      85.20861754      92.20623220      87.37169581
C      83.69116730      88.41922067      87.66838284
H      83.67982894      88.16788707      85.64259623
C      83.15070558      86.49169983      89.42771803
O      82.68961237      84.07851933      88.57734120
H      82.71039935      84.17678510      86.76509366
C      82.72173770      86.99814648      92.03743008
H      82.15670954      85.47502707      93.27142136
C      83.31133232      89.46612905      92.85379185
H      83.35101658      89.76659553      94.87201955
C      79.97785511      95.34317788      91.31177517
O      78.02576783      94.09973797      91.85790608
N      80.18005582      96.35040201      88.89103576
H      81.96962663      96.83417194      88.43183226
C      78.01065001      96.66787603      87.10902385
H      76.30044770      96.17843691      88.14648360
C      78.15615893      99.41364836      86.11880727
H      76.92405738      99.53648057      84.47285565
H      80.10824621      99.90497720      85.67661131
C      77.10358138     101.38463290      88.09924043
H      78.44717678     101.70021720      89.62802903
H      75.33101810     100.70811088      88.90237412
C      76.50642787     103.81482094      86.62147445
H      75.45574004     103.49734692      84.87914679
H      78.36969801     104.55559366      86.15282234
C      75.27999549     105.88218153      88.12002743
H      76.34202167     106.32059803      89.82834002
H      73.42806370     105.39274241      88.87402823
N      74.84535843     108.09316132      86.54210595
H      74.37292686     109.52368413      87.71751572
H      73.78333224     107.82293045      84.97930229
H      76.59335527     108.52779837      85.91093737
C      78.53221448      95.06727784      84.86780845
O      80.46162503      95.21089704      83.64893497
N      76.55934020      93.56683515      84.16294053
H      74.94362421      93.52337144      85.17961329
C      76.41572100      91.90576572      82.00298335
H      78.05411371      90.66421553      81.88204087
C      74.08379874      90.21824012      82.12014638
H      72.56445878      91.57128416      82.44328959
H      74.27466109      88.88976252      83.68483977
C      73.77010416      88.70456934      79.75420904
O      72.16950597      89.36408383      78.11392660
O      75.13259684      86.73169507      79.39516104
C      76.64626761      93.51203308      79.60303094
O      76.61603200      95.86663207      79.62192820
N      76.89949094      92.19111439      77.39205115
H      76.92594711      90.29571890      77.60181077
C      77.11303001      93.54226870      74.87304597
H      78.43583843      95.10885182      75.06579806
C      78.02765754      91.88875818      72.70175044
H      78.26954251      93.06605767      71.02934266
C      80.65248739      90.81539364      73.32347040
H      81.33656833      89.42077562      71.97231609
H      80.80177577      89.97635515      75.19807890
H      81.78443345      92.50102951      72.97198130
O      76.26454290      89.87997911      72.24443668
H      76.70295941      89.33006875      70.57202889
C      74.65827554      94.94633536      74.11337599
O      74.77732828      96.71133973      72.60159495
N      72.37548614      94.47957296      75.36248509
H      72.22997722      92.98857890      76.54356404
C      69.96230565      96.10284786      75.28311659
H      70.03033579      97.01180622      73.43496425
C      67.58502995      94.36807910      75.39838989
H      66.07702835      95.73624095      75.08091587
H      67.60959639      93.47990774      77.25788058
C      67.48109500      92.50291923      73.31024231
H      69.31035006      91.62419650      72.95875322
H      66.96330998      93.58573241      71.63594480
C      65.16240081      90.83996008      73.54834783
O      63.12527584      91.80183077      72.66206619
O      65.20775423      88.73858442      74.75777267
C      69.79600973      98.02280979      77.45252239
O      67.89116560      99.20199901      77.81534985
N      71.91817237      98.35918108      78.87170685
H      73.48853494      97.47100971      78.24431772
C      72.30367655     100.19410533      80.81245578
H      71.26621680     101.84383640      80.14727212
H      74.31245562     100.63630128      80.70852083
C      71.36826201      99.46278124      83.44673426
O      71.14338458     101.21077808      85.04544272
N      70.57457697      97.10629253      83.84735624
H      70.73898315      95.81749919      82.44895877
C      69.09492126      96.24268761      86.05266683
H      68.33714102      97.80738099      87.16004645
C      66.88961065      94.53626475      85.10213451
H      65.80490776      93.64998310      86.61202583
H      67.79289984      93.09062412      83.94562201
C      64.88272131      95.76458685      83.42405754
C      63.90762254      94.55138256      81.26032091
H      64.61815963      92.70134050      80.76521262
C      62.26922982      95.79482247      79.59358230
H      61.58136944      94.71389902      78.00432248
C      61.63239205      98.27414339      80.11325704
O      60.12061101      99.39475110      78.43518008
H      59.74644519     101.10306368      78.91139111
C      62.42607710      99.39853055      82.41305397
H      61.67396603     101.23534453      82.88170609
C      64.10415407      98.12485501      84.01932133
H      64.76933773      98.92987842      85.77109762
C      70.63882766      94.72901683      88.07467399
O      72.37737587      93.40809814      87.38492390
N      70.04734332      95.12396963      90.48407504
H      68.54879037      96.20300335      90.96028607
C      71.73297919      94.55138256      92.57411235
H      73.63215415      94.99924769      91.90325951
C      70.96008113      96.00836154      94.87957845
H      72.11470391      95.29026554      96.42915403
H      69.02689111      95.51703270      95.39736346
C      71.28322433      98.82972293      94.72651062
C      69.07413428     100.37740878      94.55454553
H      67.25810728      99.45900179      94.69060581
C      69.18562812     103.04003315      94.25785850
H      67.48676417     104.12473606      93.94227420
C      71.46085860     104.37229020      94.16337218
O      71.61581616     106.88373647      93.88747214
H      70.01332826     107.69253934      93.61535155
C      73.71530211     102.88129614      94.43360304
H      75.63148458     103.58238461      94.41848522
C      73.56223427     100.19032587      94.76619487
H      75.38015099      99.33427985      95.11957369
C      71.77833263      91.69411637      93.11079462
O      69.79223027      90.51681688      93.48873989
N      74.12915216      90.80594500      93.10134599
H      75.37637152      92.16465822      92.60623770
C      74.92850639      88.22457886      93.06166174
H      73.28066505      86.99436703      93.19394258
C      76.02643738      87.81450825      90.42171407
H      77.47396774      89.21668517      89.99274621
C      76.84090942      85.11219962      89.78487630
H      75.29322357      83.78939120      90.09857088
H      78.43961789      84.50748720      90.93194018
H      77.44940130      84.84763794      87.83467875
O      74.24820492      88.11497473      88.46584735
H      74.46363372      89.87997911      88.10301989
C      76.76721009      87.80505962      95.21972919
O      78.28277060      89.47368795      95.90003066
N      76.83712997      85.50148324      96.20994578
H      75.25353931      84.47347213      95.92837655
C      78.67205422      84.64921668      98.08833372
H      80.39548462      85.73958876      97.79542615
C      77.82923628      85.10275099     100.94937936
H      77.63648419      87.14554514     101.12890336
C      75.30456193      83.66277954     101.34244244
H      73.95529735      84.40922143      99.97617032
H      74.68284198      83.83663436     103.29830917
H      75.44629140      81.66722855     100.85678277
C      79.76998520      84.29961731     103.02618858
H      80.22162979      82.29083824     102.92981255
H      78.90638028      84.61898105     104.86867174
C      82.17560681      85.99092236     102.95437899
H      83.62880633      85.48447571     104.32254083
H      81.72396222      88.00159116     102.96004817
H      83.13180832      85.58463120     101.17614653
C      79.60557902      81.91667243      97.43259870
O      78.23741716      80.64677635      96.01341423
N      81.89403758      81.29684220      98.27541663
H      83.16771311      82.54595129      98.95193866
C      82.81055484      78.64555618      97.92959672
H      81.61057863      77.14133403      98.66470025
H      84.52831606      78.31863353      99.01996879
C      83.40581864      78.00115951      95.18760384
O      84.36768933      79.54128645      93.76652965
N      82.55922125      75.55018448      94.55076607
H      81.79388208      74.46548158      95.92081764
C      82.48552191      74.43146650      92.06388625
H      84.02375914      75.43680090      91.13414090
C      83.09401379      71.59309758      91.97695884
H      81.51420260      70.57642482      92.82355621
C      83.42282617      70.89389884      89.14992826
H      85.09901340      71.78395994      88.35057404
H      81.86380196      71.45892701      87.92538562
H      83.39637000      68.87378142      88.74363711
C      85.31822166      70.82964815      93.57188783
H      85.00452710      71.63089211      95.44460661
H      86.89803285      71.94647640      92.86513020
C      86.17615740      68.05552992      93.68149197
H      84.63792018      66.87823043      94.37502153
H      87.86368300      67.75128399      94.82477639
H      86.59567664      67.67191548      91.69916907
C      79.98730373      75.26672553      90.89414566
O      78.07679043      73.94202739      91.04343404
N      79.80777973      77.61187589      89.75464068
H      81.39892928      78.66634317      89.74141261
C      77.66105065      78.36398696      88.14837333
H      77.17539097      76.81063193      86.88414642
H      78.22040963      79.88710637      86.88225670
C      75.17795026      79.08019323      89.51275571
O      73.39971780      79.46191795      88.07845345
N      74.85480707      79.12176721      92.01853281
H      76.38926484      78.73815277      93.08622818
C      72.32257381      79.30696039      93.31677479
H      70.77110851      78.29595681      92.41348561
C      72.42272931      78.19391159      96.09656220
H      73.49231439      79.46380767      97.31165621
H      73.40160753      76.38544351      95.96806081
C      69.95285701      77.81407660      97.30787676
N      68.69618902      75.59553791      96.88457806
H      69.05712673      73.89100478      96.10979028
C      66.57402637      75.78073109      98.24140156
H      65.00555352      74.47870966      98.33021869
N      66.41717908      78.14855816      99.17492635
H      64.87138296      78.69846852     100.14813541
C      68.42217869      79.50349193      98.36612349
H      68.78311643      81.47447647      98.75351739
C      71.28322433      81.92234161      93.19016312
O      71.76699428      83.30940072      95.04587437
N      69.61648572      82.47036224      91.34579025
H      68.96641987      81.10597984      90.17982911
C      67.91573204      84.56039954      91.24563475
H      68.98342741      86.28382994      90.87713812
C      66.00521875      83.86686998      89.07811867
H      65.03200969      82.09241697      89.45795365
H      66.88394148      83.44546101      87.26398141
C      64.00966776      85.95690728      88.33167678
H      62.51867369      86.26682240      89.71873589
C      65.10570902      88.66110564      87.73263354
H      66.51922430      88.24725558      86.28888262
H      65.74443651      89.68155785      89.40315159
H      63.66384784      89.88186884      86.91249232
C      62.60182166      85.03661057      86.01298259
H      63.82069513      84.67945230      84.39537687
H      61.12594540      86.43311832      85.66905240
H      61.50200093      83.33396716      86.37581004
C      66.35103865      84.63976804      93.62480018
O      65.52522826      82.81807188      94.76997433
N      66.16584547      86.94334442      94.76997433
H      67.12771617      88.37953642      93.95739201
C      64.55768839      87.57451301      96.89591643
H      63.80935676      85.90966413      97.85022822
C      66.26033179      89.09385296      98.83666535
H      64.94130283      89.85730239     100.21994500
H      67.12015726      90.74736349      97.96550151
C      68.41084033      87.47624724      99.96105250
H      69.43507200      86.60319368      98.40013857
C      70.36481735      89.12975776     101.29897874
H      71.16039213      90.42988947      99.91380935
H      71.94273881      87.89198703     101.77330004
H      69.84325288      90.18989423     102.98650434
C      67.46597718      85.72825040     101.98683912
H      66.52111403      86.59374505     103.60255511
H      69.08736235      84.71724682     102.75406799
H      66.00332901      84.48670021     101.23850750
C      62.28245791      89.07117625      95.92459710
O      60.18486170      88.57228850      96.75040750
N      62.50544561      90.90610050      94.17093109
H      64.21186847      91.44278277      93.50574742
C      60.42863639      92.53126513      93.41693029
H      58.74677998      91.35018618      93.31488506
C      60.01100687      94.44933734      95.50507786