 %block lattice_cart
   137.793   0.000   0.000
   0.000 143.498   0.000
   0.000   0.000   162.326
 %endblock lattice_cart

 %block positions_abs
N      86.24513242      39.73892598      78.91706028
H      87.79659771      39.05862450      78.03833754
H      84.79949178      40.37009457      77.84369573
H      85.32483570      38.31596207      79.79578301
C      87.21834147      41.42456186      80.96363387
H      88.66776155      40.49670624      82.09180048
C      88.42776631      43.74703550      79.77688575
H      86.81771948      44.75048016      78.97186234
H      89.75624390      43.11775662      78.33502457
C      89.78081034      45.46290699      81.62503808
H      91.36062154      44.43300615      82.45651766
H      88.51847317      45.92400020      83.18406229
S      91.05259616      48.24458411      80.12081594
C      92.52658268      49.94911726      82.74186634
H      94.35016857      49.09307123      83.17083421
H      91.32660648      50.06061111      84.41238440
H      92.48878816      51.94466823      82.23352996
C      85.20200349      42.09352497      82.79477867
O      83.04015660      42.60375108      81.91227648
N      85.70467070      42.02738455      85.18717218
H      87.50557986      41.49448172      85.52732292
C      83.89809234      42.87020249      87.12981083
H      82.49213596      41.39243651      87.41893896
C      85.05082538      42.94957099      89.82078110
H      86.29237557      44.59174316      89.88692152
H      85.91065086      41.15055154      90.33856611
C      83.15920934      43.95112594      91.92593622
O      80.96334738      44.56150754      91.46106354
N      83.90187178      43.82073481      94.31832973
H      82.58095310      43.76593275      95.69594021
H      85.72356795      43.31239844      94.57722223
C      82.99669288      45.60652619      86.50998060
O      84.55382736      47.27137507      86.24163947
N      80.54382814      46.02604543      86.38714839
H      79.25314506      44.63898631      86.63281281
C      79.33818275      48.46568210      85.51409484
H      80.01659449      49.05338697      83.66027332
C      76.54138779      48.16332589      84.92827968
H      76.26359804      46.41343932      83.87381240
C      74.92378207      47.87419775      87.36791635
H      75.51148696      46.30761465      88.56978228
H      72.97736398      47.26759562      87.07500877
H      74.80472932      49.57306171      88.52442885
C      75.46046434      50.27603991      83.32768149
H      76.54894670      50.47635089      81.59291274
H      75.67967261      52.12608196      84.20640423
C      72.63532352      49.96045561      82.69840263
H      71.52416443      49.69400420      84.41427412
H      72.61264679      48.20489987      81.62125863
H      71.89455079      51.45711884      81.49653669
C      79.89187255      50.61241118      87.26398140
O      79.77848897      52.79504508      86.52509841
N      80.51926169      50.07572891      89.76597904
H      80.38698085      48.25214302      90.31588940
C      81.14098165      51.84073328      91.71428687
H      79.85596775      53.44133147      91.52720396
C      80.39642947      50.72768450      94.28242493
H      81.15798918      51.94088878      95.76208063
H      81.38853579      48.96268011      94.65848046
C      77.65065714      50.28926798      94.73217979
C      76.12942746      52.34529022      95.43704771
H      76.77382414      54.27659051      95.56743882
C      73.60097365      51.92388125      96.09089301
H      72.45579951      53.50369244      96.69749516
C      72.48036595      49.70534256      95.47862168
H      70.44324098      49.65431994      95.56932855
C      73.89010179      47.72301966      94.61123731
H      72.81673724      46.04494268      94.16337217
C      76.48280629      47.87041831      94.27297630
H      77.51459686      46.23202559      93.62480017
C      83.86218754      52.85929578      91.47051217
O      84.13619786      55.12885707      91.26264228
N      85.72356795      51.17743936      91.12847171
H      85.19066513      49.36330209      90.86957921
C      88.12163065      51.93710934      90.30077159
H      88.77358623      53.24668967      91.75019167
C      89.78081034      49.56550280      90.32722776
H      91.67809557      50.30249608      90.00975373
H      89.35940139      48.41088004      88.67371723
C      89.92631927      47.99136080      92.71017264
H      91.51368938      46.70634689      92.43049314
H      88.29548547      46.79705377      93.11079461
C      90.27213918      49.45778841      95.17248602
O      92.17887304      50.86563451      95.33122303
O      88.62429785      49.32739729      96.89780615
C      88.10273338      53.27692529      87.66838283
O      89.47845413      55.15909269      87.24508414
N      86.56260643      52.31505460      85.81267159
H      85.59317684      50.72768450      86.24541892
C      86.40197971      53.22212323      83.19540065
H      88.37107452      53.37897050      82.61147522
C      84.51981230      51.60829696      81.75353947
H      82.60740927      51.76325451      82.50565055
H      85.24168775      49.68644529      81.57968465
C      83.92076905      52.50402723      79.07768701
H      85.72356795      52.77425808      78.12148550
H      82.94756000      54.31816448      79.00209796
S      82.28993525      50.33651115      77.21252714
C      83.36329979      51.09429139      74.02455885
H      82.55638666      49.64676105      72.80379566
H      85.40420421      50.97901810      73.77322525
H      82.78315381      53.00102525      73.50299439
C      85.57427957      56.01513872      83.32579177
O      86.81394004      57.60628827      82.28455257
N      83.49180118      56.52536482      84.74119677
H      82.39198046      55.07027555      85.29866604
C      82.51481268      59.12751796      84.71096115
H      83.11196618      60.06293247      82.97430267
C      79.65376703      59.18420975      84.66560772
H      78.88464842      61.09661277      84.65237964
H      78.75614703      58.34895072      86.31911825
C      78.53504906      57.66298006      82.34502381
H      78.77882375      55.64286264      82.67005674
C      75.68156232      58.05604313      82.42817177
H      74.54205737      56.97511968      81.09591472
H      75.01259921      59.98356397      82.15227173
H      75.14299032      57.13763615      84.19317614
C      79.50636839      58.43020895      79.71641451
H      78.45190110      57.43999236      78.24809716
H      81.50191937      58.07494039      79.35547678
H      79.18322518      60.46355446      79.75987821
C      83.56172105      60.77346958      86.80288818
O      82.92488328      63.08649458      86.82556490
N      85.18310622      59.82860641      88.47529597
H      85.67065561      57.98423354      88.53387748
C      86.55504753      61.62195669      90.13447567
H      85.27003364      63.11861993      90.72218055
C      87.41298327      60.41820103      92.75930552
H      85.98623991      59.04248026      93.31677478
H      87.38463738      61.67297930      94.39202905
C      90.06615902      59.15964329      92.90859390
H      91.40597497      60.67898326      92.53631782
H      90.42142756      57.73478966      91.46484300
C      90.92598449      58.17320616      95.59011554
H      90.82393927      59.66231049      97.00552055
H      92.89507932      57.57038347      95.52964430
N      89.43121099      55.96222638      96.44616156
H      90.11151245      54.20100145      96.16648206
C      87.50935932      56.00569008      97.99573713
N      86.40008997      58.03714586      98.80831945
H      84.71823356      57.94076983      99.70593945
H      87.21834147      59.76246599      98.80076054
N      86.64386466      53.90242470      98.73084067
H      84.86941167      53.84006373      99.43192913
H      87.42243190      52.21300937      98.30376252
C      88.57138550      63.30759255      88.95528645
O      89.27058425      65.26345930      90.02865100
N      89.32916575      62.75579248      86.57234157
H      88.78492458      61.06259770      85.88070174
C      91.29448113      64.10883652      85.01142764
H      92.30359498      65.59227166      86.02432094
C      93.42609240      62.17186704      84.46907619
H      94.82260016      63.33782817      83.50153631
C      94.41252955      60.90008124      86.83312380
H      93.29759101      59.22011455      87.25453277
H      94.14796785      62.01313004      88.54710557
H      96.39863189      60.48056200      86.48541416
C      92.51335460      60.14985988      82.75698415
H      91.58171953      60.91897850      81.09024554
H      91.12251603      58.94043505      83.67539113
C      94.65441451      58.40942195      81.64960453
H      93.79080959      57.51180195      80.00932209
H      95.28558309      57.13007724      83.13303968
H      96.38729353      59.42609470      81.20362912
C      90.11340218      65.45621137      82.60580604
O      91.53069691      66.40296426      81.16394486
N      87.63408126      65.43542439      82.05211623
H      86.43977423      64.63229071      83.30311505
C      86.60795986      66.48422249      79.66728162
H      87.74368538      65.66786072      78.15550057
C      83.79793685      65.72833196      79.54633914
H      82.69244695      67.09271437      80.62159341
H      83.43699911      63.85372347      80.31545775
C      83.00614151      65.61116893      76.77222091
O      81.66254610      67.40640892      75.90294681
O      83.50691898      63.79892140      75.30957275
C      86.83472703      69.44164416      79.64838436
O      87.09928872      70.71342997      77.67362036
N      86.50969410      70.55091351      81.96896827
H      86.39820024      69.33392976      83.43350617
C      86.90086744      73.26456050      82.42061286
H      88.21422724      73.94108252      80.98253114
C      84.40831844      74.75177510      82.33368545
H      84.52359175      76.11426778      83.87381240
H      82.69811613      73.72943317      82.85336019
C      83.99257865      75.96497940      79.80523164
H      81.97813041      76.06135545      79.38571240
H      84.85051440      74.93885801      78.24053826
C      84.99224387      78.75610516      79.86759261
O      83.45778610      80.63071367      79.68617889
O      87.24479763      79.03767439      80.65560849
C      88.32005190      73.41006943      84.90938242
O      88.16887381      71.63750615      86.47029635
N      89.49735140      75.64183621      85.46685168
H      89.58994799      76.96464462      84.09302065
C      90.80504201      76.07458352      87.85546574
H      92.03336412      77.72242488      87.70239791
H      92.10328398      74.49855179      88.11057879
C      88.96633830      76.52055893      90.14203458
O      86.85929347      77.28022891      89.73385369
N      89.86584803      76.02167119      92.47395685
H      91.67620584      75.44530466      92.66103975
C      88.32383136      76.10292942      94.81910720
H      86.34906736      75.69096908      94.40336741
C      89.29893014      73.69352837      96.28553482
H      91.35495237      73.80502223      96.33088825
H      88.90775680      71.97954660      95.21028055
C      88.20855805      73.31180365      98.94815920
H      88.31816219      75.15995600      99.85333810
C      85.54782341      72.61071519      98.92737221
H      84.92988290      72.00033360     100.79442180
H      85.40609394      70.98366085      97.67637339
H      84.58595271      74.31524833      98.28486526
C      90.06048985      71.35026774     100.09144361
H      92.02202575      71.97009798      99.99128812
H      90.10962273      69.63439625      98.95193865
H      89.59939662      70.96854303     102.06242816
C      88.67154100      78.50099212      96.21750467
O      90.28347755      78.87515792      97.68582202
N      86.95377978      80.28300402      95.69027103
H      85.50813916      79.68207105      94.59800922
C      87.14464215      82.76232495      96.92615204
H      89.09294998      83.43128807      96.95071848
C      85.81049537      84.95251774      95.39547373
H      85.75380358      86.61925636      96.60678829
H      83.86218754      84.55189576      94.85690173
C      87.08606062      85.82368157      93.01252885
H      89.06271434      86.36981248      93.22039874
H      86.11285158      87.49986881      92.31144038
C      86.84228594      83.99820596      90.69572439
H      84.84484521      83.49742849      90.71651138
H      87.82116416      82.23887077      91.13414089
N      87.66242715      84.77110401      88.19183702
H      88.86807254      86.23753163      88.01420275
C      87.54715384      83.49931822      86.11124835
N      86.80260168      81.19952129      85.77865652
H      86.66465166      80.49276364      84.00987269
H      86.24324269      80.06379578      87.20917934
N      88.09706421      84.75787594      84.17238915
H      88.02336487      83.86970456      82.48486356
H      88.12541010      86.66272005      84.27254465
C      86.31505229      82.48642490      99.74373397
O      84.44611296      81.47353160     100.42592517
N      87.58305864      83.79600525     101.44448765
H      89.09294998      84.88070814     101.01363006
C      87.02747912      83.72419564     104.09766340
H      85.57427957      82.31445981     104.47749839
C      89.08350133      82.60358793     105.70771022
H      88.58461360      82.82279619     107.69381257
H      90.77858585      83.76954908     105.72660748
C      89.96978297      79.93907384     105.33354441
H      90.45733237      79.70852722     103.34555233
C      92.37162513      79.29278743     106.83776655
H      94.01001784      80.26599649     106.05919931
H      92.86862314      77.29534673     106.79808230
H      92.02958466      79.90316904     108.77662575
C      87.84573060      78.05879615     105.91746984
H      86.47756875      78.28556332     104.39246070
H      86.58528316      78.48776403     107.49161186
H      88.43532522      76.08592189     105.88156504
C      86.16387418      86.41705563     104.96315805
O      85.36640969      86.96507626     107.06264398
N      86.61362905      88.24442098     103.29452972
H      87.34117367      87.67939281     101.62401165
C      85.61774328      90.89570700     103.51751742
H      84.91476510      91.36435912     105.39401565
C      87.66620661      92.83834565     103.10933654
H      86.88763937      94.74318978     103.16791805
H      88.49768618      92.73441071     101.22716913
C      89.94710627      92.55299697     104.96315805
H      90.67087144      90.62925560     104.83654639
H      89.17231847      92.58323259     106.86989190
C      91.85006067      94.62035756     104.93292243
H      90.84661598      96.40425921     105.16724849
H      92.92153548      94.55988632     103.17358723
C      93.86450891      94.15548490     107.02484946
H      93.00468344      92.74952851     108.26073047
H      94.19332128      95.93938653     108.00183796
N      96.26446133      93.23518818     105.93825683
H      95.76746331      91.72529685     104.87812037
H      97.64963072      92.98007512     107.22516045
H      97.06570529      94.52776097     104.78552378
C      83.42188130      91.22262965     101.58054795
O      83.08739974      89.65226708      99.90436071
N      81.91010026      93.08212034     101.88479389
H      82.00080711      94.14981572     103.46460508
C      79.83518076      93.51675739     100.03286210
H      78.80905938      91.75553247      99.74373397
C      77.63364960      95.22884944     101.01740951
H      78.50859289      97.04298669     101.45204656
C      75.49825888      95.43671933      99.09177840
H      75.92344729      96.68771814      97.51007747
H      73.78427711      96.18505095      99.96105250
H      75.09007800      93.56400055      98.33966732
C      76.83996455      93.85690813     103.54586331
H      78.34985589      93.03109774     104.68347856
H      75.52849449      92.40559832     102.90146664
C      75.41322120      95.61246388     105.41102319
H      74.10553058      96.82755789     104.37923262
H      76.74547824      96.80110172     106.43903430
H      74.32851829      94.32933972     106.59966104
C      81.01436999      94.48996644      97.42503979
O      82.43733389      96.33244960      97.40047335
N      80.40776783      93.24652654      95.33122303
H      79.03582654      91.92749756      95.47862168
C      81.02381862      93.99107870      92.70261373
H      82.03860164      95.78442897      92.63080413
C      82.67543941      92.22985377      91.33634161
H      84.35162665      91.82545235      92.46072876
H      83.36141007      93.25219571      89.68472081
C      81.44144812      89.85068834      90.49730312
C      80.75736721      89.51053762      87.85735546
H      81.26948304      90.88247891      86.43439155
C      79.81817323      87.10491602      87.05800123
H      79.39865399      86.86681051      85.07378861
C      79.48558139      85.14526982      88.72285012
O      79.03960599      82.70374343      87.94806233
H      79.52715538      82.16139198      86.28510317
C      79.95234379      85.54400209      91.29476763
H      79.66321566      84.04544911      92.65159112
C      80.80083090      87.92883668      92.17160064
H      81.27326249      88.05922780      94.15203381
C      78.50481343      94.62224729      91.40248203
O      76.39587887      94.63925482      92.45316986
N      78.91110460      95.60112551      88.97607344
H      80.63075554      95.56333100      88.15215277
C      76.95334813      96.41370783      87.22618688
H      75.16566704      96.16048450      88.21829319
C      77.26137353      99.34845280      87.03154507
H      78.66732991      99.89080425      85.62747842
H      77.74514347      99.99662892      88.92505083
C      74.61008750     100.60134134      86.62903336
H      73.45546473      99.87190698      88.16916031
H      73.73514422     100.19882963      84.80544747
C      74.72158136     103.50963013      86.82556490
H      75.57762737     104.36945561      85.16071602
H      75.66077534     103.91025211      88.61324599
C      71.99470629     104.31276383      86.88225669
H      71.23881576     103.29798080      88.50742132
H      70.90244448     103.88190622      85.18906191
N      71.89833025     107.10388959      87.36224717
H      73.32696334     107.56120336      88.53954666
H      70.37143138     107.66324857      88.36191239
H      71.98525765     108.16402604      85.77865652
C      76.88909745      95.09845832      84.68072553
O      78.83551554      94.68460826      83.46941097
N      74.62331560      94.19327941      84.03443913
H      73.12665236      94.51453288      85.17394410
C      73.84852781      93.17849639      81.62881754
H      75.13354169      91.61191327      81.26410036
C      71.19535207      92.12780856      82.01243198
H      69.85175666      93.68494304      81.89148949
H      71.04795340      91.15270977      83.81901033
C      70.63410334      90.06044798      80.01688099
O      69.80451350      90.78232343      77.88904916
O      71.05173286      87.86458599      80.67639547
C      73.95246275      95.10223777      79.44240419
O      74.14710457      97.42471142      79.65027409
N      73.93734495      94.06477802      77.17851207
H      73.95246275      92.15615445      77.12371001
C      74.08474359      95.35357138      74.68029388
H      75.59841436      96.75007911      74.60848428
C      74.61386696      93.41282245      72.47876273
H      72.86964958      93.30888751      71.39028037
C      76.58863096      94.70917470      70.74777343
H      76.47146793      93.57911836      69.03001221
H      78.44245248      94.56933496      71.63783452
H      76.22391377      96.70094624      70.37171789
O      75.70045960      91.09223853      73.38394163
H      74.24914978      90.15493428      73.93007254
C      71.65266582      96.86535242      74.31746643
O      71.81707202      99.05932467      73.70330538
N      69.60609224      95.51608783      74.88249460
H      69.89333064      93.70195057      75.40027961
C      67.02472608      96.57244484      74.90328159
H      67.02283636      97.80832585      73.25355052
C      65.13499977      94.44839246      74.39494521
H      63.26983990      95.23640835      74.00944104
H      64.97059358      93.53754439      76.23742837
C      65.64333616      92.56622506      72.37860723
H      67.54251110      91.77442973      72.48443191
H      65.54507039      93.50919849      70.54935216
C      63.54573995      90.50264393      72.28601065
O      64.00872290      88.31434085      73.19307928
O      61.63144719      91.05255428      71.06524745
C      66.40111640      98.08611562      77.32402100
O      64.39044760      99.19538497      77.54133952
N      68.17745913      98.39225129      79.09091510
H      69.77994706      97.37368881      78.89627329
C      68.03950912     100.41992761      80.95796470
H      66.53906643     101.67659561      80.31356802
H      69.82530048     101.43849010      80.81434550
C      67.34597956      99.72828778      83.65271442
O      67.76738853     101.33077570      85.36669618
N      66.35954243      97.42282169      84.02310078
H      65.58853408      96.47228936      82.56045261
C      65.54696011      96.60457019      86.48163471
H      64.50383118      98.19949920      87.26209168
C      63.66101326      94.48429726      86.32100797
H      62.86354875      94.03832185      88.16538085
H      64.79295931      92.79488195      85.99408532
C      61.55207868      94.71484387      84.57679058
C      61.34420880      93.01597992      82.61525467
H      62.71237065      91.50797832      82.46218684
C      59.59810168      93.55644164      80.61592423
H      59.54329962      92.28465585      79.01721577
C      58.04285693      95.81088515      80.56112217
O      56.36855940      96.43827427      78.72997737
H      55.48794694      97.94816560      79.21374731
C      58.18080695      97.41148332      82.70029236
H      56.92413895      99.01586097      82.81934511
C      59.89478870      96.88235995      84.71852006
H      59.93447296      98.36768484      86.11691753
C      67.80707279      95.92804818      88.06711509
O      69.81018267      95.15326038      87.04855260
N      67.61998988      96.08867490      90.63714287
H      65.95136154      96.56866539      91.43271765
C      69.51160591      95.34034329      92.57600207
H      71.28983837      95.96395297      91.74830194
C      69.10909421      96.90314695      94.92871133
H      70.32985741      96.58189348      96.55576568
H      67.31007476      96.61401883      95.89058202
C      69.56451825      99.64702956      94.57155305
C      67.66723304     101.43282093      95.35578947
H      65.76427863     100.93771263      95.90192038
C      68.21714339     104.03875351      95.01752846
H      66.60898629     105.24439890      95.37846619
C      70.54528620     104.95527076      94.10857011
O      71.04228423     107.47427595      93.78542691
H      69.85742583     108.55897884      94.63202430
C      72.39343855     103.15247186      93.43015836
H      74.33040801     103.53986577      92.92371171
C      71.95313232     100.54464955      93.63991798
H      73.38554486      99.09711920      93.52086522
C      69.69112992      92.45473121      93.13725078
O      67.84297758      91.30577761      93.95739200
N      71.99281656      91.46829408      93.05032337
H      73.38176541      92.68338809      92.56277398
C      72.73169956      88.79811079      93.16559668
H      71.14621917      87.83624009      94.06321668
C      72.93767973      87.59246540      90.49919285
H      73.55750996      85.67628292      90.93949908
C      70.44891017      87.36947770      88.81922616
H      70.83252461      86.21485492      87.15815673
H      69.99159639      89.33857251      88.41860418
H      68.89555513      86.61925636      89.94361331
O      74.66299985      89.19117386      89.09512620
H      75.97069046      88.14993467      88.39025828
C      75.01826840      88.10458123      95.00996956
O      76.53949808      89.64470818      95.78286762
N      75.09385744      85.60825277      95.72617583
H      73.67278326      84.46118891      95.16870657
C      77.11397487      84.61992591      97.46094459
H      79.03582654      85.19251298      96.99040274
C      76.69445563      85.44951577     100.25584980
H      76.34674599      87.46585375     100.49017587
C      74.32284910      83.80167443     101.15158008
H      72.70335366      84.20418612      99.94404496
H      73.88065316      83.98119843     103.15468997
H      74.77827314      81.81746179     100.83788551
C      78.93378132      84.70118414     101.97550075
H      80.67232952      85.51187674     101.23094858
H      79.25125533      82.66783863     101.89046306
C      78.82228746      85.42116988     104.84788474
H      78.22702367      87.38270578     105.05197519
H      80.61941719      85.18306435     105.82298352
H      77.48625096      84.27410599     105.91935956
C      77.43900780      81.91194810      97.04331507
O      75.85919660      80.66472874      95.85656695
N      79.72557664      80.86315000      97.60078433
H      81.02759807      82.05178786      98.33588787
C      80.37375277      78.22698180      97.43637814
H      78.76370594      77.16495561      98.16203305
H      81.95545369      77.92084613      98.71761259
C      80.75925693      77.47865017      94.69816472
O      82.07072700      78.84681202      93.24874464
N      79.64998758      75.38672314      93.88936186
H      78.79583129      74.17351885      95.08933806
C      79.42699988      74.33225586      91.23429639
H      80.86319188      75.41128959      90.22707226
C      80.21690548      71.53357119      91.10957445
H      78.60874839      70.39595595      91.71428687
C      80.92366312      70.94208686      88.22774182
H      80.79516173      68.89929272      87.99530549
H      82.76047709      71.77734589      87.80444313
H      79.60085470      71.53357119      86.76320393
C      82.36930374      70.98366085      93.07111036
H      81.46412484      70.79279848      94.90981406
H      83.68833272      72.55591313      93.24874464
C      83.83573136      68.45142759      92.58923015
H      84.89208837      67.97521654      94.29187356
H      85.21145212      68.64417966      91.06989020
H      82.58095310      66.85271913      92.25474859
C      76.85508236      74.83492306      90.03809963
O      75.21479992      73.18330226      89.62235984
N      76.56217478      77.20463987      89.26520157
H      77.97191062      78.44241059      89.61102148
C      74.38521008      78.07769341      87.88570136
H      74.15655319      76.92873982      86.19250658
H      74.79339096      80.01088343      87.31122456
C      71.91722752      78.56146336      89.43716666
O      70.02750120      79.32491278      88.28632334
N      72.00037546      78.23643042      91.95806156
H      73.61420175      77.84336735      92.89914527
C      69.67979156      78.57091198      93.49062960
H      68.30218107      77.24243438      92.73095963
C      70.44324098      77.79234474      96.20238686
H      71.61109185      79.33436142      96.91292396
H      71.70746790      76.17473902      96.38758004
C      68.01683241      77.82635982      97.63857886
N      66.15167254      75.94041295      97.57054871
H      66.15734170      74.31335861      96.57466295
C      64.23737977      76.45063907      99.26752294
H      62.64623022      75.19775051      99.52641545
N      64.78540040      78.62193459     100.29931351
H      63.47393034      79.50254705     101.37456778
C      67.07763843      79.60459228      99.37145789
H      67.78817552      81.50187750      99.62090176
C      68.59697837      81.29778706      93.38102548
O      69.84986692      83.15349829      94.01597352
N      66.10253965      81.50943641      92.84056375
H      65.29373678      79.91828684      92.16593146
C      64.59075859      83.76387990      92.90670417
H      65.98159716      85.16605682      92.32088902
C      62.12844521      83.53522301      91.42326902
H      61.02862450      82.03100086      92.30388148
H      62.54229528      82.95129758      89.49196873
C      60.56753128      86.01454393      91.47996081
H      60.41068399      86.37548166      93.50007823
C      61.82608901      88.26898742      90.15148321
H      60.51650866      89.85635752      90.05888662
H      62.61788432      87.54144279      88.39592746
H      63.48526871      88.90204574      91.19650186
C      58.05230555      85.59502469      90.22707226
H      56.82965263      87.21074069      90.59934834
H      57.32854038      84.03222103      91.35712860
H      58.57387001      85.12070338      88.29010279
C      63.92746467      84.44040191      95.58255663
O      63.02228575      82.87381880      96.95260821
N      64.32808664      86.82901598      96.42726429
H      65.32964158      88.10269150      95.41626072
C      63.39078239      87.65671609      98.92548248
H      63.14700769      86.16572204     100.32765940
C      65.39389227      89.51431707      99.83444084
H      64.95736550      90.49508502     101.59188631
H      65.76805809      91.02231867      98.48139680
C      67.98092761      88.24253126     100.22750391
H      68.73114895      87.28821946      98.56265503
C      69.85175666      90.30044322     100.98717389
H      70.10309026      91.64970779      99.45271612
H      71.66022473      89.32534443     101.17047734
H      69.41145042      91.32656459     102.71627346
C      68.00360431      86.36981248     102.40635835
H      66.82630482      87.20507152     103.87467569
H      69.95569159      86.06934599     102.98461460
H      67.11543296      84.54433686     102.05675898
C      60.71870938      88.84157450      98.59478037
O      58.96504336      88.14804494      99.89491208
N      60.54107510      90.70673437      96.88835751
H      62.22293152      91.07523100      96.06821629
C      58.32442614      92.32434009      96.35545469
H      56.76729167      90.98263441      96.24018139
C      57.79719250      94.13658763      98.65147216