 %block lattice_cart
   137.793   0.000   0.000
   0.000 143.498   0.000
   0.000   0.000   162.326
 %endblock lattice_cart

 %block positions_abs
N      85.50435971      36.89961220      81.83101825
H      84.56327601      35.52389144      82.76265332
H      87.10873735      35.99254357      81.33024079
H      84.48579722      37.45519173      80.31356802
C      86.07694678      39.11815089      83.52610275
H      86.97078733      38.41895215      85.24386397
C      87.75691346      41.04378200      82.40738478
H      87.22212093      41.53511084      80.47797421
H      89.62585279      40.33702436      81.91038676
C      88.13107927      43.36625565      83.90404802
H      89.09672943      43.21696727      85.71629555
H      86.28292694      44.08057220      84.46529673
S      89.73545691      45.91549645      82.01054225
C      90.81827010      47.84490700      84.49364264
H      92.50579569      47.14948773      85.45173387
H      89.36318084      48.11891732      85.92605517
H      91.19999481      49.70250797      83.69050894
C      83.67699437      40.18773598      84.52009879
O      81.87041601      40.62237304      83.12170132
N      83.73557587      40.84914019      86.96729437
H      85.38152750      40.61670386      87.90648835
C      81.63420021      41.84502596      88.43183226
H      80.05060957      40.69418263      87.79688422
C      82.28804553      41.39905056      91.08878746
H      84.16076430      42.06801367      91.62735946
H      82.48268734      39.36759476      91.37035668
C      80.46823908      42.42706166      92.96150623
O      78.43489357      43.26798987      92.33411710
N      81.32050564      42.59524731      95.34067166
H      80.06005820      43.05823025      96.69749516
H      82.72646202      41.37259438      95.75641145
C      81.17121726      44.63804145      87.71184655
O      82.97023671      46.16116086      87.71184655
N      78.76559567      45.28054840      87.28287866
H      77.67144414      43.80845161      86.75186557
C      77.80561471      47.76931795      86.72918885
H      78.73913950      48.36269202      84.99064065
C      74.92189236      47.68050082      86.17360933
H      74.57985189      46.17816840      84.80544747
C      73.24192565      46.96996372      88.39592746
H      73.01893796      48.64615096      89.57511668
H      73.75971067      45.28432786      89.45984338
H      71.39944250      46.50509106      87.60791159
C      73.81262301      50.02187171      84.88292626
H      73.85041753      51.66215415      86.12447643
H      71.86053573      49.73274360      84.29711109
C      75.30928625      50.82311567      82.50187109
H      75.77037946      49.20173051      81.31701269
H      77.22357901      51.40326166      82.99131021
H      74.16033265      52.20261589      81.49464697
C      78.47457783      49.69494906      88.72096039
O      79.21535053      51.78498638      88.11057879
N      78.15899352      49.02976540      91.17760459
H      77.37097765      47.37436515      91.70672796
C      78.77693404      50.70784237      93.34701040
H      77.76782017      52.46150840      92.95205760
C      77.82451196      49.63069838      95.76397036
H      78.25914902      50.95539651      97.28142060
H      78.68055799      47.77309741      96.00207587
C      75.02960676      49.45117438      96.12868753
C      73.74270313      51.30877533      97.49118021
H      74.78205260      52.94338860      98.13746661
C      71.09897602      51.21995820      97.77463915
H      70.13143615      52.82244611      98.59100092
C      69.62876894      49.26976064      96.60678830
H      67.62943852      49.23763530      97.00741027
C      70.89677531      47.36113708      95.21783945
H      69.79884431      45.92872452      94.26730712
C      73.55373051      47.33846036      95.19705246
H      74.36253336      45.75109026      94.19927697
C      81.65876665      51.13303079      93.55677002
O      82.34662704      52.78654132      94.95894695
N      83.13464290      49.52487369      92.32844792
H      82.24647154      47.93561388      91.75397112
C      85.89553305      49.74408195      92.07522459
H      86.54937835      50.80421842      93.71361731
C      87.09361953      47.23641514      91.84467798
H      87.18621612      46.56934175      89.89825988
H      85.95600429      45.93628343      92.96528569
C      89.70711102      47.44428502      92.89725554
H      89.60506581      48.09246116      94.84934282
H      90.63496664      48.77087290      91.62169028
C      91.19810509      44.77977093      92.81410758
O      91.56849145      43.84624613      90.56722300
O      92.24501346      44.01254204      94.69438526
C      86.63630577      51.50341715      89.75653042
O      88.28036765      53.14936876      90.07778388
N      85.35129187      51.11791298      87.61358077
H      83.93210741      49.86691416      87.87058355
C      85.99568855      52.16293163      85.13803930
H      87.93643747      51.77931719      84.57301113
C      84.45934106      50.82122596      83.05556090
H      82.43544417      51.13681024      83.28232806
H      85.04893566      48.85780031      83.24264381
C      85.13964252      51.68861032      80.42128243
H      86.66465167      50.50942111      79.69751725
H      85.73490631      53.66148459      80.46474613
S      82.65087297      51.40515138      78.19329510
C      81.58884678      54.60634776      78.07802179
H      79.56117045      54.82555601      78.36526019
H      82.18222084      55.38869444      76.26766399
H      82.58095310      55.54176228      79.62192819
C      85.40609394      55.01830810      85.05489134
O      86.92165443      56.44505145      84.01932132
N      83.26881348      55.78742671      86.07534355
H      81.96490232      54.43816211      86.42305319
C      82.79260244      58.49918397      86.25108810
H      83.42755049      59.20027243      84.42183303
C      79.97124106      58.78264290      86.51564978
H      79.65187732      60.81409869      86.45706826
H      79.38731562      58.05320855      88.35435348
C      78.21001613      57.57321806      84.54088579
H      78.72213196      55.62868969      84.08735147
C      75.46613354      57.71872699      85.62369896
H      74.14899428      57.35023037      84.08546174
H      75.07684990      59.54042315      86.50620115
H      75.27905062      56.32410898      87.12792111
C      78.24592093      58.97728471      81.91227648
H      77.38042628      58.01730376      80.30978857
H      80.20178767      59.25885393      81.32835105
H      77.08184952      60.67236922      81.99542444
C      84.48768695      60.07332597      88.10868906
O      84.81271987      62.45627085      87.84223765
N      85.61585356      58.86768059      90.00597428
H      85.30404871      57.00441044      90.27053596
C      87.26936409      60.08655407      91.84845744
H      86.33394956      61.75518239      92.61001715
C      87.61140454      58.14958460      93.97439954
H      89.03436845      56.94960838      93.09189736
H      85.87852552      57.07999950      94.27486602
C      88.79059377      59.33066353      96.26285810
H      87.59817645      60.96149734      96.65025200
H      90.71622487      59.88435335      95.78097789
C      88.80949102      57.46928311      98.49273515
H      86.94244142      56.60378847      98.38880021
H      89.10050888      58.25540926     100.37301283
N      90.48756800      55.34712047      98.08833372
H      91.79903806      55.51341638      96.71261297
C      90.68598926      53.35723866      99.61712231
N      89.56160210      53.51219622     101.86400689
H      89.79214870      52.05710696     103.07910091
H      88.41831767      54.98618275     102.27029805
N      92.13729907      51.47885070      99.05209414
H      92.17698332      50.04643816     100.31065187
H      93.29570129      51.25586301      97.54976172
C      89.72600829      60.95582816      90.65037095
O      90.76913722      62.86445174      91.42326902
N      90.57071594      59.71049852      88.53765694
H      89.51813839      58.26863735      87.86302464
C      92.87051288      60.32276985      86.86524916
H      93.90230343      61.77407967      87.89892944
C      94.68842958      57.96628114      86.78588064
H      96.54792027      58.66925932      86.25297782
C      94.93409400      56.61890628      89.35779816
H      95.54825505      57.92092770      90.83178468
H      96.32493257      55.10523550      89.23874540
H      93.06704440      56.09734182      90.05510716
C      93.82293494      55.91403836      84.88670570
H      93.22011224      56.80598919      83.13303968
H      92.21099839      54.78965120      85.50653593
C      95.97911265      54.01108396      84.25175766
H      96.19265173      52.77898242      85.88637092
H      97.37751012      55.27909032      83.42405753
H      95.21566322      52.81866667      82.75509442
C      92.43587583      61.46227482      84.29900082
O      94.24245418      61.80809473      82.89493416
N      90.07182821      62.17092219      83.58090482
H      88.68476908      61.45849536      84.67883580
C      89.33861440      63.41814155      81.32646133
H      90.17765288      62.43359415      79.72397341
C      86.43410506      63.06287301      81.22441610
H      85.66309671      64.27040812      82.70407181
H      85.99379881      61.14291108      81.82534907
C      85.27570282      63.67892379      78.55423282
O      84.65587260      65.95415426      78.11959577
O      85.39286585      62.10100232      76.72119830
C      90.11718164      66.19603924      81.26787982
O      91.01102219      67.15224075      79.31957198
N      90.18521179      67.53018600      83.45807261
H      89.55215347      66.64579409      85.02654545
C      91.22267153      70.15123640      83.75853909
H      92.86484369      70.27595834      82.52076835
C      89.35184248      72.12977986      82.78533004
H      88.11596146      72.89511902      84.24230903
H      88.15942517      71.23027014      81.36803530
C      90.60473103      74.38989252      81.54755930
H      91.39652635      73.77006230      79.74853985
H      92.11462234      75.07208372      82.77021223
C      88.76791704      76.53095243      80.92205989
O      87.39597574      77.36810120      82.66816701
O      88.62807731      77.10731896      78.63738078
C      91.87840655      70.64256524      86.41360456
O      91.08094206      69.22527052      88.03310001
N      93.46766639      72.49638677      87.03910397
H      94.20654938      73.53951568      85.62180924
C      94.14985759      73.25416702      89.61858039
H      95.30825981      74.95681042      89.70172834
H      95.32337763      71.75372431      90.40281681
C      91.88596546      73.65289927      91.47429164
O      89.93576791      74.61288024      90.74296754
N      92.30359498      72.98771561      93.95361255
H      94.08938635      72.47559978      94.38824960
C      90.44410429      73.30707935      96.01152450
H      88.58461360      72.98960532      95.18760383
C      90.98078656      70.85610432      97.74062408
H      92.88941013      71.17924752      98.43793309
H      90.78992421      69.20826297      96.51986088
C      89.02491983      70.43280562      99.96483195
H      89.21578218      71.80285721     101.49173081
C      86.18655090      70.84287624      99.29397911
H      85.75191385      69.55408289      97.74818299
H      85.97679128      72.71370529      98.45683035
H      84.81460960      70.59532208     100.80953961
C      89.29893014      67.73805591     100.80387043
H      89.47467468      66.43414474      99.21839006
H      87.39408601      67.19003527     101.36133970
H      90.90330779      67.44136887     102.06053843
C      90.59906184      75.84309207      97.48929048
O      92.49445733      76.30040583      98.81776808
N      88.60351085      77.52305875      97.34945073
H      86.99913322      77.03361964      96.43671292
C      88.75846842      80.05907146      98.71383313
H      90.72189406      80.64299690      98.94249001
C      87.36762985      81.98659230      97.00552054
H      87.16353940      83.75726585      98.03731111
H      85.50435971      81.24392987      96.54253760
C      88.85673418      82.51004650      94.39580851
H      90.85984408      82.96736026      94.55265579
H      87.99690871      84.16544674      93.52086522
C      88.62618757      80.20458039      92.54387672
H      86.96133869      79.04806788      92.91993226
H      90.25135220      79.03106035      93.01630830
N      88.78681431      80.99448599      89.92093660
H      89.34995276      82.79728489      89.65448519
C      87.77392101      80.07607900      87.86302464
N      86.86307293      77.88021703      87.92160617
H      86.24702214      77.30762996      86.20762439
H      87.63030180      76.53095243      89.03276523
N      87.58116892      81.56707306      85.87503256
H      87.20133394      80.67512225      84.23097067
H      88.64130539      83.15444317      85.93172436
C      87.58116892      79.85309130     101.38023696
O      85.47412408      78.80429319     101.71471852
N      88.76413759      81.12487710     103.24917628
H      90.51780361      81.79761967     102.91091527
C      87.93832719      81.24204013     105.83243215
H      86.22056597      80.13655024     106.10266301
C      89.75246445      79.54884537     107.48216322
H      89.82994324      77.67801632     106.62233775
H      88.79815267      79.32774739     109.29630048
C      92.51524432      80.51449550     107.70326120
H      93.44309995      80.30284615     105.87589586
C      92.87807177      83.31318017     108.57064558
H      91.56660171      83.80828848     110.07864718
H      92.63051763      84.48858995     106.89634807
H      94.73567274      83.64199256     109.40023543
C      94.15363704      78.91956649     109.45503749
H      96.06981952      79.62632414     109.19614499
H      94.29725623      77.04495800     108.61410928
H      93.41475406      78.77405758     111.37121998
C      87.33928396      83.88954670     106.92091451
O      85.70845015      84.06151180     108.46293118
N      88.34461835      85.96635592     105.82676297
H      89.66931650      85.61486683     104.49828538
C      87.23156955      88.56283988     105.72471776
H      86.12985911      88.99747693     107.41035362
C      89.28192261      90.40721275     105.54330403
H      90.17954260      90.27493191     103.69326197
H      90.64630500      90.13698189     107.06264398
C      88.35217725      93.13219810     105.73605611
H      87.30715861      93.41187759     107.49161185
H      87.08795036      93.74824888     104.22994424
C      90.59717212      94.86507712     105.88723423
H      92.00690794      94.15454003     104.56442580
H      91.61573461      94.65531750     107.66546668
C      89.79970761      97.51447341     105.43747935
H      88.36162590      98.06438378     106.80753093
H      89.14964177      97.77525564     103.50239961
N      92.11084289      99.12452024     105.87211640
H      92.28091826     100.72322869     104.83843611
H      93.81159658      98.28548176     105.65668760
H      92.19399086      99.64419498     107.70704066
C      85.17176788      88.76126114     103.57609893
O      85.39097613      87.59152055     101.57865822
N      83.23479840      90.33351343     104.09199422
H      83.24046759      90.92688749     105.90802120
C      81.53215500      91.33884782     102.25895969
H      80.09974245      89.94422980     101.76007196
C      79.65376703      93.34762689     103.30775780
H      80.89531722      94.78570863     104.09955312
C      77.88687293      94.58917708     101.20827187
H      76.58485150      96.09150951     101.74684386
H      76.77760359      93.17944126     100.19726830
H      78.91866351      95.42632585      99.63224012
C      77.98513870      92.27804180     105.54708348
H      79.38731562      92.03426712     107.03429809
H      77.17444611      90.46768399     104.98772449
C      75.92155758      93.97312630     106.66013228
H      75.46424380      92.94889464     108.38734213
H      74.04505934      93.75391805     105.83810133
H      76.47713710      95.86852179     107.24027827
C      82.77181545      92.39709457      99.84955865
O      84.64453424      93.86541191      99.93270660
N      81.78726804      91.47112867      97.68204256
H      80.37186303      90.19556341      97.80109532
C      82.31639141      92.51236786      95.12713259
H      83.05527441      94.42099144      95.35012029
C      84.23446362      90.88531352      93.85912623
H      85.62719191      90.38642577      95.29342850
H      85.17932677      91.98702396      92.39647807
C      83.48235254      88.25859393      92.74985689
C      83.52392653      87.96946582      90.07022498
H      84.21745609      89.48124687      88.89103576
C      82.72268257      85.59030039      89.15937689
H      82.61874762      85.48636544      87.12414165
C      81.80238586      83.71380215      90.69194493
O      80.84240489      81.59541895      89.63369820
H      80.92555284      81.76738406      87.82900958
C      81.69845091      84.12765222      93.34890013
H      80.89909668      82.65177597      94.50730237
C      82.51670240      86.33863200      94.31455027
H      82.56394557      86.37264708      96.35356497
C      79.99202805      93.01881452      93.50385769
O      77.85852704      92.28938017      94.17660025
N      80.13186780      94.51169831      91.40248203
H      81.88553382      94.95767371      90.79587988
C      78.00214625      95.37908268      89.79243521
H      76.32217955      94.63642025      90.72218055
C      77.88876267      98.25335641      90.14770375
H      79.25692452      99.31538259      89.03465496
H      78.10608118      98.71633936      92.14136501
C      75.47180270      99.70844566      89.27653992
H      73.85419698      99.30215452      90.48974422
H      75.18267459      99.09239489      87.33390127
C      75.56439929     102.64697008      89.11213374
H      76.42422477     103.35561745      87.37925471
H      76.70390427     103.21388798      90.72973946
C      72.86209067     103.63907639      89.16504607
H      71.99848575     103.12129139      90.96406552
H      71.82463093     102.56004268      87.75153079
N      72.68256668     106.31681858      88.50553159
H      73.88632233     107.41474958      89.49574818
H      70.92890066     107.05570158      88.64915079
H      73.10775509     106.59838780      86.66682789
C      78.24592093      94.73846546      87.09957521
O      80.23958219      94.75736273      86.02621067
N      76.23714187      93.94289069      85.96195997
H      74.53260873      94.02981809      86.81422654
C      76.26737748      92.97724055      83.38815273
H      78.00970514      91.89253763      83.20862873
C      73.93545521      91.11774984      82.97619240
H      72.14966386      92.13631233      83.08579652
H      73.60475311      89.77604417      84.50498098
C      74.35875391      89.89698666      80.55923244
O      76.48091657      88.88409334      80.09058032
O      72.57863173      89.94800926      78.96052398
C      76.40532751      95.13530800      81.50031615
O      75.60975272      97.27069872      82.00676280
N      76.93445088      94.61374352      79.09469455
H      77.57695782      92.88653368      78.60336571
C      76.66988919      96.60173560      76.98198053
H      77.34263176      98.48390302      77.48275800
C      78.31773054      95.68899780      74.56502058
H      78.12686817      97.14408707      73.11937995
C      81.12397412      95.27514773      74.99965763
H      81.99891740      94.76114219      73.20630737
H      81.41310223      93.77470504      76.38104756
H      81.95734341      96.91731990      75.92184407
O      77.59018590      93.39487006      73.53134028
H      77.22168927      93.73691052      71.78901262
C      73.87120452      96.95322470      76.12782424
O      73.39877294      98.85050993      74.77100075
N      72.00604466      95.49435598      77.15016617
H      72.67878721      93.82950711      77.79267312
C      69.25082369      95.90631633      77.00654697
H      68.66500852      96.22379034      75.05634942
C      67.68424057      93.51392282      78.01377110
H      67.66723304      93.34573718      80.06601387
H      68.57241194      91.78860269      77.31835182
C      64.90445317      93.48935637      77.15772508
H      63.93502357      95.09751346      78.00621219
H      64.13533456      91.82639721      78.09880878
C      64.37721953      93.14920563      74.34770205
O      66.14789308      92.87330560      72.87749498
O      62.12844521      93.42699540      73.59937043
C      68.40233657      98.20611325      78.58257872
O      66.62410411      99.44388398      77.73787106
N      69.62687922      98.62185303      80.76332288
H      71.38054525      97.89619813      80.96552360
C      68.93712912     100.49835126      82.58690878
H      67.25905216     101.53203156      81.98597581
H      70.56607321     101.69454802      82.98564104
C      68.19446668      99.24924218      85.12670094
O      67.77872688     100.69677253      87.05044233
N      67.93179473      96.68677329      85.37992427
H      68.47414618      95.68899780      83.84735623
C      67.11354323      95.36207515      87.66271365
H      65.99293553      96.69055274      88.77198300
C      65.34097995      93.17566181      86.89359504
H      64.52272845      92.54449321      88.67371723
H      66.52394861      91.81883831      85.89015037
C      63.05252138      93.78982286      85.28165850
C      62.00183354      91.85852256      83.82090006
H      62.68402475      89.93667090      83.90782747
C      59.91368597      92.46890416      82.24675804
H      58.98016117      90.98168956      81.20551885
C      59.18803106      95.05027030      81.97841690
O      57.51751300      95.62285737      80.10002895
H      57.09043486      97.35573640      79.77121657
C      60.14045314      97.01369594      83.39004246
H      59.46771056      98.92987842      83.17272393
C      62.06230480      96.25780542      85.15315711
H      62.89189465      97.70155633      86.33234633
C      69.39444288      94.59673599      89.34268034
O      71.48448018      94.72712710      88.37703020
N      69.11476339      93.87108108      91.77475811
H      67.38377408      93.38164198      92.41348560
C      71.22369796      93.03393234      93.26008299
H      72.96602562      93.53470981      92.27931504
C      71.38621442      94.45878598      95.89058203
H      73.01704822      93.52148171      96.72962050
H      69.64766622      94.10729688      96.93749040
C      72.02494191      97.26125010      95.79231625
C      69.98403749      98.96578322      95.88869229
H      68.04706803      98.36107080      96.09467246
C      70.37710057     101.58305418      96.16270262
H      68.90122432     102.99467972      96.14569507
C      72.95468726     102.50524061      96.03231149
O      73.45924418     105.06959922      96.03231149
H      71.91911724     105.97666785      96.34411633
C      74.99937113     100.72700815      96.17971015
H      76.91177415     101.41864799      96.02286286
C      74.47591694      98.11162694      95.93026627
H      76.00848498      96.76803152      95.82633132
C      71.29361783      90.09540792      93.47929124
O      69.38877371      88.88787279      93.10701516
N      73.39121403      89.02204337      94.20305642
H      74.94267934      90.08029010      94.53186880
C      74.09230250      86.36508818      94.01597352
H      72.43501252      85.15566333      94.19360779
C      75.48125135      86.10241622      91.51019643
H      77.43144889      86.52949437      92.01664308
C      75.24314582      83.58341104      90.28376405
H      73.27972019      83.10153082      89.88881125
H      75.87809387      82.29650742      91.76341976
H      76.60563849      83.49270418      88.74363710
O      74.56095462      87.61986644      89.59212422
H      74.94834853      86.76382043      88.04065892
C      75.57195820      85.43912227      96.39513894
O      76.48091657      87.05294854      97.73873435
N      75.69479041      82.90877875      96.64836227
H      74.53827792      81.98092313      95.44460661
C      77.43711808      81.72392035      98.48706597
H      79.12275394      82.85586641      98.84233452
C      76.08029458      81.51227099     101.11378555
H      75.17322595      83.32451854     101.48795137
C      73.88632233      79.63010360     100.98906361
H      72.89799547      79.51672002     102.79186251
H      74.86709028      77.81974579     100.98906361
H      72.77516327      80.05529201      99.30720719
C      77.83396060      81.24581958     103.48539207
H      78.46134973      79.28428368     103.50806879
H      76.62642548      81.85431146     105.03874710
C      80.24714110      83.10531029     103.60066538
H      81.18066591      82.74059310     105.39968483
H      79.88242393      85.12731744     103.45137700
H      81.45845567      82.59319446     102.01518500
C      78.37820178      79.15200283      97.36078910
O      77.60341400      78.41311985      95.34067166
N      80.06761711      77.80462797      98.72706122
H      80.66666034      78.52650342     100.39002037
C      80.78004393      75.20814401      98.33588787
H      79.35708001      73.89478424      99.03508660
H      82.39198046      74.99271522      99.60200450
C      81.74947353      74.56941653      95.65436623
O      83.72045807      75.53317695      95.06477162
N      80.45690072      73.21070331      94.05376804
H      78.65977100      72.86677312      94.59422977
C      81.16176863      72.67024158      91.32878270
H      82.76425656      73.83998217      90.76942371
C      82.13686742      69.97927132      90.93949908
H      80.53248977      68.68858823      90.92627100
C      83.17810661      69.69392264      88.25797744
H      83.87730534      67.76451207      88.08601235
H      84.74846917      71.01673106      88.07278426
H      81.82884203      70.04541173      86.74241694
C      83.98124029      69.15157118      92.90670417
H      82.95322918      68.84165608      94.66414964
H      85.33995351      70.66335223      93.23362682
C      85.27759255      66.66280163      92.53253836
H      83.98124029      65.17558702      91.93916430
H      86.27347832      66.04675085      94.22951259
H      86.70433592      66.88578933      91.06422102
C      78.76559567      73.55463349      89.79243521
O      77.58451672      71.95592504      88.55844392
N      78.25347984      76.02450579      89.82267083
H      79.15298957      77.16023130      91.06422102
C      76.40343778      77.18857719      88.24285963
H      76.07462541      75.91868111      86.65548954
H      77.14043104      78.86476444      87.29799647
C      73.73703395      77.57975054      89.35023925
O      71.87565353      78.26950064      88.15026304
N      73.48192091      76.90511825      91.71617659
H      74.91433345      76.52528326      92.91615280
C      71.02149725      76.94102305      92.97284459
H      69.70624772      75.90545302      91.77286838
C      71.15566782      75.66356806      95.50885730
H      72.58052145      76.51016545      96.73528968
H      71.79628504      73.76250340      95.04776408
C      68.56107359      75.40089610      96.70505406
N      66.51072053      74.00627808      95.80743406
H      66.58441985      72.68346966      94.43549276
C      64.50005173      74.84153711      96.97906439
H      62.58575898      74.48059939      96.36679305
N      65.19358130      76.19836061      99.11256538
H      64.01439207      76.98259702     100.39379982
C      67.80707279      76.55740861      98.95760783
H      68.81807636      77.79517935     100.22561418
C      69.95758133      79.63010360      93.44527617
O      70.89110612      81.13999491      94.94760859
N      67.94313307      80.30284615      92.10734994
H      67.18346311      78.95169184      90.99052169
C      66.71481098      82.82563078      92.29632257
H      68.05273720      84.32796321      91.85223689
C      64.54729489      82.81240271      90.33289693
H      63.63644681      80.96802983      90.37636064
H      65.36554639      83.08263357      88.46395761
C      62.40434526      84.70212901      90.94894771
H      61.94703148      84.71157765      92.95772678
C      63.39078240      87.24759035      89.96251058
H      61.95648011      88.72157688      90.07022498
H      63.83486808      87.11908898      87.95562123
H      65.11799224      87.56695411      91.03776485
C      60.12533533      84.29961732      89.28220910
H      58.58331864      85.47313736      89.98518729
H      59.44692357      82.35508893      89.32756253
H      60.48816277      84.68890093      87.29232731
C      65.84742660      83.35475415      95.10823533
O      64.56430244      81.85242174      96.44616156
N      66.62788356      85.60163875      96.03987040
H      67.52172411      86.81106358      94.86257091
C      66.40300613      86.31406556      98.74217903
H      66.12332663      84.48858995      99.65680656
C      69.10153530      87.23436227      99.55476134
H      69.66656348      88.88976253      98.46627898
H      70.45079989      85.74903739      99.09744757
C      69.26783123      87.83907469     102.39501999
H      67.89588993      89.21668518     103.06965228
C      69.27350040      85.58463120     104.10333258
H      70.78717117      84.21835909     103.80853527
H      67.55573918      84.48858995     103.81798390
H      69.11287366      86.15721827     106.07620685
C      71.86998435      89.03149200     102.89201801
H      71.98147821      89.53982838     104.88189982
H      71.85108709      90.85507789     101.93581649
H      73.53861270      87.97135553     102.31565148
C      64.28462294      88.19245352      99.26185376
O      62.74071653      87.82206716     100.93615128
N      63.97281810      89.99525242      97.59322543
H      65.26539089      90.31839561      96.22695330
C      61.86955270      91.79238215      97.50062884
H      60.10076887      90.73413540      97.52141583
C      61.72593351      93.64242420      99.81932302