 %block lattice_cart
   137.793   0.000   0.000
   0.000 143.498   0.000
   0.000   0.000   162.326
 %endblock lattice_cart

 %block positions_abs
N      88.29926492      41.04000256      77.51204876
H      87.23534901      41.80156226      76.12309992
H      87.53203604      39.34869750      77.94857554
H      89.86395831      40.61103468      76.50671437
C      88.64886429      43.10169397      79.44523878
H      89.82994323      42.40060551      80.98158628
C      90.12474054      45.39204225      78.42289685
H      88.85106500      46.38792803      77.14733159
H      91.80092778      44.85913943      77.35331175
C      91.02613999      46.98697127      80.84174653
H      92.32627169      45.94006288      82.04550219
H      89.39341646      47.45562339      82.00392821
S      92.72878340      49.72518469      79.78727925
C      93.48467392      51.07066982      82.83729751
H      94.43331653      49.64014700      83.97869221
H      91.78580997      51.61302128      83.86719836
H      94.69976794      52.69205501      82.47258034
C      86.17521254      43.86514339      80.63765609
O      84.31383213      44.46418663      79.30917849
N      86.17521254      43.92183518      83.16044071
H      87.72478812      43.06956862      83.87664699
C      83.93210741      44.43017157      84.69300875
H      82.36363457      43.25476180      84.05617099
C      84.50091503      43.75931871      87.40854547
H      86.28292694      44.50387088      88.12475174
H      84.73902055      41.73731156      87.72790921
C      82.36363457      44.60213666      89.26425671
O      80.30383289      45.11047303      88.45734357
N      82.74913874      44.50198116      91.76814407
H      81.26192413      45.06134015      92.82450108
H      84.50469448      44.22419139      92.46545308
C      83.26314430      47.19673089      84.48324913
O      84.78626370      48.88236675      84.41899844
N      80.86886106      47.78821522      84.21490800
H      79.51203757      46.51453969      84.64009642
C      79.91265954      50.29021286      83.39476678
H      81.03515697      50.80799786      81.74692543
C      77.15365913      49.86313472      82.40266046
H      77.14987967      48.52331875      80.83985680
C      75.55117121      49.13181062      84.60041216
H      73.82018191      48.30788996      83.84830109
H      75.00504031      50.90437390      85.49803216
H      76.35052544      47.52743298      85.61330547
C      76.08029458      52.36513234      81.35575209
H      75.98013909      53.82589078      82.80517217
H      74.13954566      52.10623984      80.71702459
C      77.64309824      53.41770991      79.12020586
H      76.75303715      55.21106018      78.64399483
H      77.46924342      52.08167340      77.55929192
H      79.60463415      53.83155996      79.60208607
C      80.28682535      52.58623033      85.27126501
O      80.74980830      54.69894435      84.49269777
N      80.46256990      51.98907681      87.69767359
H      80.09974245      50.16549093      88.12853119
C      81.42066114      53.80510380      89.63464306
H      80.64398363      55.62679996      89.06961490
C      80.49469525      52.99441121      92.19522222
H      81.25058577      54.43060320      93.46511830
H      81.47924266      51.28042944      92.77914765
C      77.69412085      52.55599470      92.45789417
C      76.18800898      54.16793125      93.79204095
H      77.00626047      55.94805343      94.36462802
C      73.59908393      53.60668253      94.21344992
H      72.28383442      54.90492451      95.08272402
C      72.70146393      51.30499588      93.33661691
H      70.76260474      50.79288005      93.71834163
C      74.23025252      49.50408671      92.09884617
H      73.53294351      47.62191930      91.73034954
C      76.80405976      50.15604228      91.64531186
H      77.90388047      48.61969480      90.87052407
C      84.32517048      54.24541003      89.83117460
O      85.13397335      56.11434936      90.89131106
N      85.75758303      52.42560359      89.05638681
H      85.01681032      50.82500540      88.32695245
C      88.40886905      52.74118789      88.60096277
H      89.21389246      53.85234696      90.13542054
C      89.77325144      50.18249846      88.47624083
H      91.67431612      50.44328068      87.72224003
H      88.79815267      48.96362499      87.13264542
C      89.96033435      48.67260713      90.86107544
H      90.88063106      46.86791850      90.48879936
H      88.07627722      48.41560435      91.65853994
C      91.67620584      50.15982175      92.71300723
O      93.60939586      51.26153219      91.84184340
O      91.00724273      50.56044372      94.85973632
C      88.73201225      54.30210183      86.11975212
O      90.30426454      55.92726645      85.93455894
N      87.16920859      53.75030174      84.22246690
H      86.38686189      52.01175352      84.25837170
C      87.53014631      54.76886422      81.72046926
H      89.55026374      55.09956632      81.50315074
C      86.70811537      52.93016051      79.65121895
H      84.66721095      53.14558932      79.48114358
H      87.25991545      51.02153695      80.19357040
C      87.96667309      53.65581543      77.11331651
H      90.00379806      53.73896337      77.41000354
H      87.16731886      55.43971706      76.46325066
S      87.42432164      51.32011369      74.65856203
C      83.98313002      51.05744174      74.63588532
H      83.43132994      49.82534019      73.08253029
H      83.07795112      52.90559407      74.71336410
H      83.59384640      49.84234772      76.25349104
C      86.83283730      57.64880712      81.35575209
O      88.15942517      59.17759571      80.22569575
N      84.59351162      58.45572026      82.55950775
H      83.51069844      57.17448581      83.47035583
C      83.76959095      61.17503643      82.66533242
H      83.87919507      61.75518239      80.69245815
C      80.97468573      61.32810425      83.50815036
H      80.36808359      63.25751482      83.89743398
H      80.68933706      60.19993764      85.20701431
C      79.07551079      60.29064450      81.52582745
H      79.80872460      58.48217642      80.86253352
C      76.54327753      59.58199714      82.58407419
H      75.67778288      61.29597890      83.33618526
H      76.53949808      58.10612089      84.01837646
H      75.33763214      58.96783609      81.03260889
C      78.80905938      62.05186942      79.32429630
H      77.33129340      61.25629465      78.12809954
H      80.56083567      62.04997970      78.23959340
H      78.34418670      63.99261835      79.82885322
C      85.50813916      62.86256202      84.12042168
O      85.89175360      65.07921099      83.46090720
N      86.84228593      61.67959335      85.97424319
H      86.43788450      59.81821292      86.05739115
C      88.93988214      62.68303802      87.40665574
H      88.37485397      64.53119036      88.11719283
C      89.58049936      60.99362269      89.75369582
H      90.92220504      59.60278412      89.04126900
H      87.92698884      59.92970679      90.36596715
C      90.50457553      62.56587499      92.07616946
H      89.10239860      64.00962588      92.52025514
H      92.35839704      63.33688333      91.62074542
C      90.85417490      60.77441444      94.32872322
H      92.12218125      59.20594160      93.91298344
H      88.93799241      60.08655407      94.62352053
N      91.86706820      62.21816535      96.66442495
H      92.72311422      63.88301422      96.29214886
C      92.19777030      61.02007887      98.73178553
N      90.87685161      59.01318952      99.51224250
H      90.82582900      58.67870797     101.39063046
H      89.45199797      58.36501339      98.42187042
N      93.78136095      61.93848585     100.30592755
H      94.29536651      60.77630416     101.72889147
H      94.66386314      63.53719432      99.75034802
C      91.35306264      63.27452236      86.02337608
O      93.02924988      64.38001224      87.11941734
N      91.63841132      62.45438113      83.65365928
H      90.23056521      61.34322206      82.99792425
C      93.76813287      62.88145928      81.92266998
H      94.90385838      64.49150610      82.52360295
C      95.56337287      60.54764728      81.47102539
H      97.16586078      61.52463579      80.62064855
C      96.31170449      59.71238826      84.30183541
H      94.78291590      58.48595588      84.93300400
H      96.53658192      61.43014948      85.41677393
H      98.15607737      58.82043744      84.09018606
C      94.59961245      58.28375517      80.12931971
H      93.41097460      58.64280316      78.48714754
H      93.28625266      57.27842076      81.35575209
C      96.64807577      56.45261036      79.22980998
H      97.52490878      57.34645091      77.59330700
H      95.73155851      54.77264367      78.46825028
H      98.05781160      56.19938704      80.71135541
C      92.79303409      63.62412173      79.38854699
O      94.25568226      63.92458820      77.65377824
N      90.31749262      64.27040812      79.17311819
H      89.26491507      63.62979091      80.62820746
C      89.23845890      65.96549262      77.36653984
H      90.33827961      65.84266041      75.62799163
C      86.46434067      65.09432879      76.96213841
H      85.62341246      65.53274529      78.79139348
H      86.32639065      63.04397574      76.80340140
C      85.16231924      66.21115704      74.71714355
O      83.21779087      67.26373460      75.26138473
O      86.20355844      66.35099680      72.54206856
C      89.46522606      68.80008209      78.23959340
O      90.02269532      70.54807894      76.79962194
N      89.12129587      69.28007257      80.68300952
H      88.50146564      67.88356483      81.82818366
C      89.55215347      71.57986949      82.13809878
H      91.00913245      72.59087307      81.08741095
C      87.14086269      73.22204167      82.42911663
H      87.36574012      74.14800755      84.25459225
H      85.64042000      71.87088736      82.82973861
C      86.10340295      75.10042963      80.38821221
H      84.19288964      75.81852561      80.66789171
H      85.98435019      74.02706507      78.63454619
C      87.92509911      77.16967994      79.76838198
O      89.26869452      77.95202663      81.56173225
O      88.02336488      77.98415198      77.54984329
C      90.50079608      70.81830980      84.81962042
O      89.93954736      68.71504440      85.67188698
N      92.12218125      72.30930385      86.06683978
H      92.71933477      73.98549109      85.37331023
C      92.93665329      71.76884213      88.61986003
H      94.86417413      72.43591552      88.90709843
H      93.00090399      69.73171716      88.90142925
C      91.33605511      72.94614162      90.73635350
O      89.53703566      74.29918567      90.20156096
N      91.86517847      72.28473741      93.17410045
H      93.23900950      70.99972353      93.48779502
C      90.37040496      72.70425665      95.43232339
H      88.32761082      72.73260255      95.17721034
C      91.00346327      70.65957278      97.19921749
H      92.98767590      71.05263586      97.58283194
H      90.59150294      68.89078896      96.22978790
C      89.42743153      70.63878579      99.61806717
H      89.21389246      72.55118882     100.35317071
C      86.89141882      69.58431852      99.03225202
H      85.71222960      69.75628360     100.71410844
H      86.94622088      67.58876753      98.52391564
H      85.87663579      70.72004402      97.64708263
C      90.67087144      68.98905472     101.49834486
H      91.30204003      67.28641132     100.52324608
H      89.26302534      68.59788137     102.95154439
H      92.40186075      69.70526100     102.35250115
C      90.78803448      75.33853514      96.40553244
O      92.90641767      75.99615990      97.09906200
N      88.63185675      76.69346891      96.80804415
H      86.96511814      75.80529753      96.51513657
C      88.65831292      79.32396794      97.92676212
H      90.58205431      79.83230431      98.45966494
C      87.67376551      81.34219563      96.17309611
H      87.07850172      82.95602191      97.30504217
H      85.84262071      80.59575373      95.60239876
C      89.26680479      82.20013138      93.90731426
H      91.11684685      82.84641777      94.53848285
H      88.42020740      83.75348640      92.85284697
C      89.56349182      79.99104131      91.93632971
H      87.72856757      79.08208297      91.72279064
H      90.86173380      78.60587194      92.73190449
N      90.62551801      81.15133328      89.65165060
H      91.54392500      82.81807188      89.81416706
C      90.31749262      80.30851534      87.23658037
N      89.21956164      78.24493420      86.70745700
H      89.18176711      77.86131976      84.83851768
H      88.86051364      76.90511825      88.02081679
N      90.96188930      81.85053201      85.41299448
H      90.96755847      81.11164902      83.65554901
H      91.62329351      83.62120556      85.66999726
C      87.28259216      79.30318095     100.37395770
O      85.05082539      78.67579180     100.62151185
N      88.35406698      80.39544274     102.40352376
H      90.13229944      80.95291202     101.98400452
C      87.50369014      80.87354350     105.02268443
H      85.68388370      79.91167282     105.11906047
C      89.15720067      79.28428368     106.83115251
H      89.19877465      77.39266764     106.01290102
H      88.44099439      79.12743639     108.75489390
C      92.12029153      79.92868036     106.83871142
H      92.78169574      79.93057007     104.88851386
C      92.75146011      82.35319921     108.13695339
H      94.76968782      82.50059787     108.52623701
H      91.72344900      82.71791638     109.88495023
H      92.15808605      83.88198779     106.88973403
C      93.39018761      77.76305400     108.36561028
H      93.24656841      75.98293180     107.34137862
H      92.94232247      77.65911905     110.37438935
H      95.42542285      78.03517458     108.18419655
C      87.35629149      83.62876447     105.81825921
O      86.84984484      84.29772758     108.01034173
N      87.53770522      85.25959828     103.94931988
H      88.22934505      84.57362763     102.30903744
C      86.62307768      87.77860345     104.26868363
H      85.38908640      87.93167128     105.91085580
C      88.90019789      89.36219410     104.74867411
H      90.26647001      89.37920164     103.20854717
H      89.71466993      88.83118101     106.56281137
C      88.03092378      92.23457810     104.80725563
H      86.86685238      92.45378636     106.48911205
H      86.86874210      92.78259873     103.19720881
C      90.32316180      93.99202357     104.84127070
H      91.52313801      93.67832900     103.19720881
H      91.39841607      93.71234408     106.57603946
C      89.39908563      96.79259796     104.68820287
H      87.76258265      97.19321995     105.87117154
H      88.79815267      97.16865351     102.75501285
N      91.42865170      98.72011880     105.02079470
H      92.53225186      98.20422353     106.48911205
H      90.68787898     100.43599030     105.40440914
H      92.54170049      99.00735721     103.49767529
C      84.80138152      88.46646384     102.05581412
O      85.42121175      87.27971571     100.13774191
N      82.70756476      89.74958800     102.33549361
H      82.45056198      90.63775936     104.00412195
C      80.86319188      90.44311755     100.36261934
H      79.75014308      88.81228375      99.77302473
C      78.85630253      92.29504934     101.44165307
H      79.81250405      93.90698589     102.29580936
C      77.30294751      93.43266458      99.20799656
H      75.84029934      94.68744286      99.93932065
H      76.46201930      91.95678833      98.04203543
H      78.41032712      94.71011957      98.03258680
C      77.32562422      90.89854160     103.33515883
H      78.57851277      89.78549280     104.53135559
H      76.09919184      89.54927702     102.38084704
C      75.63053972      92.74669393     104.97544127
H      76.86075155      93.83139683     106.22266064
H      74.25670869      91.46168004     105.81447975
H      74.36631282      93.92399342     103.85105412
C      82.31828114      91.43711359      98.10061695
O      84.04171154      92.91110012      98.49556974
N      81.63797967      90.52248607      95.85940154
H      80.03738148      89.48502631      95.77247413
C      82.82472779      90.84373953      93.43488268
H      83.97935057      92.54827267      93.45189022
C      84.75413836      88.72157688      93.02670179
H      85.82372345      88.36063916      94.75013219
H      86.20355844      89.41888589      91.74168790
C      83.72234779      86.40099298      91.78893106
C      83.89998206      85.98903264      89.11685805
H      84.34217802      87.64065343      88.00191953
C      83.31038745      83.67222817      87.92444075
H      83.92076905      83.49081445      85.98369183
C      82.37686266      81.67289773      89.30205123
O      81.82884203      79.40333643      88.30616546
H      82.15009550      79.48837411      86.52226383
C      82.38442156      81.96958477      91.96656533
H      81.94978451      80.34442014      93.12118811
C      83.09117920      84.22402826      93.26480731
H      82.98535453      84.50370775      95.28492474
C      80.95956792      91.06861696      91.12941658
O      78.83929500      90.12942298      91.25602824
N      81.43577895      92.64275899      89.26992588
H      83.12708400      93.52337145      89.18866765
C      79.64620813      93.27959676      87.18555776
H      77.77915854      93.18511044      88.05105241
C      80.04305066      95.99324373      86.13486993
H      79.11897449      96.11418622      84.29805595
H      82.05371946      96.39953489      85.96668429
C      78.88464843      97.81682962      88.15687709
H      80.06572738      97.91887486      89.84062323
H      77.07995980      97.12518980      88.86363473
C      78.89787651     100.52858689      87.17421940
H      77.92844692     100.53047661      85.35630269
H      80.85185352     101.04259244      86.77548715
C      77.52593521     102.15942069      88.95434159
H      78.72024224     102.50713033      90.59651376
H      75.86297605     101.09361505      89.54204647
N      76.86075155     104.65007998      87.76570374
H      78.38576068     105.72911371      87.36886121
H      75.82140208     105.59494313      89.05827654
H      75.97446991     104.45921762      86.08573705
C      79.54605264      91.45979031      84.90843755
O      81.52081664      90.68122307      84.01648673
N      77.28593997      90.81350392      84.02215591
H      75.79116646      91.40309852      85.05394648
C      76.72091180      89.59463045      81.62031377
H      77.66577496      87.80694934      81.23291988
C      73.76915930      88.81795292      81.59007815
H      72.67311804      90.54705251      81.81495558
H      73.45924418      87.40443765      83.05461604
C      73.17578524      87.57262328      79.14666203
O      74.41733543      85.64888190      78.56462632
O      71.61109185      88.58929604      77.66133714
C      77.41066191      91.48246703      79.40555453
O      77.94356473      93.67077009      79.86664775
N      77.54672220      90.65476691      77.08497062
H      77.58829618      88.76504059      76.81851921
C      78.04183049      92.45000691      75.01194085
H      79.22479917      94.04871536      75.55051285
C      79.24747588      91.04594026      72.68946721
H      79.14165121      92.41410211      71.15311972
C      81.99513794      90.23713739      73.09953782
H      82.72079284      89.27148725      71.43090949
H      81.82884203      88.95779268      74.70391546
H      82.87386068      92.05505411      73.51149816
O      77.79616607      88.92755705      72.02995273
H      78.46512919      88.34930081      70.44636208
C      75.64565753      93.98068521      74.11054140
O      75.86675551      95.61718820      72.50994321
N      73.45924418      93.46290021      75.27461281
H      73.30995581      91.78293351      76.16467390
C      71.26338221      95.20144841      75.11965525
H      71.38999387      96.42221162      73.46614473
C      68.91067295      93.59707077      74.97414633
H      67.32519257      94.90476139      75.12532443
H      68.54028659      92.25158563      76.48781710
C      68.65367017      92.16087877      72.44947197
H      69.86309501      90.49602989      72.35498566
H      69.04862297      93.39298034      70.84509433
C      65.84931632      91.35585536      72.17168220
O      65.17657375      89.07684543      72.33986785
O      64.33753527      92.89031313      71.37799715
C      71.16511644      96.94188635      77.48370287
O      69.31885383      98.28359202      77.96180363
N      73.10208591      96.83417195      78.91233596
H      74.54394709      95.70600533      78.36998451
C      73.49136953      98.30248929      81.27449385
H      73.10019619     100.30937864      81.03449861
H      75.44345681      97.89619813      81.78094051
C      71.91722751      97.43132546      83.67822572
O      72.35375429      98.63130168      85.49047326
N      70.30718069      95.60396012      83.39665650
H      70.08608272      95.04460112      81.58818842
C      68.95791611      94.33217430      85.34496433
H      67.95636116      95.78726356      86.40510079
C      67.16267611      92.40465346      84.24892307
H      66.01183279      92.05127465      85.91755141
H      68.21147421      90.75870185      83.59507777
C      65.26917034      93.42132623      82.26093099
C      64.47737502      91.92844243      80.18034232
H      65.09909498      90.01981886      79.81184569
C      62.91079191      92.98479944      78.34730780
H      62.52528774      91.80183078      76.72970207
C      61.94325203      95.42065666      78.66667154
O      60.32375658      96.59417670      77.02071992
H      60.15179149      98.31571737      77.56874055
C      62.75016517      96.92109935      80.68300952
H      61.64089582      98.58405852      81.09119040
C      64.27328458      95.84962454      82.53872076
H      64.81563603      96.97212196      84.15443676
C      70.73803829      93.02637343      87.12130707
O      72.86775985      92.22512947      86.46179258
N      69.95191215      92.97535082      89.56094374
H      68.14155434      93.41565704      89.98235270
C      71.72636516      92.39331512      91.47901594
H      73.64632709      92.90921040      90.93666449
C      70.79473008      93.87863999      93.78259232
H      71.31629455      93.10574193      95.61940630
H      68.74626676      93.82383794      93.97912386
C      71.65833501      96.59039725      93.82416630
C      70.01616284      98.55004343      93.11551893
H      68.05273720      98.26091532      92.64119763
C      70.90433421     100.99534929      93.05504769
H      69.70624773     102.49768170      92.36907704
C      73.44412637     101.51313429      93.74857725
O      74.16600183     104.01891138      93.56527379
H      73.05673248     104.83527316      92.38608457
C      75.16755677      99.50624495      94.40053282
H      77.03838582     100.11851627      94.94099455
C      74.17922991      97.12141034      94.36840748
H      75.54739176      95.61151903      94.41754036
C      71.70557817      89.59274071      92.04404411
O      69.71002718      88.48914054      92.10829481
N      73.89199151      88.53260425      92.67899215
H      75.47936161      89.59274071      92.69788942
C      74.30206212      85.76226547      93.08717304
H      72.44257143      85.04039002      93.60306832
C      75.03338620      84.49425913      90.60029321
H      75.41322119      82.50437731      90.96501039
C      73.16066743      84.57929681      88.53104290
H      73.99592646      83.44546102      87.02682075
H      72.82807560      86.50681765      87.88664622
H      71.34464044      83.77616313      89.08662243
O      77.19523311      85.61486683      89.60818689
H      77.33696258      87.13231705      90.59462403
C      76.39587888      84.95346262      95.04303977
O      77.91899828      86.53516354      95.99924129
N      76.30517201      82.64988625      96.12774267
H      75.20724102      81.34786482      95.26791720
C      77.82073252      81.58597033      98.21589025
H      79.66888485      82.49303896      98.14219092
C      76.55272616      82.09808616     100.84638928
H      76.39209942      84.14088030     101.07315644
C      74.02427235      80.75071130     101.20165782
H      72.74870709      81.07385450      99.61617745
H      73.05484275      81.75037651     102.71910805
H      74.07907442      78.71169660     101.49834486
C      78.25159011      81.45935866     103.14807593
H      78.75236759      79.46947686     102.95721357
H      77.12153378      81.86187036     104.82426317
C      80.55894594      83.27349592     103.11973003
H      79.91454927      85.15188388     102.57737858
H      82.13308796      82.39288347     102.12573399
H      81.27326249      83.55884460     105.03024333
C      78.30261273      78.64177674      97.72834086
O      76.98169403      77.52116903      96.11640432
N      80.07139655      77.40778545      99.08705408
H      81.26381386      78.37721504     100.21900014
C      80.86886106      74.84909602      98.58816633
H      79.50069921      73.34865332      98.93209652
H      82.62441680      74.61854941      99.64074389
C      81.71923790      74.64689530      95.91042415
O      83.57116969      75.86009960      95.12807745
N      80.24336165      73.32597662      94.36273830
H      78.69567580      72.54362991      95.16398225
C      80.53437950      73.28629237      91.57350226
H      81.80427558      74.76027888      90.89509051
C      81.82695230      70.72193376      90.78359666
H      80.44178291      69.32542600      91.39397826
C      82.30694278      70.48571796      87.89987431
H      84.03415263      71.40790441      87.26870572
H      80.78571310      71.19625505      86.70745700
H      82.62630653      68.53741013      87.31216942
C      84.44800269      70.60477073      92.09128727
H      84.33650884      70.76539745      94.14164032
H      85.49302135      72.32253195      91.63775295
C      85.91820977      68.26906899      91.53381801
H      86.94622088      68.27662790      89.74991637
H      84.65020341      66.64768383      91.62830432
H      87.09361953      68.11789089      93.21756415
C      77.98702843      73.52061843      90.54549115
O      76.17100144      72.28095796      91.58106117
N      77.55995028      75.15334196      88.76347923
H      79.06228270      76.03017496      87.97546336
C      75.22613829      75.75805438      87.46523726
H      74.65922039      73.95714520      86.64320631
H      75.55495067      77.20936418      86.04038362
C      72.76382490      76.73693260      88.93166487
O      71.48636991      78.39233286      87.88475650
N      72.34619539      75.79017973      91.32594811
H      73.55373050      74.42390761      91.89097628
C      70.11820806      76.35142845      92.82828053
H      68.59886811      75.64845026      91.62830432
C      70.12198752      74.90389809      95.37941105
H      71.73959324      75.51238996      96.49812903
H      70.25993754      72.89322928      94.95044318
C      67.61810015      75.54451531      96.76647017
N      65.32397241      74.46170212      96.40364272
H      65.09720525      72.95936971      95.24901994
C      63.60810092      75.47837488      98.01179981
H      61.62199856      75.00783304      97.99479227
N      64.76272369      77.53439711      99.00768558
H      63.81408108      78.72870414     100.15285972
C      67.34408984      77.44369024      98.39541425
H      68.79728937      78.70602743      99.07571572
C      69.61176141      79.14066447      93.27047649
O      71.20102124      80.46914208      94.36462802
N      67.50849603      80.00426941      92.16687632
H      66.45024929      78.56051851      91.50169266
C      66.36332188      82.50437731      92.00435986
H      67.83730840      83.88009808      91.58673034
C      64.46603666      82.36642729      89.79526980
H      62.99582959      81.01905243      90.30360618
H      65.34097994      81.56329361      88.11341338
C      63.18858167      84.88165302      89.06961490
H      62.83520285      85.80194973      90.87997270
C      64.87043809      86.49736902      87.35374340
H      66.67323699      86.92822661      88.25136340
H      63.95959001      88.33229327      87.12697625
H      65.15956622      85.59974901      85.52448833
C      60.64878951      84.41111116      87.59373864
H      59.30708383      83.42467403      88.80883266
H      60.98894025      83.45113019      85.80416783
H      59.75305924      86.13076211      86.90209881
C      64.96114496      83.25648839      94.41943009
O      63.50983515      81.87887790      95.51736108
N      65.81719098      85.48447572      95.29437337
H      67.39511245      86.16099773      94.45911434
C      64.86476891      86.73925399      97.53747850
H      63.97281809      85.35975378      98.77902869
C      67.11165350      87.75781646      99.06248764
H      66.51449998      88.83685020     100.71410844
H      68.16045160      88.95023377      97.75101758
C      69.01649762      85.88509769     100.25868439
H      69.92356625      84.70590846      98.83194103
C      71.17267535      87.39120956     101.49456540
H      70.49426360      88.76504059     102.87028616
H      72.19879673      88.40788231     100.02813778
H      72.42934334      86.04572443     102.41864157
C      67.92612554      84.12576250     102.09549837
H      69.35097918      83.02216233     103.09327386
H      66.54851506      82.85208696     101.24323180
H      66.92835005      84.99314686     103.67530957
C      62.81630559      88.75748168      96.88363320
O      60.66012787      88.63087003      97.62818537
N      63.54007077      90.39398468      94.98634798
H      65.39389228      90.49602989      94.54037257
C      61.78073557      92.48780142      94.29281842
H      59.87022227      91.74891844      94.50635750
C      61.80530201      94.60996407      96.25246461