 %block lattice_cart
   137.793   0.000   0.000
   0.000 143.498   0.000
   0.000   0.000   162.326
 %endblock lattice_cart

 %block positions_abs
N      85.75191385      39.54144959      79.93467789
H      87.30904833      39.08413582      78.92934349
H      84.49524585      40.05167569      78.59297221
H      84.92799318      38.09769868      80.87198214
C      86.25647078      41.66739169      81.58062951
H      87.99501899      41.34046904      82.64076597
C      86.94055170      44.14104343      80.04995120
H      85.08106101      44.79299901      79.44523879
H      88.07249776      43.48341868      78.46069137
C      88.49012728      46.08935126      81.49559183
H      90.03592340      44.85535998      82.07384808
H      87.27125381      46.70162259      83.03949823
S      89.19310547      48.74252701      79.50193057
C      90.72567351      50.75697526      81.88109600
H      89.38207810      50.79476978      83.44200994
H      91.24345852      52.61835567      81.17055890
H      92.32060252      49.60613193      82.49147759
C      84.07572661      42.29289110      83.20579414
O      81.98568931      42.09069038      82.25715153
N      84.44422324      42.97319257      85.63031300
H      86.26402968      43.00342819      86.20856926
C      82.29182497      43.69695775      87.34051531
H      80.82539735      42.26265548      87.14209406
C      83.05527440      43.53066183      90.17132533
H      84.94500072      44.32812634      90.36596714
H      83.47290392      41.60503072      90.77225830
C      81.20901180      44.59835720      92.13853042
O      80.86886106      46.84713151      92.55427021
N      79.87675474      42.95618504      93.38008061
H      78.83551555      43.82734887      94.72367602
H      80.12808834      41.06456900      93.36874226
C      81.25058577      46.31611842      86.64320630
O      82.66032160      48.07734334      86.07817814
N      78.67299908      46.62603354      86.74147207
H      77.46924342      45.23330524      87.24602900
C      77.46735370      49.05244212      86.14809802
H      78.06828666      49.33401134      84.19790046
C      74.55906490      49.06189075      86.08384732
H      73.95813193      47.49908709      84.88387111
C      73.17956469      48.90315374      88.75592032
H      71.13866027      49.08456747      88.54805043
H      73.70301888      50.52453892      89.91621229
H      73.72191614      47.07011922      89.51936975
C      73.53483324      51.39570275      84.58151490
H      74.14710456      53.01708793      85.69645343
H      71.48636991      51.19917121      84.68544984
C      74.42678406      51.66404389      81.77716105
H      73.75971067      49.95006212      80.85308489
H      76.48091656      51.71884595      81.62976240
H      73.59908393      53.40070237      81.03638833
C      78.40654767      51.44861509      87.49169342
O      78.83929500      53.41393045      86.21045899
N      78.60118948      51.33145205      90.02959586
H      78.51804153      49.51542507      90.61541101
C      79.48558140      53.35534894      91.74735708
H      78.41410658      55.09389714      91.49035430
C      78.90921487      52.55032553      94.44210680
H      79.02826763      54.02809150      95.87640907
H      80.19989794      51.07255955      95.06949593
C      76.17478090      51.65081580      95.04681922
C      74.44001214      53.51219622      95.50224326
H      75.02960675      55.46428350      95.40019804
C      72.11753850      52.85646119      96.61340233
H      70.97047463      54.43627239      97.20677639
C      71.47881101      50.28454368      96.97811951
H      69.66845320      49.82911964      97.80204018
C      73.19279278      48.38536873      96.40931190
H      72.68634612      46.47485543      96.91575854
C      75.61731163      49.00330924      95.42287475
H      77.08940843      47.61247067      95.17154115
C      82.25214072      53.92037710      91.29193303
O      83.03448741      56.04820893      91.02170218
N      83.74502451      51.91537749      90.75903021
H      82.84740451      50.25430806      91.03115080
C      86.31127284      52.18182890      89.87841776
H      87.16920859      53.48951950      91.21823371
C      87.84006143      49.71384633      90.26959110
H      89.79592816      50.09557105      89.75180609
H      87.02747911      48.44206052      88.86741417
C      87.62652235      48.69150440      93.00402508
H      89.15531094      47.31956309      93.15520318
H      85.88419469      47.61058094      93.21000524
C      88.01580597      50.63792250      95.18476924
O      86.72512290      50.45272932      97.03670103
O      89.89230420      52.11568847      95.09028292
C      86.75724825      53.41770990      87.24791872
O      88.68665882      54.56666350      86.77359742
N      84.89964728      52.94905778      85.53204723
H      83.55038270      51.67916170      85.99314046
C      84.70500547      54.08289357      82.83729751
H      86.55315781      53.93171546      81.93967751
C      82.83984560      52.49174401      81.28394248
H      81.00114190      52.47473647      82.21179810
H      83.71100943      50.62658414      81.20457398
C      82.46001061      53.26464207      78.62509756
H      84.20611773      53.36857702      77.53472548
H      81.43577895      55.04665399      78.48903726
S      80.14698561      51.24641437      77.11520624
C      80.98602409      52.22529260      73.95180439
H      82.87197095      51.66026443      73.34331251
H      80.92366312      54.28509428      73.91400986
H      79.67833348      51.23507601      72.71025420
C      83.82061356      56.84567344      82.75981873
O      85.08295074      58.41981545      81.52582745
N      81.93466670      57.59778451      84.32640184
H      80.75547748      56.19560758      84.87064302
C      80.81405900      60.05253899      84.43222652
H      81.22601933      60.91047474      82.60675090
C      78.14765517      59.76530059      85.08796155
H      77.55428111      61.73439541      84.96701907
H      77.73380511      58.78642236      86.85107620
C      76.55272616      58.37068257      83.20201469
H      77.27460161      56.46016927      82.94690164
C      73.85419698      58.13257706      84.38498336
H      73.96002166      57.31810501      86.27659940
H      72.47658650      56.95905701      83.40232568
H      73.20602086      60.08277461      84.49647721
C      76.40532751      59.54042316      80.53183141
H      78.30828190      59.81254375      79.79483815
H      75.33574241      61.30164808      80.56962593
H      75.78738700      58.20060720      79.09563941
C      82.06505781      61.81754337      86.27848914
O      81.71356872      64.04931014      86.12731102
N      83.65620737      60.95960762      88.14175927
H      83.64864847      59.09444775      88.54238125
C      85.11507608      62.73784008      89.54771565
H      84.04549099      64.42347595      90.06172120
C      85.89175360      61.42448029      92.00624958
H      84.27036842      60.34733629      92.68277160
H      86.25269132      62.70004555      93.58228133
C      88.33139027      59.88246362      91.78704133
H      89.83183296      61.17125697      91.21067480
H      87.97612172      58.31399078      90.49824798
C      89.32160686      59.00563061      94.37785610
H      89.72411856      60.59489044      95.62507547
H      91.20944344      58.22328392      94.11329442
N      87.92887856      56.96850565      95.68554672
H      88.42776631      55.19594236      95.17910007
C      86.39820025      57.11779403      97.60739838
N      85.77270084      59.26452312      98.67887319
H      85.05838429      59.13224227     100.44387758
H      86.39064135      61.00118160      98.17998545
N      85.59506657      55.11090468      98.76958005
H      84.37430337      55.22050881     100.23222823
H      85.93899676      53.38747428      98.02502789
C      87.29582025      63.98694917      88.19278189
O      88.25580122      65.83321178      89.08473270
N      88.01013680      62.83988530      86.08573705
H      87.12196543      61.24306657      85.52826778
C      90.19277069      63.75640256      84.53238201
H      91.27936332      65.04141646      85.72101987
C      92.04470247      61.50573852      84.03349427
H      93.71711026      62.41847633      83.25114757
C      93.18987662      60.01096501      86.21045899
H      91.69321338      59.76152114      87.60507700
H      94.81693098      60.98606379      87.01170294
H      93.68120546      58.13635651      85.50937052
C      90.95810984      59.57065878      82.14376796
H      89.45955688      60.42670480      81.02127052
H      90.03970286      58.00785512      83.12264618
C      92.97633755      58.38202093      80.23703410
H      93.89096508      59.95427322      79.27327368
H      91.88596546      57.09133786      79.05973461
H      94.26135144      57.28975912      81.42000278
C      89.41231372      65.19826374      82.14754741
O      90.95244066      66.57398450      81.08174177
N      87.13708324      64.85811300      81.40677469
H      85.92576867      63.77152037      82.40266046
C      86.02592417      66.24895157      79.21280244
H      87.11062707      65.48550214      77.63677070
C      83.51258817      64.98283494      78.88399006
H      82.35229621      65.80486589      80.37309440
H      83.46345529      62.94759970      79.19768464
C      82.26158935      65.70282067      76.38955133
O      80.74224940      67.52829628      76.27238830
O      82.86063259      64.69181709      74.37510308
C      85.86529743      69.13834310      79.52082783
O      86.14308720      70.51028441      77.70480084
N      85.63664055      70.14367750      81.79794804
H      85.74435495      68.80953072      83.16044071
C      85.89175360      72.86866284      82.55005911
H      86.74590989      73.94202739      81.01560134
C      83.38408678      74.09698495      83.34185444
H      83.53337516      75.44624953      84.88954029
H      82.17655167      72.58520390      84.05428127
C      81.86285710      75.24782827      81.23669932
H      80.00903559      75.91868111      81.84141175
H      81.33184401      73.63778145      80.06506901
C      83.20267306      77.38888818      79.83830185
O      84.56327600      79.00271446      81.14788219
O      83.14787099      77.52305875      77.54795357
C      87.72100867      73.07464301      84.65710395
O      87.92698884      71.35310234      86.21423843
N      89.22712054      75.10231935      84.81017178
H      89.25924589      76.44591475      83.45523801
C      90.85795435      75.68813450      87.02304129
H      91.84628121      77.46447724      86.69044947
H      92.26202100      74.22359661      87.38586875
C      89.23278972      76.12655101      89.39275809
O      87.31471751      77.46258751      89.16032175
N      90.19088096      75.36877076      91.59428924
H      91.81415586      74.39367198      91.34106592
C      89.10050888      76.07552840      94.09061770
H      87.06338391      75.77884137      94.09061770
C      90.14741726      74.40123088      96.11640431
H      92.02958466      73.70581160      95.64964191
H      88.94555132      72.73071282      96.04648444
C      90.21922686      75.21759265      98.91130954
H      91.09794959      77.05440663      99.21366575
C      87.51880795      75.39144747      99.96577681
H      87.50180042      76.38166406     101.77235518
H      86.83094758      73.46770609     100.21333096
H      86.28670640      76.36276680      98.63163004
C      91.83683258      73.38266840     100.40041386
H      93.76624315      74.01005754     100.05081449
H      91.46644622      71.44947838      99.79003226
H      91.38518799      73.68880406     102.38651622
C      89.55026374      78.92901513      94.61974107
O      91.61384487      79.98726187      94.37785610
N      87.63597099      80.18757285      95.90097551
H      85.99379882      79.27861450      96.24301597
C      87.90809157      82.75571091      96.97622979
H      89.94521654      83.05995685      96.95355308
C      86.62496741      84.86653521      95.37563160
H      86.38497217      86.57106834      96.50946738
H      84.77303562      84.12954194      94.84839796
C      88.09706421      85.51849078      92.82828053
H      90.08127683      85.69612506      93.34984499
H      87.13897297      87.23814173      92.22356811
C      87.73990593      83.40955622      90.70800760
H      85.98623991      82.34564030      90.90831859
H      89.32727604      82.11320397      90.92343640
N      87.75313402      84.41489062      88.09640584
H      88.26524985      86.23469706      87.84318251
C      86.51914273      83.57963159      86.12353158
N      85.69522206      81.21558397      85.80605755
H      85.58561794      80.68268115      83.97680248
H      85.85773853      80.08174818      87.33295641
N      86.46056122      85.07818455      84.06750934
H      85.24168775      84.37709609      82.77682627
H      87.25424627      86.81295331      83.99569974
C      86.97456678      82.89177121      99.66720005
O      85.18688568      81.70691281     100.20577205
N      88.11974092      84.37142691     101.26401879
H      89.69577267      85.23314211     100.62151185
C      87.57361002      84.64921668     103.97766577
H      85.95789402      83.51160144     104.56537066
C      89.81482542      83.71191243     105.58960233
H      89.02303010      83.88387752     107.48310808
H      91.50235102      84.88921192     105.59527150
C      90.47433991      80.87354351     105.13417828
H      90.61228993      80.31040506     103.15752455
C      93.03680879      80.40111193     106.19620446
H      93.18609717      80.27827972     108.24844724
H      94.53725148      81.67667719     105.59905095
H      93.67931573      78.51516507     105.68030918
C      88.70555608      78.99704528     106.30580860
H      89.33105549      77.04117854     106.13573322
H      86.92354417      78.85909526     105.28535639
H      88.47500947      79.55640427     108.27490341
C      86.68732838      87.29483352     104.66741588
O      85.90687141      87.75214729     106.85949840
N      86.85551402      89.22235436     102.92319849
H      87.56605111      88.92566733     101.17520165
C      85.62152274      91.81505886     103.19909853
H      84.65209314      91.85663284     105.01701525
C      87.76069292      93.75580778     103.31437184
H      87.22779010      95.59451148     102.55470186
H      89.37829865      93.26825839     102.13707234
C      88.84728555      94.03548728     106.01857019
H      89.11940614      92.12497397     106.73666619
H      87.36385040      94.80649561     107.22421558
C      91.25101742      95.53781969     106.05825444
H      90.87307216      97.47856862     105.47810847
H      92.57571557      94.72901683     104.70521040
C      92.61539982      95.39042104     108.63395141
H      93.12373620      93.42888513     109.00244804
H      91.27369414      96.08961978     110.03423861
N      95.08527211      96.83417195     108.54702400
H      94.81504125      98.59350714     107.85727389
H      96.33249148      95.81938892     107.51712317
H      95.76557358      97.02125485     110.31958728
C      83.56550051      92.30449797     101.13551741
O      83.24802649      90.85318816      99.29681370
N      82.34851676      94.51169831     101.23378317
H      82.71701339      95.81183001     102.57926830
C      80.31328152      95.27136828      99.48767605
H      79.19267382      93.58006323      99.13051778
C      78.30450245      96.90409182     100.77080023
H      78.86386144      98.83161266     101.22433454
C      76.03872060      97.26502954      98.93965542
H      74.63276423      98.52925645      99.75790693
H      75.21668966      95.46601009      98.36706836
H      76.46390902      98.20233380      97.15386406
C      77.34074203      95.48679708     103.16319373
H      78.96023748      95.19011005     104.39907474
H      76.69256591      93.58573241     102.70776969
C      75.38298557      96.84740003     104.74678438
H      75.04283484      95.93466222     106.56281137
H      73.64632709      97.03448293     103.65452258
H      76.00848498      98.77870032     105.09449402
C      81.25058577      96.32961502      97.01213458
O      82.86441205      97.98690500      96.98378870
N      80.38887058      95.28459637      95.05626786
H      79.23235807      93.79360231      95.34161652
C      80.86697133      95.94222113      92.39742293
H      81.86852628      97.74313030      92.39931265
C      82.48646678      93.84084547      91.25035906
H      84.24580198      93.73880024      92.31805442
H      82.87575040      94.57972845      89.36819165
C      81.59829542      91.01192518      90.60974185
C      81.01248026      90.20501204      88.09829557
H      81.38097689      91.64876294      86.70367755
C      80.37942194      87.70301440      87.49547287
H      80.20745685      87.09830198      85.55472396
C      80.32273015      85.82462645      89.49291358
O      79.70289992      83.36420279      89.02804091
H      79.28338068      82.93523491      87.31594887
C      80.93311175      86.65421630      92.00435985
H      80.98791382      85.46557845      93.66353956
C      81.52837554      89.22802354      92.64497707
H      82.03482219      89.62864551      94.58383627
C      78.32717917      96.16898828      90.91020832
O      76.36375353      95.94600058      92.03081602
N      78.50481344      96.60362534      88.39309287
H      80.25847946      96.88330483      87.69578386
C      76.41855559      97.24613228      86.66210357
H      74.67055875      97.09684390      87.74113730
C      76.73413989      99.92954365      85.62653355
H      75.71746713     100.08450120      83.84263191
H      78.76370595     100.20733341      85.41866365
C      75.55873012     101.84194667      87.44822971
H      76.72280153     102.01769122      89.13953476
H      73.65577572     101.21455754      87.92255102
C      75.09952663     104.32315732      86.24825350
H      73.61420174     104.08883126      84.84040740
H      76.89098717     104.94487728      85.44323010
C      74.27560595     106.29603159      88.08506748
H      75.91777812     106.74200700      89.24913890
H      72.74870709     105.40974995      89.14331422
N      73.49325926     108.52779837      86.62430904
H      73.04728385     110.01123353      87.73924757
H      71.99470629     108.30292094      85.46212737
H      74.99937113     108.92464090      85.52448834
C      76.15399391      95.22979431      84.58907380
O      77.94167500      95.07105730      83.09619001
N      74.14521484      93.65187283      84.32640184
H      72.92445164      93.80683039      85.78527056
C      73.51026680      92.17410686      82.01148711
H      74.71969164      90.52626551      81.78094050
C      70.58119101      91.30105330      82.37809402
H      69.24704423      92.86196724      82.22691591
H      70.09742107      90.34107233      84.13553949
C      69.95569160      89.55305646      80.26160056
O      68.68201607      90.13698189      78.41344821
O      70.55095539      87.33073832      80.76993692
C      73.72002642      93.71045435      79.49815111
O      73.63498873      96.06316361      79.37342918
N      73.83152027      92.55394185      77.24748708
H      73.98080865      90.65287718      77.34575284
C      73.73514423      93.74257970      74.69824628
H      75.09574717      95.28837582      74.59620107
C      74.73858890      91.94922943      72.56096582
H      73.12287290      90.69634088      72.31152195
C      75.16755677      93.32495018      69.98337913
H      73.46113391      94.02225919      69.06119269
H      76.29572338      92.27237263      68.61899673
H      76.24848022      95.01436551      70.45770043
O      77.01003993      90.94578475      73.18457550
H      76.54138780      89.27337697      73.71180914
C      71.32385345      95.15042580      74.08030578
O      71.54306170      97.23668365      72.91245491
N      69.09208668      94.56839010      75.04406619
H      68.85398116      93.07361658      76.20624788
C      66.94535758      96.46378559      75.02705866
H      66.94724731      97.49557615      73.24504675
C      64.49438256      95.01058605      75.42012173
H      63.03362412      96.36551982      74.89099837
H      64.59075860      94.43044008      77.39488573
C      64.28651266      92.61819254      73.85920780
H      65.41089982      91.12530875      74.72659217
H      65.01594702      92.94700492      71.96003285
C      61.55396841      91.53348964      73.91778931
O      60.79807789      90.65098745      75.96058346
O      60.22360109      91.54104854      71.92223833
C      67.02472609      98.57083043      77.05851445
O      65.23515527     100.00324297      77.37031930
N      69.09775586      98.74090580      78.48525781
H      70.42623345      97.40108984      78.19423996
C      69.65144566     100.64763965      80.43734509
H      68.79539965     102.36918032      79.69657238
H      71.67723227     100.85739927      80.72836295
C      68.44957973     100.38307796      83.04138795
O      67.75605017     102.28225291      84.10719359
N      68.45713864      98.18154681      84.14309839
H      68.91634213      96.65086849      83.10185919
C      67.13621994      97.66754125      86.53171245
H      66.21970268      99.28514697      87.41799409
C      65.12366142      95.68521835      86.01581717
H      64.37155035      94.91798946      87.77515237
H      66.08553211      94.14698113      85.04260813
C      62.80685696      96.32205611      84.37553474
C      62.24560824      94.82350315      82.40077073
H      63.10543372      92.97346109      82.35541730
C      60.05352572      95.35640597      80.89087942
H      59.42613659      94.01847974      79.48303330
C      58.96315364      97.81305018      80.96646846
O      57.16035474      98.71633935      79.32807576
H      56.87689579     100.47378482      79.67578539
C      59.76250787      99.49868605      82.88643039
H      59.05197078     101.40164044      83.08296194
C      61.60121157      98.75602361      84.52860256
H      62.23804934     100.14686217      85.87786715
C      69.04484352      96.58472807      88.48568946
O      70.66811842      95.04271140      87.94144828
N      68.66500853      97.37841312      90.84595762
H      67.25527270      98.60106605      91.24657960
C      70.31851905      96.38630681      92.95678193
H      72.18745838      97.06471856      92.41820992
C      69.82719021      97.55982685      95.48901518
H      71.12543219      96.84551030      96.91953799
H      67.91478718      96.91731990      95.89908579
C      70.07096491     100.28292247      95.61751656
C      67.92612554     101.67943021      96.36017901
H      66.08175266     100.81960474      96.51513656
C      68.06407556     104.25134772      96.60962288
H      66.42379312     105.26235130      97.28425517
C      70.39221838     105.52313353      96.30159749
O      70.50182251     108.20276544      96.47545231
H      68.83697362     108.92275117      96.49245985
C      72.53138857     104.22867101      95.52303025
H      74.22458334     105.29447665      95.11862883
C      72.36509265     101.56982609      95.32838845
H      73.96002166     100.45488756      94.71422739
C      70.26938617      93.43266458      93.36307307
O      68.30973998      92.02859793      93.21000524
N      72.52571939      92.30449797      93.82416629
H      74.19434772      93.22668441      93.88652726
C      73.08318865      89.55683591      93.61629640
H      71.35786853      88.54583234      94.11896360
C      73.53861269      88.91054952      90.69288979
H      75.14865951      90.02926749      90.06361093
C      74.16600183      86.13076211      90.11652327
H      72.40666663      85.10086127      90.41132057
H      75.84029934      85.63187436      91.20689536
H      74.89165673      86.23091760      88.19089216
O      71.40322196      89.42266535      89.17354984
H      70.70969240      91.03271216      89.63842252
C      75.19968212      88.80094539      95.40019804
O      76.97413513      90.26548328      95.82349673
N      75.22235884      86.46902312      96.41498108
H      73.89766069      85.18022977      95.94065976
C      77.19712283      85.47691680      97.99668199
H      78.89598679      86.45957449      97.37118258
C      76.64154330      86.14965937     100.81804338
H      75.98769799      88.09985693     100.70843926
C      74.74236835      84.29016868     101.94432027
H      75.38487530      82.33619167     101.82715724
H      72.99248179      84.45835432     100.87095571
H      74.26237787      84.92889617     103.84349521
C      79.01881900      86.22713815     102.42053129
H      80.23769247      87.62364590     101.51913184
H      79.94478489      84.38843445     102.40919293
C      78.77315458      86.72602590     105.30803310
H      80.64587335      87.30806160     105.93353251
H      77.73947428      85.22369348     106.26612434
H      77.90577020      88.59118577     105.42330640
C      77.65254687      82.54595129      97.51102233
O      76.13698637      81.19668671      96.32805366
N      79.61597251      81.35920317      98.64107867
H      80.99547272      82.39288346      99.46499934
C      80.11674999      78.54540069      98.53147454
H      78.45757028      77.56274301      99.25523972
H      81.68144337      78.06352048      99.78247337
C      80.81216927      77.57786082      95.81404810
O      82.57528392      78.67768153      94.51769585
N      79.67455403      75.52939749      94.91453839
H      78.38954014      74.74138162      96.08427896
C      79.92399790      74.52217337      92.25191400
H      81.50758855      75.48782351      91.35429400
C      80.74224940      71.74427569      92.27837017
H      78.99992174      70.85988377      92.93032575
C      81.04082615      70.63878579      89.62708415
H      79.72746637      71.31341809      88.19089216
H      80.92744257      68.58276357      89.67621705
H      83.02881823      70.82775843      89.12441696
C      83.02503878      71.09798929      94.01691838
H      82.69433668      71.77451131      95.93310087
H      84.68232876      72.01450655      93.20811552
C      83.69967108      68.28229708      94.27770062
H      85.41365284      67.99505868      95.38319051
H      84.25525061      67.61711342      92.40876129
H      82.06694754      67.22216062      94.95233290
C      77.61286262      75.15334196      90.56060895
O      75.78738700      73.78329038      90.15242807
N      77.53538384      77.61943479      89.81416706
H      78.84685390      78.82508018      90.50013771
C      75.42644928      78.81374182      88.45734357
H      75.36786776      78.06352048      86.54116108
H      75.86297606      80.82630035      88.37986479
C      72.69768448      78.69657879      89.88597667
O      70.78339173      78.49626780      88.65954428
N      72.67500777      79.19735627      92.38797431
H      74.26615732      79.70758237      93.31205046
C      70.19001766      79.51105083      93.72967998
H      68.69335442      78.43579656      92.80749354
C      70.37143139      78.36965614      96.37340709
H      71.54306170      79.59797824      97.54125795
H      71.49203909      76.64244629      96.31860503
C      67.98281733      77.88588620      97.58283194
N      66.21025405      75.95836537      97.04803938
H      66.77717194      74.45792267      96.01435909
C      64.13911401      76.34009008      98.53903345
H      62.61032542      74.98893577      98.54470262
N      64.37532980      78.69846852      99.58027264
H      62.89567410      79.78695088     100.09049875
C      66.77528222      79.61687551      99.12106916
H      67.42723779      81.40455660      99.85806241
C      69.15444764      82.19824165      93.79959985
O      70.22403274      83.91033369      95.06949593
N      67.03795417      82.70846776      92.50891678
H      66.16868007      81.27416548      91.59995842
C      65.97970744      85.35786405      92.26325236
H      67.59731316      86.58429642      91.90798381
C      64.42635241      85.59596956      89.74802664
H      62.65000968      84.55850982      89.82172596
H      65.52995258      84.70212902      88.25703258
C      64.11832702      88.25859394      88.69544908
H      65.98915607      89.12030914      88.72946416
C      63.57408584      88.48158164      85.85519043
H      61.83742736      87.48002670      85.38842803
H      65.13499978      87.71813221      84.74970054
H      63.15645633      90.45256619      85.42622256
C      62.06419452      89.72124210      90.22234794
H      61.48971772      91.45034168      89.26047725
H      62.74071654      90.30705726      92.07616945
H      60.37666892      88.60630358      90.62296992
C      64.63800176      86.22335870      94.75769109
O      62.71992955      85.22369348      95.54381724
N      65.86821359      88.05072404      96.10884541
H      67.22125763      88.98613857      95.14130554
C      64.72492917      88.98802829      98.47856220
H      64.44902913      87.44601162      99.81648843
C      66.66756782      90.81350391      99.52736031
H      65.71892521      91.81883831     101.05425917
H      67.20047064      92.06261301      97.97967447
C      68.94846748      89.49447495     100.70088035
H      70.00860394      88.37008779      99.33838767
C      70.66811842      91.52404101     101.83471613
H      72.21958372      90.79271692     102.97611084
H      69.55506962      92.82795216     102.97422110
H      71.31251509      92.71078913     100.27947138
C      68.31162971      87.95434800     102.93831631
H      69.98403750      87.19656775     103.87184111
H      67.08897678      86.32162447     102.64729845
H      67.49526794      89.13920640     104.41419255
C      62.23615961      90.39020522      97.96077719
O      60.45414770      89.73824964      99.34216713
N      62.24182879      92.33662332      96.51513656
H      63.88400096      92.77126037      95.64775219
C      59.87778117      93.52904062      95.77625357
H      58.40379465      92.13442261      95.41531585
C      58.91024130      95.30727308      97.93810048