 %block lattice_cart
   137.793   0.000   0.000
   0.000 143.498   0.000
   0.000   0.000   162.326
 %endblock lattice_cart

 %block positions_abs
N      86.65142358      40.18490139      78.43990439
H      88.09328475      39.89766299      77.22481036
H      85.08484046      40.68756859      77.47425424
H      86.16954337      38.45580181      79.09374969
C      87.22212092      42.00092838      80.45435263
H      88.89074926      41.33574472      81.46535621
C      88.05549023      44.64276576      79.52271756
H      88.60162113      45.78416046      81.14977193
H      86.54748863      45.69912277      78.59486194
C      90.40442003      44.49725684      77.88054539
H      89.97545216      43.76782248      76.00026772
H      91.80092778      43.19901486      78.65911263
S      92.15430660      47.36208193      76.99426375
C      93.44687940      48.17466424      80.07451764
H      92.34138950      47.31672850      81.58818842
H      93.69632327      50.21367893      80.21624712
H      95.27991392      47.23735999      80.09530463
C      84.94689044      42.36564556      82.13620905
O      82.82094834      42.02549482      81.24992742
N      85.35696105      43.28405254      84.39065254
H      87.08228118      43.62420328      85.12953554
C      83.43888884      43.83774235      86.20290009
H      81.86096737      42.59808189      85.72857877
C      84.17588211      43.11397718      88.97512858
H      85.70845015      44.39332189      89.49102386
H      84.79571234      41.15433099      88.83339911
C      81.87797491      43.33696488      90.76091995
O      79.83329104      43.81317591      89.89542529
N      82.10285234      43.07429292      93.13252647
H      80.60807883      43.10263882      94.31738487
H      83.81494438      42.48091886      93.73534917
C      82.55260720      46.52493317      85.90243359
O      84.11730059      48.34662934      86.11030350
N      80.09218354      46.88020172      85.42055339
H      78.96401694      45.34196450      85.34496433
C      78.98858338      49.34062538      84.94623208
H      79.88431365      49.90754327      83.18122770
C      76.12753774      49.11196849      84.40199090
H      76.01226443      47.56239292      83.04894687
C      74.62898477      48.35040879      86.75658989
H      75.07307046      46.49091810      87.52570851
H      72.64666187      48.23513548      86.20667954
H      74.70457383      49.83573367      88.18144353
C      74.69890465      51.25302841      82.88454068
H      74.64032313      52.93866428      84.06750934
H      72.74492764      50.65776462      82.61242008
C      75.97635963      52.14686895      80.34096905
H      76.50170355      50.61052146      79.07107297
H      77.80750443      52.93299510      80.86253353
H      75.06740128      53.56227396      79.15422094
C      79.62353142      51.36074281      86.92477554
O      80.01092531      53.53770752      86.45801313
N      79.69912047      50.52359405      89.31149987
H      79.13976148      48.70378761      89.41165537
C      80.24336165      51.88797645      91.69066530
H      79.29471904      53.70778289      91.51114129
C      79.40621289      50.24769401      93.89786563
H      80.02037394      50.97145919      95.72712069
H      80.20934658      48.35418824      93.81282795
C      76.56973370      50.01903712      93.85818137
C      75.20346157      52.18277375      94.60651300
H      76.25225968      53.83817400      95.17910007
C      72.60508789      52.08450798      94.66698424
H      71.56573842      53.55093560      95.63263438
C      71.34275071      49.92644053      93.95455742
H      69.33586137      49.77904188      94.30037734
C      72.61642625      47.73435801      93.18165935
H      71.61676103      46.04494269      92.62041063
C      75.32818351      47.84774159      93.11929839
H      76.33540763      46.18100298      92.50702706
C      83.10251756      52.59284436      91.88152765
O      83.70156080      53.58873013      93.90542454
N      84.85429385      52.00324975      90.16754589
H      84.24769171      51.06594550      88.61797031
C      87.49613124      52.98023826      89.93510954
H      87.89675322      54.37863573      91.39586798
C      89.36318084      50.79571464      90.48124046
H      88.88319035      49.25747742      89.19622656
H      88.97767667      49.99636041      92.33884141
C      92.35272786      51.24357977      90.45478428
H      92.89507931      51.96923468      88.60663196
H      93.21444306      49.37275072      90.49446854
C      93.25790677      52.99724579      92.54293186
O      94.64874533      54.86807484      91.91743246
O      92.33383060      52.78181699      94.74068357
C      87.93454774      54.11974322      87.33106668
O      88.95877940      56.21922916      87.36130231
N      86.89897772      53.04259922      85.27882392
H      86.09395431      51.32861746      85.51692943
C      87.57549974      53.99502129      82.78816463
H      89.63341170      53.97612402      82.81462081
C      86.57205507      52.33962104      80.70946568
H      87.15787023      50.38186458      80.95701984
H      87.48290315      53.01425333      78.98981474
C      83.63919983      52.41709982      80.37687385
H      83.02314906      54.22556790      79.60775524
H      82.95511891      52.11474360      82.29494607
S      82.35796539      50.13620016      78.19423997
C      82.55449693      51.88986617      75.17445732
H      80.71768295      52.73646356      74.78139425
H      82.95322918      50.54816049      73.66078655
H      84.15131566      53.18999788      75.22170048
C      86.97456678      56.78614705      82.24014400
O      88.62618757      58.27147193      81.37653908
N      84.78437398      57.50235332      83.15288182
H      83.81872383      56.40820179      84.38120391
C      83.88108480      60.06482220      83.15288182
H      84.07005743      60.79614629      81.23669933
C      81.05027478      59.87395985      83.65365929
H      80.38131167      61.82037795      83.56106270
H      81.10507685      59.32404949      85.63976163
C      79.25881424      58.15052945      82.06250973
H      79.78415816      56.18899354      82.40643991
C      76.58674123      58.42642949      83.07729276
H      75.71557740      60.25379484      82.69745778
H      76.54516725      58.08060958      85.10685882
H      75.38109585      57.04881901      82.13809879
C      79.24936561      58.63051993      79.15044148
H      78.85252308      60.63929900      78.92745378
H      77.66199551      57.62896499      78.30573381
H      81.14287137      58.31115619      78.40399959
C      85.21523158      61.86006220      84.95946016
O      84.67854931      64.09560843      84.84040741
N      87.06527364      61.16464292      86.36352682
H      87.61329427      59.33727757      86.41643916
C      88.69043827      62.91830894      87.85074142
H      87.24857709      64.07293171      88.76158950
C      90.27591864      61.47077858      89.83873350
H      92.08816618      60.95866275      89.00725392
H      89.26869452      59.77947353      90.44533566
C      91.00724273      62.94098565      92.20089139
H      89.40664454      63.40207887      93.41220596
H      91.86328875      64.75890237      91.74168790
C      93.10294921      61.83549576      93.79015122
H      93.84561165      63.19987816      95.14508499
H      94.74512138      61.59927997      92.56938802
N      92.47367035      59.37885155      94.95611236
H      93.06515468      57.75746638      94.14164032
C      91.62140378      59.06326726      97.32771888
N      91.24534824      60.83960999      98.92075816
H      90.58961321      60.35772978     100.64796802
H      91.88029628      62.56115066      98.39541425
N      91.19432563      56.78614705      98.24234642
H      90.91653586      56.51591619     100.11317547
H      91.45321814      55.30271189      97.07071611
C      90.35150770      64.78535853      86.43533641
O      91.30770921      66.68264375      87.41988382
N      90.97511738      64.48867150      84.08640661
H      90.45166319      62.90508085      83.16233045
C      92.55492858      66.20076354      82.54816940
H      93.14641291      67.72955213      83.79538876
C      94.94921182      65.02346405      81.67889529
H      95.97533320      66.55792182      80.76804720
C      96.78224634      64.60772426      83.98058194
H      96.59327371      66.16674847      85.31283898
H      98.57937606      64.19954338      83.06217495
H      96.34194011      63.01279525      85.20701432
C      95.11928719      62.71799795      80.05751011
H      94.37851447      61.18731963      81.21969179
H      97.11105872      62.54225340      79.56429155
C      93.53380681      62.91263976      77.75393374
H      93.85506028      64.68142359      76.75048907
H      91.54959418      62.97122127      78.30384409
H      93.85695001      61.38574090      76.41033832
C      90.92409477      67.50089525      80.47891907
O      91.73856681      69.35660648      79.25437643
N      88.40131014      66.99255887      80.33907934
H      87.68888332      65.86628198      81.70346173
C      86.70055646      67.80703091      78.29250573
H      87.64919907      67.89395832      76.46703012
C      84.43099516      66.10438750      78.02416460
H      83.54660324      65.85872308      79.86853748
H      84.94311099      64.23922763      77.31740695
C      82.45245171      67.04169175      76.19113007
O      80.30194316      67.51034388      76.88088017
O      83.34440253      67.36105550      74.04251125
C      85.92009949      70.63217175      78.73092224
O      85.52325697      71.88506029      76.73726097
N      86.17521255      71.59026299      81.02882944
H      86.84039621      70.35438198      82.31951251
C      86.28481667      74.31146888      81.43323086
H      86.76669688      75.02578542      79.56429155
C      83.54282379      75.14105873      81.97747204
H      82.90409630      74.02423048      83.58562914
H      82.25403045      74.64217098      80.44868346
C      82.97590590      78.04556807      82.56895639
H      83.80549575      78.54634554      84.38687309
H      80.95200902      78.42162361      82.65588379
C      83.93777659      79.78411628      80.63576636
O      86.29993448      80.18095881      80.48269853
O      82.49591541      81.07668908      79.27138396
C      88.11974092      75.08625667      83.63098257
O      88.88319035      73.35337764      85.04260812
N      88.94177187      77.36337687      83.77271204
H      88.23312450      78.56335308      82.46691116
C      90.68032008      78.16462083      85.67944589
H      91.15275165      80.11481838      85.21646294
H      92.45855254      77.13094054      85.59818767
C      89.40286509      77.84714681      88.26837094
O      87.19377503      78.53311746      88.66521346
N      90.66898172      76.73787746      90.13164108
H      92.48311898      76.22009245      89.84818214
C      89.65797814      76.80401788      92.74702231
H      87.62274290      76.49221304      92.62041063
C      90.91842559      74.81035662      94.32683350
H      92.92720466      75.00688816      93.91487316
H      90.30237481      73.05102143      93.44811076
C      90.58583376      74.84626142      97.17087161
H      91.50613047      76.41851372      98.13463203
C      87.79092854      75.04846214      97.67920797
H      87.51124905      75.19964024      99.71444321
H      86.91976471      73.31747284      96.97811952
H      87.08039145      76.73031856      96.72867565
C      91.61762433      72.33103570      98.40864233
H      90.88818997      72.08348155     100.31915563
H      93.67553628      72.29135145      98.47100331
H      91.03369890      70.77201149      97.19543805
C      90.18710151      79.43262719      93.79582041
O      92.45288336      80.16395127      93.94132934
N      88.20666833      80.77811232      94.70666848
H      86.47945848      79.98253754      94.84461852
C      88.43532522      83.05334280      96.20711119
H      90.44032483      83.42750861      96.49245985
C      87.41676273      85.28133012      94.81438288
H      86.97456678      86.97263517      95.90664470
H      85.49113162      84.76921429      94.30226705
C      88.76980677      86.12414806      92.43521746
H      90.80126256      85.87659391      92.66765380
H      88.22556560      88.09324288      92.18199413
C      88.16509435      84.56512385      90.09573628
H      86.30749339      83.67695248      90.17321506
H      89.50113086      82.99854074      90.04282395
N      88.71122526      86.00131585      87.82239553
H      89.20444383      87.83435037      88.03782434
C      87.69077305      85.21518970      85.59440821
N      86.93488252      82.94373868      85.05583620
H      86.18844063      82.69807425      83.31728800
H      87.02369966      81.67573232      86.48068985
N      87.43566000      86.94806873      83.83129356
H      87.17109831      86.41327619      82.01904602
H      87.50935932      88.82078751      84.19601073
C      87.20511339      82.80200920      98.87918418
O      85.29648981      81.51132613      99.13807669
N      88.35217726      83.73175455     100.89174271
H      89.80348707      84.93739994     100.60639403
C      87.60006619      83.36892710     103.48255749
H      86.26780913      81.79667480     103.53358009
C      89.91498092      82.82657564     105.13984747
H      89.43499044      83.09302705     107.12406010
H      91.40408525      84.19284777     104.73733576
C      91.04503725      80.16584100     104.66552616
H      89.59750690      78.70508256     104.78835836
C      92.65697380      79.42695801     102.36950868
H      94.07237881      80.87448836     101.97644561
H      91.54770445      79.83513889     100.68576254
H      93.46766639      77.53723169     102.26368401
C      92.89129986      79.80679300     106.91430048
H      92.09761481      80.23387114     108.76623226
H      94.57504601      80.97464386     106.69320250
H      93.39396706      77.81880091     106.72532785
C      86.11852076      85.77265897     104.59371655
O      84.78626371      85.58368633     106.54769357
N      86.34528791      87.90993943     103.18964991
H      87.55282303      87.91749833     101.71377366
C      84.77114590      90.17950073     103.53169038
H      83.65809710      89.76376094     105.21543651
C      86.41331806      92.44339285     104.06270346
H      87.12574488      92.16938254     105.97699622
H      85.13019389      94.05343967     104.10238771
C      88.64319511      93.04243609     102.16163879
H      87.90053267      93.87580540     100.42875976
H      89.62963225      91.28688035     101.71755311
C      90.43654538      95.05688434     103.18587045
H      91.80281751      94.59579112     104.65607753
H      89.41042399      96.74818939     103.76034725
C      91.96722369      95.75230362     100.80103585
H      90.73512214      96.45906127      99.31004179
H      92.88374096      94.03265268     100.13018300
N      94.13473978      97.47006484     101.39252018
H      93.43932049      99.18782606     101.85172367
H      95.21944268      97.46439566      99.82215762
H      95.14007417      96.86724215     102.89674233
C      83.20834223      90.59524052     101.18465030
O      83.82250329      89.76187121      99.14941505
N      81.07295150      92.04466060     101.42842498
H      80.71390350      92.78543331     103.15185539
C      79.29660877      92.60401959      99.32704932
H      78.48024700      90.91649399      98.47478276
C      76.90610498      94.04210131     100.33994262
H      77.36152902      95.96206325     100.92953723
C      74.99937113      94.18194106      98.23100806
H      75.89699113      95.20995217      96.68899139
H      73.38932431      95.25341588      98.94154516
H      74.57607244      92.26575858      97.59983948
C      75.52093559      92.69850590     102.61895257
H      76.87208991      91.97663045     103.99656304
H      74.36253336      91.12625361     101.96321753
C      73.72191614      94.12713900     104.33860351
H      72.79595025      95.56900017     103.19720882
H      74.51182174      95.17593710     105.92597360
H      72.39343854      92.72496207     105.05103032
C      80.54571786      94.14981571      97.13874626
O      81.51703718      96.27575781      97.40897711
N      80.37942194      93.08778952      94.82005206
H      79.46290468      91.42294064      94.63674861
C      81.39609470      94.12902872      92.58261612
H      82.23324346      95.92993790      93.11929839
C      83.55227242      92.32434009      91.67743720
H      84.83350686      91.58923656      93.11551894
H      84.74657945      93.35613066      90.35651852
C      82.57150447      90.04721989      90.34706988
C      82.66221133      89.99052810      87.72979894
H      83.33873335      91.66482561      86.77926661
C      81.97435095      87.87025517      86.33518093
H      82.11797015      87.80222503      84.29805595
C      81.28271112      85.65171648      87.72979894
O      80.70067542      83.57679699      86.42210833
H      80.50036443      83.74120318      84.62686834
C      81.36963853      85.69706991      90.36974660
H      80.65154253      84.16639160      91.51492075
C      81.79104750      87.96285176      91.67176803
H      81.93277697      87.97041067      93.70700326
C      79.45534578      94.66949045      90.52092470
O      77.31428586      94.06477803      90.89886996
N      80.14509588      96.10757217      88.55938879
H      81.91198998      96.82377844      88.45923329
C      78.54638742      96.43260510      86.41643916
H      76.56217479      96.20205849      86.91343717
C      78.68433744      99.11979591      85.30150062
H      77.86419622      99.02719933      83.41555376
H      80.58540211      99.86434808      85.03126976
C      77.18578447     100.72984273      87.02493103
H      78.15332435     100.51630366      88.82961965
H      75.33007324      99.84545082      87.14776323
C      77.09507761     103.54742467      86.13486994
H      76.43745285     103.71561031      84.18845183
H      79.02448818     104.25040285      86.28415831
C      75.26771227     105.02897010      87.91688185
H      74.51749092     103.80064799      89.38897865
H      73.56884831     105.61856470      86.90965772
N      76.56217479     107.25695742      89.08095325
H      77.30294751     108.37378567      87.71846059
H      77.85663732     106.87334298      90.42832811
H      75.20724102     108.34543977      89.86896913
C      79.02070872      94.54665824      84.21868746
O      81.02948780      94.64303428      83.04705713
N      77.27271189      92.80055112      83.66688737
H      75.80439454      92.72874152      84.88576084
C      77.14421050      91.35868995      81.14410274
H      78.89598679      90.31556102      80.85497462
C      74.83496494      89.65982599      81.45212814
H      73.10775509      90.65760148      81.96046451
H      75.18645404      88.25009016      82.91288657
C      74.28505458      88.11969905      79.03327845
O      75.32818351      86.04100010      78.44368384
O      72.78839134      89.10235673      77.45346725
C      76.96657622      93.29754914      78.87832090
O      75.98769799      95.32144603      79.19579491
N      77.51648658      92.40559832      76.61253905
H      78.35363534      90.69539601      76.48214792
C      77.31239614      93.76242182      74.15778456
H      78.62953538      95.33467411      74.34864691
C      78.13442708      92.24308186      71.76539105
H      76.52626999      91.12058443      71.13233274
C      79.25881424      93.85501841      69.70936882
H      77.95112363      95.24585697      68.93647075
H      79.83140131      92.53409971      68.23727203
H      81.02570834      94.77531512      70.22904356
O      79.97879997      90.65382203      72.68757749
H      80.64398363      89.77131984      71.24949577
C      74.72347109      94.92271377      73.38299678
O      74.64788204      97.00141272      72.43246443
N      72.63154406      93.85690813      74.29006541
H      72.87342903      92.14859555      75.10453745
C      70.05017792      95.08523024      74.02172426
H      69.77805733      96.02442421      72.20758700
C      67.88455156      92.96873677      74.30329349
H      67.34786929      92.55488670      76.24782186
H      68.55540440      91.22073993      73.44724747
C      65.39011283      93.77187045      72.90678575
H      64.96114496      95.69939129      73.49827007
H      63.87455233      92.40937778      73.20914196
C      65.90033893      94.15170544      70.09298326
O      66.42757257      92.36591407      68.82119746
O      66.08931156      96.34378796      69.17457627
C      69.75349089      97.30565865      75.86609714
O      67.96392007      98.82688834      75.59208684
N      71.33519181      97.68738337      77.77661045
H      72.40477690      96.16237423      78.19612969
C      71.45991375      99.82088438      79.70413129
H      70.15222314     101.39691612      79.47358468
H      73.39310376     100.51063448      79.53972511
C      71.04039450      98.57177528      82.31951251
O      71.60542267      99.73017751      84.25648197
N      69.82907994      96.44583318      82.43667554
H      69.33019219      95.73151664      80.73592185
C      68.67634689      95.50097003      84.70812656
H      67.81841114      97.23951823      85.40732531
C      66.67512672      93.56022110      84.17900320
H      65.46192243      93.44116834      85.83818290
H      67.49337822      91.72340713      83.73491752
C      65.00460866      93.93060746      81.87164738
C      64.26194622      91.78765782      80.42411702
H      65.20869910      90.00753563      80.74159103
C      62.52717746      92.02576334      78.36620507
H      61.88278079      90.34768637      77.39866518
C      61.28184782      94.39170068      78.09975366
O      59.28818656      94.49563563      76.46891984
H      58.55875221      96.14725642      76.30640338
C      61.92057532      96.48929689      79.57940935
H      61.03429368      98.30154442      79.26571479
C      63.87266260      96.33433933      81.42000279
H      64.25438731      97.90281217      82.67100160
C      70.53772731      94.61846784      86.84729676
O      72.25548852      93.19739365      86.53738164
N      69.79317514      95.48774194      89.25480807
H      67.99604541      96.12835916      89.26425671
C      70.98181299      94.49941508      91.55082555
H      72.96791534      94.98507474      91.30516113
C      70.13710533      95.78253925      93.93943960
H      70.97425408      94.88113979      95.59106041
H      68.10942899      95.56711045      94.23801636
C      70.75882528      98.55476775      93.96589578
C      68.75193594     100.24418307      94.28903898
H      66.89244525      99.52419735      94.72367603
C      69.17901409     102.80476222      94.07738962
H      67.57085699     103.92725965      94.63863835
C      71.54873088     103.82521443      93.71456217
O      71.80573366     106.34610934      93.65976012
H      70.15600259     106.99428546      94.04715401
C      73.65388600     102.11312239      93.63897313
H      75.54550203     102.84255675      93.41976487
C      73.20602086      99.53364598      93.75991561
H      74.79339096      98.28453688      93.45000050
C      70.63788280      91.66293588      91.83806394
O      68.53650714      90.61980696      92.05727219
N      72.83563450      90.51587201      91.70200365
H      74.37009227      91.64970780      91.72090091
C      73.27972019      87.86458599      91.59806871
H      71.57518705      86.82901597      92.11207426
C      74.10175113      87.28821947      88.91465734
H      75.64187808      88.51843130      88.31372437
C      74.81417795      84.58780057      88.37041616
H      74.95590743      84.22497312      86.34840901
H      73.39121404      83.28766886      89.09607106
H      76.62264603      84.27599573      89.30961013
O      71.98336793      87.61514212      87.14776323
H      71.75849050      89.32156498      86.57517616
C      75.48314107      87.13137218      93.52181010
O      77.08184953      88.80566970      94.01313894
N      75.55306094      84.77677320      94.54226231
H      74.30017239      83.41428053      94.07361017
C      77.52782494      83.94718335      96.43765780
H      79.23424780      85.09991640      96.37907627
C      76.39587888      84.38937930      99.20799657
H      75.35086022      86.16383231      99.20232738
C      74.63843340      82.45807901     100.19065424
H      75.86864523      81.06157127     101.07126672
H      73.56506886      81.43573708      98.76391089
H      73.26460238      83.17428529     101.55125720
C      78.45190110      84.88070815     101.32449003
H      79.60463416      86.46618852     100.69143173
H      79.62920060      83.27066133     101.84416477
C      77.41633108      85.70651854     103.83215685
H      75.93856511      84.39882794     104.41986174
H      76.77382414      87.65104692     103.59972052
H      78.91110460      85.80100486     105.24567214
C      78.34229698      81.14849868      95.84806319
O      77.16877694      79.92584575      94.18888348
N      80.22635411      80.24143005      97.11040035
H      81.24113714      81.24676445      98.37651698
C      81.02570834      77.68463035      96.89686128
H      79.46668413      76.43741098      97.40141822
H      82.54882775      77.13849944      98.17431627
C      82.15387495      77.24810357      94.27392116
O      83.51258817      78.90350382      93.25535869
N      81.71167899      75.00688816      93.31205048
H      80.84051516      73.67085166      94.36084858
C      82.16143386      74.23210037      90.64753637
H      83.82061356      75.20908888      89.91243284
C      82.69622640      71.28790678      90.72312543
H      81.23735769      70.29202101      91.78326189
C      83.07228194      70.37705869      88.00380925
H      81.42066114      70.69075326      86.81706113
H      83.29526964      68.33237482      88.09640584
H      84.59729107      71.22554581      86.90965772
C      85.20011377      70.89106425      92.26325236
H      84.85429385      71.56380682      94.17754512
H      86.64953385      72.08159183      91.40909608
C      86.47378930      68.23032960      92.54104213
H      85.37018914      66.81681432      93.55582516
H      88.41075877      68.53835499      93.17410044
H      86.82338867      67.74278021      90.57194731
C      79.73880472      74.83114361      89.25858752
O      78.05127913      73.31369338      88.95056214
N      79.53282456      77.17818369      88.60663196
H      80.78193365      78.51422020      89.15465259
C      77.42388999      78.09281123      87.07595363
H      77.35397012      76.86259940      85.42433285
H      77.90765993      79.98064782      86.41076997
C      74.67244848      78.17784891      87.95845582
O      73.07185029      78.27422496      86.31817338
N      73.98836755      77.98509683      90.37730551
H      75.40944174      78.22320235      91.63019406
C      71.39566305      77.64305637      91.10296041
H      70.27694507      76.46764660      89.83306433
C      71.46369320      76.14072395      93.55015599
H      72.37454128      77.19141178      95.06760622
H      72.40666663      74.32847641      93.29126349
C      68.86342979      75.81758075      94.38730474
N      67.27794942      73.91273663      93.44622104
H      67.81274196      72.68252480      92.09128727
C      65.13688950      73.82769894      94.82950070
H      63.57975502      72.52378779      94.63674861
N      65.23515527      75.79868349      96.43576806
H      63.88967014      76.43174180      97.63196483
C      67.48581931      77.06668984      96.21844953
H      68.08864200      78.47264622      97.56771413
C      70.06340600      80.33780609      91.56216391
O      70.85331160      81.70029876      93.20433607
N      68.29462217      80.91795207      89.89353557
H      67.99604541      79.84836697      88.34207026
C      66.83197401      83.29900722      90.09573628
H      68.06029611      84.92039240      89.77637254
C      64.67579628      83.47286204      88.07183940
H      63.37944403      81.89494057      88.33073190
H      65.50349641      83.03633526      86.23502543
C      63.39267212      86.14682478      88.15309763
H      62.60654597      86.44918099      90.03337532
C      65.02539565      88.44284225      87.66365852
H      63.93691329      90.16249319      87.98869145
H      65.81152180      88.36347374      85.76259386
H      66.83008428      88.29544359      88.64631621
C      61.46326155      86.05422819      86.08384732
H      62.36088155      85.54400208      84.30183541
H      60.50517031      87.87214490      85.97802265
H      60.09887915      84.54622659      86.41454942
C      65.70569712      83.84324840      92.86040589
O      64.59075860      82.19729678      94.06038209
N      65.83041906      86.21296520      93.70322382
H      66.69591371      87.56411951      92.67332297
C      64.91201207      87.19373315      96.08616869
H      64.04840715      85.57612743      97.02536267
C      67.01905691      87.94773395      97.79448128
H      68.11698790      89.50108898      97.00835513
H      68.35131396      86.38115084      97.65653127
C      66.45780820      88.41449635     100.48734128
H      65.23515527      90.05855824     100.69899062
C      65.40901009      86.19217821     102.09171893
H      63.87266260      85.23030751     101.11095097
H      64.78351068      87.11625437     103.82459794
H      66.89811443      84.88637732     102.65107790
C      68.98059282      89.29699854     101.71377366
H      69.59286415      91.01853921     100.76513105
H      70.39221838      87.80978393     101.51346266
H      68.52327906      89.69951024     103.67908902
C      62.70481174      89.01920877      95.67987755
O      60.68280458      88.57134364      96.80048525
N      63.15645633      90.94295016      94.08305881
H      64.99704976      91.04121593      93.59361970
C      61.32909098      93.07078199      93.49535392
H      59.41101877      92.32056064      93.53881763
C      61.36877523      95.14003230      95.52680971