 %block lattice_cart
   137.793   0.000   0.000
   0.000 143.498   0.000
   0.000   0.000   162.326
 %endblock lattice_cart

 %block positions_abs
N      85.95600429      38.85642380      78.85942363
H      87.53392576      38.25171139      77.97125225
H      85.00358222      39.74081571      77.46102615
H      84.96389797      37.32196604      79.40933399
C      86.74779961      40.54205967      80.90410750
H      87.87029704      39.43656978      82.22880565
C      88.12541009      42.98169635      80.00648750
H      86.56449616      44.30261504      79.76271281
H      89.14019312      42.80028262      78.22069613
C      89.81104596      44.06073007      81.92455971
H      91.12818521      42.51682366      82.26848990
H      88.80382184      44.58607398      83.64421066
S      91.55715308      46.77248733      80.65655335
C      92.72878339      47.82695460      83.67066682
H      94.57882545      48.62630884      83.23602976
H      92.95555055      46.36808590      85.10496910
H      91.55904280      49.34251511      84.43222653
C      84.24769170      41.19968443      82.33085087
O      82.34284758      41.83652220      81.18189727
N      84.45556159      41.00315289      84.70245739
H      86.08639540      40.48158842      85.54338560
C      82.47890787      41.80061740      86.44289533
H      80.72146240      40.86709260      85.91755140
C      83.39353541      41.23936869      89.12630669
H      85.14909115      42.22958526      89.55149511
H      83.42944021      39.22492044      89.54960537
C      81.71356871      42.47147023      91.17288029
O      79.46290467      42.95335044      91.01603300
N      82.90598602      43.27838337      93.27614567
H      81.76459132      43.97191292      94.63863833
H      84.78248425      43.21035322      93.62763476
C      81.94033587      44.63898631      86.22368707
O      83.77526012      46.14698791      86.31250420
N      79.54038345      45.28338299      85.98180210
H      78.29316409      43.84152182      86.08951649
C      78.73536004      47.70601213      85.08418210
H      79.82951158      48.19923069      83.40988459
C      75.82707125      47.57373129      84.44167515
H      75.57195820      46.17911326      82.94690164
C      74.17167100      47.08429217      86.85863511
H      74.77638342      45.44400973      87.94900720
H      72.32729812      46.29249685      86.39187270
H      74.06584632      48.71134653      88.11719283
C      74.54772653      49.93588917      83.34941335
H      74.70457382      51.41176542      84.77804644
H      72.57863172      49.43511170      83.02249070
C      75.58518628      50.77492765      80.89087942
H      75.64565752      49.22913154      79.53216620
H      77.52215575      51.34373528      81.28961167
H      74.59685942      52.35473886      80.01215667
C      79.52148619      49.83762341      87.06272556
O      80.64965280      51.74435725      86.41265970
N      79.28149095      49.30850004      89.51181086
H      78.67110935      47.50759086      89.67432731
C      79.97124105      50.88453179      91.63019404
H      78.93945049      52.66654370      91.66798858
C      79.27960122      49.39731717      94.00746976
H      80.29438425      50.24769402      95.58539123
H      79.81250404      47.41877373      93.80526904
C      76.54894670      49.41810417      94.78603700
C      75.61920135      51.35129419      96.28647969
H      76.82295702      52.95189236      96.68143249
C      72.99437151      51.61774560      96.70410921
H      72.34241593      53.33739654      97.59039085
C      71.35975824      49.84707203      95.76302550
H      69.32641273      50.00580904      95.84617345
C      72.29517277      47.62097445      94.56493902
H      70.98559243      46.27548931      93.76180534
C      74.78961150      47.59640799      93.88652726
H      75.43778763      46.05628105      92.71489696
C      82.78504353      51.41743460      91.67176803
O      83.58628749      53.21456432      92.79615519
N      84.43477460      49.99636041      90.38486441
H      83.48046282      48.82095064      89.22268272
C      87.05771473      50.38942349      89.97668352
H      87.91187102      51.59695860      91.40909608
C      88.46367110      47.87797722      90.08061848
H      90.42898647      48.24647384      89.58928964
H      87.93832719      46.45123385      88.68977991
C      88.38430260      46.91421680      92.89064151
H      89.41042399      45.22858093      93.47834639
H      86.43032559      46.47013112      93.36307308
C      89.46522605      48.84551709      94.70666849
O      91.76124352      49.37086101      94.56871847
O      88.05360049      49.94155835      96.38096601
C      87.72478812      51.73679835      87.45011944
O      89.53325620      53.25424857      87.36697149
N      86.40008997      51.10374004      85.39787666
H      85.20200349      49.62975351      85.56039313
C      86.48890711      52.58150602      83.00548316
H      88.37674369      52.11285388      82.32518169
C      84.82594795      51.27192567      81.03260889
H      82.84929423      51.84829220      81.11953630
H      84.94500071      49.22157263      81.18189727
C      85.89553304      51.84262303      78.38699204
H      87.91942993      51.50436201      78.21880641
H      85.67254534      53.88541716      78.21124751
S      84.22879444      50.33462143      75.68090396
C      81.46223511      52.23001692      75.24815665
H      80.67799869      51.80293878      73.39244541
H      81.99513793      54.21800899      75.33508405
H      80.06950682      51.74624698      76.69001782
C      85.87096660      55.35184478      83.15855099
O      87.19377502      57.05070875      82.17967275
N      83.56927995      55.94332912      84.25459224
H      82.47890787      54.62241042      85.09741019
C      82.49780513      58.48690074      84.47191077
H      83.04960522      59.67742832      82.88265095
C      79.68400265      58.56248979      84.70434712
H      79.14165120      60.53725378      84.48702859
H      78.98102447      58.02013834      86.56194808
C      78.29316409      57.00535532      82.69934749
H      78.84307444      55.02303241      82.79950299
C      75.53983285      57.02236284      83.33996472
H      74.45135049      58.61918158      82.62942763
H      75.50770750      56.67843266      85.37142051
H      74.66488957      55.36507288      82.48580843
C      78.62953537      57.79715064      79.98192106
H      77.31428586      56.58205661      78.95768940
H      80.61752745      57.48912524      79.54161482
H      78.32906889      59.81726807      79.72491828
C      84.01147591      59.99301261      86.54305082
O      83.91698959      62.32682460      86.51470493
N      85.64608917      58.77413913      87.96979418
H      85.48735216      56.87496419      87.86774897
C      87.52636685      59.80781943      89.81227734
H      86.77803523      61.34227720      90.96312067
C      88.11029228      57.62707527      91.65665021
H      89.19877464      55.99246201      91.02737135
H      86.29615502      56.70488882      91.97034479
C      88.98901502      58.46800348      94.18510403
H      87.73234702      60.00813042      94.72556576
H      90.88630024      59.27113715      94.16242731
C      88.98334584      56.06805105      95.70255426
H      90.39308167      54.81327279      94.87296441
H      87.10495788      55.26491738      95.44366174
N      89.44821851      56.43465796      98.38596562
H      88.79815266      58.05415342      99.16453286
C      90.59339266      54.95311254     100.05459396
N      91.25101742      52.69111014      99.41586645
H      92.39241211      51.78404150     100.64985775
H      90.54992895      51.88419700      97.83416553
N      91.26613523      55.80348937     102.31659635
H      92.54925939      54.97012007     103.45799104
H      90.68976870      57.60628827     102.54903269
C      89.94332681      60.73567506      88.62174975
O      91.21700234      62.16997732      89.91810202
N      90.78614474      59.98545370      86.28415831
H      89.71844938      58.61162267      85.49803216
C      93.02547042      60.69788053      84.95757044
H      93.83994246      62.13785197      86.18589255
C      94.85094604      58.44532676      84.40766009
H      96.61784014      58.95366313      83.48547364
C      95.67675644      57.30771153      86.90776800
H      96.83515867      58.55304117      88.06994968
H      96.78035661      55.58050168      86.69800838
H      93.96277467      56.87496419      87.96412500
C      93.31459855      56.35528945      82.81273108
H      92.08060727      57.21133547      81.40299524
H      92.11273261      55.32160916      84.12798059
C      94.99645497      54.39564327      81.70157201
H      94.64685560      54.24068571      79.67767511
H      94.68653985      52.53615258      82.52738240
H      96.93909362      54.98334816      82.04361247
C      92.48122925      62.08871910      82.44423445
O      94.15552676      63.23200352      81.31606783
N      90.04915148      62.11328554      81.81873504
H      88.85106500      61.17976074      82.97524754
C      89.10239860      63.54380836      79.57562990
H      90.20410904      62.93531649      77.94668582
C      86.34906736      62.50256916      79.25059698
H      85.22845966      63.16019392      80.84930544
H      86.57583452      60.45977501      79.41689288
C      85.29837953      63.22066515      76.57285479
O      83.46156555      64.67764415      76.48214793
O      86.41331805      62.43264928      74.64344422
C      89.28192260      66.48611222      79.92144982
O      89.85073022      67.70687542      78.11865092
N      88.77925540      67.41963703      82.20234948
H      88.39186150      66.19887382      83.61586476
C      88.64130538      70.05202578      82.91855575
H      89.89608365      71.26900953      81.83007339
C      85.87852551      70.91563071      82.91477629
H      85.61396382      72.53134669      84.16388539
H      84.91098564      69.23377429      83.60263667
C      84.53870955      71.61482943      80.47702935
H      82.57150446      71.98143634      80.97213765
H      84.39886980      69.96131891      79.25626616
C      85.87852551      73.77289688      79.07863187
O      86.45111258      75.74577115      80.18790123
O      86.45867149      73.33070093      76.78261441
C      89.71278020      70.54146489      85.58873903
O      89.71278020      68.90685163      87.34618450
N      90.85228516      72.78457002      85.79660893
H      90.53859060      74.24343874      84.60608135
C      91.96911341      73.36282628      88.20978942
H      93.35428280      74.87649705      88.03593461
H      93.02924988      71.79246370      89.01859228
C      90.18332205      74.24343874      90.14297945
O      88.56949578      75.82513966      89.80093898
N      90.63496664      73.47432012      92.58450584
H      91.98045177      72.13072472      92.76025039
C      88.76413759      73.65951330      94.65942533
H      86.97078732      73.80880168      93.65976011
C      88.72634306      71.29546569      96.45466533
H      90.60851047      71.01011701      97.24079148
H      88.36918479      69.64951408      95.26980692
C      86.72323317      71.24255336      98.52013618
H      86.72890235      72.98677073      99.61617745
C      84.08328551      70.94208686      97.41653602
H      83.98879919      69.12417016      96.44899615
H      83.56550050      72.48977271      96.15986803
H      82.71890311      70.79657794      98.95288351
C      87.23912845      68.78779887     100.07349122
H      89.20255409      69.01267631     100.65174746
H      87.06905308      67.01712532      99.03225201
H      85.89175359      68.65929748     101.62495652
C      89.38018837      76.14639314      95.99357210
O      91.41731333      76.44308016      97.09339283
N      87.56605110      77.87360298      96.32994340
H      85.89175359      77.55045978      95.47578710
C      87.62085317      80.29812184      97.74723813
H      89.61262470      80.69307464      98.10250668
C      86.33583928      82.40138723      96.17309610
H      86.04860088      83.93395527      97.52047097
H      84.50091503      81.63793781      95.62696521
C      87.91754020      83.29711750      93.91109370
H      89.90742201      83.80545388      94.05282319
H      87.08606062      85.06212188      93.25157923
C      88.22367586      81.28644870      91.75113654
H      86.30560365      80.53811709      91.76625435
H      89.53703565      79.83324917      92.38986403
N      89.03058900      82.34280571      89.47779578
H      89.90175283      84.02655186      89.71023211
C      88.20477860      81.75510084      87.29138244
N      86.93866197      79.63482791      86.85485566
H      86.20922761      79.52333405      85.09552045
H      86.95000033      78.29879141      88.21734833
N      88.30682382      83.38593464      85.53204724
H      87.13708323      83.25365379      84.03160455
H      88.89074925      85.16227738      85.90999251
C      86.23190433      79.95797111     100.26813302
O      84.17966155      78.82791478     100.31159674
N      87.24479763      81.02377674     102.25234565
H      88.73012251      82.16895089     101.89707711
C      86.43977422      81.03889456     104.94709538
H      84.72957191      79.89372041     105.00756662
C      88.36729506      79.86159506     106.57226001
H      88.24635258      77.86226462     106.08660035
H      87.75313401      79.91261768     108.53757538
C      91.13196466      80.69496438     106.71776894
H      91.76502297      80.94440825     104.77513029
C      91.44187977      83.11948323     108.18986573
H      90.83338790      84.82968554     107.21665667
H      93.36184171      83.76387991     108.55836237
H      90.43654537      82.80578866     109.96242901
C      92.73067312      78.87515794     108.03112873
H      91.72722845      78.32524757     109.74511048
H      94.55803846      79.73120396     108.44497879
H      93.02358070      77.24810357     106.80469634
C      85.65931726      83.67506277     106.01668048
O      84.87130138      83.84891759     108.22766026
N      85.83128235      85.61959114     104.36883913
H      86.79693250      85.01298900     102.83816082
C      84.89775755      88.31812031     104.58237820
H      83.70156079      88.42583472     106.25478598
C      87.27503325      90.13225758     104.65985697
H      88.40319986      89.50486844     103.05547934
H      88.23879367      89.88092398     106.46265589
C      86.79693250      92.95550869     104.37261858
H      85.29082062      93.41660190     105.70109618
H      86.24324269      93.55455194     102.48100254
C      89.12507531      94.55043769     105.08504540
H      90.71433514      94.08367530     103.86050275
H      89.79592815      94.20083833     107.00122787
C      88.24446285      97.35668127     105.18142144
H      86.69677700      97.56455117     106.52312713
H      87.58872782      98.05210056     103.35783555
N      90.39497140      99.21428224     105.42897559
H      91.43243114      99.24640758     103.83026713
H      91.33605510      98.61523899     106.97855116
H      89.80537679     101.00007361     105.75211879
C      83.06661275      88.72441148     102.37139842
O      82.76803600      87.16727700     100.64418857
N      81.70789953      90.96184743     102.47722309
H      81.94222560      92.12780857     103.97010687
C      79.70101019      91.67427424     100.52702554
H      78.69567579      89.95651304      99.99790216
C      77.89065238      93.80777525     101.60794899
H      78.87708952      95.55388236     102.07849083
C      76.04438977      94.58823223      99.46121989
H      75.03905538      93.02920801      98.56737935
H      77.09696733      95.62002280      98.02313817
H      74.43434296      95.81088514      99.85239324
C      76.26926721      92.79488195     103.95309934
H      77.48058177      92.09946267     105.46677012
H      74.82362658      91.36246941     103.64885340
C      74.92000262      95.03987682     105.34393791
H      73.79750519      94.32744999     106.91807993
H      73.75404148      95.80521597     103.82837740
H      76.28249529      96.28520646     106.26045516
C      81.13342274      92.77031551      98.20266217
O      83.00236206      94.13469790      98.61273277
N      80.50225415      91.91615921      95.91420360
H      79.13976148      90.58201245      95.84050428
C      81.23735768      93.00842102      93.48968475
H      82.28993524      94.76208704      93.71078273
C      83.33684362      91.30010843      92.28592909
H      84.78815342      90.95806798      93.70889299
H      84.16454374      92.36591408      90.72879459
C      82.76425654      88.70173475      91.50547212
C      82.66599078      88.01387439      88.93922378
H      83.34440252      89.40093350      87.60696673
C      81.58695705      85.70651856      88.15309764
H      81.30538783      85.28133013      86.17644392
C      80.74224939      83.93962444      90.02959587
O      79.58951634      81.78344673      89.27370534
H      79.73691499      81.51321587      87.48602424
C      81.12586383      84.47252728      92.54293186
H      80.71012404      83.01176883      93.90542454
C      82.10285233      86.89137695      93.27803540
H      82.15009549      87.42994895      95.24713021
C      78.92811213      93.55644165      91.77759271
O      76.88531798      93.05755391      92.63930791
N      79.19267381      94.74318978      89.49669305
H      80.93122202      95.20806246      88.86363472
C      77.07240089      94.88491925      87.71279141
H      75.31117597      94.26508903      88.58395524
C      76.62075630      97.66659638      86.79627414
H      75.94612401      97.64958885      84.84985604
H      78.53126960      98.43382528      86.68855975
C      74.85575192      99.26530485      88.59718332
H      75.72502603      99.50907954      90.44911511
H      73.08129892      98.30343415      89.00347448
C      74.39276898     101.91848060      87.22713175
H      73.72947504     101.56699149      85.30905954
H      76.18989870     102.92570471      87.18177831
C      72.56351391     103.44160000      88.72946416
H      73.33641197     103.64946990      90.62863911
H      70.79473008     102.39280189      88.63308812
N      72.13454603     105.73950719      87.50870097
H      70.94590818     106.87145326      88.48191001
H      71.46180347     105.45415852      85.74558631
H      73.67278325     106.86389436      87.58240029
C      77.32940367      93.08023063      85.44511983
O      79.34385192      92.71551344      84.41899844
N      75.15621841      92.07489623      84.55505874
H      73.54617159      92.53220999      85.47346572
C      74.80661904      91.00909058      82.08329672
H      76.00470552      89.34991089      81.84708093
C      72.06651589      89.89415206      81.95857478
H      70.80795816      91.45317628      81.48236375
H      71.40322195      89.21574032      83.78594012
C      71.72825488      87.68128254      80.13876835
O      72.91311327      85.57612743      80.60175129
O      70.63599307      87.88159354      78.01471597
C      75.13921087      92.81188948      79.82885323
O      75.16566704      95.09845832      80.23514438
N      75.36975748      91.95206401      77.42323162
H      74.86709028      90.13414730      77.12654459
C      75.15054923      93.51486768      75.09130936
H      76.24092131      95.24207753      75.35398131
C      76.03872060      92.13914693      72.74804873
H      75.25448418      93.08778954      71.09453821
C      78.89976623      92.10324213      72.58175282
H      79.42322042      91.57033931      70.66179089
H      79.63109032      90.95995770      74.13132839
H      79.65187731      93.91548965      73.20725223
O      75.18834375      89.57478832      72.20002810
H      76.39398914      89.13070264      70.92068339
C      72.55973445      94.59579113      74.78895315
O      72.52571938      96.67826952      73.77228039
N      70.60575745      93.32589505      75.71491905
H      71.12543218      91.52876532      76.09097458
C      67.96203033      94.42382603      76.02672389
H      67.54629055      95.45750632      74.29384486
C      66.07419375      92.17883117      76.50104519
H      64.16368044      92.87991963      76.80340140
H      66.64111164      91.28121118      78.26793930
C      66.09498074      90.18894937      74.25227088
H      65.06130044      88.47307788      74.73415109
H      68.02061185      89.53132461      73.93101741
C      64.95358604      91.10357691      71.84664928
O      65.92868482      92.81566894      70.49549497
O      62.96370424      90.15493430      71.08319984
C      67.95069198      96.24930166      78.33030025
O      66.08931156      97.58722789      78.74415033
N      69.95758132      96.36268523      79.86286829
H      71.46558292      95.26475425      79.45468742
C      70.14844368      98.46028144      81.68834392
H      69.27161067     100.17993239      80.96835820
H      72.14777412      98.79854245      82.04928165
C      69.09019694      97.86312792      84.35285802
O      69.25271341      99.31065828      86.08006787
N      67.84864676      95.67293513      84.53427174
H      67.54251109      94.66004183      82.94501192
C      66.59008903      94.83200691      86.70367755
H      65.47704023      96.32300098      87.58806947
C      64.84587164      92.60590932      86.24258434
H      63.68180023      92.11835994      87.87152842
H      65.89655947      90.85413303      85.98558155
C      63.07708781      92.89314773      83.99192029
C      62.54418499      90.69161657      82.57840502
H      63.21503784      88.85102313      83.14532291
C      60.95114571      90.87680975      80.40710947
H      60.40123536      89.27432183      79.27327369
C      60.00628256      93.28054162      79.71169020
O      58.33576450      93.36179985      77.68590359
H      57.39657052      94.90570625      77.50637959
C      60.75083472      95.45372688      81.15355138
H      60.42580180      97.29809976      80.34474850
C      62.14167329      95.26475425      83.23414005
H      62.69158365      96.93716204      84.26404089
C      68.56863248      93.85312869      88.70300800
O      70.57552182      92.96117786      87.96223527
N      67.96392006      94.31800136      91.16910083
H      66.35765269      95.01720009      91.92688109
C      70.03317037      93.65092798      92.92843602
H      71.94746313      94.14225681      92.34829004
C      69.77427787      95.11168642      95.41531586
H      71.15377808      94.42193631      96.77969825
H      67.85053648      95.28365150      96.12963241
C      70.20513547      97.92737862      95.12996718
C      68.14155433      99.70561108      95.23957130
H      66.21781295      99.08956030      95.52869944
C      68.64800099     102.32477174      95.21689459
H      67.10976377     103.66080826      95.35295489
C      71.13677054     103.23939928      95.03359114
O      71.30684591     105.81131680      95.32460900
H      69.58341551     106.35177852      95.50602272
C      73.11909344     101.49896136      94.71233767
H      74.99181222     102.24540325      94.39675338
C      72.64666186      98.85145478      94.68210205
H      74.05450797      97.50030047      94.08305881
C      70.11820806      90.82389740      93.79582041
O      68.20580503      89.86958563      94.72367603
N      72.40666662      89.78454794      93.77314369
H      73.81073327      90.77098507      92.93788466
C      73.01893795      87.07468041      93.54826626
H      71.39377332      85.90116037      94.03014647
C      73.61420174      86.30934125      90.76280967
H      74.71213272      84.56701359      90.70422815
C      71.07440957      85.93895488      89.30205124
H      69.84797719      87.57545788      89.54582593
H      70.08041353      84.27221629      89.99369107
H      71.62998911      85.74809254      87.32917697
O      75.01826839      88.26331826      89.60440745
H      76.72658097      88.04599973      90.17321507
C      75.09007799      86.46240908      95.45877956
O      76.61886657      88.11591960      96.12585295
N      75.17700540      84.15505325      96.33939203
H      73.68034216      83.09680651      95.81026866
C      77.20657146      82.94940787      97.98156418
H      79.09629777      83.62970934      97.52047097
C      76.68122754      83.25176408     100.85961737
H      76.46390902      85.28510958     101.10528179
C      74.05828742      81.97052963     101.53047021
H      73.37042704      82.55823452     103.38051227
H      74.07718468      79.92962521     101.24890099
H      72.65233104      82.75665578     100.24545631
C      78.91866350      82.27855503     102.52446624
H      80.64587335      82.83602429     101.55125720
H      79.28338068      80.25087869     102.48289227
C      78.98480392      83.17995447     105.17764199
H      77.17822556      82.64327220     106.01479074
H      79.24747588      85.22463834     105.15307555
H      80.61752745      82.28233447     106.05447500
C      77.27271188      80.20741499      97.17654078
O      75.61731163      79.23798539      95.81215839
N      79.19078409      78.81846615      97.90975459
H      80.76492610      79.58758475      98.66375539
C      79.44778686      76.18796711      97.13307708
H      77.64120851      75.20908888      97.28614491
H      80.86130215      75.43774576      98.42942933
C      80.39453975      75.91206708      94.46478352
O      82.48457705      76.88905557      93.77314369
N      78.98669364      74.48532371      92.91898740
H      77.42200026      73.56691671      93.50480255
C      79.20590190      74.43619083      90.21478905
H      80.67988842      75.76466841      89.65920951
C      80.08840408      71.74144109      89.34929439
H      78.81283882      70.17485798      89.75558555
C      80.34162741      71.76978700      86.37675490
H      81.77215023      73.13983857      85.80983701
H      78.63898400      72.22332131      85.31094925
H      80.80650008      69.86683260      85.73613768
C      82.63575515      71.20853827      90.51714526
H      82.60929899      71.28034787      92.57505721
H      83.84140054      72.71087070      89.78582117
C      83.63919983      68.56103172      89.84818214
H      85.27192336      68.14340219      91.03304053
H      84.21367663      68.33993373      87.88097705
H      82.24269208      67.15129588      90.39809250
C      76.79272139      75.34514917      89.06016627
O      75.10141634      74.05824556      88.10963392
N      76.23714186      77.74699133      89.63086362
H      77.65821605      78.73153873      90.43777675
C      74.03939016      79.16995524      88.95623131
H      73.64254763      79.44018610      86.95123170
H      74.57229298      80.98220277      89.77259308
C      71.42778839      78.86381958      90.46612264
O      69.45680385      79.52333405      89.45889852
N      71.49203909      77.99832492      92.79993463
H      73.27216127      77.66951255      93.40653679
C      69.24326477      77.78100639      94.41754037
H      68.02817075      76.52244867      93.32905801
C      69.98403749      76.69441377      97.07827501
H      71.20291096      78.01533245      98.08549914
H      70.95535681      74.89161487      96.85906676
C      67.83730840      76.54701511      98.85461774
N      66.18946705      74.62894291      99.26846781
H      66.02128141      72.99999883      98.28958958
C      64.51894899      75.42073823     101.12984823
H      62.87488710      74.35682231     101.70243530
N      64.93090933      77.83580846     101.77991408
H      63.87833177      78.94507781     102.92319850
C      67.00015964      78.61059625     100.43253922
H      67.94124334      80.41339515     100.59883514
C      68.13777488      80.40961570      94.63296917
O      69.58908469      82.11603855      95.15264389
N      65.68113067      80.74787671      94.06794100
H      64.48493392      79.26633127      94.17754512
C      64.50383118      83.19129283      93.97156496
H      65.69813821      84.69362524      93.22512305
C      62.03773834      83.18184419      92.47490172
H      60.82264432      81.68329124      93.19488743
H      62.56686171      82.60736740      90.56816787
C      60.66201759      85.64037813      92.22545784
H      60.22549081      86.25831863      94.14164032
C      61.98482601      87.64915720      90.57950622
H      62.84276175      86.76287557      88.92977515
H      63.55329885      88.30111278      91.74546736
H      60.86043885      89.34802115      90.27337055
C      58.03718774      85.30967602      90.85351653
H      58.43025081      85.02810680      88.85229637
H      56.83154235      86.95751738      91.13886521
H      56.80130673      83.76010046      91.41476524
C      63.91045712      83.96986008      96.65119687
O      62.76717270      82.63760303      98.09305805
N      64.73437779      86.19973713      97.44488191
H      65.74727110      87.21829960      96.19010365
C      64.07297358      87.69073119      99.74278912
H      63.45314335      86.30367207     101.13173796
C      66.27261501      88.97196562     101.10339206
H      65.45436352      89.95840276     102.71532860
H      66.79795893      90.61791725      99.97900490
C      68.47603589      87.25798385     101.84983396
H      69.01271816      86.08068436     100.24734604
C      70.68323622      88.83590532     102.72477724
H      70.42056427      89.83934999     104.50111997
H      71.49770827      90.16060347     101.37173320
H      72.22525290      87.48097157     102.89107315
C      67.74471181      85.21329998     103.76790616
H      66.18757733      84.03411077     103.11406086
H      66.96614457      85.97296997     105.51779273
H      69.26972094      83.89238130     104.18175623
C      61.79207392      89.25542456      99.00768557
O      59.68880854      89.00031151      99.98467408
N      62.14167329      91.03932621      97.25590929
H      63.90100849      91.28121118      96.56237972
C      60.06675380      92.51898192      96.15797830
H      58.42458163      91.29821871      95.91231388
C      59.16724407      94.45028221      98.15541900