 %block lattice_cart
   137.793   0.000   0.000
   0.000 143.498   0.000
   0.000   0.000   162.326
 %endblock lattice_cart

 %block positions_abs
N      86.02686903      36.43851898      82.12676042
H      85.16515383      35.49365582      83.54405516
H      87.66526174      35.50688390      81.82440421
H      85.03476272      36.56324092      80.50159579
C      86.51063897      39.03311320      83.16044071
H      87.55187817      38.71374945      84.90654783
C      88.16414949      40.52788672      81.28961166
H      87.70683572      40.27466339      79.29595040
H      90.06332444      39.74554002      81.42945141
C      88.54965366      43.27554877      81.92833916
H      86.69772187      44.15994069      82.09652480
H      89.82332919      44.03332904      80.49592661
S      90.29198132      43.58357417      84.89709920
C      89.44349421      46.82634452      85.40921503
H      90.22206145      48.20206527      84.09018606
H      90.02552991      47.30822473      87.32728723
H      87.38936170      46.81311643      85.26559583
C      83.96706735      40.40694423      83.64799010
O      82.39103560      40.38615724      81.89810354
N      83.50975358      41.39338137      85.91944113
H      84.99696819      41.56534646      87.10429953
C      81.21940529      42.36659042      87.11941734
H      79.67171944      41.18929093      86.44289532
C      81.43483409      42.03777804      90.02203696
H      83.03921173      43.19240082      90.59840348
H      81.90726567      40.15183118      90.69855898
C      79.24464129      42.90327269      91.69633447
O      77.19239852      43.24909261      90.86296517
N      79.69439616      43.24720289      94.13030196
H      78.15237948      43.20373917      95.25468912
H      81.33467860      42.73697677      94.95989181
C      80.52776546      45.02165589      86.34273983
O      82.07734104      46.75453493      86.58462479
N      78.14482058      45.42605732      85.53582669
H      76.98263890      43.91238654      85.57740067
C      77.11680947      47.90348851      84.90276837
H      78.11647468      48.63103314      83.25492703
C      74.27844054      47.64081657      84.21112854
H      74.17639532      46.27454443      82.67289133
C      72.45485465      46.71296094      86.28226858
H      70.71441672      46.59201846      85.18622732
H      72.17517516      47.88081181      87.95467637
H      72.98397802      44.77977093      86.76225907
C      73.18995819      50.21273408      83.30028046
H      72.99909583      51.35223904      85.00670332
H      71.28511406      49.76297922      82.65588379
C      74.70173924      51.57144729      81.21024316
H      73.41672534      52.98874203      80.44679373
H      75.57290307      50.30911011      79.83452240
H      76.23430728      52.48040564      82.24392345
C      77.47396774      49.75353057      86.95312142
O      78.44150761      51.79821446      86.35029873
N      77.10169165      49.13936952      89.34551494
H      76.10769561      47.55388916      89.72912938
C      77.75553696      50.49430330      91.69066529
H      76.87870395      52.33678645      91.40909607
C      76.54800185      49.43794628      94.10195607
H      77.26798757      50.62280468      95.62696520
H      77.02421288      47.45562338      94.40242255
C      73.71341238      49.27542982      94.17376567
C      72.40572177      51.11791297      95.59106040
H      73.39782808      52.45394948      96.77591880
C      69.73931794      51.06311091      95.82727619
H      68.61682051      52.44450085      96.82505168
C      68.40328144      49.03921404      94.60651299
H      66.36804620      49.17905379      94.52525476
C      69.70341314      47.15137745      93.20244634
H      68.79067533      45.59991214      92.24057565
C      72.36603751      47.31011445      93.01347371
H      73.40160753      45.88148136      91.98924205
C      80.62225178      51.01775748      91.96089615
O      81.33656832      52.26875630      93.67865737
N      82.31166710      49.85746552      90.52281443
H      81.65026289      48.59323862      89.25480807
C      85.14247712      50.12013749      90.67399253
H      85.69616693      51.40515137      92.18388386
C      86.60134583      47.73530287      91.37697072
H      88.60256600      47.91860632      90.92154668
H      86.13836288      46.31989787      89.95211708
C      86.39914511      46.81878561      94.19077320
H      87.35345690      45.01409698      94.45344516
H      84.46595510      46.33690540      94.71800684
C      87.53487063      48.74252700      96.07860979
O      86.20639303      49.21495858      97.97022583
O      89.52475244      49.93305457      95.48712545
C      86.02875876      51.46562262      88.25136340
O      88.19438511      52.49552346      88.08128803
N      84.44138865      51.62435962      86.26526105
H      82.77653977      50.81177732      86.72446454
C      84.90626133      52.93393997      83.89554425
H      86.89614314      52.60701732      83.47791473
C      83.07889598      51.88892131      81.80550695
H      81.09090390      52.36324261      82.04928164
H      83.32078095      49.84990662      81.97558232
C      83.79510226      52.49930292      79.01438118
H      85.52609156      51.61491099      78.33407971
H      84.16359889      54.51375116      79.23358944
S      81.18350049      51.89648021      76.97536649
C      82.13781228      53.55188046      74.07652633
H      80.57878807      54.41170595      73.04095631
H      83.07322680      52.05710695      73.01261041
H      83.49085632      55.05799234      74.47525858
C      84.76642158      55.76474999      83.99758947
O      86.48607253      56.91370357      83.26815511
N      82.55355207      56.89291659      84.63442724
H      81.24586146      55.73451436      85.40165612
C      82.23607805      59.60467385      84.07317852
H      82.90315144      59.95238349      82.15510632
C      79.42416529      60.33788765      84.20923882
H      79.13314744      62.23895232      83.47224556
H      78.67394395      60.09789241      86.11408294
C      77.85191300      58.50485313      82.39321183
H      77.79900066      56.57166311      83.09996947
C      75.19306808      59.64057864      82.34407895
H      73.69073566      58.34989557      81.77716105
H      75.21952425      61.36022959      81.21024316
H      74.66772416      59.96750130      84.30939431
C      78.94228508      58.19115856      79.77972034
H      77.61947666      57.18393444      78.56084687
H      80.50130929      56.84756315      79.78538952
H      79.51676188      59.93726568      78.85186472
C      83.96895708      61.44526727      85.74180686
O      84.24296739      63.67892378      85.23158075
N      85.17649219      60.40402807      87.62775372
H      84.98751956      58.51808121      87.83562361
C      87.62368777      61.48873098      88.71056690
H      87.13802810      63.12901342      89.85763077
C      89.15814553      59.35900942      90.07116984
H      90.71528001      60.25473970      91.07839397
H      89.89702852      58.03053183      88.68033127
C      87.78431450      57.86045646      92.14419961
H      86.55977185      56.42426447      91.31838921
H      86.65047871      59.15680871      93.27236621
C      89.67970999      56.59811928      93.87707863
H      90.90425265      57.97761949      94.79359590
H      90.90425265      55.54365200      92.60151337
N      88.46461597      54.98618275      95.84806318
H      88.26430499      53.11535369      95.51547135
C      87.72573299      55.75152189      98.12140393
N      88.00919193      58.00785511      98.98311913
H      87.30999320      58.37446201     100.71788789
H      88.55721256      59.45349574      97.86629088
N      86.75819311      54.13013672      99.59350073
H      86.64669926      54.61201693     101.43598389
H      86.80165682      52.32544809      98.96989105
C      89.40758941      62.58099280      86.76792825
O      90.33166557      64.71071434      87.07217418
N      89.88569016      61.21094121      84.71001629
H      88.73673656      59.70860879      84.45868269
C      91.78864456      62.00084681      82.69556804
H      93.00751803      63.50506895      83.39854623
C      93.43081673      59.69727044      81.86975764
H      94.32276755      60.30954176      80.11609162
C      95.52841293      59.11901418      83.75570450
H      97.15924674      58.27430653      82.82595916
H      94.82732447      57.99840648      85.33740543
H      96.45059937      60.72906100      84.65143477
C      91.95871993      57.24629541      81.17811781
H      90.44693888      57.85478729      79.91767036
H      91.21794721      56.32410898      82.86564341
C      93.56876675      55.26019305      79.95168543
H      95.01440738      54.52319979      81.21969179
H      94.55898333      55.83844930      78.23959339
H      92.32532683      53.67849213      79.50948948
C      90.46583614      63.45404634      80.48647798
O      91.66014317      63.80931489      78.49659617
N      88.06966318      64.21182660      80.83607735
H      87.13046920      63.84144025      82.45368307
C      86.60890474      65.64990832      78.93312295
H      87.86746246      65.50817885      77.30984805
C      84.02942832      64.47449855      78.58541331
H      82.95417405      64.67291983      80.33152042
H      84.22784958      62.47516811      78.14132763
C      82.80866512      65.70660012      76.22136569
O      80.79232714      66.88578933      76.48781710
O      84.11068655      65.76896109      74.22959416
C      86.34056360      68.42402655      79.55484291
O      86.63158145      69.90557198      77.80306662
N      86.09489918      69.32542600      81.86597819
H      86.07411219      68.02907375      83.27004484
C      86.35946086      72.07497779      82.29305634
H      87.60101105      72.73260254      80.78694446
C      83.73085156      73.39778621      81.89999326
H      82.34568217      72.12977985      82.75037010
H      83.29810424      73.44502936      79.88554501
C      83.27353779      76.13222018      82.90154821
H      83.92171392      76.13977909      84.85552522
H      81.26475872      76.54418051      83.09241057
C      84.64736882      78.21280885      81.29906030
O      86.98118082      78.21091913      81.60708568
O      83.57967346      79.59230906      79.71546965
C      87.45172267      72.70236692      85.01804168
O      87.45928158      71.02995913      86.62241932
N      88.65925779      74.93602343      85.24858829
H      88.43627008      75.95458591      83.64987983
C      90.44882860      75.63333243      87.29327216
H      91.53353151      77.19424637      86.50147684
H      91.62423837      73.95336574      87.50114205
C      89.07310785      76.19647088      89.80660816
O      86.89236368      77.11109842      90.01636778
N      90.42426216      75.62010435      91.77003380
H      92.14958229      74.85287546      91.49413375
C      89.41325858      75.61443517      94.36840748
H      87.36479526      75.38577829      94.39108419
C      90.63780123      73.51116978      95.72901042
H      92.62957277      74.02139589      95.59483985
H      90.26552515      71.62711266      94.98634798
C      90.08789088      73.62455336      98.65808621
H      90.88157593      75.41412418      99.29681370
C      87.31377265      73.72092940      99.38752056
H      86.28009236      75.41034473      98.81682322
H      87.14558701      73.73793695     101.44165307
H      86.66748625      72.00127846      98.45777522
C      91.31432325      71.30207972      99.92987202
H      91.02330540      71.58931812     101.94809972
H      93.34010986      71.29452082      99.55570621
H      90.41859298      69.56542124      99.27980616
C      89.83844700      78.13155063      95.50035354
O      91.95871993      78.79673428      95.57216314
N      87.93927206      79.48270494      96.36395846
H      86.11946562      78.96303020      96.11640432
C      88.13202414      82.09052725      97.41464629
H      90.15403130      82.47414168      97.52991960
C      86.61268419      83.96702547      95.67609808
H      86.48040335      85.62620517      96.88741265
H      84.76264213      83.19790686      95.19232815
C      88.13202414      84.70401873      93.22701278
H      90.05576553      85.10086126      93.84306356
H      87.37424389      86.46146420      92.46356335
C      88.18871593      82.75004173      91.00469464
H      86.51252869      81.55762443      91.09918095
H      89.86679290      81.59352922      91.29004331
N      88.47217488      84.07473987      88.54994016
H      89.75151959      85.49203461      88.56127852
C      87.87502137      83.08641302      86.30494530
N      86.54843349      80.99448598      86.17077473
H      86.53520541      80.10442489      84.48135941
H      85.92671354      80.05340229      87.70712222
N      88.54776393      84.03694536      84.15065730
H      87.78998368      83.50404253      82.48202897
H      89.52664216      85.67533806      84.13931894
C      87.03976233      82.10753478     100.04136587
O      84.99885792      81.07952368     100.23978713
N      88.09233989      83.26782674     102.02557850
H      89.67404082      84.28449949     101.69298667
C      87.18149181      83.33207744     104.52379668
H      85.49774566      82.19824164     104.87528578
C      89.32255172      82.24170535     106.09604897
H      88.87846604      82.29272796     108.10860750
H      90.97984170      83.43790210     105.83904620
C      90.18237719      79.61498577     105.47810847
H      90.87590675      79.26349668     103.56948489
C      92.20816380      78.71169661     107.39996013
H      92.97917214      76.85598536     106.94642582
H      91.38991231      78.67201234     109.28968644
H      93.80498254      79.98537213     107.64751428
C      87.99407412      77.73470810     105.75400851
H      86.60512528      78.24115475     104.32159597
H      87.23629387      77.92179101     107.65885264
H      88.35690158      75.71081121     105.62172767
C      86.40481429      86.07218058     105.29858447
O      85.99096423      86.53138408     107.57948413
N      86.32544579      87.88820757     103.55814654
H      86.48229307      87.27026707     101.75912709
C      85.47695867      90.56783948     103.63562532
H      84.28832082      90.58106757     105.31748173
C      87.53676036      92.52937540     103.87184110
H      88.62146326      92.53882404     102.12195454
H      88.81421534      91.77159514     105.29858447
C      86.77142120      95.07861619     105.05292005
H      85.89269846      94.60429489     106.85571895
H      85.28987577      95.86663207     103.85861302
C      88.85389960      97.07227745     105.66708110
H      90.27875324      96.31071775     106.94642582
H      87.98084604      98.66531674     106.63462097
C      90.41292380      98.18910571     103.51279310
H      91.07999719      96.80960549     102.13518262
H      91.96060965      99.13207913     104.48789188
N      88.91059138     100.16575943     102.04447576
H      88.53831530     101.74179118     103.05547934
H      87.30054457      99.33427985     101.44543252
H      89.84033673     100.82149447     100.51379745
C      83.52676112      90.96657174     101.47944759
O      83.71573375      89.83651541      99.43665345
N      81.55199712      92.46701443     101.84038532
H      81.73341085      93.63486529     103.33893828
C      79.51109270      92.95078437      99.93554119
H      78.64559805      91.22546424      99.21366574
C      77.20751633      94.46445515     101.08638452
H      77.84057464      96.29748967     101.77991408
C      75.18550917      95.27136828      99.00768557
H      74.15560833      93.50447417      98.75824170
H      75.98108395      95.71167451      97.15953324
H      73.93262063      96.75102399      99.70499458
C      75.76565515      92.96023300     103.10083277
H      77.13759645      92.53504458     104.57670902
H      74.86803515      91.31806083     102.23533812
C      73.97986379      94.43232980     104.72788712
H      75.12881738      95.71923342     105.85038455
H      72.97263966      93.12841864     105.96565786
H      72.57957659      95.28837581     103.48633694
C      80.43327914      94.31894621      97.58283193
O      81.60868891      96.31827665      97.66786962
N      79.97029620      93.09818302      95.42665421
H      79.05377894      91.46168004      95.78570221
C      80.93216689      93.74257970      92.87174424
H      81.80144100      95.60396011      93.03615043
C      83.20739737      92.06072328      92.19333249
H      84.26942356      91.60718896      93.89975535
H      84.57933868      93.04716041      91.01603300
C      82.60457468      89.46990850      91.28437413
C      82.61402331      88.94645431      88.70678744
H      82.85401855      90.37697714      87.27248517
C      82.39481506      86.40666214      87.83373389
H      82.77465005      85.89265658      85.89487469
C      81.61624782      84.53583310      89.54015675
O      81.72018276      82.16422658      88.67466210
H      81.90159649      82.06029163      86.87186319
C      81.55955603      85.01771331      92.12152289
H      80.77531961      83.67222818      93.44055186
C      82.13214310      87.42522462      93.08339358
H      82.09434857      87.89576648      95.06760621
C      78.91582892      93.37030361      90.71367679
O      77.37570197      91.64876293      90.90075969
N      79.25597965      94.65720722      88.54616071
H      80.77531961      95.81183001      88.59529359
C      77.31523073      94.78759834      86.46557204
H      75.52377018      94.22068045      87.30838997
C      76.95240328      97.47100971      85.33929515
H      75.58424143      97.32739050      83.80672711
H      78.76465081      98.31949683      84.85363549
C      75.71274281      99.24924216      87.25169818
H      76.58957582      99.14341749      89.11118887
H      73.72475073      98.72011880      87.34051532
C      75.73730926     101.96855833      86.31250420
H      75.35936399     102.07249328      84.29049705
H      77.54388761     102.90586258      86.63186795
C      73.66616922     103.45766267      87.72412976
H      74.35213987     103.79970314      89.63842251
H      72.00698952     102.25012755      87.89987431
N      72.90083006     105.81793083      86.29549667
H      72.83091019     105.71210616      84.38876282
H      74.17261587     107.18609268      86.68478029
H      71.26054762     106.56248301      86.92477553
C      77.70073490      92.65787679      84.46813132
O      79.85691262      92.11363561      83.83696273
N      75.57668252      91.89253763      83.24925785
H      73.88348774      92.41977128      83.95412577
C      75.52377018      90.44689700      80.95324038
H      77.03555123      89.08062487      80.64710472
C      73.05200817      89.03527144      80.81151091
H      71.49298396      90.38075659      80.84552598
H      72.99531638      87.81261853      82.46880088
C      72.55689987      87.34018694      78.52494207
O      73.91750282      85.53171887      78.01660569
O      70.91472771      87.90143566      76.85820346
C      75.74675789      92.12686369      78.58163386
O      75.67305856      94.43988871      78.74981950
N      75.95084833      91.07050668      76.24971159
H      75.53132909      89.22802353      75.97759100
C      76.21163056      92.62575144      73.96125302
H      77.48719582      94.19989347      74.33919828
C      77.31712045      90.92310803      71.75027324
H      77.39270951      91.93411161      69.95692297
C      79.80022083      89.80250034      72.44380279
H      80.49564011      88.33229325      71.17768616
H      79.79455165      89.06172761      74.36565445
H      80.97752032      91.49191565      72.48726650
O      75.79778050      88.77259949      71.45169648
H      76.22485865      88.05639321      69.84164966
C      73.64538223      93.86541191      73.14300153
O      73.67561785      95.59640120      71.51594717
N      71.45518943      93.14920564      74.24093252
H      71.49109423      91.66766021      75.44279845
C      69.04389866      94.74035518      74.03495235
H      69.10059045      95.85529372      72.30585277
C      66.73654283      93.01503506      74.00849618
H      66.24332426      92.84873914      75.99837799
H      67.29023264      91.12530875      73.40378376
C      64.58225483      93.75202832      72.28884524
H      63.88494582      95.61718819      72.81796860
H      62.96275938      92.48969114      72.44191307
C      65.37593988      93.86919135      69.45236604
O      65.40428578      95.90820605      68.41112684
O      65.95041668      92.00214175      68.24294120
C      68.90594864      96.59606643      76.27049858
O      66.93874354      97.94344128      76.41789723
N      70.86748455      96.78692879      77.88243512
H      72.41706012      95.69655670      77.64055015
C      71.23409145      98.89019418      79.75137445
H      70.22686733     100.55882250      79.08619078
H      73.14649448      99.63663607      79.91011146
C      70.21552897      98.31382765      82.37809402
O      70.17206527      99.94088200      84.06939907
N      69.18184868      96.04048690      82.78438518
H      69.02122194      94.83295177      81.31606783
C      67.85904026      95.48679708      85.08229237
H      67.26944565      97.23857338      85.99503018
C      65.46853647      93.92966259      84.84985604
H      64.45564317      93.81060985      86.63753713
H      65.75388515      91.95111914      84.34718884
C      63.68841429      94.91421001      82.66533242
C      62.86827307      93.39487005      80.61686910
H      63.53156700      91.49002592      80.31073343
C      61.30357968      94.40965309      78.68934826
H      60.90295770      93.32495017      77.00560211
C      60.46832065      96.82283358      78.92556405
O      58.90929644      97.83761662      77.16055967
H      58.85449438      99.59506208      77.61031453
C      61.15618103      98.32138656      81.11197739
H      60.39084187     100.14497244      81.61842404
C      62.68496961      97.32550079      83.01304206
H      63.19141626      98.39508587      84.67789094
C      69.50877133      94.35485101      87.14776323
O      71.29834215      92.88086449      86.72635427
N      69.03067057      95.08995455      89.50803140
H      67.84581217      96.56772053      89.74235746
C      70.59347423      94.49091132      91.73790845
H      72.54745124      94.89909219      91.22957207
C      69.90183440      96.01214099      94.06227181
H      71.25298872      95.47923817      95.52114053
H      68.12171222      95.26191964      94.77658836
C      69.96608510      98.83161266      93.89219645
C      67.53967651     100.01458132      94.29659788
H      65.78978995      98.97523186      94.43265817
C      67.58691967     102.64697008      94.38163556
H      65.82947420     103.64285584      94.67643287
C      69.82624535     104.04158809      93.99802112
O      69.57680148     106.57571108      93.83361493
H      67.86281971     107.11806253      94.07927935
C      72.17328543     102.92475984      93.70889299
H      73.95907680     103.88663055      93.93377042
C      72.17895461     100.28292246      93.50291283
H      74.01009941      99.38341273      93.55960461
C      70.44796531      91.67899857      92.41632020
O      68.40895062      90.58484703      92.76214011
N      72.60225330      90.50358879      92.82072163
H      74.15749806      91.49191565      92.31994415
C      72.95941158      87.75592674      93.37441144
H      71.15094350      86.96791086      93.96589577
C      73.90805419      86.30650665      90.97445902
H      73.71530210      84.29961730      91.39019881
C      72.27722038      86.77704850      88.60663195
H      72.62870947      85.23503184      87.28949271
H      72.76665949      88.67433372      87.97546336
H      70.31757419      86.85263756      89.24346972
O      76.38548538      86.69768000      90.24124521
H      76.80122517      88.42111039      90.63052883
C      74.91716804      87.27215680      95.60995766
O      76.30800660      88.94834404      96.34128175
N      75.32912837      84.89866054      96.46033450
H      73.80789869      83.82718572      96.03136663
C      77.31712045      83.91600286      98.13085257
H      78.92905700      85.03283111      97.50346343
C      76.90704984      84.33552210     100.98622902
H      76.13415178      86.24225596     101.04103109
C      74.90205023      82.52894376     101.99534288
H      74.93039612      82.67445267     104.04947538
H      75.37637153      80.57685647     101.54369829
H      73.02744172      82.88232258     101.21677563
C      79.53187969      84.62842969     102.36006005
H      80.98318950      85.57707229     101.25079071
H      80.30099830      82.77082873     102.80981492
C      79.41849611      86.14021073     104.93386729
H      79.41660639      88.13954118     104.44064872
H      81.02476348      85.75659629     106.16596885
H      77.64593283      85.72069149     105.89762771
C      77.94828904      81.13432574      97.34661615
O      76.70673886      79.85309129      95.88396798
N      79.81344891      80.02694612      98.60517387
H      81.17216213      81.04361887      99.48389661
C      80.69784083      77.44180051      98.21022107
H      79.14637553      76.36465651      99.03225202
H      82.30977737      76.97125866      99.40452810
C      81.36869367      76.74827097      95.45877956
O      82.61969249      78.25438284      94.21156019
N      80.99830731      74.28217813      94.86918495
H      80.09312841      72.99527450      95.95010840
C      81.09468335      73.66423762      91.98168314
H      82.68961236      74.48437884      90.97067957
C      81.49719506      70.91846528      91.58106116
H      80.02131881      69.95470486      92.64497708
C      81.29499434      70.23060490      88.74836142
H      81.44995190      68.18592103      88.51781481
H      82.81622403      71.30963863      87.87908732
H      79.44873174      70.87689131      88.10585448
C      84.00108242      70.03029392      92.67332297
H      83.93305228      69.94714597      94.72934520
H      85.40136962      71.51183934      92.38230512
C      85.05932916      67.46026613      91.79648996
H      83.87069131      65.81431452      92.13286125
H      86.72606777      67.13712294      92.96056137
H      85.46562032      67.50372984      89.77637254
C      78.66449532      74.73004325      90.73635350
O      76.69540050      73.47904443      90.63619801
N      78.74575355      77.08464224      89.60440744
H      80.35391064      78.07674855      89.87841776
C      76.72185667      78.22225749      88.06239077
H      76.48753060      77.00716347      86.41454942
H      77.32656909      80.11198380      87.50870096
C      74.13293162      78.62287946      89.37953001
O      72.37737587      79.48837411      88.11908256
N      73.70585347      78.33942052      91.83995367
H      75.24787014      78.03895404      92.92276685
C      71.09614143      78.40367122      93.13063674
H      69.69774396      77.12432649      92.32183388
C      71.36637229      77.39644708      95.84806318
H      72.50587726      78.68146097      96.98567842
H      72.19029297      75.51238996      95.70633371
C      68.82469040      77.08653197      97.06693665
N      67.27322510      74.89822890      96.94788389
H      67.55668405      73.22582112      96.07294061
C      65.19074670      75.26483581      98.38596562
H      63.44652932      74.20847880      98.50501838
N      65.43452140      77.51738957      99.57082402
H      64.07958763      78.35453832     100.62151185
C      67.65683954      78.72114523      98.68076292
H      68.30690539      80.52772359      99.37618221
C      69.82813508      81.03983942      93.24402032
O      70.63504821      82.78405680      94.66698423
N      67.73053887      81.36676207      91.85696121
H      67.28456346      79.91545226      90.69855898
C      66.31702359      83.69490488      91.60373788
H      67.64361146      85.26337772      91.45633923
C      64.70130759      83.53616788      89.20189574
H      63.46920603      81.97525394      89.73479856
H      66.03167491      83.01649314      87.71468113
C      63.02889980      85.86431070      88.51403536
H      61.60593589      86.26493267      89.94833763
C      64.75233020      87.99214252      87.65043043
H      66.27167016      87.30050269      86.44289532
H      65.55357416      88.98802829      89.26614643
H      63.53345673      89.28660505      86.61108096
C      61.48310368      84.82874067      86.31061448
H      60.14328772      86.23847650      85.63787191
H      60.20753842      83.31506989      86.87753237
H      62.67930043      84.17111592      84.76670808
C      64.64083635      84.20891045      93.87518891
O      62.88339088      82.73681364      94.39297392
N      65.26822548      86.31595529      95.02792196
H      66.69685858      87.43089380      94.43076844
C      64.02667530      87.21357529      97.40897711
H      63.18196763      85.70557369      98.52769509
C      65.98065230      88.54772205      99.05492873
H      64.95453091      89.72313182     100.39852414
H      67.04078876      89.94800926      97.97778473
C      67.84959163      86.84696838     100.33994263
H      68.88327192      85.67155861      99.00012667
C      69.84892207      88.46646383     101.37551264
H      70.69740918      89.63431468      99.90530557
H      71.24542981      87.11530951     102.06148330
H      69.07035482      89.65132223     102.87028616
C      66.81591133      85.07251537     102.50745871
H      65.71420089      85.98714290     103.98900414
H      68.43540678      84.13710084     103.36917391
H      65.46286729      83.79695010     101.62117707
C      61.80057770      88.96157213      96.73056537
O      59.67841505      88.85196799      97.71889223
N      61.99332978      90.50736824      94.70099931
H      63.63550195      90.67366417      93.73912861
C      59.80880616      92.04371573      93.75046697
H      58.17608263      90.85507789      93.35929363
C      59.01134166      94.06761262      95.67609808