 %block lattice_cart
   137.793   0.000   0.000
   0.000 143.498   0.000
   0.000   0.000   162.326
 %endblock lattice_cart

 %block positions_abs
N      85.93427244      37.57991368      79.73814637
H      87.31755210      36.54245393      78.92934351
H      84.30154890      37.14905607      78.84808528
H      85.55632718      36.91661973      81.48803294
C      86.52008760      40.33891409      79.61342443
H      88.40036528      40.55245317      80.43167593
C      86.62591227      41.14015804      76.75615825
H      84.80610583      41.85447459      76.10609240
H      87.07188768      39.51688315      75.57129984
C      88.47406460      43.12626041      76.13065884
H      88.31532759      43.47019059      74.10676195
H      90.36001146      42.30045001      76.07774649
S      88.35879130      45.97974714      77.84464060
C      90.40914435      48.01876182      75.76783139
H      90.89858346      49.82345045      76.63143631
H      89.29987500      48.29655159      74.05384962
H      92.09666994      46.95295618      75.25760528
C      84.80988528      41.91494583      81.41055415
O      83.05055008      43.13381931      80.46569100
N      85.13113876      41.80912117      83.94467714
H      86.36701976      40.54678398      84.66466286
C      83.35101657      42.97319257      85.81361646
H      81.62569644      41.85825405      85.66243836
C      84.22407013      42.77288159      88.60285250
H      85.92482381      43.84813586      89.03937928
H      84.56800031      40.74142579      88.66521347
C      82.29843901      43.33979947      90.59840349
O      80.12147430      43.49286730      90.12030273
N      82.97118158      43.66105295      92.93977439
H      81.52554095      43.50420567      94.17565540
H      84.84579008      43.48341868      93.26102787
C      82.55544179      45.75297998      85.12575609
O      84.06722284      47.40460077      84.86497386
N      80.11958457      46.11580742      84.83662795
H      79.04244057      44.53977569      84.85363550
C      79.07078647      48.62158453      84.25081280
H      79.90037632      49.26787092      82.48013925
C      76.22674837      48.54599546      83.70090244
H      75.97919422      47.02854524      82.33085087
C      74.58268648      48.06600498      86.08951651
H      74.15749806      49.80833265      87.10240981
H      75.48786538      46.70162259      87.33862559
H      72.72319578      47.56522752      85.35441297
C      75.17983999      50.89492527      82.23447483
H      76.53855321      51.41648973      80.77749583
H      75.16850163      52.46717757      83.56484215
C      72.38682450      50.64548140      81.27449386
H      72.23564640      49.06755993      79.96113406
H      72.07124021      52.31222002      80.11042244
H      71.24165035      50.70028346      82.98658590
C      79.63014546      50.56800262      86.28415831
O      79.81533864      52.88480708      85.65676918
N      80.22918870      49.65337509      88.63686757
H      80.24808596      47.77687685      88.98268748
C      80.75453261      51.49396851      90.67210282
H      79.69817561      53.25330372      90.48124046
C      80.11958457      50.54154646      93.36307308
H      81.23263337      51.50341715      94.80493426
H      80.79799632      48.63481261      93.74479779
C      77.31523072      50.31855874      93.96589578
C      76.20596138      51.90970831      95.85184263
H      77.32467936      53.21172973      96.95355308
C      73.53766783      51.66782334      96.45655505
H      72.71185743      53.18149411      97.55070660
C      72.11659364      49.82911963      95.33405762
H      70.09647621      49.56455795      95.45688983
C      73.28066505      48.13970432      93.75235670
H      72.34525052      46.43328145      93.14008537
C      75.79400104      48.51198040      92.90575931
H      76.60091418      47.11358293      91.65665023
C      83.57211455      52.57867143      90.66643364
O      84.15037080      54.40603677      91.85696121
N      85.15570520      51.51664523      88.89764981
H      84.76831130      49.92738541      87.91121267
C      87.60479050      52.59945841      88.20412024
H      88.40225500      53.91659765      89.57039237
C      89.65325382      50.50375193      87.92633048
H      91.02708485      51.66404388      86.92288581
H      88.99373934      48.98252224      86.70367755
C      90.32410666      49.71006688      90.60407267
H      88.77075163      48.68205577      91.48279541
H      90.97984169      51.27853972      91.76625435
C      92.47461521      47.86191454      90.89886997
O      92.20438434      45.67739092      91.62074542
O      94.64213129      48.66315849      90.42454867
C      87.44983294      54.27186620      85.86652880
O      88.21895155      56.48095626      85.99880964
N      86.34056360      53.11346397      83.88609562
H      85.88324983      51.28987807      84.21301827
C      85.94372107      54.20761550      81.46724595
H      87.70683572      54.40792649      80.42600674
C      84.31855644      52.32166865      80.02160532
H      82.38347670      52.87535845      80.45435264
H      84.95161476      50.38469918      80.33341015
C      84.60201539      52.98685230      77.20780283
H      86.30654852      52.18749808      76.37443353
H      84.77209076      55.03531563      77.06796309
S      82.23229859      51.98340763      75.12532443
C      79.87580988      54.34934498      75.23681828
H      78.40938226      54.01297369      73.83086191
H      80.89059291      56.11623908      74.92690318
H      79.01787413      54.36446279      77.11142679
C      84.66815581      56.77386384      81.50126101
O      85.64892377      58.59744972      80.48080880
N      82.71039935      57.03653579      82.99603452
H      81.79199236      55.62868968      83.89932371
C      81.53309986      59.47239302      83.41366405
H      81.85624305      60.43426370      81.62031377
C      78.78921725      59.23617722      84.00703811
H      77.92372260      61.08810900      84.25459226
H      78.79110698      58.33477776      85.85896990
C      77.12247864      57.83400030      82.03605357
H      77.88781780      55.93104589      81.83007339
C      74.71118787      57.44849612      83.39476679
H      73.36192328      56.18804867      82.48202898
H      73.63782332      59.20027243      83.54594488
H      74.80945363      56.49418435      85.21646295
C      76.78610736      59.06043268      79.50193058
H      75.66927911      57.88124346      78.23770368
H      78.65126723      59.37223752      78.68367909
H      75.80344967      60.86701103      79.63421141
C      82.87669526      61.30731727      85.22591157
O      82.41182259      63.57498883      85.20890404
N      84.77398048      60.32276985      86.67155220
H      85.33522920      58.53319904      86.31817339
C      86.38969648      61.89880160      88.32506274
H      85.21617644      63.26507373      89.32661768
C      87.45361239      60.10356160      90.44722538
H      89.19216060      59.13980118      89.91054311
H      86.08545054      58.56721410      90.54171170
C      87.75596860      61.42448030      92.91520795
H      85.90781627      61.59077620      93.81093822
H      88.40792418      63.36333948      92.68466134
C      89.15625580      59.93348624      94.94288427
H      88.99940852      60.96527680      96.71922702
H      91.12724035      59.59144577      94.45911435
N      87.90714671      57.53731327      95.11106992
H      86.79787736      57.08188922      93.62385532
C      88.29265088      55.62679997      96.65119687
N      89.68348944      55.74207327      98.65052730
H      89.80821138      54.19060796      99.75601719
H      90.79842797      57.22550843      99.09272327
N      87.07755686      53.46684278      96.38663519
H      87.75029943      52.04387887      97.46755864
H      86.12135534      53.13425095      94.76713974
C      88.47784406      63.30853742      86.78682552
O      89.72317370      64.80331093      87.90365377
N      88.97862153      62.57154416      84.33396076
H      87.82399875      61.23928712      83.59885723
C      90.81732523      63.72049776      82.53494131
H      91.83021853      65.26251443      83.44956885
C      92.82043512      61.67392417      82.01526657
H      94.12245655      62.50351402      80.65088418
C      94.32087782      60.78575280      84.31128405
H      93.08310708      60.40591781      85.91188222
H      95.19393137      62.56209553      84.88387112
H      95.69470884      59.37601696      83.70468190
C      91.43148628      59.38357587      80.76426776
H      90.14647239      59.94482458      79.25626616
H      90.04820662      58.44438189      81.96802342
C      93.47805988      57.72628590      79.56807099
H      94.32654699      56.56410422      81.04394724
H      94.83488337      58.67492850      78.33974889
H      92.41603369      56.22017402      78.65155374
C      89.53798052      64.82598766      80.11231217
O      90.74173618      66.31320227      78.81029075
N      87.16259454      64.48205746      79.58696826
H      86.25930536      63.19704358      80.67545062
C      85.55632718      65.91258028      77.81818444
H      86.24418755      65.64801861      75.89255332
C      82.90882061      64.68992737      77.87865568
H      82.24174722      64.73906024      79.82696350
H      83.13369804      62.83610584      77.00749185
C      81.11547034      65.86155768      75.92089922
O      79.04055085      66.81586946      76.88843909
O      81.71262386      65.91447002      73.66456600
C      85.37491345      68.68669851      78.53817016
O      85.44105387      70.14367749      76.73159181
N      85.43349497      69.31786711      80.91544586
H      85.50719429      67.77396071      82.03794328
C      85.42404633      71.88033598      81.92644943
H      86.33489442      72.98393615      80.44490400
C      82.77465004      72.75149981      82.54250022
H      82.17560680      71.92757914      84.33396076
H      81.45751080      72.00127847      81.14599247
C      82.12458419      75.57097147      82.76359820
H      82.84268019      76.08308730      84.62308889
H      80.07234142      75.75616465      82.69745778
C      83.29810423      77.26605598      80.56773621
O      85.59601143      77.84431223      80.91544586
O      82.12836364      77.91234238      78.71202498
C      87.29865484      72.18836137      84.05428127
O      88.14147277      70.21737683      84.92166565
N      88.22084128      74.44658431      84.53805120
H      87.45739185      76.00371879      83.73869697
C      89.93104359      75.06452481      86.60352207
H      90.87968620      76.74260179      85.87975689
H      91.23306502      73.57542048      87.17421941
C      88.54398448      75.85820988      88.99780530
O      86.49741088      76.96558949      88.94111351
N      89.72695315      75.42357281      91.27492550
H      91.30298489      74.35398772      91.13697549
C      89.05421058      76.23048596      93.86574029
H      87.01330616      76.00560853      94.01313894
C      90.26930460      74.33320073      95.65720083
H      92.31587820      74.34642881      95.43610285
H      89.73073260      72.42079771      95.10918020
C      89.90458742      74.42390760      98.56548962
H      90.18804637      76.35709761      99.22122466
C      87.16448427      73.86643833      99.10973080
H      85.87191147      75.26294609      98.31982521
H      86.74496503      74.63366722     100.97489067
H      86.71283968      71.85765926      99.03981092
C      91.24440338      72.28284769      99.94310010
H      90.67559576      70.48004879      99.12673833
H      90.69071357      72.43969497     101.91975383
H      93.28719752      72.55874772      99.96766655
C      89.64380519      78.93468430      94.74635274
O      91.77541647      79.73214881      94.72934521
N      87.74651997      80.22914683      95.84050428
H      86.09678890      79.28239394      96.00302075
C      87.54998844      82.74059310      96.87229484
H      89.48884763      83.40577677      97.08205446
C      86.05332520      84.35063992      95.05626786
H      85.53931964      86.20635117      95.78192277
H      84.30910781      83.31884935      94.69155068
C      87.62179804      84.86275575      92.65064627
H      89.59845176      85.01204413      93.21000525
H      86.95283492      86.72980534      92.09128727
C      87.19849934      83.16200206      90.33195208
H      85.42404633      82.13966014      90.56816787
H      88.47595433      81.55573470      90.14486917
N      87.40070006      84.44323651      87.88097705
H      88.32288650      86.11564430      87.86019006
C      86.83567189      83.29995210      85.60574657
N      86.00986149      80.99637571      85.42244312
H      85.48451758      80.31985370      83.71602026
H      85.80955050      80.07418928      87.08162282
N      86.94905547      84.49992829      83.49492228
H      86.25741564      83.88576725      81.82629395
H      87.34400827      86.35374981      83.71413053
C      86.25552591      82.69712939      99.40830756
O      84.48107290      81.34975453      99.98089463
N      87.16259454      84.43567760     101.05236944
H      88.91248111      85.05172838     100.60639404
C      86.49552115      84.30717621     103.75845752
H      85.10279286      82.79539517     103.88506919
C      88.85389959      83.71569188     105.26834885
H      88.14903168      83.91600286     107.19397996
H      90.23339980      85.22558320     105.00945635
C      90.02364018      81.02472160     105.06803787
H      91.39747121      80.70913731     106.57037028
C      87.87124191      78.96680965     105.58015370
H      87.13235892      79.04617816     107.50011563
H      88.38713719      77.05818608     105.00000771
H      86.32922524      79.12554667     104.22333020
C      91.58455411      80.52394413     102.67564436
H      92.85822965      82.12076287     102.40919295
H      90.39591626      80.10820434     101.04859000
H      92.64658030      78.80996237     103.10083278
C      85.14814629      86.68445192     104.83938099
O      83.68549813      86.64476766     106.62706207
N      85.47695867      88.82551183     103.43720405
H      86.90748149      89.01637418     102.18620524
C      84.02375914      91.19522862     103.51846228
H      82.91637952      91.04216080     105.24945159
C      85.87947038      93.48557691     103.86428220
H      87.12480002      93.77470504     102.24856621
H      87.16637399      93.24747140     105.45732149
C      84.34690234      95.88363961     104.54080423
H      83.59290154      95.50191489     106.41919218
H      82.83512128      96.23134925     103.18587045
C      86.19694440      98.13241393     104.32915488
H      86.78653901      98.04548651     102.35628060
H      87.71439463      97.74879947     105.66708111
C      84.92515859     100.67976499     104.99433853
H      83.97273653     100.27725329     106.77635045
H      83.67038032     101.23345481     103.45988078
N      86.83756162     102.54681458     105.45921121
H      85.85490393     103.97166823     106.26234489
H      87.55754734     103.18176263     103.80948014
H      88.04509673     101.91753572     106.79902716
C      82.27009312      91.37853208     101.28291606
O      83.10346242      90.56783949      99.24012192
N      80.10824622      92.67866378     101.71944283
H      79.44495228      93.15676454     103.44287324
C      78.21663018      92.91298984      99.58405210
H      77.60246912      91.01948408      99.05870819
C      75.78833186      94.40587364     100.41553169
H      76.51020732      96.16898829     101.19976811
C      74.00443022      95.10318265      98.31793547
H      73.46207877      93.40431868      97.28614491
H      74.67528307      96.31827667      96.79670580
H      72.45107520      96.38063762      98.76580062
C      74.29355835      93.05471931     102.56037104
H      75.62203595      92.31772606     103.95309934
H      73.44129178      91.37097317     101.73456065
C      72.32824298      94.75925245     103.86239248
H      71.83313469      94.10918660     105.75589824
H      70.55190025      94.64208942     102.82871219
H      72.81957183      96.75669317     103.76601643
C      79.50920297      94.01470029      97.24835038
O      81.06633746      95.85151426      97.34283670
N      79.04622003      92.93188710      95.02603224
H      77.72530133      91.55427662      95.09028294
C      80.12525375      93.79738176      92.58072639
H      80.81311413      95.72679232      92.79804492
C      82.27009312      91.95489861      91.77759271
H      83.54943783      91.77348488      93.38386008
H      83.27164806      92.93188710      90.26770138
C      81.48396697      89.26581806      90.82706037
C      81.95072937      88.83496046      88.27970930
H      82.73307606      90.26548328      87.04949747
C      81.33845805      86.44823612      87.24035982
H      81.64648343      86.05139360      85.25992666
C      80.66004630      84.48103104      88.78426622
O      80.18761472      82.04706355      88.01892706
H      80.34824146      81.92234161      86.21612817
C      80.33690310      84.87409411      91.41665498
H      79.93628112      83.34530552      92.71111751
C      80.75831207      87.34774585      92.35017978
H      80.60524424      87.65199179      94.36084858
C      77.78199312      94.17343730      90.79493503
O      75.65794075      94.35674074      91.67554748
N      78.33190348      95.00302715      88.43844630
H      80.11769485      95.01058606      87.76381402
C      76.26076344      95.49813545      86.49769738
H      74.38237549      94.92365864      87.12130706
C      76.25698399      98.33461464      85.93833840
H      77.27176702      98.82783320      84.21301827
H      77.06389713      99.27569834      87.58240029
C      73.62081578      99.40419973      85.42622257
H      72.39816286      99.16042504      87.06650500
H      72.79878484      98.15320092      84.00892784
C      73.51121166     102.10839809      84.27537924
H      71.62337507     102.54114541      83.57995996
H      74.96441119     102.32004743      82.83162834
C      74.39560357     103.92253535      86.32951175
H      76.20029220     103.20254962      87.00981322
H      72.95563212     103.57293598      87.76003456
N      74.78110774     106.51523984      85.29772118
H      75.94517915     106.48122477      83.78594012
H      75.24031123     107.73033387      86.69611864
H      73.15783284     107.14451870      84.51348476
C      76.74075393      94.11863523      84.04105318
O      78.90071110      94.04493590      83.25114758
N      74.85858652      92.83929051      83.07162358
H      73.29200340      92.70134050      84.15065730
C      74.91905776      91.71868281      80.49592662
H      76.76532037      90.81161418      80.38821221
C      72.65516564      89.85541267      80.33152043
H      70.93740442      90.83051145      79.74570528
H      72.41139094      88.85952690      82.11731180
C      72.93295540      87.94867883      78.20935778
O      71.50999149      88.02615760      76.38388215
O      74.68095224      86.40477243      78.49659618
C      74.64882690      93.67265983      78.36431534
O      73.77010416      95.80238138      78.76871677
N      75.38015098      92.77503982      76.13065884
H      76.09257780      91.01003544      75.98514991
C      75.34046673      94.26225443      73.76472148
H      76.23808673      96.00647181      74.38833118
C      77.06200740      93.01314533      71.92412807
H      76.67272378      93.74257969      70.03629147
C      79.94195030      93.26069949      72.68946722
H      80.16115855      95.28081692      73.03150769
H      81.03232238      92.88653368      70.98304436
H      80.21785034      92.20812194      74.43746406
O      76.47619224      90.49791962      71.85231846
H      78.12025413      89.90076611      71.37232798
C      72.67028345      94.99924770      72.69513640
O      72.44918547      96.31071776      70.72793130
N      70.71819617      94.03359754      73.97448112
H      71.03000101      92.78826790      75.38799640
C      68.03856425      94.80460589      73.91212015
H      67.91384232      95.84206564      72.13577740
C      66.33592085      92.38953566      73.81007492
H      65.62538375      91.85474311      75.66767589
H      67.39416758      90.72846623      73.21292141
C      63.95108624      92.73346585      72.17357193
H      63.00433336      94.52114693      72.56285555
H      62.52245315      91.33128892      72.66490078
C      64.82791925      92.86385696      69.50527838
O      66.09025643      91.11397039      68.59443029
O      64.33281095      94.76303190      68.09554256
C      67.19574632      96.62630205      75.94735539
O      65.03011996      97.18755076      76.47647875
N      69.02689112      97.44077409      77.58952754
H      70.84480783      96.89275346      77.38543711
C      68.83602876      99.53648058      79.37153946
H      67.69085461     100.99156984      78.46825028
H      70.73709343     100.24512793      79.71546964
C      67.65872927      98.88641473      81.90566245
O      67.46597718     100.53992525      83.52893735
N      66.93685381      96.55071299      82.41021937
H      67.37904977      95.26191966      81.07418286
C      65.88805571      95.47923818      84.75348000
H      64.85815487      96.89842264      85.83251372
C      63.90006363      93.33250908      84.27915870
H      63.01000254      93.05660904      86.11408295
H      64.83169870      91.52215127      83.96546412
C      62.02923458      94.03926673      82.20045975
C      62.15773597      92.47646306      80.09530464
H      63.78101087      91.24436152      79.98947997
C      60.26045075      92.39331510      78.31896190
H      60.34170898      91.05160943      76.78261441
C      58.38962170      94.23579826      78.36998451
O      56.71343446      94.37374829      76.40088970
H      55.46621509      95.55671696      76.98292541
C      58.41229842      96.01969991      80.39766085
H      56.90240709      97.39353094      80.39199167
C      60.11872128      95.77781494      82.45746252
H      60.20375896      97.00613703      84.08451688
C      68.04801289      94.83673124      86.61297070
O      70.17962417      94.10729688      85.76448357
N      67.65683954      95.01058606      89.10551969
H      65.88805571      95.28459636      89.76692390
C      69.62026518      94.27170306      90.97634874
H      71.29456269      95.23546348      90.26770138
C      69.33491650      95.45656146      93.56338408
H      70.70118863      94.77814972      94.94666374
H      67.56235322      94.64586887      94.22289856
C      69.25365827      98.36485025      93.48023611
C      67.10881891      99.73490183      94.01124920
H      65.29657137      98.99034966      94.58383627
C      67.15795179     102.52791733      93.84873275
H      65.57058169     103.76001888      94.20967047
C      69.50310215     103.67309148      93.10040113
O      69.59569874     106.22611173      93.14575455
H      67.93840876     106.78736044      93.63330395
C      71.66494905     102.22745084      92.50702707
H      73.36003355     103.22522634      91.96467562
C      71.55723465      99.60073127      92.56182913
H      73.20885545      98.54248453      91.99302151
C      69.93207002      91.39742935      91.26925633
O      68.09525604      89.92533255      91.07650424
N      72.14116008      90.45256618      91.89853519
H      73.59058016      91.56561498      92.45789418
C      72.88193279      87.75781646      92.00435986
H      71.22275309      86.54272245      92.14608933
C      74.52410496      86.94901361      89.66865814
H      76.46107443      87.25892871      90.29604728
C      74.23686656      84.27127142      88.74836142
H      74.93039612      83.88387753      86.84729676
H      72.35847861      83.45490964      88.96190049
H      75.18739890      83.07696438      90.13164108
O      74.25198437      88.71968716      87.61263591
H      75.14960437      87.92033292      86.25392269
C      74.22552820      87.18333967      94.46100406
O      75.30834138      88.97102076      95.53625835
N      74.43528782      84.89299138      95.26980694
H      73.64538222      83.53427816      94.18888349
C      76.31178605      84.21835907      97.38252094
H      77.73663969      85.70179423      97.50724288
C      74.89071187      84.53961255      99.89963640
H      73.94584871      86.36886763      99.82404734
C      72.48697999      82.84074860      99.79381172
H      71.06968526      83.56073432      98.48234167
H      71.42495381      83.00515479     101.55125720
H      72.84791772      80.81496198      99.72011240
C      76.48375115      84.04639399     102.33738335
H      77.20562660      82.13021151     102.57359913
H      75.31023111      84.13521113     104.02868840
C      78.70606929      85.97958400     102.59060666
H      77.99175274      87.90710484     102.45454638
H      80.08179005      85.62809491     101.09772288
H      79.62825573      85.82840590     104.42553091
C      77.28499510      81.53305798      97.07449557
O      76.29288879      80.11198380      95.53625835
N      79.47518790      80.78283665      98.28769985
H      80.52020655      81.98281285      99.34216713
C      80.19328390      78.10131501      98.39163480
H      78.53410420      76.97692785      98.86595610
H      81.52554095      77.66856767      99.90341586
C      81.11547034      77.18101828      95.83294538
O      82.27765202      78.73248359      94.57060820
N      80.69406137      74.78673506      94.95800209
H      80.22540925      73.46959581      96.25813380
C      80.92271826      74.03651371      92.25758319
H      82.46284520      75.11932688      91.41854471
C      81.67671906      71.22649068      91.99113177
H      79.90037632      70.26461998      92.38419486
C      82.41182259      70.74272075      89.18866766
H      83.49463577      72.19592027      88.20978942
H      80.69028192      70.81453035      88.06239077
H      83.51542276      69.00417254      89.23024163
C      83.79510225      70.62933717      93.72212108
H      83.60990907      71.29263109      95.66475974
H      85.35601619      71.78962911      93.04748878
C      84.53776469      67.70404082      93.91109372
H      82.83134183      66.63067628      94.33250269
H      86.01364094      67.61522369      95.34728571
H      85.41270798      66.77429549      92.29726745
C      78.51709666      74.58453434      90.72690488
O      76.70673885      73.09731973      90.69288981
N      78.39237472      76.77094768      89.37575057
H      79.91738386      77.91612183      89.38330946
C      76.56122993      76.95803058      87.34996396
H      76.90138066      75.27617416      86.21234872
H      77.15082454      78.56807740      86.20856927
C      73.79845006      77.27550461      88.28915794
O      71.87281894      76.89189017      86.88320155
N      73.45074041      77.74793619      90.74391241
H      75.02677216      77.92179100      91.80782833
C      70.92039688      77.71392110      92.10073591
H      69.72042067      76.26261131      91.26736661
C      71.04511882      76.99204565      94.92776647
H      72.11659364      78.34319998      96.05593307
H      72.17895461      75.27617416      94.80682399
C      68.59225406      76.56118806      96.38852490
N      67.26944564      74.34453909      96.68710167
H      67.92140122      72.68346966      96.01246937
C      65.08870148      74.89444946      97.78314293
H      63.73187799      73.51116978      98.42187043
N      64.98854598      77.32652721      98.46911358
H      63.55991289      78.13344036      99.44610209
C      67.19007714      78.38855341      97.52614014
H      67.87226834      80.30662562      97.66409017
C      69.59758846      80.34630986      91.93632971
O      70.38560433      82.14532931      93.20433608
N      67.64928063      80.63543799      90.34329044
H      67.01055314      79.09342132      89.42110399
C      66.05246190      83.06373630      90.12408219
H      67.35070388      84.58685571      89.64031225
C      63.96620405      82.50815676      88.12853120
H      63.24054915      80.62976882      88.55182989
H      64.84492679      82.42500881      86.26715078
C      61.68530439      84.35441937      88.01136817
H      60.64973437      84.49425913      89.78771090
C      62.49032780      87.00003621      87.07973310
H      60.82358919      87.89198703      86.26337133
H      64.09092599      87.08129444      85.78716030
H      62.85693470      88.19623297      88.71812580
C      59.79935753      83.53049871      85.86085961
H      59.23621909      81.61620594      86.36919599
H      60.64784464      83.47191718      83.98436140
H      58.11183193      84.66433449      85.53015751
C      64.84681651      83.67978708      92.69599969
O      63.59203824      81.98470258      93.70322382
N      65.03200969      85.97202509      93.45000049
H      66.03167491      87.27404652      92.47679145
C      64.30824451      86.78649713      95.98034403
H      64.05502119      85.00826467      96.98945787
C      66.59670308      88.19434324      97.16709214
H      66.74977091      89.96690653      96.12774268
H      68.31635402      87.07184581      97.01969349
C      66.21686809      88.70456935      99.91286449
H      64.64272607      90.02737777     100.04514533
C      65.89561462      86.45957448     101.73078120
H      66.87071339      84.75315162     101.10528179
H      63.93596843      85.84163398     101.58905173
H      66.19797083      86.82807112     103.73389108
C      68.36737663      90.20879150     100.95977285
H      70.11537347      89.11652968     100.90875025
H      67.77967175      90.82295254     102.83627109
H      68.38438417      91.81127940      99.66531034
C      61.75522426      88.22457887      96.17687557
O      59.81258561      87.14365542      97.13874626
N      61.52467765      90.40154358      94.82005206
H      62.96464910      90.87964433      93.66164984
C      59.48188351      92.22890892      94.77847809
H      57.70365105      91.23491287      95.07327539
C      59.74833492      94.24902635      96.97245034