 %block lattice_cart
   137.793   0.000   0.000
   0.000 143.498   0.000
   0.000   0.000   162.326
 %endblock lattice_cart

 %block positions_abs
N      86.31883175      39.24759714      77.49031691
H      84.95633908      38.21013740      78.33313485
H      87.36196067      37.81140515      76.79111817
H      85.39097613      40.29261579      76.19018521
C      87.52258741      40.72536312      79.52744187
H      88.66587183      39.35531154      80.55734272
C      89.08917052      43.04594703      78.71863901
H      87.92698884      44.52749246      77.88149026
H      90.39119195      42.48658804      77.22575523
C      90.35528715      44.42544724      80.81056605
H      91.30581949      42.99114497      81.94062238
H      88.96444859      45.27771381      82.06723404
S      92.22800593      47.01437229      79.56334667
C      93.79269932      48.17277452      82.42250259
H      94.03836374      50.21556866      82.53399644
H      95.78069140      47.69278404      82.65871839
H      92.46989090      47.95734572      83.98530625
C      85.33995352      41.55873242      81.26221064
O      83.18944497      41.92533933      80.37592899
N      85.76514194      41.64754956      83.74909046
H      87.39597575      41.07496249      84.55600359
C      83.74880396      42.64532505      85.51598456
H      82.05182973      41.48503310      85.38559345
C      84.75791781      42.65477369      88.18427811
H      85.97868101      44.31017394      88.10113017
H      86.00135773      41.05417550      88.56033365
C      82.65465243      42.90988674      90.16849074
O      80.53248978      43.62798274      89.74897151
N      83.24424704      42.60753053      92.55710480
H      81.74758380      42.57351545      93.74007348
H      85.02247950      42.25037225      93.15425833
C      82.98157508      45.24180901      84.65048991
O      84.53681983      47.02382092      84.37836932
N      80.62319664      45.82573444      84.14593299
H      79.38542590      44.39332189      84.37836932
C      79.63298005      48.34662934      83.59602263
H      80.52682060      49.08362260      81.89148950
C      76.71335290      48.31261427      82.94973624
H      76.38454052      47.10696888      81.31134351
C      75.25448418      47.00681338      85.12103176
H      75.85919660      45.03771857      85.17772356
H      73.23625648      46.83106884      84.75442486
H      75.32440406      48.16899507      86.82178544
C      75.78360755      51.01681262      82.34502381
H      77.00059130      51.97868331      80.99009005
H      75.67022397      52.06939018      84.11002818
C      72.99626124      50.86752424      81.34157914
H      72.39721800      52.61174163      80.42695160
H      71.74337270      49.96234534      82.70407181
H      72.85453177      49.37086100      79.93562276
C      80.33784797      50.38186458      85.50842566
O      80.89531723      52.59284437      84.94528721
N      80.83295626      49.63164323      87.85735546
H      80.57028430      47.78349090      88.25230826
C      81.41121251      51.49302365      89.88503180
H      80.62319664      53.33361708      89.40126186
C      80.35296578      50.83161944      92.54576645
H      80.97468573      52.27537034      93.87991322
H      81.01814944      48.92110614      92.93693980
C      77.59018591      50.72768449      92.94260897
C      76.37320216      52.55316011      94.38824960
H      77.38042629      54.10651514      95.24618535
C      73.62742983      52.16009704      94.79265103
H      72.61075707      53.60006849      95.82255188
C      72.39343855      50.00769877      93.86857486
H      70.41489510      49.78282134      94.31077082
C      73.67656271      48.19545123      92.34923491
H      72.73547901      46.48902837      91.74074305
C      76.28816448      48.66977254      91.85412661
H      77.45601534      47.21468328      91.02642649
C      84.23068417      52.07694908      89.85101672
O      84.99413360      54.06116171      90.87902784
N      85.78403920      50.59540365      88.56600283
H      85.04326649      49.13653494      87.58145543
C      88.44855330      51.03004070      88.10113017
H      89.10995751      52.47190188      89.41448994
C      90.18521178      48.87953216      88.64348161
H      92.21099839      49.18944728      88.40726582
H      89.84317132      47.43011208      87.22051770
C      89.99812888      47.89687448      91.26831146
H      91.67053667      46.74603115      91.61035192
H      88.28225739      46.76303869      91.14925870
C      89.96411380      49.88675629      93.29598780
O      92.08060728      50.59918311      93.99896598
O      87.96478337      50.92799548      94.11234957
C      88.83783692      52.03537510      85.37803454
O      90.83338791      53.07661430      84.92450023
N      87.20322366      51.47223666      83.52421304
H      85.99001937      50.04927275      83.89648911
C      87.06716337      52.67977178      81.05434074
H      88.89830816      52.47379161      80.13404402
C      85.06783293      51.17743936      79.42539666
H      83.12519428      51.17177018      80.11514676
H      85.70089124      49.22535208      79.25154183
C      84.99035415      51.82939493      76.60970445
H      86.87819074      51.58939969      75.82168858
H      84.58595272      53.82872537      76.33002495
S      82.64520379      49.99447068      74.89194323
C      82.42221609      51.36452226      71.89861675
H      82.20300784      53.39975750      72.12349418
H      80.71768296      50.70122833      70.95186388
H      84.01714510      50.80516327      70.72320698
C      86.28103722      55.50113316      81.19418048
O      87.20133394      56.82016213      79.54633914
N      84.83350687      56.41198124      82.94406705
H      84.20422800      55.06271666      84.13648435
C      83.54471352      58.86673572      82.83257321
H      84.05493962      59.65853105      81.00142840
C      80.59107129      58.54548225      82.92894924
H      79.79549651      60.42764966      83.18217257
H      80.31139180      57.76691501      84.81867555
C      79.29282932      57.14141560      80.71796946
H      79.78793761      55.14586461      80.83135303
C      76.50737273      57.58550128      80.99575923
H      75.57951711      56.45922440      79.54444942
H      76.01604389      59.56215501      80.69718246
H      75.93478566      57.11873888      82.91950061
C      80.13186780      58.21289042      78.20463347
H      79.23235807      57.16598204      76.67395514
H      82.15009550      57.85006297      78.00432247
H      79.63109033      60.19710305      77.96274849
C      84.45745133      60.88496343      84.81867555
O      83.91132042      63.12617883      84.57112140
N      85.92954813      59.90797492      86.59123883
H      86.08828514      58.00879998      86.69706351
C      87.03692775      61.66164094      88.39970691
H      85.65553781      63.09783294      88.92505083
C      87.99123953      60.34639143      90.83178469
H      86.59851124      58.90641998      91.29854708
H      88.10462311      61.72967109      92.35490409
C      90.37418441      58.61729185      90.76186481
H      91.95777507      59.81915779      90.22518254
H      90.31182345      57.15464368      89.31244472
C      90.98645574      57.91620339      93.43771726
H      90.92409477      59.56404473      94.67359827
H      92.90074850      57.15275396      93.44338645
N      89.12318560      56.14552983      94.49029482
H      88.99657393      54.39942272      93.73440430
C      87.21456202      56.41954015      96.09089301
N      86.98590514      58.23934659      97.65180694
H      85.69333234      57.98423354      99.03319688
H      88.37863343      59.53191939      97.82755149
N      85.54026451      54.59973371      96.44427183
H      84.16832320      54.89075156      97.73873435
H      85.75191385      53.01425333      95.40114291
C      88.96444859      63.29247475      87.20539988
O      89.45766715      65.35794561      87.78554587
N      90.24379330      62.09060881      85.43850578
H      89.80726652      60.30670718      84.91505159
C      92.38674294      63.14507610      84.00042406
H      93.43554104      64.56048111      85.06811942
C      94.21410828      60.95866275      83.20862873
H      95.55014479      61.80337041      81.88959977
C      95.56526260      59.83427560      85.38559345
H      94.21599801      58.93098642      86.65171007
H      96.74067236      61.28369568      86.26053674
H      96.78980525      58.31115619      84.73741732
C      92.92342521      58.72878570      81.77054701
H      91.66297776      59.41097690      80.29089131
H      91.99179014      57.57794238      83.20484928
C      94.69598849      57.05826764      80.20396390
H      94.84905632      57.99557189      78.37659856
H      93.79269932      55.25168929      79.80145219
H      96.45910314      56.72378609      81.21307776
C      91.51746883      64.68520304      81.54566958
O      93.10672866      65.73400115      80.35325228
N      89.04381709      64.82882224      81.12237088
H      87.76825183      63.81970839      82.12203610
C      88.03281351      66.10249778      78.92083974
H      89.07972189      65.60172030      77.21819632
C      85.34562270      65.08582502      78.60714516
H      84.05871908      65.93998131      79.97341728
H      85.44388846      63.02980279      78.66383695
C      84.30249377      65.55636687      75.97475642
O      82.20300784      66.80736569      75.67806939
O      85.58183849      64.61528317      74.09258900
C      88.05926968      69.02590438      78.93595754
O      88.33516972      70.29202101      77.06890794
N      87.85517924      70.27312375      81.27543871
H      87.60573537      69.27534826      82.88170608
C      87.97612172      73.03590362      81.57779492
H      88.67532046      73.99966404      79.89404878
C      85.33239461      73.93163389      82.47541492
H      85.50058025      75.45097385      83.85680487
H      84.41020817      72.57858985      83.72452402
C      83.57683887      74.51177987      80.34947282
H      81.73435571      75.07302858      81.07512773
H      83.51258817      72.92252004      79.03989249
C      84.56327600      76.84748159      78.93784727
O      83.85273891      77.29345700      76.74198529
O      86.10151322      78.26666605      79.94318166
C      90.02836450      73.67652084      83.60736098
O      90.88441052      71.93041373      84.92638995
N      90.89196942      76.06513490      83.79633363
H      89.94143709      77.41062003      82.83446292
C      92.40375048      76.71331102      85.95818053
H      92.89696904      78.65783940      85.48574894
H      94.02324593      75.44908412      85.84101750
C      91.04692698      76.78890008      88.49608296
O      88.85862391      77.51455498      88.56600283
N      92.10706344      75.99332530      90.65037095
H      93.99678976      75.72120471      90.62202507
C      91.09794959      76.39961646      93.19016312
H      89.20633355      75.59270332      93.27520080
C      92.78547519      75.17507381      95.24429562
H      94.67709123      75.98765612      95.11957368
H      93.07649304      73.21920707      94.66981882
C      91.57227090      75.07680804      97.78030834
H      90.71811460      76.89094530      98.23951184
C      89.23278972      73.23621461      97.85778711
H      88.25013204      73.24566324      99.66814492
H      89.81860488      71.31436295      97.39858363
H      87.65675798      73.75777907      96.63702392
C      93.56026298      74.46075726      99.78719768
H      95.11550773      75.80435267      99.64735794
H      94.68465013      72.81480564      99.27130239
H      92.94610193      74.36816067     101.75062332
C      91.07527288      79.30601553      93.43015836
O      92.75523957      80.65716984      92.55521509
N      89.12885477      80.21686361      94.59422978
H      87.83439225      78.91673191      95.11768396
C      88.85106501      82.87570853      95.64302788
H      90.75779886      83.65616550      95.66570459
C      87.24290791      84.48575535      93.80621390
H      86.97267705      86.29422343      94.75485652
H      85.30782817      83.80545388      93.62102072
C      88.33894918      85.12448284      91.19083268
H      90.38930223      85.28888903      91.12847171
H      87.66998606      87.00287080      90.66737849
C      87.58116892      83.08924760      89.36535706
H      85.80482619      82.12737691      89.76408931
H      89.17420821      81.81935152      89.06300085
N      87.48479288      84.20796558      86.73863749
H      87.91376076      86.06556655      86.66871761
C      86.95944897      82.98720238      84.63915155
N      86.55693726      80.52677872      84.61269538
H      86.04482143      79.73120395      82.95729513
H      86.66843112      79.38916348      86.14148397
N      87.06527364      84.32134916      82.55478343
H      86.95566951      83.51443602      80.82946330
H      87.39975520      86.19973712      82.51320945
C      87.74557511      82.79822975      98.27730635
O      85.73490632      81.81179262      98.71572286
N      88.85862391      84.15127379     100.05364909
H      90.42709675      85.04511434      99.43948804
C      87.94021692      84.15316352     102.71249401
H      86.33583928      82.89271607     102.99217350
C      90.21733713      83.13649076     104.36600454
H      89.67687541      83.16294693     106.35399661
H      91.73478736      84.50087316     104.09199422
C      91.05259616      80.41906432     103.84255034
H      91.78014079      80.32835746     101.91880896
C      93.14263346      79.87104369     105.70393076
H      94.07804799      78.03800917     105.59621636
H      92.77602656      80.38315952     107.66735640
H      94.57882546      81.19007266     105.04063684
C      88.85862391      78.49154349     103.99372845
H      87.74179566      78.67862639     102.27407750
H      87.73234703      79.27766963     105.52818622
H      89.48034387      76.52622812     104.03719215
C      86.78370442      86.69862486     103.52318660
O      85.74624467      87.07657012     105.56787047
N      86.86874210      88.50709294     101.72038769
H      87.96100391      88.30489223     100.16514294
C      85.64986863      90.95806797     101.94715485
H      84.50847394      90.88814810     103.65924689
C      87.64730935      92.99708266     102.30431314
H      86.60795987      94.77342540     102.18148093
H      89.17798766      92.76086687     100.94559992
C      88.95877941      93.13881214     104.95748887
H      90.30993372      91.58545711     105.02173956
H      87.54337440      92.50575382     106.31431236
C      90.12474054      95.65214813     105.72849720
H      88.79248349      97.18660590     106.05730958
H      91.03747835      96.20961740     103.96727228
C      91.92942917      95.38380700     108.07931674
H      90.65386391      94.78854321     109.58164917
H      92.68531970      97.21306207     108.66135244
N      93.92120070      93.64336906     107.59932625
H      94.83582824      93.30510805     109.23960870
H      95.21566323      94.50508426     106.49383636
H      93.44121022      91.87647496     107.05886453
C      83.95478413      91.45695572      99.65491683
O      84.41209790      90.39870898      97.55165145
N      81.77970914      92.70039563     100.08388471
H      81.65876666      93.56211083     101.78274866
C      79.96368216      93.42794026      98.18093031
H      79.23613753      91.58923656      97.61023296
C      77.67522359      95.02664872      99.20516197
H      78.39709904      96.82377845      99.91002989
C      75.74770275      95.63703032      97.16614728
H      76.53004945      96.22473521      95.35389976
H      74.38143063      97.11101685      97.62157132
H      74.62709505      93.99863761      96.61434721
C      76.57918233      93.87958485     101.71093906
H      78.07206612      93.67738414     103.11311600
H      75.87998359      91.95773319     101.46905410
C      74.47591694      95.48774194     102.81642897
H      72.95468726      94.89814733     101.55976096
H      74.77071425      97.50407992     102.51974193
H      74.19056827      94.78665348     104.73072172
C      81.24302687      94.64492401      95.93593545
O      82.82472779      96.34567769      96.36868278
N      80.46634936      93.80210607      93.68149196
H      78.99236283      92.59268123      93.69094060
C      81.34129264      94.65815209      91.17004569
H      81.83451121      96.64425445      91.40626149
C      83.57872859      93.21818064      90.02298183
H      85.07728156      93.17660666      91.43460737
H      84.43099516      94.30666300      88.49608296
C      83.00992097      90.50642338      89.14047963
C      82.95700864      90.00186646      86.45706826
H      83.46345529      91.45317627      85.11158313
C      82.41276746      87.49797909      85.63881677
H      82.48079761      86.94995846      83.67350141
C      81.84018039      85.57423771      87.54933008
O      81.64553858      83.14971885      86.99752999
H      81.07295150      82.78122222      85.31567357
C      81.97624068      86.12603779      90.14203458
H      81.84207011      84.49898343      91.36468750
C      82.52993049      88.67149913      90.89981484
H      82.55449693      89.19873277      92.87079937
C      79.07740052      94.53909934      89.25764266
O      77.03649610      93.83801087      90.01731264
N      79.41566153      95.19294464      86.83312380
H      81.12019466      95.96017352      86.45328881
C      77.20279201      95.32711521      85.08512697
H      75.58707602      94.80177129      86.25108810
C      76.67366865      98.03698274      84.36325152
H      75.70423905      98.01052657      82.54344507
H      78.45001138      99.07822194      84.35569261
C      75.04283484      99.49396173      86.33990523
H      75.95557265      99.44671857      88.18616784
H      73.23625648      98.49996569      86.31155934
C      74.63843341     102.12257103      85.37236536
H      73.82207164     101.96005457      83.49019795
H      76.46957820     103.06554446      85.40260098
C      72.95657699     103.69293360      86.95028683
H      74.06962579     103.94426719      88.66426860
H      71.29739729     102.59311288      87.48507938
N      72.35564402     106.01540723      85.58401471
H      71.24637467     107.31175948      86.44006074
H      71.75660078     105.71494075      83.79822334
H      74.06962579     106.85633544      85.56322772
C      77.23113791      93.54699302      82.78344031
O      79.22101972      93.06322308      81.64582507
N      74.93323071      92.90826553      82.09746966
H      73.45357501      93.23140873      83.25965134
C      74.27938541      91.49097079      79.88271042
H      75.63620890      89.95273357      79.69751725
C      71.56951787      90.47996721      80.17372828
H      70.36954167      92.15237500      80.08302141
H      71.17645480      89.63903901      82.01243198
C      70.95535682      88.55811555      78.02699918
O      69.94813270      89.40282322      76.01255093
O      71.45613430      86.37359194      78.57879927
C      74.66111012      93.11424570      77.44874293
O      74.74047863      95.51230839      77.62448749
N      74.60630806      92.10702157      75.14516656
H      74.27560595      90.23241307      75.00154736
C      74.73480945      93.56211083      72.85481826
H      76.17100145      95.01720009      73.09103405
C      75.71179795      91.97663045      70.66840492
H      74.33040802      90.59524052      70.01455962
C      76.57351315      93.47896287      68.38372581
H      77.35774957      92.15048528      67.01934341
H      77.91332911      94.93972131      68.95064370
H      74.97480469      94.49563563      67.57303323
O      77.94923391      90.75019808      71.40161873
H      77.55050165      89.28188073      72.38994560
C      72.20446592      94.94539049      72.29734901
O      72.31973922      97.02219971      71.23721254
N      70.15978204      94.05532940      73.36126493
H      70.25237863      92.48874629      74.44785755
C      67.82030087      95.76175226      73.36126493
H      67.77872689      97.06755314      71.77011536
C      65.44680462      94.10446228      73.04001144
H      63.78573519      95.22506999      73.51622247
H      65.54129094      92.54921753      74.38927603
C      65.06885936      93.06511281      70.32825418
H      66.90378361      92.24686132      69.87094043
H      64.56241271      94.65248291      69.11504989
C      62.83709258      91.32656460      70.35282064
O      62.88433574      89.64281846      71.92318319
O      61.17791288      91.33601323      68.68419230
C      67.71636592      97.47195457      75.75743789
O      65.91545675      98.74563011      76.12404480
N      69.86876419      97.66659638      77.18985043
H      71.49770827      97.01086135      76.43962908
C      70.22403274      99.29365074      79.31201308
H      69.69112992     101.22117158      78.81123560
H      72.17800975      99.15381099      79.94696113
C      68.63855236      98.67759996      81.72519358
O      68.98059283     100.06276935      83.61114044
N      67.46692205      96.36457495      81.81401071
H      67.32708230      95.50097003      80.11892622
C      66.33119653      95.21562136      84.06278503
H      65.01783675      96.54598868      84.93016941
C      64.78917986      93.03865664      83.21618764
H      63.60810092      92.22607433      84.69584335
H      66.03261978      91.64403862      82.35069300
C      62.92968917      93.70006085      81.16583459
C      62.32497675      92.04277088      79.23642402
H      63.20558921      90.20406717      79.18918086
C      60.72437856      92.63614494      77.05567987
H      60.52973675      91.37002831      75.46642003
C      59.70770581      95.11168641      77.07079767
O      58.09198981      95.73529609      75.20374807
H      57.51373356      97.45116758      75.36059536
C      60.24627781      96.82944763      79.03233358
H      59.46771057      98.70405613      78.85091986
C      61.72782324      96.09056464      81.19229076
H      62.26072606      97.57777925      82.48108410
C      68.47414617      94.45406165      85.90715791
O      70.44135127      93.59801563      85.14370848
N      68.08675228      94.59012195      88.30711033
H      66.35198352      95.09845832      88.91938165
C      70.24104028      94.05343967      90.22329281
H      71.99092684      94.73752060      89.37858515
C      69.76860870      95.16270902      92.77631306
H      71.14999863      94.48240755      94.14447491
H      67.92801527      94.60901921      93.51519604
C      70.03694983      97.97840122      92.91993226
C      68.01305295      99.48262337      93.30732615
H      66.12332664      98.71539449      93.38858439
C      68.18879750     102.10556349      93.80054472
H      66.49182327     103.23750955      93.87613377
C      70.50749169     103.29042189      93.60401318
O      70.80984790     105.86233940      93.58700564
H      69.39444289     106.85822517      94.13502628
C      72.66555914     101.72005932      93.14480969
H      74.49481421     102.61578960      93.00119050
C      72.46146869      99.08767057      92.65537057
H      74.00537509      97.90659162      92.02987117
C      70.70213350      91.14704060      90.44439079
O      68.98248255      89.67116435      90.45383942
N      73.06240166      90.37036309      90.61257643
H      74.40599707      91.61947218      90.08345307
C      73.73136478      87.76443050      91.01319841
H      72.15155358      86.72697076      91.82956017
C      74.72158136      86.35469467      88.60190763
H      75.57762738      84.52921906      89.03087550
C      72.48981459      85.66872402      86.95406629
H      71.58841514      87.46963320      86.51942923
H      71.08952739      84.48953480      87.89703972
H      72.89988520      84.82023691      85.12292149
O      76.44501176      87.91749833      87.10335466
H      77.90954965      88.37859155      88.07089455
C      75.92344730      87.39215442      93.06733091
O      77.13854132      89.20440195      93.84589816
N      76.42611450      85.11503421      93.84589816
H      75.65132671      83.63726824      92.91993226
C      78.51048262      84.43095329      95.64680732
H      80.22068494      85.33613219      94.94193941
C      77.77915854      85.21141025      98.38502075
H      77.18578448      87.17861535      98.49840433
C      75.73258494      83.41050108      99.42814968
H      74.13198675      83.18751337      98.14691525
H      74.91055400      84.32701834     101.07977047
H      76.46579875      81.51510559      99.75507233
C      80.18289041      85.14338011     100.06498744
H      81.82128312      85.88415282      99.06343250
H      80.50036443      83.19696200     100.66403069
C      79.92966708      86.64193307     102.46305014
H      78.79772102      85.39849316     103.64979827
H      78.82795664      88.35213539     102.13612749
H      81.76081188      87.21074069     103.21705094
C      79.18133546      81.51699531      95.53909293
O      77.59207563      80.22442251      94.35612425
N      81.21090152      80.57591161      96.52364033
H      82.37686266      81.74376247      97.47984185
C      82.06883727      78.02100163      96.30443209
H      80.44367264      76.82858433      96.72584105
H      83.55227242      77.66195363      97.68582202
C      82.79449217      77.16306589      93.70983785
O      83.78281904      78.64461132      92.14325474
N      82.17844140      74.82358471      93.26197272
H      81.20523234      73.93730307      94.64336265
C      81.91954889      73.72565372      90.74485728
H      83.32739499      74.47965452      89.44661530
C      82.28615580      70.77768068      91.08689773
H      80.55516649      69.89139903      91.76341976
C      82.61118872      69.42274691      88.47151651
H      82.03482220      67.44420346      88.47340624
H      84.59351162      69.60794009      87.94428287
H      81.55861116      70.46587583      87.04099370
C      84.75035891      70.02556960      92.43616232
H      84.69744657      71.24066362      94.09912147
H      86.38875162      70.55280324      91.30232653
C      85.21712131      67.26656919      93.11079462
H      83.85462864      66.84327049      94.59800922
H      87.08795036      67.21365685      93.97062010
H      85.50246998      66.08360051      91.44972518
C      79.35896974      74.46075726      89.66771327
O      77.41444136      73.17196391      89.74141260
N      79.34763138      76.85315077      88.96095563
H      80.61752746      78.12682631      89.59401395
C      77.38609547      77.84525709      87.24886360
H      77.32562422      76.66795759      85.55944827
H      78.09285311      79.69718887      86.68761487
C      74.58741080      77.93785368      88.29010279
O      72.87909821      78.03611944      86.68761487
N      74.23025252      78.07580370      90.74863672
H      75.74581303      77.69596871      91.84656771
C      71.66589392      78.07391397      92.00341499
H      70.44513072      76.68307540      91.09634637
C      71.92856587      77.20275014      94.75107705
H      73.10964482      78.61248597      95.67704295
H      72.95090781      75.42640741      94.93627023
C      69.45113468      76.75488500      96.10412109
N      68.36832150      74.46264699      96.51419171
H      69.12421203      72.80157756      95.95861217
C      66.13277527      74.90862240      97.61779187
H      64.93657852      73.35904682      98.20360703
N      65.84931632      77.40306113      97.95227343
H      64.15423182      78.20052563      98.31321115
C      67.79951388      78.65594967      96.94126986
H      67.91478718      80.65150066      96.52553006
C      70.28828343      80.68551573      91.88814170
O      71.37109661      82.53366807      92.60812741
N      67.97714815      80.66472874      90.95272716
H      67.32708230      78.96586479      90.38014010
C      66.21970268      82.72075097      90.34801475
H      66.92268087      84.29111354      89.21228924
C      64.03895852      81.38849392      88.98930153
H      63.24905292      79.74443203      89.94550304
H      64.66445793      80.74220752      87.13736975
C      61.87522189      83.27822024      88.43372199
H      60.93980736      83.95663198      90.14014486
C      62.59142816      85.67061375      86.85957998
H      60.98894025      86.95373791      86.67060734
H      63.42479747      85.15093901      85.04922216
H      63.91990576      86.94995846      87.77609723
C      59.64912429      82.02533169      86.73485804
H      58.12978434      83.41239080      86.63848199
H      58.80252690      80.42095405      87.71184655
H      60.46737579      81.53778230      84.90938241
C      65.56207793      83.97174979      92.89158636
O      64.19580580      82.74342769      94.35423453
N      66.14411363      86.40004810      93.45472480
H      67.13055076      87.37514688      92.14325474
C      65.45814298      87.47908183      95.94916353
H      65.07074908      86.10147135      97.42881924
C      67.59731316      89.19306360      97.02252808
H      66.87165826      90.62925559      98.30754197
H      68.34186533      90.31745075      95.46539361
C      69.77049842      87.60380377      98.12234879
H      70.62276499      86.42083509      96.66725953
C      71.72825488      89.54266296      98.99162290
H      70.98748217      90.61413778     100.58466218
H      72.14588440      90.82200768      97.43259869
H      73.49136953      88.60535871      99.50751818
C      68.97870310      86.17517067     100.56009574
H      70.50371223      85.65738566     101.84321991
H      67.87321321      84.55756495      99.92136824
H      67.58786453      87.30900646     101.56731987
C      63.05252138      88.90960465      95.73373474
O      61.30452454      88.28410524      97.05654315
N      62.97126315      90.96373715      94.01030434
H      64.53973599      91.28877008      92.97284459
C      60.65256896      92.36024490      93.61913099
H      58.95937419      91.19050431      93.52275495
C      60.21226273      94.12524927      95.81688269