 %block lattice_cart
   137.793   0.000   0.000
   0.000 143.498   0.000
   0.000   0.000   162.326
 %endblock lattice_cart

 %block positions_abs
N      85.83411694      40.14143769      78.83107773
H      85.25208124      38.51816279      79.64366005
H      87.59912132      39.76538215      78.21124750
H      84.65870718      40.90299739      77.53283575
C      85.97962587      42.00470783      80.82662872
H      87.52542199      41.54739407      82.10975288
C      86.73929585      44.69000893      79.82318405
H      87.16070482      45.94478720      81.40299524
H      85.24452233      45.55361385      78.70068662
C      89.20538869      44.72591372      78.28116737
H      88.84823041      43.89065469      76.43301504
H      90.66236767      43.74136632      79.35075247
S      90.50174094      47.97246353      77.93912691
C      92.42737205      48.25592248      80.79450337
H      93.84844624      46.76870787      80.89087941
H      91.30487462      48.14064917      82.51604404
H      93.52719276      49.99825014      80.78127529
C      83.38125219      42.15966539      82.18534194
O      81.46129026      41.86675781      81.02316025
N      83.48896659      42.70768602      84.57773545
H      85.22184562      42.98547579      85.32984652
C      81.26664845      43.11964636      86.24825351
H      79.73030095      41.84975028      85.72479932
C      82.10190748      42.71902438      89.03748955
H      83.85935295      43.71679987      89.44000125
H      82.42316095      40.69512750      89.23969026
C      80.31044693      43.59963684      90.98012820
O      80.50319901      45.91077212      91.54893582
N      78.35080074      42.16155512      91.63208378
H      77.16027317      42.73603192      93.00780453
H      78.28088087      40.36631512      90.98768710
C      80.27076268      45.90699267      85.92133086
O      81.72018276      47.70412239      85.70779178
N      77.82167738      46.19423107      85.64543082
H      76.72185666      44.63331714      85.61708492
C      76.55745047      48.69811843      85.22780130
H      77.52499035      49.36141237      83.53460652
C      73.72853018      48.43922593      84.54938955
H      73.69451511      46.98791612      83.09052084
C      72.24887448      47.64743060      86.92855498
H      72.99909583      45.89565431      87.71279140
H      70.31568446      47.28838261      86.31439393
H      72.10714501      49.39353772      88.01514761
C      72.66839372      50.84106807      83.26248594
H      72.92161705      52.44733544      84.52671284
H      70.64638657      50.45556391      83.19067634
C      73.76254526      51.38530925      80.61875882
H      73.55278564      49.68455557      79.47547440
H      75.75998597      51.88986618      80.66600198
H      72.86114580      53.01803279      79.74759499
C      77.17350125      50.75225094      87.25736736
O      77.61380748      52.87441359      86.42210833
N      77.37192251      50.02848576      89.67054786
H      77.39837868      48.16710534      90.08439793
C      78.21474045      51.86152028      91.58673034
H      77.12625809      53.57361232      91.23713098
C      77.16972180      50.84106807      94.04526428
H      78.03521645      51.85396138      95.61562684
H      77.80089039      48.90598833      94.35895885
C      74.34647068      50.54816050      94.29659788
C      72.92350677      52.44733544      95.53247889
H      73.85892130      54.04793363      96.38663518
C      70.23820568      52.26403199      96.01813855
H      69.45585899      53.80793839      97.10284145
C      68.97208905      50.26470155      94.96934044
H      67.00488395      49.79982888      95.25279939
C      70.32891255      48.38253414      93.63708339
H      69.44074117      46.84240720      92.63741817
C      73.00098555      48.43922593      93.44433131
H      73.90049528      47.12208669      92.17254550
C      80.94539497      52.72323548      91.72279064
O      81.47451834      54.75658099      92.82639081
N      82.63670002      51.49113393      90.39053359
H      82.30599792      49.68266584      89.88597666
C      85.27097850      52.44544571      89.84629241
H      85.92860326      53.66242946      91.37130154
C      87.09456439      50.17588441      89.85952049
H      86.58244856      48.89276025      88.33073191
H      86.60323555      49.09118151      91.53948719
C      89.88946961      50.94689275      89.95967599
H      90.09922923      52.53993203      91.24846933
H      90.40347517      51.57617161      88.06617022
C      91.59022329      48.67922117      90.49068908
O      93.18704203      49.15921166      92.13853043
O      91.49195752      46.70634690      89.23402108
C      85.39947989      53.78148222      87.36130231
O      86.33489442      55.82427636      87.49169342
N      84.11824545      52.92354647      85.32039789
H      82.99763775      51.40798597      85.62086437
C      84.29965918      53.75502605      82.59730227
H      86.28198208      53.84951236      82.04361246
C      82.98818912      51.65742984      80.94568148
H      81.12302925      51.20200580      81.69212337
H      84.13903244      49.95478643      81.07607259
C      82.82567265      52.47757106      78.17912215
H      84.69272225      53.01614306      77.49504123
H      81.58412247      54.11974323      78.08652556
S      81.86380195      49.90187410      76.05129033
C      80.79988605      51.92010180      73.32252553
H      80.26131405      53.78715140      74.00660645
H      79.25220020      51.06027633      72.26994797
H      82.40804313      52.26970117      72.08475479
C      83.13747749      56.51213674      82.48013924
O      84.24674684      57.99935135      81.14221301
N      81.09846280      57.21511493      83.85586000
H      80.06856196      55.97356474      84.87631221
C      80.17060718      59.77947353      83.98247166
H      80.35580036      60.93220659      82.28360771
C      77.25475948      59.80592970      84.54183065
H      76.64437788      61.76368616      84.33774021
H      77.02988205      59.05570836      86.44667477
C      75.57290306      58.00879998      82.96957836
H      76.04722437      56.06238188      83.45523802
C      72.74776223      58.36973770      83.53649625
H      71.73108947      57.02992175      82.34596867
H      71.90494429      60.21789004      83.19256606
H      72.37170669      57.96722600      85.52259861
C      75.81478803      58.39052469      80.17089369
H      74.70929814      57.10551080      78.99548392
H      77.75742668      57.99179244      79.60964497
H      75.20251671      60.30481745      79.72869773
C      81.82789716      61.42353543      85.79849865
O      82.25875476      63.63262549      85.14654307
N      82.87102608      60.47489282      87.89231540
H      82.82945211      58.56437952      87.89420513
C      84.49808044      61.87329029      89.61385607
H      83.45495152      63.54947753      90.19778150
C      85.03098326      60.01757905      91.90987354
H      86.60323555      58.79681585      91.38641936
H      83.42093644      58.77602886      92.24624483
C      85.50530457      61.57093408      94.35139994
H      84.32800507      63.25090077      94.51769586
H      87.47439938      62.16808759      94.25313417
C      85.15759492      59.97600507      96.73056537
H      83.47384878      58.80059530      96.61340234
H      84.66437636      61.13251757      98.35950945
N      87.52542199      58.48501101      97.36929286
H      89.07877702      59.30326250      98.11762448
C      87.64825420      56.02836680      97.28803463
N      85.82466831      54.52603438      96.51702630
H      86.24607728      52.67599232      96.31482558
H      84.22784958      55.39152904      95.92743169
N      89.82899837      54.96067144      97.87196006
H      89.92348468      53.12952664      97.34283669
H      91.09511500      55.88663733      98.95855269
C      87.06999795      62.72744658      88.37419561
O      88.28509197      64.30347833      89.52314921
N      88.02053029      61.44054296      86.36919599
H      87.00385753      59.88718793      85.91377195
C      90.17859774      62.09627799      84.66655259
H      91.33888969      63.59861041      85.46212736
C      91.75085003      59.59239063      84.17711347
H      93.41758864      60.00813042      83.04138796
C      92.89980363      58.37162743      86.62052959
H      91.54298014      57.34739577      87.78271128
H      93.66703251      59.98167425      87.65043043
H      94.43615112      57.12440806      86.05172197
C      90.26930460      57.78392255      82.40266046
H      89.64380519      58.67398364      80.65466362
H      88.61012490      57.22267383      83.48358391
C      91.90769731      55.57105304      81.73369735
H      91.11023281      54.28981860      80.33341015
H      92.21005352      54.33706175      83.35697225
H      93.76907773      56.22111889      81.14221301
C      89.47372982      63.29247475      82.10030425
O      91.21794721      63.73089125      80.59041293
N      86.99629863      63.78191387      81.56362198
H      85.65270322      63.35861517      82.85052560
C      86.17048822      64.95921336      79.13721339
H      87.38747197      64.02568856      77.76527209
C      83.30188368      64.32615504      79.01438118
H      81.95450882      65.01023597      80.41277866
H      83.19038983      62.27580199      78.82729828
C      82.26442394      65.42975521      76.44057395
O      80.76587097      67.36105550      76.42545614
O      82.90126171      64.41875163      74.49793530
C      86.79787736      67.83915626      78.87832089
O      87.25708086      68.67252556      76.76938632
N      86.81488490      69.15440577      81.08174177
H      86.79787736      68.18308645      82.72580366
C      87.46684048      71.78112535      81.38976716
H      89.23184485      72.13828362      80.39388139
C      85.33333947      73.66896193      80.92300476
H      84.34879206      74.19052640      82.65588379
H      84.07667147      72.95275566      79.45468742
C      86.43504990      75.96119995      79.80806624
H      87.39125143      75.32247246      78.09786392
H      87.81832957      76.90984256      81.00048354
C      84.32989480      77.88494134      79.00115310
O      83.09401379      77.59392349      76.92245416
O      83.98974406      79.67451216      80.56962594
C      88.48540296      72.20064459      84.02215591
O      87.93360288      70.69075327      85.78527056
N      89.76852713      74.30390998      84.54938955
H      90.30142995      75.61160058      83.26815511
C      90.90803209      74.51555932      87.06650500
H      92.27619394      76.05568627      86.99847486
H      92.02297062      72.79401865      87.25169818
C      88.98429071      75.00310871      89.18677793
O      86.95094519      76.01600202      88.60096277
N      89.54175997      73.95620033      91.41854470
H      91.38046367      73.62171878      91.80404887
C      87.76541724      74.01478185      93.56905325
H      85.83600667      73.95053116      92.84717780
C      88.07911180      71.57136573      95.13563636
H      89.99529428      71.46932051      95.88018853
H      87.83533711      70.03123878      93.79204095
C      86.38591703      71.39940063      97.48267644
H      86.17615741      73.16818446      98.51635673
C      83.70628512      70.55280324      96.81371333
H      83.71006457      68.79535777      95.73656933
H      82.70850962      71.94364181      95.66853918
H      82.54977261      70.44886830      98.51446701
C      87.60290077      69.36227567      99.35350549
H      86.76008284      69.43597499     101.23189345
H      89.60034149      69.84037642      99.50846305
H      87.46306103      67.48766717      98.50879783
C      88.17170839      76.44308016      95.18476924
O      90.40347517      77.02322614      95.82349674
N      86.18938549      77.68652008      95.93688032
H      84.62091265      77.24054467      94.94477400
C      86.12135534      80.34158555      97.05937775
H      88.06588372      81.01810757      97.12929762
C      84.90815105      82.20485569      95.36996242
H      84.22029067      83.78088744      96.50568794
H      83.02220419      81.53589258      94.87863358
C      86.48418280      82.96641539      92.96245110
H      88.36446048      83.61270179      93.48779502
H      85.73774090      84.76354512      92.29159826
C      86.62402254      81.00865893      90.86296517
H      84.81555446      80.02222180      90.87619325
H      88.26052553      79.90316904      91.44689060
N      86.83945134      82.32390845      88.43844631
H      87.72384326      84.01521350      88.41010041
C      85.82655804      81.66439397      86.21045898
N      84.44894756      79.54412104      85.77204248
H      83.88958857      79.19641140      83.98247166
H      84.38847631      78.12304685      87.04571801
N      86.12513480      83.07601952      84.17333402
H      85.49207648      82.25965775      82.56895638
H      86.55788212      84.92984103      84.31695322
C      85.07066751      80.16584100      99.79381172
O      83.04299118      79.15483742     100.38907551
N      86.42182183      81.40361173     101.52669075
H      88.09989879      82.11414883     100.95977286
C      86.06277383      81.44518571     104.35183159
H      84.47918318      80.26032731     104.92252894
C      88.36635020      80.08458277     105.63684548
H      88.48918241      78.22320235     104.75812275
H      87.99785356      79.82380054     107.64562455
C      90.98362115      81.31668432     105.39496051
H      91.07432801      82.29178310     103.58271298
C      91.54675959      83.21585927     107.55113824
H      90.14080321      84.72008141     107.60783003
H      93.39113247      84.12859708     107.51145398
H      91.45605272      82.08391321     109.27078918
C      93.25129272      79.53656214     105.40629887
H      93.14357832      78.39705717     107.11839091
H      95.05598135      80.52488900     105.33637900
H      92.99806940      78.49910239     103.64696367
C      85.53365046      84.09647173     105.34393790
O      84.13147354      84.29867245     107.18453133
N      86.38780675      85.96352133     103.98900414
H      87.60290077      85.61203223     102.56226077
C      85.21239699      88.54299774     103.84160548
H      84.52642633      88.80000052     105.76534687
C      87.21928633      90.55555627     103.25390060
H      86.46150608      92.46606957     103.36161500
H      87.88069054      90.21351581     101.33393867
C      89.55309833      90.42138570     104.90174195
H      90.51874847      88.64882242     104.49734051
H      89.10712292      90.62547614     106.90485184
C      91.34266915      92.44717231     104.03435757
H      92.92059062      92.30544283     105.35338653
H      90.39402654      94.24619176     104.34616241
C      92.40658506      92.06166814     101.41330717
H      93.36656603      93.80399580     100.87284545
H      90.91937045      91.50419888     100.10372684
N      94.51740935      90.24942061     101.15630439
H      94.17536889      88.39748882     101.46055033
H      96.12745617      90.94295016     101.91219492
H      94.86511899      90.32311993      99.28169589
C      83.01086583      88.55244638     101.85172368
O      83.37180355      87.36380853      99.91097475
N      81.24397173      90.31367130     102.32226553
H      81.53687931      91.40971256     103.85483357
C      79.35046596      90.96562688     100.34750153
H      78.35646992      89.20062250      99.97711517
C      77.56089515      92.97629567     101.26968797
H      78.56622954      94.74507950     101.58338254
C      75.87714900      93.88336431      99.15697395
H      74.75087212      92.39425997      98.28769985
H      76.92405738      94.72807197      97.59794975
H      74.72819540      95.42160152      99.90152612
C      75.88281818      91.96340237     103.47877803
H      76.85413750      90.66705012     104.75245357
H      74.45796454      90.62547614     102.82871218
C      74.61481182      93.91548965     105.28157693
H      73.11058967      92.92338334     106.28124215
H      73.81545759      95.38002754     104.07593155
H      75.88281818      94.73374115     106.68375386
C      80.74130453      91.93316675      97.98723337
O      82.43449931      93.50352932      98.12896284
N      79.84746398      91.09412827      95.72523097
H      78.25064525      90.06044797      95.54003779
C      80.73941480      92.15804418      93.23268196
H      81.55010739      93.98918898      93.71267245
C      82.47985274      90.20406717      91.86263039
H      84.10501737      89.69195134      93.02103262
H      83.29432478      91.19428376      90.25069384
C      81.35924503      87.68128255      90.87808298
C      81.31200188      87.12381328      88.29104765
H      82.01120061      88.52032103      86.97768787
C      80.60335451      84.75976567      87.31216942
H      80.86980592      84.32323889      85.33551570
C      80.05533388      82.79634003      88.99402584
O      79.39392967      80.49654310      88.03971405
H      79.40337830      80.47197666      86.22746652
C      79.71896258      83.42561889      91.61696597
H      79.18039060      81.88738167      92.84528807
C      80.47485312      85.87470419      92.55615994
H      80.02131880      86.14115560      94.52903421
C      78.53032474      92.62291685      91.48468512
O      76.46296416      91.78765782      91.93632971
N      78.97818988      94.02131433      89.39653755
H      80.74319426      94.74696923      89.40598618
C      77.27176702      94.76775622      87.42933246
H      75.27999549      94.64492401      87.93199966
C      77.72908079      97.52864636      86.77359743
H      76.47241279      98.01052657      85.21457322
H      79.53943859      97.98784986      85.91188223
C      76.99775670      99.45616720      88.89764980
H      77.61947665      98.69460750      90.70611788
H      74.94173448      99.52986653      88.99969502
C      77.93317123     102.07532787      88.37986479
H      79.95139893     102.14902720      87.97546336
H      77.75175750     103.04664720      90.18833287
C      76.15871822     103.30742943      86.37864463
H      74.36158850     103.63624181      87.33106669
H      76.12281342     102.09989431      84.71001629
N      76.99586698     105.97761271      85.86274934
H      75.78266268     106.70704707      84.58340463
H      78.79299670     106.14201890      85.24291911
H      76.71051829     107.07176424      87.40287629
C      77.53065952      92.95739841      85.11630745
O      79.55644613      92.46040039      84.13553949
N      75.31779001      92.03899142      84.29238678
H      73.80600896      92.60024014      85.31283899
C      74.69607005      90.75775698      81.80172750
H      76.06990108      89.22140949      81.81684531
C      71.95596690      89.79588629      81.64299049
H      70.67851191      91.41160229      81.58818842
H      71.77266345      88.60535871      83.31350855
C      71.59880863      88.32378949      79.31484767
O      70.79567494      89.20818141      77.27016380
O      72.37548614      86.13359670      79.29028123
C      75.52188045      92.33189900      79.52649701
O      75.58991060      94.71673361      79.85908885
N      75.69195582      91.35491050      77.23047954
H      75.59557978      89.46140473      77.01694047
C      76.09257780      92.85157374      74.87399083
H      77.78010340      93.99674788      75.16500868
C      76.46296416      91.01475976      72.67245968
H      74.56189949      90.73319054      71.92601778
C      77.87836917      92.33189900      70.39722920
H      79.75675712      92.78543332      71.11532520
H      76.71051829      93.94383555      69.86999556
H      77.69128626      90.99397277      68.84198444
O      77.80278011      88.76031627      73.22992894
H      76.55178129      87.45829484      73.07119193
C      73.77766307      94.61279866      74.46580995
O      74.31056589      96.64803390      73.34520225
N      71.46841751      93.98163007      75.15933951
H      71.23598118      92.32622982      76.08152595
C      69.31790897      95.61624333      75.11587580
H      69.34814459      96.61590855      73.31496662
C      66.93874354      94.01942460      75.55240258
H      65.26444602      95.20050355      75.77539028
H      67.43574156      92.95172923      77.23992818
C      66.40206127      92.33567845      73.33386389
H      67.77778201      90.85980220      72.91812410
H      66.04301326      93.35235121      71.58019787
C      63.76589306      91.10546662      73.66078654
O      63.36716080      89.45762528      75.39744502
O      62.02167567      91.83112153      72.31530140
C      69.38404938      97.69494228      77.19835420
O      67.75888475      99.25774594      77.24937681
N      71.22086336      97.55888198      79.01816064
H      72.64193755      96.28520645      78.95957912
C      71.33046748      99.24073840      81.21402261
H      70.44229612     101.01897086      80.66789171
H      73.34302601      99.59033777      81.47291512
C      70.26844130      98.39981019      83.81806547
O      70.85236673      99.77553095      85.57740067
N      68.93807398      96.25875028      83.95034631
H      68.72075545      95.26853369      82.33463032
C      67.49621280      95.47073441      86.22935625
H      66.70819693      97.21684152      86.98713650
C      65.30035083      93.83045197      85.57929040
H      64.11171298      93.69628140      87.25547764
H      66.12805094      92.00497635      85.10118964
C      63.57125124      95.00964119      83.52326817
C      62.88906005      93.55833138      81.43323086
H      63.29535121      91.55900094      81.42189251
C      61.63617151      94.78098430      79.55673264
H      61.15051184      93.52053685      78.02794405
C      60.94642140      97.34723264      79.63232169
O      59.98266098      98.61901845      77.51204877
H      59.84093151     100.42181735      77.65944742
C      61.61727423      98.92704383      81.65999802
H      60.98043646     100.86590303      81.66377747
C      63.05535597      97.72895735      83.59507777
H      63.42952177      98.71161503      85.34496433
C      69.16295141      94.19138969      88.24758395
O      71.06023663      93.02920801      87.63153317
N      68.50154720      94.56366578      90.67777199
H      66.77622708      95.36868919      90.83839872
C      69.97553371      93.71517866      92.80749354
H      71.96919499      94.00808624      92.38608457
C      69.62593435      95.55766182      95.14508499
H      70.41395023      94.44839247      96.69277084
H      67.63605254      96.01497559      95.41153640
C      71.23409145      98.07855672      95.20177678
C      70.13993991     100.26497006      96.02002827
H      68.14627865     100.52197284      96.37151737
C      71.39471819     102.56854644      96.19199337
H      70.49331873     104.31465355      96.74757291
C      73.96663570     102.49673684      95.68365699
O      75.54644690     104.67370155      95.78381249
H      74.62048100     106.21760795      96.01435910
C      75.21763452     100.34622830      94.98256853
H      77.17161152     100.48039886      94.41187118
C      73.85514185      98.11257179      94.68021232
H      74.72063650      96.38158249      94.03392592
C      69.83947343      90.82011795      93.23079224
O      67.73620804      89.67494381      93.53881763
N      72.09958610      89.72596642      93.60306832
H      73.63215414      90.74641863      93.10040112
C      72.39249368      86.96507627      93.38574979
H      70.73520370      85.79911514      93.75991560
C      73.39026917      86.34146659      90.81383228
H      75.43495304      86.57768238      90.72312542
C      72.85169717      83.62026070      90.04093422
H      73.75876580      83.18562365      88.24380450
H      70.82780029      83.69018057      89.66109923
H      73.04444926      82.24831940      91.56594336
O      72.20541077      87.70206954      88.84095801
H      72.49642863      89.45573555      89.20378546
C      74.45040563      86.22808301      95.37563160
O      76.12470315      87.62081130      96.19388310
N      74.57512757      83.74687236      95.90097552
H      73.46963768      82.66216946      94.78414727
C      76.16060795      82.23509131      97.62818537
H      77.91994314      83.27066133      97.89463678
C      74.76410020      82.51099135     100.41931113
H      74.48631043      84.54055741     100.64040911
C      72.09391692      81.16550622     100.40608305
H      70.92228661      81.97619881     101.89329766
H      72.26399229      79.17562441     100.91063997
H      71.37582092      81.30534597      98.48045193
C      76.22485864      81.47353161     102.57548885
H      76.88248340      79.52711351     102.40730321
H      74.96441119      81.52077477     104.20443294
C      78.52087611      83.00798937     103.29547458
H      80.18572499      82.39760777     102.24478675
H      78.89315220      82.67539754     105.29291529
H      78.03332672      85.00731981     103.35783555
C      76.66894433      79.50065734      96.74568318
O      75.12692765      78.46508732      95.22256377
N      78.60591380      78.27422496      97.74723812
H      79.65282217      79.14727852      99.08327463
C      79.03866112      75.69096909      97.27858600
H      77.34168689      74.57981002      97.63007509
H      80.56744971      74.68563469      98.22533888
C      79.58668175      75.42262795      94.36840748
O      81.43483409      76.60937608      93.61818613
N      78.26198361      73.93352362      92.83961889
H      76.89382176      72.98488101      93.77314369
C      78.10702605      74.23776956      90.02770614
H      79.09346319      75.98198694      89.54393620
C      79.30889198      71.79435343      88.72757443
H      78.16560757      70.18997579      89.33039713
C      79.32400980      71.87939112      85.79849865
H      79.67927834      69.97265727      85.10496909
H      80.76398125      73.24377351      85.23536021
H      77.57034378      72.64662000      85.03693894
C      81.96773691      71.14428758      89.84062323
H      81.94883964      71.08948552      91.90042491
H      83.25275080      72.69386316      89.40409645
C      82.83512128      68.57048034      89.07906353
H      84.69461198      68.18497617      89.87463830
H      83.07133707      68.68197419      87.03437966
H      81.51420259      67.02279449      89.39842727
C      75.48975511      74.96531419      89.06772517
O      73.72853018      73.43085642      89.07339435
N      75.06267696      77.14605835      87.74680648
H      76.52532513      78.36682155      87.61074618
C      72.64382728      77.81124201      86.38242408
H      72.11281418      76.31835823      85.06717456
H      73.06712597      79.44396555      85.20134513
C      70.29678720      78.36304210      88.01514761
O      68.51288555      79.61215119      87.14020433
N      70.22686732      77.49376799      90.33195207
H      71.78022235      76.64528088      91.04626862
C      68.01021836      77.76399886      92.07050028
H      66.40962017      76.92685010      91.08595287
C      68.22753689      76.18796711      94.44588626
H      69.52955831      76.94007818      95.85373236
H      68.70374792      74.27178463      93.85818137
C      65.89372488      75.96119995      96.09183787
N      63.95297597      74.24910791      95.93499059
H      63.85659992      72.92818922      94.56115956
C      62.26922982      74.83492307      97.61495728
H      60.43430557      73.96186951      97.81337855
N      62.84559635      76.94196791      98.80359513
H      61.81947496      77.72431460     100.20955151
C      65.24176931      77.58069540      98.02313817
H      66.35859756      79.23231620      98.46911358
C      67.39227785      80.56835270      92.74513257
O      68.69051983      81.99320634      94.09628689
N      65.29279192      81.29400761      91.43744197
H      64.48020960      80.13182593      90.15809725
C      64.06635954      83.74120318      91.90231464
H      65.23798986      85.34369110      91.34862483
C      61.63995096      83.93206554      90.19967123
H      60.28879663      82.76610441      91.23146180
H      62.01411676      83.19318255      88.31372437
C      60.48154872      86.68917623      89.99180134
H      59.96943289      87.41861059      91.84940230
C      62.31647297      88.39559909      88.65576483
H      62.94764156      87.27499139      87.04760774
H      64.03423419      88.75842654      89.73290883
H      61.30735913      90.12658839      88.18144353
C      58.09860384      86.73452966      88.37419561
H      57.15563042      88.50142377      88.85985527
H      56.90429682      85.13771093      88.89576007
H      58.39529088      86.87058996      86.34273983
C      63.52400809      84.14371489      94.75958082
O      62.33159079      82.55067561      95.88963716
N      64.42351781      86.12981724      95.92176251
H      65.83892282      87.15782836      95.15831308
C      63.24054915      87.09924684      98.19699299
H      62.33725997      85.60258360      99.28547534
C      65.15862135      88.24253126      99.89396722
H      64.02289583      89.06834166     101.40196881
H      66.13372012      89.66360545      98.76769033
C      67.12015727      86.37170221     101.01079547
H      67.80990737      85.19062327      99.46877880
C      69.27633499      87.92883669     102.09360864
H      70.13238100      89.07968002     100.61773239
H      70.69740918      86.90271530     103.17453210
H      68.52233419      89.35935951     103.37106363
C      66.06568997      84.58591085     103.03847180
H      65.75199541      85.56100962     104.82615289
H      67.56991213      83.30467640     103.62428696
H      64.39328219      83.64482714     102.29391963
C      61.18830637      88.99275261      97.35039560
O      58.93575259      88.43339362      97.82471690
N      61.83648249      91.03743648      96.07294061
H      63.65817866      91.23774747      95.54570697
C      59.95620480      93.08401007      95.33027817
H      58.07781686      92.24308187      95.35295489
C      59.86171850      95.32522548      97.22567366