 %block lattice_cart
   137.793   0.000   0.000
   0.000 143.498   0.000
   0.000   0.000   162.326
 %endblock lattice_cart

 %block positions_abs
N      87.12007570      37.84164077      81.82345935
H      87.36762985      36.95913858      83.49964659
H      88.79815267      37.68668321      80.92583934
H      85.70278097      37.09708860      80.78788933
C      86.40764888      40.55906720      82.17494844
H      87.42432164      41.43778994      83.73397266
C      87.14086269      42.13698868      79.82790836
H      86.45300231      41.09385975      78.18951565
H      89.18554656      41.90833179      79.75987822
C      86.59284206      44.96023979      79.94507139
H      84.72201301      45.32684669      79.16461442
H      87.79281827      45.75203511      78.47108487
S      86.97456678      46.56461743      83.07256845
C      90.39119195      46.20367970      82.96296432
H      91.08472151      47.46790660      81.49464697
H      91.05259616      44.25537187      82.84013211
H      91.27747359      46.88587090      84.69206390
C      83.69589162      40.81418026      82.77399168
O      82.03671192      40.16411440      81.36614558
N      83.21779087      41.36787007      85.12481122
H      84.67854931      41.59274750      86.33234633
C      80.67043980      41.89510371      86.22841139
H      79.45156632      40.41355828      85.47819003
C      81.05783369      41.76849204      89.06300085
H      82.47701815      43.13476417      89.66204409
H      81.98946876      40.00915685      89.59590368
C      78.62953538      42.26360034      90.64281206
O      76.56217479      42.88154084      89.78676603
N      78.84496418      41.76660232      92.99552132
H      77.25570435      41.71746943      94.04998860
H      80.45879045      41.05984468      93.72873513
C      79.67644376      44.42733697      85.20606944
O      81.08428986      46.24336395      85.08323723
N      77.26326325      44.62197878      84.64860019
H      76.14643500      43.07618265      84.68639472
C      75.92722675      47.02382092      83.99097543
H      76.87586936      47.70412239      82.29400121
C      73.03405576      46.73658252      83.55444866
H      72.71469202      45.20212476      82.21652243
C      71.63565829      45.48747343      85.86747365
H      72.59563926      43.69034370      86.17171959
H      69.61743059      45.16999941      85.60669143
H      71.86998436      46.73469280      87.49074857
C      71.64132747      49.12897603      82.74186633
H      71.72447543      50.69366942      84.07790284
H      69.61554086      48.79638420      82.88926498
C      72.25359880      50.17399468      80.10569813
H      71.36353770      52.02781620      80.02443990
H      71.61109185      48.94567258      78.58257873
H      74.26426759      50.60863174      79.99420428
C      76.59241041      49.10440959      85.89959900
O      77.11019542      51.20767498      85.09835505
N      76.58296178      48.60930130      88.44695008
H      76.25603913      46.79894349      88.96095564
C      76.94012005      50.67855161      90.41415516
H      75.88943222      52.41898954      90.08912224
C      76.07651513      49.63164323      92.90670418
H      76.82106730      50.80327355      94.42793386
H      77.11775433      47.86663886      93.12591243
C      73.28727909      49.16677056      93.41504056
C      71.66778364      51.13019620      94.11801875
H      72.36698238      52.81583207      95.03264628
C      69.09208668      50.72390504      94.50541263
H      67.92045636      52.18655321      95.31232578
C      67.98659678      48.43733620      93.60779264
H      65.99104580      48.01970669      93.73440430
C      69.70435800      46.41910850      92.85190212
H      68.73681813      44.66355276      92.47773631
C      72.33296730      46.74414143      92.91048362
H      73.57640722      45.22858092      92.34167600
C      79.71801773      51.57239216      90.63714288
O      80.37942194      53.53392807      91.74452249
N      81.43955841      50.25525292      89.37858515
H      80.93500148      48.59418349      88.58301037
C      84.11541086      50.91854685      89.14992826
H      84.51603284      52.34717994      90.57856136
C      85.83695154      48.67166227      89.30488582
H      87.66620661      49.34062538      88.62836381
H      84.98090552      47.35263330      87.97451849
C      85.67821453      47.63042307      92.01853281
H      84.13808758      46.28304821      92.26041778
H      85.10373773      49.05905616      93.38858439
C      88.12918955      46.34918863      92.93882953
O      89.56538155      47.45656825      94.48273592
O      88.39564096      44.10230404      92.29821231
C      84.55004792      52.25836281      86.63848200
O      86.02214471      54.02714664      86.49108335
N      83.21590114      51.52325927      84.62592348
H      82.13497769      49.95667616      84.76198376
C      83.60707449      52.47568133      82.01054226
H      85.58939739      52.22812719      81.50787505
C      82.28426607      50.74469203      80.09813922
H      80.76492611      49.65620968      80.96363387
H      83.68266354      49.27448496      79.74665014
C      81.36963853      51.86529973      77.56590596
H      81.37530771      50.28926799      76.23742836
H      82.77181546      53.19566706      76.85347915
S      78.26292847      53.42810340      77.53378061
C      78.56339496      55.10429064      74.71619869
H      79.19078409      53.95533704      73.12504913
H      79.84651912      56.65386621      75.15461518
H      76.78138304      55.95466748      74.13038352
C      82.80960998      55.29137354      81.89526894
O      84.01903482      56.81071350      80.72363864
N      80.64398363      56.00757981      83.15571639
H      79.61786224      54.64508714      84.00987269
C      79.86919584      58.62863021      83.77932609
H      79.71234855      59.97033589      82.22219161
C      77.07051117      58.37729661      84.64104129
H      76.48469601      60.25757429      85.24764343
H      77.06862144      57.13385670      86.28321345
C      75.23747665      57.40408756      82.72674853
H      75.55684039      55.38963931      82.42817177
C      72.53327829      57.36629303      83.59980209
H      71.44290621      55.90931404      82.63604167
H      71.68101172      59.24279126      83.57901510
H      72.49359404      56.66898402      85.53677156
C      75.53038422      58.50012882      80.08491115
H      75.33385269      60.55048187      80.00176319
H      74.14521484      58.11084520      78.61281435
H      77.40877218      58.04659450      79.37626377
C      81.63986939      59.85884204      85.64448596
O      81.77026051      62.14730060      85.64259623
N      82.91543466      58.51146718      87.33957046
H      82.90409630      56.61418196      87.13170057
C      84.47823832      59.77758381      89.24063512
H      83.49747036      61.37062309      90.10801951
C      85.27003364      58.10517602      91.44972519
H      86.47567903      56.58772579      90.75052645
H      83.66565600      57.00346558      92.12435749
C      86.34339819      59.58105227      93.77030910
H      84.73902055      60.49190035      94.68493663
H      87.51880795      61.15708402      93.15614805
C      87.64541962      57.87273968      95.71861693
H      86.41520779      56.48379084      96.61812665
H      88.38997178      59.04248027      97.23984660
N      89.96033435      56.72945526      94.49218456
H      91.31904757      57.88974722      93.82133171
C      90.37040496      54.32572339      94.18604889
N      88.66776155      52.59662382      94.55643525
H      89.14964176      50.75792012      94.37691125
H      87.07283254      53.09929102      95.47673196
N      92.35650732      53.60195822      93.14291997
H      92.39241212      51.89364563      92.28876367
H      93.98545140      54.58272617      92.99930077
C      86.82338867      60.73000587      87.89326027
O      87.89108404      62.76146166      88.49230351
N      87.80793608      59.36184402      85.98652642
H      87.05960446      57.62518554      85.73141337
C      89.94521654      59.99301261      84.21774258
H      90.89007970      61.43676351      85.34212975
C      91.95777506      57.84439379      84.02688022
H      93.52813763      58.74201379      83.04044310
C      93.04625742      57.37007248      86.73674777
H      91.64408050      56.58205661      88.02743084
H      93.89852399      59.05570836      87.55688899
H      94.59583300      56.02836680      86.54399568
C      91.15275165      55.49357426      82.49998136
H      90.63496664      56.39686343      80.72174890
H      89.49735140      54.47123232      83.17650339
C      93.20121498      53.52258971      81.99164500
H      92.37540458      52.05238264      80.80867631
H      93.73411780      52.36229776      83.60736098
H      94.83960769      54.40887135      81.11292226
C      89.10050888      61.09472305      81.62314835
O      90.44410429      61.28369568      79.76932685
N      86.75535852      62.16052869      81.52299287
H      85.32294598      61.83171631      82.73808689
C      85.80860564      63.62695631      79.32713089
H      86.55693726      63.10161239      77.48086828
C      83.00047234      63.29058502      78.99075961
H      82.08206535      64.73622565      80.13215430
H      82.41087773      61.36495391      79.41405830
C      82.34662704      63.76490633      76.20341330
O      81.05972342      65.66408127      75.46830976
O      83.22912922      62.27013281      74.62738155
C      86.64008522      66.41241289      79.25343156
O      87.57738947      67.28735618      77.37504361
N      86.32639065      67.83915626      81.41338873
H      85.60640493      66.84893967      82.87792664
C      87.30337915      70.49422173      81.60047164
H      88.84728555      70.88539508      80.29467077
C      85.14720143      72.28757200      80.81245578
H      83.67132518      72.10615827      82.24108887
H      84.17966156      71.62238834      79.11737127
C      85.88419469      75.08247722      80.47986393
H      87.73801621      75.16562517      79.58413367
H      85.96356320      75.82891911      82.39604643
C      84.01903482      76.74921582      79.12115073
O      82.30883251      77.85281599      80.38915707
O      84.22501499      77.29723646      76.84592024
C      88.45044303      70.97043276      84.24419875
O      87.91565048      69.44731335      85.96007024
N      89.79781789      72.97921183      84.75064541
H      90.52158307      73.93730307      83.26721026
C      90.60851048      73.56880644      87.40949033
H      91.96911342      75.11271284      87.47941021
H      91.54014555      71.91907537      88.22396237
C      88.35217726      74.28123326      89.17260497
O      86.37363381      75.20908888      88.39214802
N      88.78114513      73.64817494      91.65381563
H      90.61606938      73.30613448      92.04309925
C      86.78559414      73.30424476      93.39425356
H      84.82594796      73.43463587      92.77631306
C      87.16920859      70.63595120      94.63202430
H      88.59028277      70.90996152      96.10034165
H      87.79659772      69.56636611      92.98985214
C      85.00547196      69.32826059      95.88491285
H      83.40676350      69.72321339      94.64714211
C      85.46656518      66.46910468      96.14758481
H      87.04448665      66.16485875      97.43826788
H      85.76136248      65.76612649      94.23329204
H      83.75636286      65.65841209      96.96016712
C      84.21745609      70.27501348      98.49084543
H      82.66599078      69.05802973      99.08610922
H      83.64108956      72.24977747      98.35856458
H      85.71600905      70.06714358      99.89113262
C      87.31471751      75.33570054      95.43515799
O      89.25546644      75.30168547      96.78631230
N      85.71033987      77.08369738      95.61468199
H      84.38564173      76.74165692      94.28431466
C      85.96167347      79.57057721      96.81276847
H      87.98368063      79.92584576      96.97906438
C      84.74657945      81.69840904      95.28020043
H      84.91854455      83.40105245      96.42726430
H      82.74157983      81.24109527      95.19327302
C      85.90876114      82.38626942      92.66859865
H      87.73045730      83.32546339      92.87457883
H      84.89208838      83.99064706      91.87680334
C      86.09017486      80.30001157      90.60690726
H      84.24391225      79.38538403      90.57667163
H      87.61896345      79.00743877      91.08500801
N      86.56449617      81.49998778      87.97829795
H      87.81360526      82.93806950      87.85735546
C      85.37585832      81.00487948      85.81645105
N      83.92265878      79.16428605      85.52354347
H      83.14031209      78.93373944      83.79822334
H      83.68644299      77.86793380      86.89926423
N      85.85773852      82.28989337      83.80767198
H      85.39286585      81.77399809      82.02943952
H      86.96133869      83.82435114      84.05900558
C      84.97145688      79.34192033      99.47917229
O      82.79449217      78.67673666      99.81743331
N      86.51914273      80.26788622     101.23661777
H      88.16320463      81.03511510     100.63946424
C      85.81805427      80.59858832     103.90113186
H      84.05682935      79.71797586     104.51151347
C      87.84951006      79.03956412     105.55653212
H      88.21044778      77.33503098     104.45671139
H      86.93110307      78.53122774     107.32909540
C      90.35528715      80.32835746     106.02518423
H      90.06237957      82.17462007     106.88878917
C      92.10139426      78.68240584     107.67113586
H      93.95899523      79.55734913     107.83365233
H      92.43020664      76.85504050     106.78107476
H      91.30770921      78.19485645     109.50794984
C      91.91053191      80.83291439     103.73483595
H      91.26613523      82.51288108     102.73139128
H      91.55715308      79.34758950     102.35344602
H      93.94387742      80.99543085     104.01451545
C      85.63286109      83.46152369     104.63434568
O      84.85996303      83.81868196     106.81320012
N      86.15064610      85.15093901     102.86745156
H      86.53237082      84.63315400     101.07032185
C      85.78592892      87.87781408     103.37767768
H      84.89019865      88.14615522     105.21260193
C      88.36918479      89.17227661     103.15091052
H      89.49546168      88.20473673     101.72416716
H      89.32160686      88.70551421     104.91780462
C      88.35595671      91.90482085     102.48194740
H      87.10117844      92.96117786     103.72916677
H      87.76069292      92.31111201     100.55253683
C      90.94488176      92.90448607     102.65580223
H      92.31493334      91.62325163     101.80353566
H      91.54581473      93.15392995     104.60977924
C      91.42487224      95.32522548     101.20071297
H      90.60851048      95.19672409      99.31287638
H      93.40908487      95.52553647     100.68670741
N      90.27591864      97.51919773     102.40257890
H      88.42776631      97.22629015     102.78430361
H      90.53859060      99.05176577     101.29708901
H      91.19432563      97.72517790     104.06175860
C      84.02659373      88.93417109     101.49740000
O      83.59951558      87.73986406      99.45082640
N      82.55638666      90.90704536     102.14746584
H      82.67921887      91.42483037     103.98050036
C      80.64965281      91.83868043     100.28797515
H      79.41566152      90.21351580     100.00640594
C      78.95456830      93.98540953     101.47661301
H      80.10163218      95.37624809     102.47438849
C      77.39176464      95.51041866      99.63035040
H      78.32150999      96.58378321      98.13557689
H      76.22958296      96.87102161     100.65080261
H      76.11430966      94.18383079      98.71005369
C      77.06673172      92.61724767     103.35311124
H      78.00025652      91.93316675     105.05575465
H      76.08785349      91.17916595     102.25140080
C      75.20535130      94.30288355     104.69859637
H      73.99781618      95.46695495     103.50428934
H      76.39587888      95.77309062     105.51495814
H      74.39654844      93.41660191     106.37289388
C      81.72301735      92.75330797      97.65936586
O      83.05716413      94.65059319      97.22094935
N      80.93311175      91.43238928      95.69027104
H      79.66321567      90.03210208      95.94349435
C      81.49058102      92.15804418      92.96528568
H      82.60929899      93.88525403      93.03709529
C      82.88519903      90.03210208      91.63491837
H      84.21745609      89.09668755      92.89914527
H      83.98690947      90.81633850      90.08156333
C      81.22223988      87.90615998      90.67115795
C      80.86130215      87.84190928      88.01420275
H      81.47168375      89.26865265      86.69139433
C      79.61975197      85.68573156      87.12792110
H      79.14732039      85.81423295      85.14748794
C      78.81661828      83.49553876      88.48663432
O      78.09663256      81.48109051      87.04477316
H      78.48213673      81.51132613      85.27032014
C      79.28149096      83.66183468      91.13792034
H      78.82606691      82.01399333      92.25285887
C      80.25092055      85.99942613      92.17538010
H      80.56650485      86.20540629      94.18037971
C      79.24369643      93.39014574      91.47429163
O      77.11964405      93.34668203      92.34167600
N      79.60841361      94.26886847      89.12347209
H      81.39420497      94.34256780      88.45450899
C      77.55050165      95.03420763      87.47374103
H      75.77415892      94.80366102      88.49230351
C      77.68278249      97.97273205      87.24886360
H      75.97069046      98.62090817      86.30589017
H      79.40810262      98.35823621      86.19061686
C      77.77159963      99.44482884      89.74708177
H      79.64431841      98.96105891      90.45383942
H      76.39209942      98.80799108      91.13792034
C      77.57128864     102.31910257      89.22551732
H      79.03015736     102.83121840      87.86680410
H      77.84340923     103.38112875      90.96973471
C      75.07496018     103.10522871      88.07656372
H      73.67278326     103.30931915      89.57322696
H      74.32095938     101.55943259      86.94272794
N      75.15054924     105.57132155      86.69706351
H      73.37798595     106.18170315      86.33423606
H      76.06895622     105.35400302      85.03788381
H      76.18989871     106.88468134      87.60602187
C      77.39554410      93.81155470      84.90938242
O      79.12653340      92.91771416      83.80389253
N      75.05228347      93.72084784      83.96451927
H      73.71435724      94.73185142      84.87914679
C      74.20001690      92.09001403      81.87070250
H      75.45101572      90.45729050      81.77432647
C      71.52038499      91.27554199      82.39604643
H      70.24104027      92.83456620      82.81367594
H      71.26527194      90.24564115      84.16105080
C      70.56229375      89.58234722      80.24553787
O      68.73114895      90.12658839      78.93973700
O      71.69612954      87.65104692      79.67673026
C      74.34741555      93.53187521      79.39705077
O      74.40599707      95.86946666      79.51988298
N      74.15844292      92.32434010      77.20496824
H      73.76537985      90.45729050      77.25410113
C      74.50237311      93.67171496      74.84847953
H      75.98202881      95.09656860      75.01855490
C      75.44723627      91.84245989      72.73954497
H      75.19023349      93.01220047      71.06524744
C      78.14576544      90.90515564      73.27055806
H      79.44967660      92.42260586      73.74865881
H      79.11897449      89.62392120      71.98365444
H      78.08907365      89.55778077      74.82958226
O      73.91844768      89.60313421      72.57513877
H      74.50237311      88.64693269      71.14650568
C      72.24415017      95.30065904      73.93763145
O      72.39532827      96.81999899      72.28979010
N      70.12387724      95.20239327      75.30957274
H      70.16923067      93.87580540      76.68151406
C      67.94124335      96.92960312      75.18296109
H      68.10942899      97.96139369      73.40661836
C      65.65845397      95.25908506      75.07146724
H      64.11454757      96.61968801      74.96564256
H      65.51861422      93.93816637      76.64749898
C      65.59609300      93.53565466      72.58269768
H      67.26472133      92.35268599      72.33892298
H      65.39578201      94.73752060      70.92162825
C      63.30385498      91.81789344      72.50710863
O      63.33409060      90.04910962      74.08125064
O      61.53885060      92.13725719      71.01044538
C      67.85242621      98.92893356      77.38071279
O      66.05340676     100.26497006      77.79834231
N      69.90844844      99.09145002      78.85091986
H      71.47503156      98.06343891      78.48998214
C      70.28828343     101.27786337      80.55734272
H      69.44168604     103.01263212      79.83924672
H      72.33107758     101.35345242      80.80489687
C      69.27727985     100.86023385      83.31634313
O      69.18090381     102.57799507      84.83190364
N      68.50627152      98.47917870      83.83412815
H      68.59130920      97.16014973      82.46029712
C      67.42156862      97.61746350      86.28132373
H      66.51449998      99.22373087      87.19595125
C      65.52428340      95.54443373      85.80133324
H      64.61343531      95.24018780      87.62491913
H      66.65433973      93.87202595      85.38559344
C      63.42857692      96.10568245      83.87381240
C      63.21125839      94.58634249      81.69495796
H      64.55107435      93.07267172      81.40016066
C      61.16468479      95.07956106      79.98664538
H      60.71870938      93.99107870      78.31801703
C      59.26362012      96.88802914      80.75009481
O      57.26995886      97.55510253      79.33846924
H      55.92447373      98.47161979      80.14160293
C      59.61888867      98.33555950      82.98942048
H      58.34899259      99.85112000      83.49208769
C      61.80908147      98.08422590      84.37270015
H      62.07175342      99.37301924      85.93361408
C      69.55129017      96.72551268      88.15215278
O      71.78305695      96.66882089      87.37547525
N      68.76516402      96.32678043      90.57667163
H      66.94157813      96.68393870      91.01319840
C      70.43946154      95.34412274      92.52686919
H      72.36131320      95.85623858      91.99018692
C      69.81585185      96.85779352      94.93438051
H      70.48859442      95.90348173      96.62946502
H      67.76927826      97.07700177      95.00430039
C      71.25393358      99.29176101      95.11390451
C      69.98214777     101.63313191      95.05532299
H      67.97147897     101.92037031      94.85690173
C      71.37487606     103.96883364      95.24051617
H      70.49426360     105.80564761      95.15547849
C      74.08474359     103.83655280      95.18193466
O      75.45101572     105.86233940      94.71139281
H      74.42867378     107.33254647      94.42226468
C      75.31873488     101.41770311      95.12524287
H      77.34641121     101.58966821      94.97973393
C      73.92600658      99.20294388      95.42948881
H      74.91244372      97.41715251      95.53153402
C      70.10309025      92.45095176      92.91426308
O      68.05462693      91.46073517      93.28086999
N      72.22336318      91.07145155      93.23173709
H      73.80695383      92.08434485      92.89536582
C      72.42367417      88.21607509      93.16370696
H      70.68134651      87.31089619      93.79487554
C      73.07940920      87.32034482      90.38769900
H      73.72380587      85.36447809      90.30266132
C      70.70591295      87.55656061      88.53198776
H      71.29928701      86.66838924      86.76887310
H      70.19946630      89.54455269      88.35057404
H      69.13555038      86.53232895      89.38614406
O      74.74236835      88.97196562      89.37291597
H      75.78360755      89.56533968      90.73540865
C      74.51560119      87.15593863      94.87579899
O      76.28438502      88.48441623      95.60334363
N      74.15655319      84.82590609      95.60712308
H      72.57674200      83.93962445      95.00619011
C      75.88754250      83.29522777      97.26252333
H      77.89065239      83.77521826      97.19260345
C      74.97480469      83.69962920     100.08766417
H      74.98992250      85.72730554     100.44860189
C      72.11753850      82.86814963     100.18404021
H      72.07596452      80.89527536      99.58877641
H      70.94779792      84.07568474      98.99351263
H      71.48448019      82.93051059     102.14557611
C      76.49981382      82.39193860     102.28919532
H      76.64721248      80.36804171     101.93770622
H      75.44534654      82.37493106     104.05797915
C      79.16054847      83.34247093     102.67658922
H      78.98480392      85.27188150     103.37767768
H      80.15643424      83.38404491     100.87190059
H      80.15643424      82.09336184     103.97672092
C      75.88754250      80.48709447      96.42348485
O      74.44190187      79.58569502      94.82288666
N      77.73380511      78.94318807      97.20961098
H      79.07173133      79.65750462      98.36990295
C      78.14576544      76.24087945      96.58033212
H      76.55650561      75.08436694      97.19827264
H      79.71423828      75.47931974      97.67637339
C      78.86008199      75.71175608      93.83833925
O      80.94822956      76.50544113      93.01441858
N      77.24247626      74.51555932      92.37002191
H      75.85541715      73.49510711      93.19205285
C      77.41633108      74.50989014      89.44661530
H      78.95456830      75.80057322      88.99497071
C      78.12686818      71.88695002      88.33356649
H      76.51493163      70.66429710      88.71151176
C      78.10797092      72.05513566      85.39504208
H      77.94923390      70.12572510      84.69206390
H      79.78604788      72.91685086      84.56923169
H      76.50737273      73.14361802      84.68639472
C      80.67799870      70.71909916      89.24252485
H      80.66288089      70.53957516      91.29287790
H      82.23135373      71.97198771      88.72473985
C      81.69089200      68.27001386      87.97451849
H      83.26692375      67.40640893      88.98174263
H      82.23513318      68.68197419      86.02999012
H      80.15832396      66.89807255      87.92538561
C      74.79339096      75.36782589      88.58867955
O      73.13232153      73.91084690      87.89137054
N      74.56662380      77.87171325      88.54143640
H      76.05005896      78.95830588      89.05166250
C      72.48414541      79.35325868      87.40193143
H      71.63565829      78.22887153      85.90148874
H      73.19279278      81.25054390      87.02587589
C      70.15411286      79.80301355      89.03276523
O      68.54028659      81.19196239      88.10301989
N      70.13143615      78.82791477      91.32878271
H      71.68857063      78.13060576      92.18293900
C      67.93746390      79.23231620      92.98040350
H      66.32741708      78.33280647      92.06766570
C      68.64800099      78.08903178      95.45783470
H      70.08419299      79.27766963      96.33277797
H      69.65522512      76.30701987      95.24051617
C      66.68268563      77.71864542      97.51952610
N      65.48837860      75.48309919      98.09400290
H      65.73026357      73.87116265      97.10000686
C      63.81219136      76.01033284      99.98183949
H      62.69347338      74.76311347     101.14402118
N      63.95014138      78.62382433     100.56198547
H      62.88055629      79.60081283     101.80542539
C      65.94758209      79.59136420      99.10500649
H      66.59197876      81.52833367      99.16358800
C      67.36298710      81.98186799      93.33189259
O      68.70847223      83.44073670      94.36746262
N      65.20114020      82.75665577      92.36813217
H      63.92746466      81.53589258      91.64247728
C      64.22226197      85.33235274      92.43994178
H      65.63199780      86.59091046      91.61791083
C      61.87144243      85.59313497      90.80721825
H      60.28596206      84.51599097      91.56310877
H      62.26450551      84.81078828      88.94205837
C      61.13066972      88.47307787      90.59934835
H      61.80530201      89.55589105      92.21506435
C      62.36277128      89.49541981      87.97073905
H      61.11555191      88.68472722      86.54777514
H      64.33753527      88.91527383      87.91782671
H      62.39300690      91.55522149      87.99152604
C      58.32253642      88.86425122      90.45950860
H      57.54396918      87.73608461      88.92316111
H      58.05986446      90.84468439      89.95495168
H      57.46082122      88.78866216      92.32844793
C      63.67046188      85.92761653      95.13469149
O      62.28529250      84.49520398      96.41970539
N      64.63989148      88.09513261      96.02853205
H      65.88711085      89.17794579      95.07422026
C      63.98415645      89.12125400      98.42848446
H      63.78762492      87.68317227      99.88924291
C      66.19702596      90.89003782      99.32043529
H      65.55262929      91.92371812     100.97961498
H      66.52961780      92.14292637      97.71794737
C      68.54028659      89.42361021     100.11034088
H      69.30373602      88.10458124      98.72706122
C      70.75315611      91.17916595     100.80009098
H      72.51816048      90.29666376     100.21049638
H      70.78906090      92.08434485     102.64824332
H      70.85331160      92.74196961      99.45838531
C      68.19068722      88.07056617     102.68036867
H      67.56518781      89.41794103     104.10900176
H      69.95380187      87.26932221     103.37767768
H      66.66189864      86.71185295     102.42336589
C      61.54074033      90.60657888      98.20927621
O      59.78140513      90.02454317      99.62657094
N      61.41790812      92.39614970      96.41403622
H      63.04496247      92.90070662      95.55610047
C      59.17669271      94.02320405      95.89247175
H      57.43058560      92.95361896      95.65814569
C      59.05386050      96.25497083      97.73684463