 %block lattice_cart
   137.793   0.000   0.000
   0.000 143.498   0.000
   0.000   0.000   162.326
 %endblock lattice_cart

 %block positions_abs
N      88.45422249      40.13860310      80.29089131
H      87.62652235      38.92917826      81.51354423
H      90.34394879      39.89671814      80.18695636
H      87.68510387      39.85892361      78.56746091
C      88.08761558      42.76343295      81.16583459
H      89.45010824      42.97697203      82.69651290
C      88.30682382      44.70040242      78.91706028
H      87.16731886      44.10513863      77.31079291
H      90.24757275      44.57001131      78.23486908
C      87.74935457      47.44050558      79.68995834
H      86.12796939      47.31011446      80.95607497
H      87.36574013      48.44961943      77.93629232
S      90.05293094      49.26976065      81.27543872
C      92.52280323      49.54188124      78.76210272
H      93.20121497      47.69750836      78.13849304
H      93.84561165      50.90626364      79.55389805
H      91.72344900      50.52831837      77.13882782
C      85.61585356      43.10169396      82.48297383
O      83.75069368      42.22486095      81.50031615
N      85.64419946      44.40560512      84.60891593
H      87.28259216      45.15960592      85.22874616
C      83.53148544      44.96118465      86.18872713
H      81.93655642      43.66105295      86.10746890
C      84.23635334      44.46040718      89.01764742
H      85.78781865      45.77565670      89.33701117
H      84.76547672      42.47619455      89.16315635
C      82.14631604      45.27865867      90.90548401
O      80.12619861      45.92305535      90.15715239
N      82.61496818      45.14448811      93.30543643
H      81.33940291      45.65849366      94.62824485
H      84.31383213      44.40938457      93.76463992
C      82.58662227      47.57845560      85.46496195
O      83.93588686      49.50597644      85.79566406
N      80.08084518      47.90159880      85.03032490
H      79.08306970      46.27454444      85.07000915
C      78.90921488      50.45272932      84.37270014
H      79.84273967      51.08956709      82.65115947
C      76.14832472      50.17304983      83.53933084
H      76.25603913      48.89937429      81.92361484
C      74.60252861      48.81433661      85.54055101
H      75.50203833      47.01909661      85.99786477
H      72.65044133      48.46662696      84.97930229
H      74.54394709      49.82534018      87.33390128
C      74.76504506      52.69394473      82.74942524
H      74.65733066      53.84100860      84.45584810
H      72.89232630      52.01931243      82.21841215
C      76.19745761      54.19438742      80.64427013
H      77.29349887      55.77797807      81.37370449
H      74.73669917      55.24129580      79.63515628
H      77.09696733      53.07566944      79.16461443
C      79.22101971      52.41993441      86.52320869
O      79.62164169      54.59500940      85.93928326
N      79.51959647      51.56955757      88.81733643
H      79.13220258      49.71951551      89.07433921
C      80.02604313      53.13614068      91.11524363
H      78.85063335      54.76697449      90.66548877
C      79.33440329      51.77175829      93.48307070
H      80.07706573      52.66181938      95.18571411
H      80.09785272      49.86313471      93.37913575
C      76.48280628      51.56388839      93.83833925
C      75.12976224      53.78431681      94.53753798
H      75.99336718      55.43215815      95.37657647
C      72.47280706      53.59534418      94.75107706
H      71.37865551      55.13169167      95.52586484
C      71.28416920      51.31066507      94.10668038
H      69.27916958      51.24830410      94.47517701
C      72.66366941      49.34534970      92.98418295
H      71.81140285      47.59546313      92.37002190
C      75.31684515      49.38692368      92.87079937
H      76.20123706      47.59168368      92.46450822
C      82.63197571      54.26997647      91.31366489
O      83.04393604      55.70805820      93.06544118
N      84.37808283      53.37802565      89.71684616
H      83.73368615      52.13647546      88.41671445
C      86.91409554      54.28698401      89.52409407
H      87.23345928      55.59656434      91.07933883
C      88.85295473      52.02876106      89.92471605
H      88.63374647      50.71351155      88.35246376
H      88.25013204      51.15759723      91.69161015
C      91.51746883      52.65237075      90.19116746
H      92.06548946      53.48196060      88.38836856
H      92.67398134      50.96484515      90.44061134
C      91.93509835      54.60823748      92.28498422
O      93.76435341      56.04065003      91.81066291
O      90.67654063      54.50808199      94.30132219
C      87.57549975      55.51152666      86.90871286
O      89.09483970      57.33322283      86.79154983
N      86.41142833      54.62335529      84.80922692
H      85.12452472      53.21361946      84.83568309
C      86.72890236      55.56443900      82.28455257
H      88.64508484      55.10901496      81.67417097
C      84.74468973      54.37202169      80.70474137
H      82.99291343      54.74240805      81.71952440
H      85.11696581      52.35001454      80.81623522
C      84.62941642      54.86712999      77.93629232
H      86.43977423      54.36824224      77.09158466
H      84.56327601      56.90992413      77.69818681
S      82.37308321      53.00574957      76.23931809
C      82.08584480      55.19783209      73.58047317
H      80.98602410      54.35879361      72.05357431
H      84.08139579      55.50396775      73.16851283
H      81.28271112      57.00630017      74.14739106
C      86.53992973      58.47839697      82.07857240
O      88.17076353      59.72939579      80.94662634
N      84.54815819      59.44782657      83.10658351
H      83.54660325      58.23273255      84.18939669
C      83.99068893      62.24840097      83.29744587
H      84.15320539      63.27641208      81.51921341
C      81.23168852      62.27296741      84.29333164
H      80.73846994      64.18537044      84.86969816
H      81.12775357      61.07299120      85.96573943
C      79.33629301      61.27708164      82.36770053
H      79.79549651      59.31932518      81.91794566
C      76.78327278      61.31865562      83.79822335
H      75.39432393      60.63835415      82.43762040
H      76.35619463      63.25562509      84.35758233
H      77.10830569      60.00340611      85.34968865
C      78.88464844      62.73972981      79.96207893
H      77.41255163      61.75329267      78.91517055
H      80.60051992      62.50918320      78.84147123
H      78.26859766      64.66536092      80.35136255
C      85.63286109      63.69026214      85.11347286
O      84.88830892      65.89746248      85.59535307
N      87.70778058      62.70193528      85.91093736
H      88.01202652      60.94448981      85.22496671
C      89.49357195      64.11167111      87.44161568
H      88.27091902      65.25306580      88.64537134
C      91.02802972      62.59422088      89.24441458
H      92.63240735      61.94415503      88.12380688
H      90.08127683      60.91236446      89.96062085
C      91.55148390      64.17403208      91.46484300
H      90.09072546      64.12489919      92.91804253
H      92.15430660      66.08265565      90.97918333
C      93.80970686      62.88523873      92.94638843
H      94.63173779      64.07009713      94.41848522
H      95.30070091      62.33910783      91.63491837
N      92.89318958      60.56465482      94.34856535
H      92.95177111      58.88468813      93.44338645
C      91.99179014      60.52119112      96.64269309
N      91.65919830      62.28808522      98.21305566
H      90.80882146      61.67770362      99.80798467
H      92.13540933      64.09466357      97.82566177
N      91.22078181      58.47650724      97.60456379
H      90.60095157      58.39146956      99.40547296
H      90.77480639      57.10267622      96.35734442
C      91.17164891      65.86155768      85.84101749
O      91.59494761      67.92513881      86.67816625
N      92.20532922      64.96393768      83.66405278
H      92.00123876      63.12901343      83.18028284
C      93.54892462      66.49083654      81.93495320
H      94.37095557      67.89490319      83.19918010
C      95.76179414      65.22849936      80.68584411
H      96.36272709      66.46627010      79.15138634
C      98.11072393      65.21149182      82.40738478
H      99.67730705      64.10789166      81.65905316
H      97.73844786      64.54819789      84.31978781
H      98.97810831      67.07665170      82.31100874
C      95.01724196      62.67547911      79.42917611
H      94.70543713      61.00685078      80.59702697
H      96.67264221      62.07454614      78.35959102
C      92.81760053      62.44304278      77.58669295
H      90.97322765      62.54697772      78.49754104
H      93.00468344      60.69504594      76.51521814
H      92.92531493      63.79041764      76.03144820
C      92.03525384      68.17080323      79.97719674
O      93.04247796      69.97738159      78.85280958
N      89.56349182      67.73805590      79.83735699
H      88.92476433      66.50406462      81.14693733
C      88.00068816      68.93614239      77.98731493
H      89.05704517      68.66024235      76.23931809
C      85.48735217      67.53585519      77.66417173
H      84.51225339      67.64923877      79.47452954
H      86.10340294      65.58943709      77.39394087
C      83.92265878      68.53741014      75.56657553
O      81.70978926      69.26684449      76.05790437
O      84.84295549      68.46937999      73.44252315
C      87.50180041      71.78207021      78.58635817
O      86.72890236      73.15590124      76.81568462
N      88.00068816      72.72693337      80.80300714
H      89.02114037      71.60821539      81.96707855
C      87.86651760      75.37255021      81.62881754
H      88.33139026      76.53473189      79.99420428
C      85.02625894      76.00371880      82.30156011
H      84.43855407      74.96625905      83.98152680
H      83.75069368      75.38577829      80.80678659
C      84.54626846      78.74193223      83.01776638
H      85.69144261      79.10475968      84.69206389
H      82.57906338      79.04995761      83.54311029
C      85.18877541      80.53150304      80.81812495
O      87.28070243      81.64266212      81.00709758
O      83.66943545      80.89244077      79.13626853
C      89.84884049      76.06230031      83.71318566
O      91.01480163      74.50138638      84.92827968
N      90.50835498      78.56618768      84.02310078
H      89.67309596      79.89466528      82.93650815
C      92.18454223      79.29751176      85.92605517
H      92.88752041      81.16645109      85.42527770
H      93.79836850      78.03328486      86.12447644
C      90.81638037      79.55073509      88.47529597
O      88.78870403      80.57307702      88.74552683
N      91.95588534      78.69090962      90.57856136
H      93.52435818      77.65156014      90.25352843
C      91.17920782      79.11420831      93.13725078
H      89.22145137      78.59642330      93.51330632
C      92.81004164      77.48715395      94.82855583
H      94.72622412      77.68557522      94.09345230
H      92.46422172      75.45947762      94.72084143
C      92.56059776      77.98982115      97.76141107
H      93.00090399      79.92868035      98.29998307
C      89.95088571      77.53250739      98.68926669
H      89.49924114      75.64278107      98.00518577
H      88.60351085      78.84964663      97.85589739
H      89.81293569      77.26038680     100.72828138
C      94.47300078      76.12277156      98.90091604
H      93.73600752      74.26706032      98.39635911
H      94.73000357      76.62165930     100.88323894
H      96.18131338      76.34009008      97.77085970
C      91.43810032      82.01682793      93.83644952
O      93.47900474      83.09586165      93.72684539
N      89.36507056      82.97302944      94.83989419
H      87.65486824      82.18501357      94.52430990
C      89.43121099      85.38809967      96.27608619
H      91.32849620      86.18556417      96.31010126
C      87.58494837      87.30239242      95.25941343
H      87.34117369      88.82740156      96.62379583
H      85.77648029      86.37453680      94.92682160
C      88.55437797      88.51370699      92.84245348
H      90.53670088      89.05794817      92.94638843
H      87.27881271      90.11430518      92.60812742
C      88.28603684      86.92255743      90.52942847
H      86.45111259      86.02871689      90.80910797
H      89.67498567      85.40132775      90.51620039
N      88.05926969      88.25481449      88.13136578
H      87.85328952      90.14832025      88.24474936
C      88.05926969      87.25703899      85.80511269
N      87.76447237      84.85897630      85.41582907
H      87.99123954      84.23914607      83.62436852
H      87.80226690      83.73458914      86.95973547
N      88.09895393      88.76126114      83.82278979
H      87.72856757      87.94867882      82.13715392
H      88.32761081      90.64153882      84.04955695
C      88.55626770      84.97802906      99.06721195
O      86.79315306      83.40010759      99.38090652
N      89.72033910      86.10052649     100.93993073
H      91.07716260      87.40443764     100.62623616
C      89.23089999      85.52038051     103.59877565
H      88.95311022      83.51916034     104.00317708
C      91.52880719      86.07596005     105.13701287
H      91.02425027      85.88698741     107.12311523
H      92.13351961      88.00726034     104.75528816
C      93.93253906      84.59630434     104.72694226
H      94.71488575      84.85708657     102.83532622
C      95.98478184      85.35219487     106.63934529
H      96.21721817      87.39498901     106.53918980
H      97.75545539      84.35252965     106.30675346
H      95.07393375      84.77204889     108.39490104
C      93.43365131      81.80706831     105.13512315
H      92.16564496      81.47258675     106.72249325
H      95.15897143      80.79228528     105.62834171
H      92.62106900      80.96991955     103.43625919
C      86.98212568      86.89610127     104.75528816
O      86.33394956      86.53705327     107.00028302
N      85.74624467      88.62331112     103.43247974
H      86.21489679      88.75559196     101.58810686
C      83.96045330      90.63397991     104.22238534
H      82.80772025      89.66832977     105.63212117
C      85.42499120      92.81850353     105.37133893
H      86.19033035      92.12119452     107.14957140
H      84.12108004      94.39264555     105.63212117
C      87.70778058      93.75013860     103.65168799
H      86.97456677      94.14509140     101.76763086
H      89.10050888      92.24969591     103.43625919
C      89.01547120      96.04804580     104.60033060
H      89.66931650      95.73246151     106.52785144
H      87.47534425      97.41242820     104.71560390
C      91.27369413      96.67543494     102.82776732
H      90.59339266      96.76047262     100.88512867
H      92.74579094      95.24302239     102.96571734
N      92.28469771      99.16798394     103.70460033
H      92.99901426      99.31349287     105.46771498
H      90.79559338     100.35284234     103.85199898
H      93.54514517      99.83694706     102.43470424
C      82.28048662      91.35207591     101.95282403
O      82.59418118      90.60374429      99.79475659
N      80.36241440      92.87897477     102.64824332
H      80.08462463      93.38353170     104.46804976
C      78.52560044      93.77848450     100.88701839
H      77.70167975      92.27615208      99.74373397
C      76.53004945      95.34884706     102.09455351
H      77.58829618      96.92865826     102.88634883
C      74.50237311      96.41276298     100.35411557
H      73.52538460      97.99257418     101.24606639
H      73.05106330      94.96145317     100.16514294
H      75.26015337      96.72645755      98.46438926
C      75.41700065      93.87486054     104.25640041
H      76.97035568      93.20967688     105.43181018
H      74.42678405      92.23646783     103.48917153
C      73.64821681      95.43388475     105.91180066
H      72.18556865      96.09339923     104.61733814
H      74.72914026      97.06849801     106.54674870
H      72.96035643      94.10918660     107.32909539
C      79.96935133      95.09184429      98.71383313
O      81.66254611      96.68488357      99.12012429
N      79.26637314      94.43610925      96.27986564
H      77.99647706      93.01125561      96.34411634
C      80.10541162      95.75324850      93.94605365
H      80.97468574      97.47478917      94.66792910
C      82.43922362      94.45500652      92.60812742
H      83.86029781      94.18666538      94.07266531
H      83.50313954      95.69844643      91.35523887
C      82.16332359      91.96623696      91.26831146
C      82.35985512      91.82261776      88.55655420
H      82.16710303      93.48368719      87.38681361
C      82.10096261      89.40943726      87.43972595
H      82.35796540      89.36408383      85.41582907
C      81.70789955      87.26459790      89.07055976
O      81.60207486      84.93267563      87.94050342
H      81.88364408      85.08952291      86.15471206
C      81.51514746      87.39498901      91.68405125
H      81.23735769      85.66022026      92.71962127
C      81.68144337      89.81761815      92.85001238
H      81.50758855      89.81950787      94.88335790
C      77.86986540      96.41465270      92.19049790
O      75.69856986      95.81938892      92.68938565
N      78.44434220      97.82249881      90.24596953
H      80.16588287      98.58972769      89.94550304
C      76.52438026      98.40075506      88.35435349
H      74.64599232      97.60707001      88.63025353
C      76.29572339     101.33550002      88.20884456
H      77.93033664     102.28981181      87.39626225
H      76.50926245     102.31626798      90.00975374
C      73.92978604     102.47500499      86.97107382
H      73.38554486     101.34116920      85.33835029
H      74.11875867     104.46866625      86.48919362
C      71.65644528     102.52413787      88.80977753
H      72.25170908     103.70710655      90.38769900
H      71.57518705     100.54370470      89.37480570
C      69.13366065     103.70332709      87.80255340
H      67.64455632     103.51813392      89.21417896
H      68.59319894     102.83972217      86.01298258
N      69.52672372     106.42453298      87.10146494
H      70.33363686     107.49222835      88.46395761
H      67.79006524     107.13318035      86.74808612
H      70.64166225     106.44720970      85.55377909
C      77.14421049      97.16676378      85.81456132
O      79.38353617      97.38597203      85.00575846
N      75.25070473      96.05749443      84.59001867
H      73.51782571      95.87041153      85.36291673
C      75.42833900      95.62285738      81.87637169
H      77.39365437      95.22034567      81.40582983
C      73.87687371      93.22857414      81.41716819
H      71.90210970      93.45534130      81.95951964
H      74.44379159      91.69978555      82.67572592
C      74.29450321      92.27426235      78.69029312
O      75.76660001      90.58106758      78.30478895
O      72.95468726      93.34006799      77.01599561
C      74.33040801      97.83005771      80.41939270
O      72.48414540      99.09239489      81.16772432
N      75.59085547      98.23445914      78.25565607
H      76.96657622      97.01747540      77.73409161
C      75.16944649     100.40197523      76.54167430
H      75.10519580     102.11784672      77.67928954
C      77.34452149     100.88196571      74.68218361
H      76.83051592     102.51090979      73.53134029
C      79.96368215     101.21833699      75.82924748
H      81.45845567     100.74401569      74.49510071
H      80.21123630      99.95222036      77.43740458
H      80.35863495     103.20254962      76.22231056
O      77.61286262      98.73334689      73.05134980
H      77.88876267      99.43821481      71.40161873
C      72.57485227     100.19599506      75.26988849
O      71.99281656     101.86084394      73.79212252
N      71.11031438      98.28359203      75.73476117
H      71.80951311      96.90976100      76.86103805
C      68.42879274      98.22501051      74.88060487
H      68.07730365      98.84295102      72.94741486
C      67.63699741      95.33183953      74.74832403
H      67.47448095      94.45311679      76.60403527
H      68.99004145      94.25469553      73.62960606
C      65.04429291      94.95389426      73.43874370
H      63.74794066      96.54882327      73.59370126
H      64.08053249      93.28526593      74.16817805
C      65.49404777      94.70822984      70.56635970
O      65.32019295      92.55016239      69.56291503
O      66.31229927      96.50913902      69.37772185
C      66.74315687     100.09961902      76.46419552
O      64.74004697     100.86873762      75.77066597
N      67.59164398     100.81393556      78.75643354
H      69.40200179     100.36418070      79.15327607
C      66.21025404     102.36540086      80.48931257
H      64.36399144     102.95121602      79.78633438
H      67.06252061     104.20599429      80.84080167
C      65.51105531     101.11440205      83.04989173
O      64.16557017     102.30681935      84.55789332
N      66.47670546      98.84295102      83.77176718
H      67.68046112      98.04170706      82.52643754
C      65.77561699      97.20266858      85.78432570
H      64.42257295      98.09083994      87.05800124
C      64.60587641      94.68366340      84.90182351
H      63.46448171      93.93911123      86.44761964
H      66.08742183      93.38542142      84.30278027
C      62.80118778      95.00491688      82.62281358
C      62.82008504      93.05282959      80.78977906
H      64.14289346      91.52971019      81.07701745
C      61.20058959      93.21345633      78.77722053
H      61.33853961      91.74702871      77.36370525
C      59.56597633      95.45656146      78.36714992
O      57.91624526      95.56805532      76.41884209
H      56.74083549      96.88141510      76.84403051
C      59.54329961      97.22912475      80.25687623
H      58.14301241      98.70689072      80.09624950
C      61.02295532      96.96834251      82.37714916
H      60.92846900      98.25902559      83.95318090
C      68.08486256      96.43354997      87.50019719
O      70.25426835      96.53937464      86.65737926
N      67.45747341      95.65876218      89.81700165
H      65.62254916      95.70033616      90.34612502
C      69.39444288      95.16176416      91.89759032
H      71.18023425      96.07261224      91.42515874
C      68.61965509      96.00080264      94.52242017
H      69.85175666      95.07672648      95.89058202
H      66.70914179      95.28459637      94.80965857
C      68.63477290      98.82405375      94.66225992
C      66.35198352     100.22056150      94.55832497
H      64.57753051      99.26813944      94.20872560
C      66.32552735     102.87940642      94.98918257
H      64.56241270     103.91119699      95.05154354
C      68.61776538     104.12284634      95.58255663
O      68.59130920     106.64185151      95.70160939
H      66.83386373     107.06515020      95.57688745
C      70.89677531     102.75279476      95.60523335
H      72.61831598     103.79970314      95.91703819
C      70.87031913     100.13930327      95.15358876
H      72.38965909      98.85806883      95.61657171
C      69.94813269      92.27426235      92.15081365
O      68.43824137      90.54894223      91.83711908
N      72.45957896      91.79049242      92.64025276
H      73.72380587      93.21912551      92.69883428
C      73.53861269      89.28471533      92.38702944
H      72.00793437      87.91466375      92.52497946
C      74.72158136      88.75181251      89.86046536
H      75.51904586      86.85074783      89.83211946
C      72.94145918      89.22613381      87.65515475
H      71.53928225      87.71435276      87.63058831
H      74.11119976      88.84251937      86.00353395
H      72.33863648      91.19333890      87.57578625
O      76.77949331      90.56594977      89.46551256
H      78.17600107      89.69100648      88.70962203
C      75.36975749      88.63275975      94.67359828
O      76.23903160      90.39776412      95.83200051
N      75.93478565      86.32729365      95.18382438
H      75.15054923      84.91944754      94.15959272
C      77.58451672      85.57707230      97.15858838
H      79.14165120      86.92255743      97.10378632
C      76.39776860      85.75848603      99.79286686
H      75.79116645      87.72191166      99.91002989
C      73.89577096      84.18245428      99.89302235
H      72.88098794      84.60008380     101.63723974
H      74.42678405      82.23036700      99.50751819
H      72.83941395      84.88732220      98.27352690
C      78.31773053      85.18022977     101.82243292
H      80.15454451      85.90399495     101.24039721
H      78.59741003      83.14310481     101.93959595
C      77.80939416      86.31595529     104.41324769
H      76.13698637      85.38243049     105.17858685
H      77.42011053      88.33796244     104.39246070
H      79.41377180      86.02304771     105.66991569
C      78.65599155      82.98436780      96.41970539
O      77.38987492      81.39888742      95.38980455
N      81.04271589      82.66689378      97.43070897
H      82.30883252      83.98592274      97.98061932
C      82.12552905      80.11198380      97.49118021
H      80.48713634      78.97436856      98.00329604
H      83.48991145      80.33497151      99.01618934
C      83.28960047      79.26916587      95.11390451
O      84.18344101      80.76582911      93.53031386
N      82.93811138      76.87866208      94.51864072
H      81.94978452      75.81663589      95.75830118
C      83.63731010      75.82986398      92.00341500
H      85.10562745      76.95992031      91.10579500
C      84.40831844      72.94614162      92.14892392
H      82.93244219      71.67246609      92.81599731
C      85.13019389      72.19025110      89.46362283
H      85.86718715      70.27217889      89.60913176
H      86.70244618      73.27306428      88.69072477
H      83.62219229      72.00505792      88.07278427
C      86.56449617      72.68157994      94.00463516
H      86.17143309      73.42235265      95.88680257
H      88.15186626      73.77951093      93.28086998
C      87.34306340      69.92635898      94.33155781
H      85.78970838      68.59788138      94.57533251
H      88.63563620      69.97360213      95.93404573
H      88.55626770      69.22527051      92.81977676
C      81.24869605      76.14733800      90.48974422
O      79.61975197      74.45981240      90.38580927
N      80.68933705      78.36209724      89.51275572
H      81.80616531      79.83797349      89.98329757
C      78.71268334      78.88933088      87.54555062
H      78.80527993      77.35676284      86.17171959
H      79.12464367      80.63165854      86.52887787
C      76.01604388      79.06885488      88.37703020
O      74.48536558      79.80395841      86.69895324
N      75.27905062      78.44335547      90.74485727
H      76.61319740      77.96336498      92.02231226
C      72.58241118      78.42256848      91.55554986
H      71.54684115      77.06007581      90.41037571
C      72.38965909      77.22448200      94.24652013
H      73.80317437      77.98037252      95.54098265
H      72.88665711      75.23082074      94.11423929
C      69.81207240      77.41534435      95.68082240
N      67.49337821      76.19080170      95.08744834
H      67.27794941      74.83586794      93.76086047
C      65.76238892      77.11298814      96.66725954
H      63.80652217      76.58008532      96.90347533
N      66.88488634      78.83452881      98.21305566
H      65.79073480      80.01371803      99.24106678
C      69.36231753      79.12176721      97.52141583
H      70.96480546      80.05718174      98.37179267
C      71.43534730      81.06629559      91.44594573
O      72.45579951      82.98247807      92.28120476
N      69.23570587      81.14944355      90.21762363
H      68.58941947      79.42979260      89.69983862
C      67.60109261      83.51349117      90.05321744
H      68.99193118      85.02527222      89.90770852
C      65.91545675      83.13743563      87.87436300
H      64.67957573      81.49904292      88.04254864
H      67.19480146      82.95980136      86.26998536
C      64.28651267      85.52227024      87.38870334
H      62.94858643      85.75470657      88.94016864
C      65.70569713      87.94489937      86.92383067
H      64.44147022      89.35841465      87.72507462
H      66.24048967      88.46268438      85.00197901
H      67.40456108      88.33418299      88.02365138
C      62.71426037      85.12920716      84.99630983
H      63.78384546      84.61898106      83.31445341
H      61.75994858      86.88854236      84.50876044
H      61.19869986      83.80828847      85.44606469
C      65.93435400      83.74214805      92.41726506
O      64.78729013      81.93745942      93.24307546
N      65.72837383      86.01737853      93.33567205
H      66.87165825      87.25325954      92.43616232
C      64.65500929      86.62209095      95.93215600
H      64.20147497      84.79094615      96.75796640
C      66.87543772      88.04883432      97.32677402
H      67.19858091      89.85919212      96.39891840
H      68.70847223      87.12664788      97.12835276
C      66.68457535      88.49292000     100.23506282
H      65.20491965      89.86864076     100.63757452
C      66.04395813      86.21957925     101.82243292
H      67.40078162      84.72858519     101.39913422
H      64.18824689      85.50904215     101.27819174
H      66.03261978      86.72791562     103.81987363
C      69.07885859      89.46612905     101.28575065
H      68.90122431      89.72313183     103.32287561
H      69.64766621      91.21790534     100.36356421
H      70.54339648      88.09229802     100.81898825
C      62.13222466      88.05261377      95.69027103
O      60.27273397      87.03405129      96.62757528
N      62.14167329      90.35619015      94.62257567
H      63.75927902      91.13475739      93.97628927
C      60.08187161      92.07962054      94.73029007
H      58.36977957      90.96468202      94.46572838
C      60.07809216      93.69155709      97.34189183