 %block lattice_cart
   137.793   0.000   0.000
   0.000 143.498   0.000
   0.000   0.000   162.326
 %endblock lattice_cart

 %block positions_abs
N      87.45455725      41.67967491      78.72997737
H      86.13741802      40.39466101      78.21597182
H      89.00224310      40.99937343      77.84936491
H      87.00858185      43.37664914      77.97597658
C      87.69455250      41.73447697      81.52299287
H      88.16131490      39.84853011      82.20896352
C      89.81482543      43.62987246      82.34502381
H      91.57227090      43.28216282      81.32835106
H      90.11151245      43.31428817      84.35947206
C      88.92665406      46.48335919      81.99353472
H      90.10206383      47.69845321      83.16894448
H      87.08984008      46.64398593      82.91005198
S      88.59217249      47.58695936      78.76210272
C      91.87273738      48.38442387      78.21597182
H      92.69476833      49.82061586      79.43862474
H      92.20532920      48.84929654      76.23553864
H      92.91208685      46.61564004      78.39171636
C      85.06405348      42.13887840      82.77777114
O      83.18377578      42.58485381      81.53055177
N      84.97712606      42.12754004      85.35346810
H      86.60795986      41.83085301      86.29833126
C      82.94000110      42.94390181      87.16004646
H      81.30349810      41.72313861      86.88414642
C      84.03604236      43.02327032      89.81700165
H      85.67254535      44.26671023      89.97006948
H      84.83161714      41.26582484      90.54076683
C      82.06694753      43.70924097      91.72751496
O      82.04994000      45.81817553      92.60245824
N      80.36619386      41.96691331      92.37947053
H      79.16999710      42.40721954      93.80054472
H      80.30005343      40.20568838      91.65192590
C      81.88742354      45.54794467      86.43250183
O      83.41621213      47.16744012      85.75597981
N      79.38164645      46.02793515      86.70084296
H      78.22513395      44.62575823      87.28476839
C      78.11364009      48.40899031      85.99597505
H      78.89409706      48.72268488      84.11380764
C      75.27905062      47.97813271      85.48952840
H      75.04472456      46.19612079      84.48230427
C      73.49514899      47.90632311      87.81578149
H      73.80317437      49.38030963      89.22173786
H      74.02049289      46.12998037      88.71151176
H      71.51849526      47.62286416      87.31311429
C      74.16789156      50.18155359      83.75475964
H      74.46835803      52.00513948      84.66560772
H      72.12509740      49.96234534      83.62247880
C      75.36219859      50.10596454      80.97875169
H      77.38042628      50.48013035      81.13181952
H      74.55717517      51.67443738      79.91672550
H      75.05795265      48.24269439      80.15483101
C      78.71079360      50.58973447      87.77798696
O      79.16621764      52.74213274      87.00697863
N      78.91677377      49.93588917      90.28187433
H      79.10196695      48.07450875      90.66926822
C      79.77470952      51.89553535      92.02420199
H      78.81283883      53.70589316      91.81255264
C      78.82606692      51.23035169      94.78131268
H      79.68211293      52.62119026      96.03609095
H      79.85407803      49.54660555      95.37279701
C      76.01982334      51.16043182      95.27453125
C      74.91055400      52.60607245      97.30220758
H      75.89510140      53.99313156      98.43415364
C      72.38587964      52.19978129      97.83700013
H      71.56951788      53.37897051      99.28642021
C      70.84008352      50.53871186      96.48584581
H      68.87476815      50.29493717      96.98473356
C      72.00037546      49.15165275      94.59989895
H      70.95913627      47.80805734      93.46795289
C      74.63843341      49.38408908      94.08967285
H      75.57195821      48.02348614      92.88591719
C      82.65843187      52.52859367      91.82389100
O      83.31227717      54.83594950      91.74263277
N      84.42721571      50.77303792      91.20595049
H      83.78281903      48.99291574      90.95839635
C      87.14842160      51.28326403      90.50108258
H      87.80982581      52.62874916      91.91459786
C      88.70933553      48.81339174      90.35935311
H      88.21611696      47.82128542      88.62269462
H      88.44477385      47.66821759      92.05065816
C      91.57416062      49.32928702      90.32533803
H      91.87462711      50.91098795      91.61035192
H      92.07682782      49.83951313      88.39403774
C      93.25979649      47.01626201      91.12469226
O      95.04369813      47.43578126      92.59489933
O      92.88185122      44.86008429      90.24219007
C      87.37329902      52.94622318      88.18616785
O      89.03436845      54.54493165      88.04821782
N      85.73679603      52.50213750      86.28510317
H      84.26469925      51.40987569      86.81800599
C      85.46467545      53.81927674      83.88326103
H      87.14275241      53.97801375      82.69651291
C      83.50691898      52.39820255      82.15227173
H      81.64931803      52.49079914      83.03477392
H      84.06438826      50.41587965      82.16172036
C      83.29149019      53.36574243      79.47830899
H      85.05082538      53.36385270      78.41061363
H      83.05149495      55.36885232      79.90160769
S      80.73846994      52.35662858      77.64149502
C      78.90732515      55.16665160      77.16717371
H      77.21035091      54.86618512      76.03711738
H      80.16210341      56.52536482      76.26388454
H      78.59552031      55.93388049      79.05123085
C      84.61996779      56.45166550      84.28010356
O      85.76136249      58.22800823      83.35224794
N      82.55071747      56.93543543      85.72952364
H      81.63797966      55.46144891      86.52509842
C      81.13531246      59.29948305      85.55944827
H      81.15609946      59.72656120      83.54688975
C      78.30450244      58.98200903      86.27187509
H      77.47869206      60.70165997      87.05044233
H      78.13442708      57.69699514      87.87247328
C      76.42422476      58.02958697      84.17049943
H      76.94200978      56.06238187      83.85491514
C      73.76726958      57.97856436      85.39693181
H      73.14365989      59.91742355      85.69739829
H      73.85041753      57.13763615      87.27720949
H      72.40477691      56.99590667      84.20829396
C      76.26926722      59.50735294      81.70440659
H      78.20056751      59.58105227      80.99197977
H      75.47369244      61.40463816      81.78755455
H      75.10330608      58.53603362      80.30978857
C      82.35229621      61.36873336      86.91060258
O      82.25969962      63.60616932      86.32478743
N      83.78470875      60.57882776      88.77387273
H      83.81683410      58.74201379      89.28598856
C      85.11318636      62.16430814      90.64281205
H      83.79982656      63.53624944      91.44216628
C      85.90120222      60.51268734      93.02764666
H      87.66809634      59.59050090      92.50797192
H      84.47634859      59.06137753      93.36401794
C      86.05427005      62.07171155      95.61468198
H      84.16454375      62.54981231      96.27797592
H      86.96511814      63.91230498      95.46161415
C      87.40542437      60.93220658      98.00140631
H      87.38841684      62.31737597      99.52263600
H      89.28759178      60.21411058      97.56298981
N      85.90498168      58.62296103      98.76107629
H      86.57016534      57.06015737      97.89369191
C      83.72801696      58.50012882      99.97428059
N      83.00236206      60.47489282     101.25929448
H      81.65309748      60.05159412     102.54430837
H      83.74124506      62.20966157     100.97583553
N      82.47512843      56.34773055     100.09522307
H      81.09940767      56.20600107     101.41236231
H      83.10629701      54.74335291      99.27508185
C      87.36385040      63.60994877      89.61291121
O      88.50335537      65.08204557      91.10390527
N      88.20288888      62.88807332      87.38492389
H      87.32227642      61.41597652      86.54966486
C      90.06237957      64.35639066      85.90526819
H      90.78803447      65.85116418      87.12225193
C      92.39808129      62.82193290      85.32323248
H      93.78136095      63.93309197      84.27632410
C      93.70010272      62.26257391      87.90459862
H      92.65130462      60.76969012      88.86080014
H      93.86828837      63.83860565      89.21795841
H      95.46132765      61.27424705      87.48696911
C      91.90297299      60.30103799      84.10057956
H      90.21166795      59.39774882      84.85269063
H      93.42609240      58.92153779      84.24230903
C      91.79903806      60.80748465      81.21685720
H      91.79714832      58.99901657      80.22664061
H      93.63396231      61.62006696      80.75198453
H      90.14930698      61.93943071      80.72930781
C      89.03814790      65.94187104      83.56578701
O      90.55559813      67.08326573      82.21274297
N      86.60607014      65.95509912      83.18784175
H      85.40231449      64.87606540      84.19884532
C      85.60073575      67.05680956      80.85402975
H      86.74024071      66.26501424      79.33280007
C      82.82283807      66.14974093      80.36837009
H      81.52648582      66.48233276      81.93495320
H      82.97968535      64.14852077      79.90727687
C      81.66821529      67.21743630      78.04211700
O      79.42888960      68.03946725      78.18006702
O      82.88897848      67.46121099      76.01255094
C      85.70467070      69.93864219      80.69151329
O      85.75758303      71.03468345      78.63927051
N      85.75947275      71.15373621      82.88548554
H      85.68766315      70.22399086      84.55222415
C      86.27725777      73.82014004      83.34657876
H      87.35818122      74.58547919      81.76865729
C      83.60896422      75.02578543      83.93239391
H      82.52426131      73.98076677      85.33646057
H      82.49024624      74.80279772      82.21841215
C      83.55983133      77.80935228      84.74308650
H      84.81083015      78.13627494      86.34368469
H      81.71734818      78.53311746      85.31189412
C      84.33650884      79.52522378      82.51509918
O      85.92009949      78.81279696      80.90316263
O      83.73557587      81.77021864      82.82879375
C      87.94021692      74.24343873      85.61425033
O      88.21611696      72.79590838      87.43405677
N      89.23656917      76.40528563      85.50275648
H      88.94366160      77.58258513      84.02876996
C      91.07338315      77.01944669      87.41704924
H      92.27902854      78.60303734      86.88603614
H      92.38485321      75.46231220      87.73452326
C      89.97356243      77.66951254      90.06266607
O      88.48256837      79.54034159      90.21006473
N      90.66331253      76.36938083      92.09601159
H      91.74990517      74.83303334      91.77097866
C      89.52191784      76.83236378      94.59800923
H      87.48101343      76.56213292      94.67926746
C      90.59339267      74.86137924      96.55198623
H      92.60595119      75.26956012      96.41970539
H      90.30426454      73.02078581      95.67326350
C      89.94332682      74.85004088      99.46405448
H      90.40630975      76.75677473     100.09900252
C      87.04259692      74.75366484     100.03475183
H      86.73646125      75.23743477     102.01518500
H      86.27536804      72.86582825      99.72672644
H      86.08639540      76.14072395      98.84989343
C      91.18487699      72.88850497     101.02307869
H      90.74079131      70.97043276     100.42592517
H      91.03558863      73.10771322     103.06587283
H      93.20688416      73.27022968     100.92670265
C      90.03592341      79.61026146      95.49940868
O      92.15241688      80.50599173      95.41248127
N      88.13485873      80.78189178      96.58600131
H      86.57583453      79.69718887      96.76552531
C      88.50524509      82.96074621      98.26218855
H      90.37418442      83.44073670      98.98406400
C      87.20511339      85.27755067      96.93182122
H      87.15598049      86.69106596      98.42848446
H      85.28137200      84.92795131      96.28175537
C      88.60351085      86.64193307      94.76430514
H      90.49323717      87.09924684      95.44460661
H      87.58116893      88.40882717      94.49596400
C      88.69799718      85.18495408      92.43049314
H      86.93488253      84.16261215      92.14136502
H      90.30237482      83.90371964      92.60434796
N      88.99468420      86.82145707      90.26297706
H      89.04759653      88.71685256      90.47651614
C      89.26869451      86.22052410      87.96318014
N      88.77547595      83.91127855      87.40193143
H      88.62996703      83.47097232      85.54999964
H      88.29359575      82.78311194      88.86457959
N      89.79025899      87.82112229      86.18494768
H      89.43121099      87.41672086      84.35380288
H      90.31560290      89.55967050      86.76698338
C      87.12952434      82.49776327     100.75095810
O      85.38908639      81.03133565     100.84166496
N      87.85139979      83.91694773     102.56509536
H      89.24790752      85.18873354     102.27974669
C      86.89141882      83.70340866     105.13890260
H      85.13208361      82.64516192     105.31464715
C      88.98145612      82.87570853     106.87178163
H      88.46367111      83.20830036     108.83709699
H      90.65386391      83.95285253     106.33320963
C      89.81104597      80.11103893     106.52785144
H      90.58583376      79.81813136     104.64190458
C      91.60628597      79.64427653     108.69347779
H      90.64441528      79.69529915     110.51328423
H      93.13885401      80.98598222     108.99394428
H      92.36595594      77.78667557     108.23616403
C      87.56038194      78.38760854     106.74894942
H      86.37741325      78.70130310     105.09165944
H      86.74590989      78.80523805     108.59521203
H      88.34650808      76.48465414     106.67525009
C      86.03348307      86.30745151     106.06675822
O      85.43632956      86.58713101     108.28529691
N      86.15253583      88.24631071     104.54741826
H      86.93677225      88.12914768     102.81264951
C      85.20956240      90.82011795     105.00851148
H      84.00013756      91.08845909     106.65635283
C      87.43754972      92.66071138     105.43936908
H      88.56571633      92.81377921     103.72160786
H      88.74524032      91.78387837     106.77162613
C      86.95000033      95.29121041     106.48627746
H      86.25836051      94.79988157     108.36277569
H      85.40987338      96.22284548     105.48283279
C      89.42932125      96.80677091     106.77540559
H      90.30237482      97.35290181     104.99150395
H      90.78614475      95.76742144     107.92435918
C      88.96633830      99.36357061     108.04530167
H      88.14997655      98.95916918     109.89534373
H      87.69266278     100.50307558     106.89634807
N      91.26424550     100.86212358     108.43458529
H      90.63874610     102.49673684     109.19425527
H      92.14863741     101.18337705     106.77351586
H      92.55870803     100.12890977     109.62700259
C      83.59573613      91.41727146     102.54430837
O      84.19666910      90.36658363     100.48639642
N      81.28460084      92.58134287     102.89012829
H      80.78949256      92.61346822     104.73261144
C      79.52904510      93.33912313     100.88890812
H      78.66355044      91.59868519     100.21049637
C      77.43522835      95.19294464     101.89802197
H      78.32717916      96.85779352     102.72572210
C      75.85919660      96.03387285      99.64924766
H      76.93067143      97.33967373      98.47194817
H      74.22647306      97.18849562     100.14435595
H      75.17889512      94.46540001      98.50029406
C      75.71368767      93.82478279     103.88034487
H      76.79272140      92.67393946     105.20504302
H      74.42678406      92.55299698     102.89579747
C      74.24726005      95.72584746     105.48661224
H      73.38932431      97.13747301     104.25640041
H      75.48125133      96.73685104     106.78674394
H      72.69390502      94.99263365     106.62044803
C      81.03326724      94.37280342      98.51730160
O      82.68299831      96.01119613      98.71005368
N      80.15643424      93.50730877      96.25907865
H      78.90921486      92.06166814      96.27041701
C      80.83862544      94.37469314      93.85345706
H      81.41688168      96.35134687      93.89692076
C      83.25747512      92.85913264      93.05410283
H      84.72579247      92.66638056      94.48273592
H      84.34595748      93.74352456      91.54799096
C      82.76425654      90.14359593      91.97506910
C      83.17621689      89.65415681      89.37669542
H      83.66376628      91.18105568      88.11057879
C      83.11196620      87.22396878      88.48852406
H      83.68833272      86.84413379      86.56856212
C      82.59040172      85.18306436      90.08723252
O      82.57717365      82.80767838      88.99308098
H      83.28204156      82.97964348      87.33012183
C      81.88742354      85.63092949      92.55899453
H      81.38664607      84.05489775      93.75708102
C      82.03860164      88.08757370      93.60779264
H      81.58317761      88.47874705      95.55799019
C      78.84307445      94.27075820      91.78987592
O      76.73602960      93.53187521      92.36057327
N      79.36274919      94.74696923      89.32567281
H      81.10507685      95.40270426      88.90048439
C      77.40121328      94.99830283      87.35846772
H      75.60030410      94.72429251      88.32222814
C      77.29160914      97.62502240      86.24919837
H      76.17667063      97.41715251      84.52954743
H      79.18133546      98.17304303      85.63503732
C      75.90266031      99.29554046      87.89703972
H      76.85886182      99.38057815      89.71873588
H      73.95813193      98.64547461      88.11057879
C      75.63053971     101.88446551      86.79910873
H      74.73858889     101.93737785      84.94339749
H      77.57695782     102.54586972      86.67249707
C      73.92033740     103.64380071      88.43939117
H      74.21891417     103.37734930      90.45950860
H      71.97013985     103.04475747      88.15215277
N      74.33229773     106.36311687      87.90837808
H      72.72414065     107.22483207      88.46962679
H      74.33418747     106.69759843      86.02999012
H      75.78927673     107.26451633      88.74930629
C      77.62231125      92.91015525      85.40638044
O      79.58762662      91.76498111      84.92827968
N      75.48125133      92.54921753      84.28577274
H      74.13009702      93.71895811      84.95662558
C      74.86898002      91.15459951      81.96140937
H      76.35997407      89.73352532      81.91983539
C      72.27060633      89.94328494      82.45840739
H      71.05362258      91.38136666      83.28988697
H      72.65044133      88.43150389      83.80578225
C      70.72481021      88.87936903      80.17372828
O      69.11665312      90.06800688      78.90572192
O      71.33141235      86.77988309      79.31390281
C      74.66677929      92.91960388      79.75609876
O      74.47780667      95.26475424      80.01877072
N      74.68189710      92.06922704      77.47897856
H      74.82173686      90.19272881      77.16339426
C      74.73103000      93.81533416      75.34358782
H      76.20123707      95.13625285      75.92373380
C      75.81195345      92.28276612      73.05134980
H      75.64754726      93.48652178      71.38650092
C      78.46890863      91.32467488      73.24221216
H      79.83707048      92.86480182      73.22142517
H      78.99047311      90.34390692      71.50744341
H      78.72780115      89.76754039      74.56691031
O      74.42867379      90.09257332      72.40317368
H      74.89921563      89.67872326      70.70242000
C      72.18934810      95.10601723      74.69730142
O      72.23659126      96.81055036      73.21197654
N      70.01427312      94.48807672      75.88782900
H      69.91978679      93.14259159      77.23898331
C      67.65589467      95.98285024      75.69696664
H      67.32708229      96.76519693      73.81857869
C      65.47326079      94.19894860      76.51332841
H      65.52617312      94.13658763      78.57313009
H      65.88144167      92.37158325      75.65350294
C      62.82197477      94.87547062      75.36815426
H      62.28151305      96.81432981      75.80279132
H      61.40468004      93.61691289      76.17128795
C      62.90323300      94.48240754      72.49388054
O      62.32875620      92.23363323      71.91562429
O      63.78195574      96.15103588      71.08414471
C      67.89588991      98.30343415      77.44496348
O      66.63355275     100.24040362      77.27110866
N      69.61554087      98.05021082      79.37059459
H      70.94590819      96.71417432      79.07201784
C      70.20324575      99.84923027      81.33968941
H      69.32263328     101.68793398      81.04300238
H      72.21958373     100.23851389      81.50976478
C      69.13366065      99.17837743      83.90026857
O      69.31129492     100.52197284      85.84668667
N      67.65589467      97.12613466      83.82845897
H      67.01149800      96.37780304      82.19573543
C      66.54284588      95.89970228      86.06967437
H      65.23515527      97.21873125      86.95973547
C      64.90445317      93.86635677      85.11725231
H      64.56997161      92.70417508      86.78588065
H      66.19324651      92.85346346      83.87003295
C      62.45914732      94.38792123      83.73397265
C      61.13255945      92.33000927      82.68517455
H      61.67680063      90.47618776      83.34090958
C      59.11244201      92.77976414      81.02788457
H      58.05419528      91.21318102      80.26254541
C      58.33387478      95.18538573      80.38348790
O      56.40635394      95.38380700      78.75454382
H      55.62778670      97.02408944      78.72619792
C      59.59432222      97.23951824      81.41149901
H      59.10299339      99.12546510      80.81056605
C      61.66546227      96.86724215      83.05934036
H      62.73693709      98.51130404      83.61491989
C      68.70091333      94.92460350      87.88003218
O      70.65300060      94.34445752      86.89170532
N      68.32674751      95.01153091      90.35368393
H      66.57875068      94.70161580      91.05099294
C      70.26182726      94.26508902      92.12246776
H      72.17234057      94.65248291      91.45539437
C      69.84419775      95.69561184      94.52053045
H      70.78339173      94.94161104      96.19104851
H      67.84108786      95.52175702      94.96461613
C      70.29017315      98.51319377      94.31644000
C      68.22281256     100.07032825      94.12179819
H      66.35198353      99.25963566      94.03676051
C      68.51572015     102.76507797      94.09534203
H      66.86031990     103.94615692      93.92148721
C      70.95535682     103.70238223      94.06888586
O      71.08763766     106.28563810      93.84589815
H      69.47192166     107.10955877      93.84211870
C      73.08696810     102.20193953      94.52619963
H      74.86142111     103.12223625      94.94571887
C      72.75626600      99.57521996      94.56588388
H      74.47591694      98.54720884      94.94193941
C      70.33174714      91.37191803      92.71584182
O      68.51005097      89.94517467      92.45128013
N      72.55406527      90.50831311      93.58511592
H      73.95435248      91.78954755      93.80432417
C      73.23436675      87.88348326      93.84778788
H      71.64132747      86.64571252      94.26541739
C      74.40788679      86.91972284      91.34579024
H      74.78205260      84.91850267      91.65570536
C      72.62209542      87.12381328      89.03465496
H      73.35719897      85.80478432      87.63247804
H      72.19312755      89.02676768      88.36947130
H      70.72481021      86.50776250      89.54299134
O      76.79461112      87.91560861      90.90359428
H      76.57351314      89.65037736      91.38736422
C      75.16566704      87.49608937      95.97939916
O      76.40910695      89.34046225      96.88457806
N      75.51526642      85.10936503      96.67103899
H      74.49292447      83.91883745      95.58444636
C      77.19712284      84.03600049      98.70060505
H      78.94700940      85.12637257      98.71005368
C      75.80250481      84.34402588     101.29330955
H      75.10708553      86.28099535     101.37645751
C      73.34208115      82.79256057     101.39346505
H      72.41611525      83.02877636      99.56798943
H      72.15911248      83.38026546     102.97516597
H      73.66900380      80.80645822     101.83566100
C      77.52593520      83.87915320     103.52507633
H      78.51615180      82.09714129     103.22083039
H      76.27871584      83.83757922     105.16346904
C      79.56872936      86.02588229     103.73105650
H      78.72402170      87.88537299     103.45326673
H      81.03893643      85.71407745     102.32321039
H      80.57028429      86.08257408     105.52818622
C      77.72624620      81.40550146      98.01463440
O      76.46012956      80.26221704      96.43671293
N      79.89565200      80.28111430      98.90658522
H      80.93122203      81.25243363     100.18404021
C      80.55894595      77.64494610      98.30565225
H      78.90165597      76.54134593      98.83288589
H      82.01592493      77.00243915      99.61334286
C      81.29027003      77.20463986      95.55232101
O      82.48835651      78.68051612      94.32966809
N      80.52493087      75.07113886      94.58100169
H      79.94100543      73.58770370      95.62979979
C      81.30538784      74.02989966      92.02420199
H      83.21212168      74.71587031      91.65948481
C      81.31483647      71.10838278      91.81066291
H      79.37219781      70.47721419      92.07333487
C      82.23324346      70.03501823      89.28220911
H      80.93878094      70.42052240      87.72696435
H      82.41276745      67.98844464      89.43149749
H      84.18533074      70.66240737      89.08756730
C      82.89275793      69.90273739      94.05376805
H      83.07228194      67.86750215      93.77597828
H      82.25969962      70.31091827      95.97184025
C      85.64042000      70.96476358      94.22951259
H      85.32483570      72.94897621      94.68115718
H      86.79693251      70.81925465      92.53442809
H      86.54370918      70.15218126      95.89436148
C      79.40243344      75.27711903      90.00786401
O      78.04372022      73.82580922      88.89859467
N      79.13031284      77.81124201      89.88314207
H      80.35485550      78.98665178      90.75619563
C      77.27271189      78.93373944      88.12002742
H      77.59396535      78.07580369      86.27754427
H      77.83018115      80.91228289      87.98963631
C      74.39843817      78.74098736      88.86835904
O      72.68067695      78.71642092      87.24508414
N      73.68412162      78.73720790      91.29476763
H      74.89921563      79.23987510      92.67804729
C      71.01960751      78.38382908      92.24907942
H      69.95380188      77.43896593      90.76186481
C      71.04984314      76.75677473      94.68871609
H      72.03250081      77.74321186      96.20616632
H      72.35375430      75.19586079      94.36746261
C      68.38721875      76.03489928      95.47862169
N      66.98882129      73.89761882      94.74162842
H      67.57274671      72.60504602      93.46606316
C      64.72114971      73.82014004      95.94349436
H      63.24149400      72.41985284      95.82822105
N      64.61910450      75.91017734      97.37401718
H      63.11488235      76.64339115      98.28675499
C      66.93779868      77.28022892      97.22094935
H      67.29684668      79.03578466      98.19793785
C      69.76293951      80.95763632      92.70261373
O      70.69268486      82.52043998      94.02920160
N      67.42723779      81.12582196      91.67649235
H      66.75449522      79.55167995      90.83367441
C      65.85120604      83.45963396      91.72373550
H      67.12299186      84.94117939      91.06989020
C      63.70069751      83.35380929      89.81700165
H      62.71237065      81.58691518      90.19683664
H      64.38099898      83.19885173      87.87814246
C      61.68813898      85.54400208      90.08345306
H      61.12500054      85.82746103      92.04498898
C      62.71426037      88.06300726      88.89670494
H      61.36121633      89.60880338      89.06489058
H      63.23582483      87.57545787      86.96540465
H      64.52272845      88.71118338      89.64125711
C      59.25228176      84.87503897      88.63025353
H      59.57731469      84.98842255      86.59879774
H      57.73672125      86.19595766      89.08000839
H      58.73827621      82.94940786      89.15559744
C      65.09720524      84.16639160      94.51108181
O      64.14856264      82.49398381      95.75830118
N      65.31452377      86.57390292      95.22728809
H      66.02506087      87.89104216      94.04242969
C      64.93090933      87.18806398      97.82566177
H      64.09565030      85.48731029      98.62879545
C      67.50849602      88.03655109      98.86501124
H      68.24926874      89.60691366      97.75385217
H      68.86342980      86.48697551      98.93493111
C      67.19480146      88.97007589     101.52952534
H      65.82852933      90.51209256     101.59188631
C      66.20269515      87.18806398     103.47594344
H      67.63510769      85.76321034     103.86522706
H      64.47926474      86.23564191     102.86934130
H      65.77183755      88.05355863     105.29574988
C      69.83474911      89.96407193     102.41958643
H      69.79317514      91.52309614     103.76696130
H      70.62087526      90.90326591     100.76229646
H      71.32385344      88.62614570     102.90335637
C      62.61410488      88.95873753      98.01085495
O      60.57509019      88.38804018      99.03130716
N      62.97504260      90.95050907      96.56899377
H      64.57564079      91.18672485      95.55610047
C      60.95870463      93.04054637      96.11923891
H      59.19936943      92.09379348      96.61812665
C      61.47837936      95.34601247      97.89369191