 %block lattice_cart
   137.793   0.000   0.000
   0.000 143.498   0.000
   0.000   0.000   162.326
 %endblock lattice_cart

 %block positions_abs
N      87.08795035      36.46214056      80.56490163
H      88.56004715      36.26938848      79.36681514
H      85.45711655      35.90278157      79.74287068
H      87.27881271      35.44924726      82.17305872
C      87.18999558      39.22492043      81.01654621
H      88.72634307      39.54050472      82.35069299
C      87.96667309      40.68756860      78.43518007
H      86.33394956      40.60253091      77.18229153
H      89.60695553      39.85419929      77.50543472
C      88.50146564      43.42200257      79.21185759
H      86.91787499      44.20812872      80.27199405
H      88.48256837      44.70512674      77.60181077
S      91.36818045      43.76215331      81.00142840
C      90.93921258      46.93689351      82.18817653
H      92.14863742      47.34318467      83.80389253
H      89.04192736      47.11452779      82.97052322
H      91.01669136      48.47135128      80.81434550
C      84.78437398      40.24537264      82.22786078
O      82.75480792      39.97136232      81.10536335
N      84.84295549      41.17322826      84.49175290
H      86.46434067      41.20535361      85.50086676
C      82.59796063      41.69290299      86.05644629
H      81.00870081      40.44757335      85.64826541
C      83.56739023      41.29795019      88.77387273
H      85.07728156      42.69256821      88.90426384
H      84.43855406      39.43845950      88.92505083
C      81.56617007      41.84786055      90.72407028
O      81.37908716      43.90766223      91.81066291
N      79.99013832      39.88632464      91.27020119
H      78.85252308      40.04317192      92.79332060
H      80.29249453      38.15155588      90.53131820
C      81.75136325      44.54450000      85.81078187
O      83.40109432      46.29627629      85.97896751
N      79.22290944      44.95268088      85.75409008
H      78.03994077      43.45601764      85.69739829
C      78.15710380      47.46790661      85.33457084
H      79.02259845      48.25214303      83.63759661
C      75.21291020      47.30727987      84.81489610
H      74.79717041      45.76526320      83.51287467
C      73.73514423      46.67422155      87.35090882
H      74.86898001      45.24747819      88.31088978
H      72.01549328      45.82951389      86.59501829
H      73.43845720      48.39387250      88.44317062
C      73.96191138      49.71479119      83.81523088
H      74.61575669      51.30783047      84.94339749
H      71.91155833      49.63353296      83.97018844
C      74.53827791      49.90376382      80.91639072
H      76.39587888      49.29149250      80.26632487
H      74.32284911      51.76325452      80.06034470
H      73.10775509      48.56583759      80.27577350
C      78.96212721      49.49936239      87.29988621
O      79.23991698      51.68388601      86.53832650
N      79.32117521      48.59418349      89.64314683
H      78.94322995      46.87642227      90.38202982
C      80.09785272      50.38564403      91.59334439
H      79.07173133      52.15253814      91.34767997
C      79.19645327      49.51825966      94.28998384
H      79.62164169      51.14909346      95.47106278
H      80.42099592      47.95167654      94.83044556
C      76.42233504      48.74158214      94.60178868
C      74.82173686      50.42343856      95.81688270
H      75.56439930      52.30560597      96.08144438
C      72.27249606      49.75825490      96.37057251
H      71.03472533      51.16799073      97.17559592
C      71.50148772      47.26948534      95.74507310
H      69.53239291      46.79894349      95.99262724
C      73.11342427      45.64810017      94.35423453
H      72.44446116      43.83963209      93.69094060
C      75.72691576      46.29060711      93.98195845
H      77.03082692      45.01504185      93.07111037
C      82.88330931      51.11318866      91.53665260
O      83.76770122      53.18432870      91.94483348
N      84.53493011      49.25747742      91.05288266
H      83.89998206      47.46601688      90.89225593
C      87.19755448      49.74691654      90.50675176
H      88.01013680      51.02059207      91.90703896
C      88.61484922      47.24680863      90.39525791
H      90.60095157      47.79104981      90.31966885
H      87.88730458      46.31517356      88.70584258
C      87.90809157      45.66132825      92.75363634
H      85.86907688      45.38920766      92.85757129
H      88.65642319      46.62319894      94.41281605
C      89.32538631      43.14421280      92.61946578
O      91.62707296      43.03460868      93.11646380
O      88.12918955      41.19401525      92.02042254
C      87.67187579      51.42121405      88.22396237
O      89.02114037      53.21645405      88.28632334
N      86.31694202      50.80516328      86.17171960
H      85.19255486      49.28204387      86.40982511
C      86.49835574      51.92010180      83.64515552
H      88.45044303      51.69144492      83.02910474
C      84.88075002      50.48202008      81.61747918
H      82.85874287      50.65209544      81.96329910
H      85.31538707      48.50536635      82.00298335
C      85.42688093      50.99602563      78.87926575
H      87.17487776      50.16076660      78.18195674
H      85.74624467      53.02748142      78.72430820
S      83.10062783      50.24580429      76.49632087
C      80.76870556      52.50780668      76.98575999
H      79.40243344      52.55316011      75.44752277
H      81.57561870      54.37674601      77.30323401
H      79.79171706      52.02970593      78.73564655
C      85.71222960      54.71500702      83.64893497
O      86.78937360      56.38741480      82.41116423
N      83.59951558      55.22145367      85.07378861
H      82.85685314      53.77581304      86.07345383
C      82.66599078      57.84061434      85.10024478
H      83.20645251      58.59272541      83.25965135
C      79.90888009      57.94643901      85.61425033
H      79.48180194      59.95710781      85.73519282
H      79.61597251      57.19810739      87.50964583
C      78.38765041      56.83905939      83.37681438
H      79.34763138      55.05326803      83.02532529
C      75.68912123      56.78047788      84.39159741
H      74.93134098      58.56815897      85.07756806
H      75.63809862      55.48223590      85.99030587
H      74.49670393      55.86018116      82.98753076
C      78.41599630      58.55115143      81.02032567
H      76.76059605      58.39808360      79.80523165
H      80.23013356      58.36595825      80.06223443
H      78.31584081      60.46355446      81.78377510
C      84.35918556      59.31082141      86.98619164
O      84.94311099      61.58983134      86.56100322
N      85.56861040      57.93132120      88.97607344
H      85.04515621      56.11718394      89.26142212
C      87.41865246      59.19743783      90.45950860
H      86.28859612      60.76780040      91.16626624
C      88.47311974      57.79904036      92.78387197
H      89.19688492      56.01513872      92.04876843
H      86.72512290      57.47400743      93.82322144
C      90.38552277      59.33916730      94.45816948
H      89.58049936      61.23456280      94.46194893
H      92.27146963      59.38452074      93.63235908
C      90.76535776      58.13541164      97.05843289
H      89.07972189      57.97289518      98.23006320
H      92.06548946      59.36373375      98.08266455
N      92.03147439      55.72790032      96.78253284
H      92.02013603      55.00791460      95.01563874
C      93.24089923      54.38241519      98.50218379
N      93.30703965      55.15153379     100.97394581
H      94.19710074      53.96667540     102.17770147
H      92.69854778      56.88063337     101.50117945
N      94.44465489      52.25458336      97.96172206
H      95.19865569      51.15665237      99.32799419
H      94.56748710      51.70089355      96.13813617
C      89.52002812      60.49756953      88.85891041
O      90.47245018      62.41753147      89.67527218
N      90.11529191      59.35428512      86.71407105
H      89.07594244      57.82360680      86.24541892
C      92.13729906      60.17253661      85.16638520
H      93.15019237      61.52558065      86.34368469
C      94.18954184      57.98990272      84.70340225
H      95.73155851      58.89697135      83.68295004
C      95.33849544      56.91464844      87.17705399
H      97.25656764      56.21922916      86.88225669
H      94.09505552      55.47467699      87.96506987
H      95.59927767      58.60406377      88.32600759
C      93.14830264      56.01891817      82.79099922
H      92.31682306      57.16031287      81.29244626
H      91.58927843      55.16665161      83.83223842
C      95.10983855      54.23690626      81.67606070
H      96.13218049      55.04759885      80.07924196
H      94.33505076      52.56638820      80.75198453
H      96.36083737      53.34684517      83.04800200
C      91.65352913      61.89029783      82.79099922
O      93.41664378      62.24745610      81.25465173
N      89.24601780      62.81626372      82.60958550
H      87.89297376      62.06415265      83.72452402
C      88.33894917      63.77435496      80.30033994
H      89.31971713      62.68020343      78.85658904
C      85.49113162      63.26223913      80.06790361
H      84.52548147      64.23733791      81.60236137
H      85.05082539      61.26290869      80.29845022
C      84.38564173      64.18442557      77.49598609
O      83.94722522      66.50311976      77.13882782
O      84.11541086      62.78224865      75.66106184
C      88.94366159      66.53902456      79.81279055
O      89.84506105      67.16830342      77.71330462
N      89.17042875      67.98844464      81.85369497
H      88.61295949      67.26090001      83.52799248
C      90.50646525      70.42808131      82.08235185
H      92.32249224      70.15218127      81.15071678
C      88.73579170      72.48032409      80.87670647
H      86.91787499      72.60882547      81.83479771
H      88.48256837      71.81891988      78.94162672
C      89.90364256      75.14294846      80.50254066
H      91.62896268      74.89917377      79.40271994
H      90.39875085      76.12749587      82.24297859
C      88.05171077      76.86826858      79.13437881
O      88.32194164      77.38416387      76.86481750
O      86.39631052      77.98131738      80.39104680
C      91.16786946      71.03846291      84.83001391
O      90.09450492      69.70053668      86.47974499
N      92.92720466      72.75055495      85.37236537
H      93.97789249      73.59337288      84.01743160
C      93.73789725      73.18708173      87.95940069
H      95.26479611      74.56847166      87.93861370
H      94.65063506      71.47687941      88.65670970
C      91.54770445      73.95431061      89.74708178
O      90.22678576      75.76466842      89.24630431
N      91.38140854      72.76756248      91.98451774
H      92.78358546      71.59404244      92.53820754
C      89.42743153      72.79779811      93.98384817
H      87.58872783      72.49355217      93.10890489
C      89.85828913      70.66429710      95.88869230
H      91.75368462      70.83248274      96.68237735
H      89.77136172      68.84260093      94.92871133
C      87.86462787      70.49044228      98.05809811
H      87.83628197      72.29891036      99.04453524
C      85.22656994      69.65140379      97.35134046
H      83.93966632      69.53613049      98.95571810
H      85.20389322      67.92230422      96.23451221
H      84.22879444      71.11027251      96.29309373
C      88.63185675      68.77457079     100.26907789
H      90.22489603      69.53046131     101.32921435
H      89.09294997      66.84704995      99.71916753
H      87.22023120      68.74433516     101.77330004
C      89.51435894      75.45664303      95.28397988
O      91.26802496      76.01789174      96.73906914
N      87.52069768      77.09503574      95.17248603
H      85.94277621      76.56969183      94.23707150
C      87.40164492      79.49876761      96.56899377
H      89.27814315      80.33780609      96.70505406
C      85.77459057      81.53400285      95.23484699
H      85.67065562      83.25554352      96.36112388
H      83.85462863      80.81590685      95.03642573
C      86.85173457      82.70752289      92.82733567
H      88.83783692      83.17239556      93.11268434
H      85.86907688      84.49709371      92.54954590
C      86.59662151      81.07290963      90.52186957
H      85.20767267      79.57246694      90.76564426
H      88.33139027      79.96553001      90.46706751
N      86.32828038      82.50721190      88.15593222
H      86.10529267      84.40071767      88.08979180
C      86.08639541      81.46219325      85.90715791
N      86.23568379      79.07735864      85.59724280
H      86.11663103      78.48776403      83.78499526
H      86.64197494      78.04934753      87.15248755
N      85.84640017      82.64516192      83.78310554
H      86.03537280      81.59447409      82.20140461
H      86.14497692      84.52921906      83.69617813
C      86.24324269      79.13971961      99.20705170
O      84.55949655      77.57313650      99.57554833
N      87.31849696      80.50788146     100.98717389
H      88.65453347      81.74376247     100.41080736
C      86.33772901      80.63827258     103.60444483
H      84.51036366      79.68774024     103.61011401
C      88.18399162      79.20586003     105.28252180
H      88.24446286      77.20841932     104.78930323
H      87.53581549      79.53089296     107.21004264
C      90.94677149      79.87104370     105.22205056
H      91.61195515      80.14127456     103.29263999
C      91.77636134      82.33146735     106.35588635
H      91.54581473      82.37682079     108.40245994
H      90.78236530      83.87348403     105.41480264
H      93.75490479      82.65650028     105.88156504
C      92.50768542      77.85848517     106.47493910
H      94.48055969      78.45752841     106.45037266
H      91.95210588      75.99521503     105.79463763
H      91.95777506      77.55234951     108.43458529
C      85.72545768      83.41805998     104.53796963
O      85.05649457      83.77899771     106.63934529
N      86.00513718      85.16038765     102.67280976
H      86.48890711      84.38182040     100.99662252
C      85.14909116      87.75309215     102.71060429
H      84.16265402      88.20473674     104.46049085
C      87.34117368      89.62203147     102.28541587
H      86.53992972      91.51742696     102.33076930
H      88.11218202      89.39526431     100.39002038
C      89.48790277      89.56911913     104.30553330
H      90.32694125      87.68884145     104.40001961
H      88.76602732      89.92627741     106.20092879
C      91.54203527      91.54199340     103.64601881
H      92.21477784      91.28688035     101.71660825
H      93.18798689      91.46829408     104.88189982
C      90.62362829      94.25753012     103.85010925
H      89.88474530      94.55988633     105.74928420
H      89.14964176      94.36146506     102.41580698
N      92.60595119      96.05088039     103.25862492
H      94.08560689      96.01308586     104.46238058
H      91.78769969      97.77242106     103.16791806
H      93.30326020      95.54065428     101.55598151
C      82.96267781      88.29544360     101.00418143
O      82.71323394      87.00476053      99.12579347
N      81.56617007      90.27587677     101.36511915
H      82.05371946      91.55333176     102.69737620
C      79.52148620      90.86736111      99.50940791
H      78.70323470      89.03243686      99.05020442
C      77.55428111      92.58701206     100.73584029
H      78.26670793      94.49185618     101.06654240
C      75.47558216      92.75519770      98.65525162
H      73.88065315      93.92682801      99.22594897
H      74.93889989      90.93917071      97.84266931
H      76.31084119      93.65848687      97.00174110
C      76.46201930      91.36813858     103.11878517
H      77.67522359      90.69728574     104.64190458
H      75.38298557      89.63714928     102.81831869
C      74.62520532      93.11991488     104.55875662
H      75.73447467      94.73752060     105.19370466
H      73.77293875      92.05788869     106.10455275
H      73.19468250      94.12902873     103.47405372
C      80.78571310      91.87458524      97.02630754
O      82.58851200      93.32211559      97.14158084
N      79.77281980      91.23207829      94.75107706
H      78.15521407      90.22107471      94.75485651
C      80.71201377      92.02954279      92.34545546
H      81.81750367      93.74730401      92.62324523
C      82.39575992      89.86769589      91.38736422
H      83.78470876      89.54455269      92.87268910
H      83.41054295      90.57823298      89.74330233
C      81.26381386      87.27310166      90.71651138
C      80.91043504      86.86114133      88.09924044
H      80.81594872      88.43528335      86.80288818
C      80.32084043      84.47063754      87.12225193
H      79.99013832      84.14749434      85.13614958
C      80.07328628      82.47130710      88.85135151
O      79.72368691      80.06757523      87.95562124
H      79.52148620      80.10914921      86.15471206
C      80.36619386      82.83035510      91.44027656
H      80.00714586      81.16172677      92.55899453
C      80.88964805      85.21141026      92.41537533
H      81.09562822      85.29077876      94.44305167
C      78.41032713      92.32056065      90.51997984
O      76.20690624      91.72340713      91.32311353
N      78.76370595      93.28243134      88.14837332
H      80.54382813      93.80588553      87.70050818
C      76.85319264      94.04588077      86.37581004
H      75.01637867      93.78320881      87.26776086
C      77.48436123      96.82755790      85.75220035
H      78.82984637      96.88235996      84.19317615
H      78.30261273      97.74218544      87.40571088
C      74.97858414      98.23729373      85.24953316
H      73.76349012      98.05021083      86.90304368
H      73.83907917      97.39636552      83.75475964
C      75.33763214     101.05865512      84.97174339
H      76.58863096     101.58966821      83.42405754
H      76.08785349     101.74651549      86.76320393
C      72.70902284     102.30398476      84.59001867
H      71.44479594     102.32666147      86.21518330
H      71.96069122     101.24573802      82.98942049
N      73.01704823     104.92314543      83.83034869
H      73.49325926     105.28030370      82.01810116
H      74.26048814     105.72060993      85.03599408
H      71.32196373     105.77541199      84.05522613
C      76.83807483      92.22607433      83.95885008
O      78.90354569      91.64592835      83.00642802
N      74.64788204      91.49852970      83.05367118
H      73.13043181      91.97663046      84.10813846
C      74.24159088      90.07745551      80.69718247
H      75.82140208      88.86425122      80.17183855
C      72.05517753      88.19339838      81.03733320
H      70.23159164      89.12881290      81.25654146
H      72.66933859      86.99531190      82.59635741
C      71.95691177      86.28855425      78.68651367
O      70.53772731      86.78177282      76.81379489
O      73.58963530      84.65016154      78.68462394
C      73.71813669      91.77254001      78.40683418
O      73.21169004      93.96462254      78.78288971
N      74.00726482      90.79177206      76.01066121
H      74.12253812      88.89070739      75.87649064
C      73.71624696      92.19583871      73.70708484
H      74.56662380      94.06666776      73.80913006
C      75.03905538      90.90326591      71.42051600
H      74.15466347      91.49663997      69.65929107
C      77.78860717      91.53065505      71.36004475
H      78.73158060      90.54421791      72.90395115
H      77.95679281      93.54510330      71.74743865
H      78.60118948      90.92972208      69.56669448
O      74.83307521      88.32567922      71.64350370
H      75.71935686      87.70773872      70.18652471
C      70.89866503      92.63614494      73.03812172
O      70.43001291      94.16304380      71.32225023
N      69.08263804      91.39270503      74.37604795
H      69.67790183      90.05288907      75.59870088
C      66.60898630      92.54543808      74.39116576
H      66.15923144      93.16715803      72.47876273
C      64.79862849      90.38359117      75.16973300
H      63.16212551      90.99019332      76.26199481
H      65.82663961      89.30455745      76.58891746
C      64.08053249      88.45229088      73.27811696
H      63.21125839      86.82712625      74.20030340
H      65.85120605      87.78521749      72.46364492
C      62.29285140      89.39148486      71.14272623
O      62.68213502      91.52876532      70.05424387
O      60.41446345      88.04977918      70.65895629
C      66.31229927      94.81499938      76.18640576
O      64.35454281      95.95639407      76.14861123
N      68.26627628      95.52931592      77.59047241
H      69.90844844      94.57311441      77.42228677
C      68.15478242      97.63825049      79.48964735
H      66.89622470      99.11034729      78.78666917
H      70.10686971      98.28831634      79.55956723
C      67.51605493      96.91070586      82.26754503
O      67.79573443      98.51130405      83.92294528
N      66.56930205      94.51642262      82.68895400
H      66.65433973      93.25597517      81.26032091
C      65.85498550      93.57533892      85.13614958
H      64.50572091      94.78665348      86.11124835
C      64.27706403      91.15270978      84.63726183
H      63.59487283      90.40059871      86.43061210
H      65.60932108      89.70517943      84.02310078
C      62.03395890      91.36246940      82.74375606
C      61.39334168      89.12881290      81.37181476
H      62.14923220      87.26932221      81.74409084
C      59.35243726      89.16471770      79.65972272
H      59.02173515      87.44884621      78.60525544
C      57.98049596      91.41538174      79.12304045
O      56.04541621      91.42294065      77.41283814
H      55.59188190      93.17282721      77.27299839
C      58.67402551      93.63203071      80.35892146
H      57.68569865      95.38380700      80.00932209
C      60.57320046      93.51297795      82.26565531
H      60.96059435      95.27987205      83.21051846
C      68.19446668      92.97440595      86.76887311
O      70.19001766      92.16938254      85.91471682
N      67.83352895      92.94794978      89.23118650
H      66.08742184      93.32967450      89.90203934
C      69.74782171      92.39425997      91.13225117
H      71.49581855      92.91582443      90.17604965
C      69.70246827      94.20839723      93.41315083
H      71.24448495      93.65281770      94.66414965
H      67.92423581      93.89470266      94.40525714
C      69.90844844      96.99763327      93.08622818
C      67.68424057      98.49807596      92.93316034
H      65.98348689      97.45305731      93.36212822
C      67.57652617     101.09833937      92.48529521
H      65.94947182     102.33233065      92.45128013
C      69.97080941     102.14335802      91.93727458
O      70.20702520     104.58488442      91.33445188
H      68.53461741     105.27841397      91.46295327
C      72.24415017     100.65425369      91.76153003
H      73.92222713     101.75029495      91.37791559
C      72.30084196      98.06721836      92.47773630
H      74.07340524      97.10912712      92.79332060
C      69.89144091      89.67494381      91.88058279
O      67.93746390      88.20284701      91.87113416
N      72.21958372      88.73574983      92.25096915
H      73.66900381      89.93194659      91.92782595
C      72.84130368      86.02966175      92.09601159
H      71.15944726      84.86936979      91.83333963
C      74.28127513      85.57423771      89.61102149
H      76.31084119      85.80100487      89.89259071
C      73.90710932      82.83224483      88.79088027
H      75.00881976      81.41306037      89.79621466
H      74.55717517      82.60169822      86.85013134
H      71.89644052      82.42784340      88.60001791
O      73.75215176      87.12003383      87.63625749
H      75.09196772      86.87625914      86.44006073
C      74.47780667      84.97708419      94.27297630
O      75.78360755      86.52288032      95.43137853
N      74.40410734      82.49965300      94.82099693
H      73.11720372      81.33369186      94.03109133
C      75.98958772      81.13905005      96.73717941
H      77.80750443      82.10658992      96.69371571
C      74.93701016      81.52833367      99.46027503
H      74.32284911      83.45396478      99.86278673
C      72.69012558      79.84836698      99.79853604
H      72.18934810      80.09970058     101.78085894
H      73.17011606      77.88872079      99.38468598
H      71.04039450      80.28300403      98.64580299
C      76.77382414      80.81779658     101.66936509
H      77.15365913      78.79389970     101.74306442
H      75.70045959      81.36770694     103.33799342
C      79.14543066      82.35414407     101.66369591
H      79.98257942      82.01588306     103.51562770
H      78.60874839      84.31945944     101.37456778
H      80.60429937      82.13304609     100.22561419
C      76.57162342      78.40461608      95.85845668
O      75.43211846      77.38227414      94.08400367
N      78.33851753      77.08180766      97.10756577
H      79.36274919      78.09281123      98.36234404
C      79.26070397      74.67051688      96.45749992
H      77.77726881      73.25511187      96.63891364
H      80.76681584      74.16029078      97.76519053
C      80.20934658      74.73854703      93.66826388
O      81.46412485      76.53756648      92.89536582
N      79.08873887      73.09826459      92.24529997
H      77.97380035      71.82647878      93.12969188
C      79.38353618      72.87905634      89.44472557
H      80.74791857      74.30768943      88.85513096
C      80.39076030      70.30335937      88.67938641
H      79.21724026      68.82181394      89.49763791
C      80.35296577      69.93864219      85.78432570
H      78.49158536      69.95564973      84.90182351
H      81.03515697      68.02434944      85.45551332
H      81.45278649      71.45420270      84.92638996
C      83.04771550      69.98588535      89.88314208
H      82.83606615      70.25989567      91.91270814
H      84.41776707      71.40129036      89.28220911
C      84.14942594      67.37806304      89.52409408
H      85.67254535      67.37050413      90.90926346
H      85.16042952      67.12861917      87.74775134
H      82.98913398      65.75289841      90.03243045
C      76.76437551      73.40440025      88.32033841
O      75.33007324      71.72443356      87.60413214
N      76.02738224      75.77789650      88.12758633
H      77.23680708      77.07235903      88.83623370
C      73.79183602      76.69630349      86.64604090
H      73.22491812      75.38483343      85.16071602
H      73.96380111      78.44996951      85.58023526
C      71.24448495      76.89472475      88.23530073
O      69.31507438      77.34070016      87.09768549
N      71.30873564      76.56969183      90.81855660
H      73.01893795      76.45252880      91.65759508
C      68.92768049      76.42796235      92.27553559
H      67.47637068      75.38294370      91.25697310
C      69.59286415      75.19397107      94.80209967
H      70.84764242      76.44496989      95.85467722
H      70.45646907      73.34959819      94.49407428
C      67.30629531      74.79145937      96.48017663
N      65.51483477      72.87905634      96.05876767
H      65.43546626      71.74900000      94.52430990
C      63.60432146      73.19653036      97.74251381
H      61.81097119      72.22143158      97.72361655
N      64.27895376      74.89161486      99.46405448
H      63.46259199      75.38294370     101.11756501
C      66.46158765      76.11804724      98.53430914
H      67.37243573      77.75832968      99.34122227
C      67.82408032      79.16806551      92.63836304
O      69.15444764      80.78189178      93.61535154
N      65.43735599      79.54412104      91.78042729
H      64.53784626      77.95108176      91.23429639
C      64.03517906      81.99698580      91.78420675
H      65.04240319      83.29522777      90.54265656
C      61.45570264      81.48486997      90.64848123
H      60.59587717      79.85214643      91.56688822
H      61.42924648      81.09936580      88.62647408
C      59.53763044      83.64671687      90.98296279
H      59.17858244      84.23253203      92.92371171
C      60.43714016      86.11658916      89.88314208
H      61.79774311      87.00853998      91.14736898
H      58.97827145      87.55089143      90.13825513
H      60.75272446      85.81423295      87.87058355
C      57.18681090      83.19696201      89.67905163
H      57.53641027      83.33302230      87.65326503
H      55.79975179      84.67472798      90.04376881
H      56.32698543      81.54345148      90.55588464
C      63.70069750      82.92106196      94.58856059
O      62.99016041      81.48298024      96.18915878
N      64.20525443      85.35691918      95.10634560
H      64.92901961      86.44729126      93.71739676
C      63.65156462      86.42272482      97.50818775
H      62.96937342      85.02621708      98.85745234
C      66.12332664      87.80411476      98.51730160
H      65.38255392      89.22896840      99.80798467
H      67.05496171      88.79244162      96.97150548
C      68.25304819      86.33579741      99.69082164
H      68.98815173      85.01109927      98.29620362
C      70.38465947      88.05355863     100.49773478
H      71.23314659      88.83023615      98.78942219
H      71.75282132      86.72130158     101.27063284
H      70.02183202      89.30833690     102.08888433
C      67.47259123      84.87692870     102.13990694
H      69.12799148      84.09647173     103.08665982
H      66.11765746      83.41239081     101.62023221
H      66.40111641      86.14493505     103.36067014
C      61.41034921      88.13481686      97.15102947
O      59.45637221      87.97985930      98.48517625
N      61.61443966      89.95273358      95.44082716
H      63.09787481      90.21729526      94.26730712
C      59.57353524      91.84623934      95.11957369
H      57.81420004      90.80311042      95.37846619
C      59.70014690      94.05343967      96.92426232