 %block lattice_cart
   137.793   0.000   0.000
   0.000 143.498   0.000
   0.000   0.000   162.326
 %endblock lattice_cart

 %block positions_abs
N      85.24074289      39.42334169      76.53978458
H      83.78754335      40.21135757      75.57980361
H      84.31099754      37.99281887      77.39205114
H      86.52764650      38.74681967      75.30390357
C      86.18560604      41.36031116      78.37470883
H      87.70683572      40.68000969      79.58602339
C      87.20227880      43.55428342      76.74576474
H      85.55254773      44.57851507      76.06357355
H      88.54965366      42.95335044      75.30768302
C      88.35312212      45.57440083      78.48053350
H      89.97261757      44.80717196      79.49531653
H      86.90181231      46.30950438      79.74665013
S      90.00852237      47.97813271      76.69663186
C      91.49573698      49.70534257      79.23453430
H      91.23684448      48.75858968      81.04489211
H      90.75118481      51.62152504      79.35358706
H      93.47050098      49.54660554      78.67328558
C      83.88013994      42.08974551      79.90160769
O      81.82600744      42.52249285      78.93595754
N      84.21462150      42.21446745      82.42250259
H      85.82277859      41.83841192      83.38059383
C      82.20773215      43.07807238      84.17238915
H      80.67327439      41.75148451      83.82278979
C      82.89748226      42.71524493      86.95595601
H      84.57555922      43.87742661      87.24130469
H      83.37747274      40.77260628      87.44350540
C      80.91326963      43.54294505      88.78521108
O      80.46729422      45.76526320      89.02520633
N      79.49786462      41.79305849      89.73196397
H      78.26576306      42.24659280      91.11713335
H      79.73597014      39.97703150      89.20473033
C      81.30444298      45.83329335      83.58279454
O      82.84834937      47.43956071      83.47696987
N      78.76087136      46.33407081      83.38815273
H      77.61191776      44.82040004      83.22563627
C      77.73852942      48.74347187      82.75698415
H      78.33190349      49.31416921      80.86725783
C      74.88126324      48.52426362      82.43384095
H      74.61670155      46.87075309      81.23386474
C      73.56223427      48.05561149      85.03977353
H      71.73297920      47.12586615      84.86780844
H      73.28444450      49.64865078      86.31911825
H      74.47686181      46.49847700      86.02810039
C      73.34680547      50.77492765      81.37937366
H      73.54711646      52.45111490      82.56045261
H      71.35314421      50.27981936      81.22819556
C      74.18395423      51.81049768      78.63549106
H      76.01320930      52.75725055      78.67706504
H      72.92350678      53.26180748      77.89660807
H      74.19340286      50.20800975      77.34480799
C      78.24308635      50.84106808      84.54466524
O      78.22040963      53.05771704      83.74153156
N      79.08590428      50.31005499      86.86524915
H      79.28621527      48.46946156      87.32823210
C      80.00809072      52.23946555      88.61891517
H      78.77220972      53.88730690      88.53576721
C      79.63392491      51.17365991      91.32122380
H      80.46162504      52.45678408      92.70639318
H      80.74886344      49.44456032      91.40815121
C      76.88815258      50.85429616      92.07144514
C      75.49542429      52.94622319      93.05788228
H      76.47430252      54.70933783      93.38480493
C      72.88193280      52.67977177      93.56999811
H      71.89360594      54.31438504      94.28620438
C      71.66494905      50.33840087      93.14103024
H      69.67317752      50.30816525      93.58133647
C      73.05389789      48.32962181      92.24718969
H      72.41139095      46.39643178      92.09601158
C      75.67305856      48.62441911      91.75397112
H      76.58957582      46.99358531      90.93760936
C      82.73685552      52.85362660      88.08034317
O      83.52487139      54.94555363      87.96318014
N      84.41304276      51.02437152      87.53043281
H      84.03887695      49.19322673      87.91593698
C      87.01519589      51.30594075      86.77454229
H      87.72951244      52.40576146      88.36380212
C      88.28320225      48.67733145      86.30400044
H      88.22084128      48.21812795      84.29522136
H      87.22306579      47.28838261      87.39248279
C      91.01763622      48.28993756      87.05233206
H      92.17981791      49.36330210      85.72952364
H      91.44660410      46.31328382      86.66493816
C      91.49573698      48.50347662      89.93605441
O      89.82710865      48.92110615      91.56310876
O      93.70104759      48.63575746      90.75619563
C      87.20605825      52.66087452      84.23663985
O      88.95594482      54.04226445      83.88326103
N      85.30121413      52.50591696      82.57934987
H      83.84801459      51.43255242      83.19540065
C      85.17838192      53.72856988      80.17183855
H      86.91126095      53.42810340      79.09847400
C      83.06377817      52.40765118      78.81123560
H      81.26853818      52.72323549      79.77499602
H      83.31511177      50.37241595      79.00020824
C      82.97496104      53.23535132      76.07302218
H      84.71917842      52.52670395      75.23776315
H      83.05243982      55.28003519      75.83113721
S      80.25186542      51.95411687      74.42329111
C      80.66760521      53.17676979      71.20508719
H      81.44806218      55.07027557      71.41862627
H      78.82890151      53.50180272      70.33770282
H      81.69561632      51.85963056      69.99944181
C      84.50185990      56.64819704      80.26065569
O      85.89080874      58.23367742      79.29311581
N      82.53087535      57.30204234      81.61181000
H      81.47073889      55.86774006      82.29400120
C      81.39326011      59.79837080      81.98219636
H      81.37625258      60.69977025      80.12837484
C      78.54166311      59.50735295      82.53777589
H      78.08434934      61.50479366      82.75887387
H      78.21285073      58.48690073      84.29711109
C      76.78988681      58.43209867      80.46096668
H      77.46640883      56.53103401      80.05467552
C      74.21607958      58.07683013      81.68172987
H      73.30334177      59.89096739      82.03132924
H      74.58268648      56.84094912      83.28610751
H      73.08035406      57.05259847      80.30222967
C      76.76154092      59.73223038      77.84558546
H      75.12314821      58.86862546      76.94229628
H      78.46040487      59.46199952      76.71552912
H      76.36658812      61.73534026      78.12337523
C      82.84456992      61.39896899      83.85869459
O      82.97685076      63.71388372      83.47130069
N      84.04076668      60.31804554      85.85424557
H      84.00108242      58.41509113      85.97707778
C      85.63380596      61.75234780      87.63814721
H      84.68138390      63.39829942      88.43183226
C      86.45583690      59.98167426      89.66204409
H      88.13013442      58.92342752      89.09701593
H      85.06688806      58.52658498      90.10046060
C      87.34589800      61.04181071      92.25663832
H      85.80199160      62.26446363      92.85946102
H      88.94838591      62.30792735      91.99018691
C      88.18493648      58.99145766      94.19927697
H      86.66748625      57.60628827      94.34667562
H      88.66114751      59.69065639      96.07766493
N      90.48284368      57.52125059      93.43771727
H      92.09855968      58.47367266      93.08622817
C      90.50929985      55.05704747      93.07300009
N      88.51941804      53.55849451      93.14858914
H      88.89547357      51.68766547      93.17504531
H      86.76953147      53.98557265      93.78164746
N      92.59744742      53.87407881      92.46450822
H      92.24973778      52.02214702      92.15459310
H      94.30198056      54.68855085      92.19805681
C      88.06021454      62.74634384      86.40793538
O      89.23373458      64.52268659      87.43027732
N      88.74429547      61.82226767      84.00798297
H      87.53676036      60.69032162      83.05934036
C      90.71716974      63.34727682      82.53777589
H      91.76785757      64.60016536      83.79255417
C      92.95460570      61.63329504      81.43606545
H      94.47016620      62.93342675      80.93339825
C      94.01852161      59.89663657      83.54500002
H      94.16969971      60.87551480      85.35157837
H      95.91769655      59.30893168      83.00453829
H      92.64091113      58.38485551      83.79444389
C      92.24028915      59.99679207      79.06067948
H      91.43337601      61.21755526      77.60936967
H      90.68882385      58.78736722      79.66539190
C      94.18859698      58.25824386      77.98542521
H      96.12556645      58.94232478      78.14983140
H      93.76529828      57.88785749      76.00310230
H      94.12812574      56.39119426      78.85280958
C      89.65892301      65.18220107      80.50820983
O      91.22172667      66.58248826      79.56523640
N      87.18905071      65.11039146      79.96018920
H      85.98529505      64.10883652      81.05245101
C      86.07600192      66.60327525      77.86070327
H      86.93771711      65.85305390      76.14672150
C      83.34912685      65.71699362      77.17473262
H      82.18316571      66.60894443      78.61659379
H      83.14881586      63.69876591      77.53378062
C      82.41938150      66.27257314      74.54045414
O      81.27042790      68.22088098      73.99621296
O      82.64047948      64.60772427      72.83592100
C      86.18560604      69.42841608      78.11581632
O      86.66559653      70.66429709      76.16750849
N      86.42182183      70.55280325      80.31923720
H      86.00797177      69.60794008      81.92550457
C      87.64258503      73.03023445      80.74442562
H      89.23940376      73.10582349      79.44429392
C      85.70561556      75.26389094      80.24742760
H      85.29743467      76.50922058      81.83668743
H      84.15981943      74.60437647      79.05501030
C      87.24385278      76.93440901      78.48620268
H      87.29676511      75.92151571      76.69474213
H      89.16381471      77.10448437      79.21374731
C      86.16481905      79.57813612      77.91739506
O      84.96106339      79.90883822      75.87649064
O      86.31788688      81.28833843      79.59358230
C      88.82555370      73.43085641      83.25398217
O      88.60634545      71.68096986      84.83946254
N      90.20694364      75.46420194      83.82090006
H      90.57732999      76.79267954      82.50376082
C      91.60534111      75.71364580      86.20006549
H      92.96027487      77.26133166      86.08668191
H      92.80342759      74.05068666      86.39281757
C      89.85167509      76.08970134      88.60190763
O      88.13013442      77.67518171      88.55655420
N      90.14080322      74.71587032      90.70895247
H      91.32944107      73.22298652      90.75241618
C      88.78586945      75.03901351      93.04276447
H      86.77142120      74.97098336      92.61757605
C      89.39247160      72.76567275      94.74729760
H      91.38613286      72.74677549      95.25941343
H      88.87090713      71.30113486      93.39614329
C      88.15092141      72.48977272      97.39858362
H      86.12891425      72.22143157      97.10189659
C      89.12035101      70.27123402      98.88390850
H      89.34711816      68.58559815      97.72172682
H      87.82210903      69.69486749     100.37301284
H      90.82866359      70.80035740      99.90436071
C      88.41737282      74.75366483      99.27886130
H      88.03564810      74.27745380     101.24417667
H      87.06810823      76.24276918      98.82532699
H      90.37134983      75.39995124      99.27130240
C      89.60412094      77.58258512      94.20305642
O      91.74329113      77.89816943      95.09311752
N      87.76352751      79.40806075      94.38635988
H      86.02119985      79.01310795      93.71550704
C      87.85612410      81.79667480      95.87357448
H      89.82332919      82.35225435      96.14191562
C      86.41804238      83.95285254      94.56021470
H      86.00419232      85.47219248      95.88680257
H      84.56233114      83.20830036      94.06699613
C      87.58400351      85.26810205      92.25096914
H      89.49640654      85.79155624      92.80654868
H      86.53520541      87.01231943      91.93160540
C      87.46117130      83.39160381      90.01353319
H      85.63758541      82.44296121      89.89448043
H      88.95216536      81.98753717      90.22140308
N      87.94683097      84.81078828      87.69105955
H      88.85956877      86.48508578      87.73074380
C      87.35534663      83.74687237      85.46307223
N      86.46339581      81.52644394      85.04733244
H      86.11757589      81.05212264      83.23130545
H      86.06277383      80.36048281      86.50620115
N      87.80699122      85.01676844      83.46752124
H      87.17393290      84.23253202      81.84802579
H      88.65358861      86.71185295      83.69050894
C      86.72228831      81.29778706      98.45683035
O      84.63414074      80.24898896      98.75540711
N      88.12257551      81.91005838     100.49206559
H      89.75340932      82.82468592     100.10845115
C      87.11157194      81.61715080     103.09232900
H      85.28798604      80.65716984     103.05264475
C      88.77264136      79.85970534     104.66269157
H      88.36257075      77.86604408     104.34710727
H      88.23973854      79.93907384     106.65068365
C      91.76407812      80.22064307     104.79686213
H      92.26107614      80.16773072     102.79942142
C      92.47083576      82.77933250     106.01006643
H      92.05509597      84.41394576     104.82898748
H      94.44748948      82.76610441     106.58832268
H      91.26141092      83.05712225     107.65412832
C      93.02074612      77.89438997     105.93447738
H      95.07298889      78.07391397     105.90991093
H      92.58799879      76.07647325     105.06709300
H      92.43493096      77.87171326     107.90735165
C      86.47851362      84.28544437     104.12411957
O      85.87191147      84.35158479     106.39557060
N      86.44071909      86.33390768     102.54052892
H      87.29865484      86.15249395     100.84544441
C      85.30121413      88.84346423     103.12634407
H      84.05210503      88.82078752     104.76473679
C      87.36857471      90.77854398     103.64034963
H      86.61457392      92.50008465     104.48127784
H      88.21328238      91.14704061     101.79975620
C      89.56254696      90.01698427     105.52251704
H      90.72283892      88.47685732     104.79497241
H      88.52697694      89.51053762     107.22705017
C      91.38613286      92.24875105     105.91935956
H      92.78830978      91.71773796     107.33098512
H      90.37134983      93.82856225     106.76973641
C      92.77697142      93.55455192     103.76696129
H      91.36156641      94.44839248     102.56509536
H      93.89568940      92.26953803     102.60855906
N      94.49095319      95.51608783     104.77229569
H      93.49317769      97.06566342     105.25984508
H      95.78730544      96.07544683     103.49106125
H      95.31109441      95.02853846     106.42580622
C      83.67793922      89.91115960     100.90591566
O      84.41304276      89.54266297      98.65714134
N      81.48585670      90.92783236     101.55976096
H      81.44050327      91.42105091     103.40224412
C      79.60746875      91.85379825      99.64168875
H      78.74386382      90.21540554      98.73839958
C      77.44184239      93.36557930     100.88323894
H      78.43772816      94.82633773     101.94337540
C      75.59746951      94.59579113      98.95760783
H      73.97230488      95.35168166      99.97428058
H      74.95307284      93.06889227      97.73684463
H      76.48375115      96.07166738      97.82755149
C      75.96596614      91.72718658     102.64635359
H      77.49475473      91.00342140     103.82176336
H      75.03244134      90.23430280     101.57676850
C      74.09135764      93.01220048     104.50773401
H      73.49609385      91.68750232     105.96660272
H      72.44918547      94.00052734     103.74995376
H      75.12692766      94.44272329     105.56409102
C      80.79232714      93.51864713      97.49306993
O      82.49497055      95.01342064      98.16770223
N      79.94761948      93.16337859      95.17248602
H      78.93094673      91.57033929      94.90792434
C      81.01153540      94.42193631      92.96906514
H      81.79955127      96.26441945      93.43960699
C      83.04488091      92.87425045      91.79176565
H      84.35068179      92.19772844      93.23173710
H      84.46217564      93.99863762      90.80343879
C      82.34946163      90.78610287      90.32533803
C      82.84834937      90.74263917      87.65704448
H      83.66282141      92.40370861      86.79532928
C      82.37213834      88.54677720      86.21140385
H      82.86157746      88.54299774      84.23097067
C      81.65026289      86.32634877      87.48696911
O      81.23641283      84.18339914      86.23974974
H      81.83923552      84.06434638      84.53332688
C      81.24775119      86.38304057      90.04376881
H      80.53532437      84.66716908      90.88658674
C      81.63136563      88.58646146      91.54610123
H      81.46129026      88.48441623      93.57755701
C      78.91960837      94.81688911      90.85257167
O      76.89571149      93.69439168      91.12847171
N      79.36747350      96.34189824      88.87213850
H      81.02287375      97.29054084      88.87024877
C      77.71207325      96.59890101      86.67438679
H      75.86959010      95.84301050      87.20162043
C      77.00909507      99.25585621      85.78621543
H      75.74675789      99.21806168      84.15916107
H      78.55300146     100.43126598      85.09079614
C      75.67872774     101.08511128      87.69861845
H      76.74075393     101.21550240      89.45984338
H      73.79845006     100.32922075      88.07467399
C      75.23653178     103.65513907      86.65926898
H      74.15749806     103.50774042      84.91127214
H      77.02232315     104.30898437      85.86747366
C      73.95907680     105.46549687      88.48096515
H      75.15716328     105.54864484      90.15526266
H      72.15438817     104.60189195      88.97040426
N      73.56601372     107.99206095      87.16571563
H      74.96063174     108.15457742      85.87125311
H      73.55845482     109.60021805      88.18994730
H      71.92573128     107.95237671      86.19061686
C      78.59079599      94.96617749      84.39348713
O      80.74130453      95.09089941      83.74720073
N      76.68595187      93.53376493      83.32201231
H      75.01543381      93.68683277      84.23475012
C      76.84090942      92.25442023      80.76332289
H      78.33001376      90.83901522      80.62159341
C      74.33324261      90.70106519      80.60458588
H      72.79878484      92.03899143      80.91450099
H      74.35969878      89.16282797      81.97652718
C      73.87214939      89.57478832      77.98164575
O      74.90016050      87.52065581      77.40905868
O      72.30934573      90.62736587      76.52844622
C      77.26231839      94.04399104      78.56557118
O      76.82579161      96.42126674      78.60525544
N      78.13537195      93.08401007      76.40183456
H      78.92905700      91.34924132      76.41506264
C      78.19395346      94.43894384      73.89605746
H      79.51487216      96.01497559      74.00944104
C      79.10669127      92.79299223      71.72476193
H      77.80278012      91.23207829      71.40917764
C      79.89848660      94.09123419      69.18119031
H      81.08712445      95.74474473      69.48354652
H      78.20340210      94.81121993      68.25522442
H      80.77154016      92.71362371      67.92263259
O      81.47829780      91.85757770      72.79623675
H      81.77876428      90.45540078      71.68507768
C      75.84691338      95.74096527      72.87182580
O      76.03588601      97.44549840      71.37894202
N      73.63404387      95.08145079      73.91306500
H      73.40916644      93.53754439      75.01099599
C      71.15472295      96.44961263      73.30835258
H      71.22842227      97.08267095      71.34870639
C      68.94374316      94.62980620      73.13638749
H      68.39194308      94.43327466      75.10926176
H      69.56546312      92.86858127      72.26711338
C      66.56835719      95.37624809      71.64728315
H      66.99921479      95.97718106      69.72543149
H      65.79923858      97.02597916      72.60726412
C      64.62004936      93.19172448      71.58492218
O      63.94163761      92.34323737      69.50622324
O      63.47676494      92.57567370      73.43307452
C      70.65583520      98.67004105      75.11493094
O      69.07602400     100.32922075      74.73887540
N      72.26966147      98.75129929      77.04434150
H      73.49798358      97.29054084      77.08213603
C      72.02966623     100.67126122      79.10036373
H      71.23976063     102.40225052      78.30667868
H      73.95340762     100.97928662      79.76176794
C      70.43662695     100.09111524      81.44929354
O      69.73364876     101.87501688      82.91572116
N      69.60136792      97.75919298      81.91038676
H      70.10025567      96.28898591      80.80300714
C      68.04234371      96.94472094      84.03821859
H      67.44141074      98.66626161      85.00008928
C      65.70097281      95.35924055      83.21240819
H      64.50666578      94.80933020      84.79977829
H      66.26789070      93.69061222      82.14660255
C      63.87927664      96.66126198      81.59858192
C      64.44808426      97.18471618      78.99831851
H      66.07702835      96.31733180      78.12904441
C      62.86827307      98.83066779      77.61881830
H      63.33503547      99.19160552      75.66484129
C      60.78201522     100.00796729      78.83013287
O      59.11527661     101.48384354      77.66039228
H      57.80758600     101.59533738      78.91139110
C      60.24344322      99.62246312      81.39071202
H      58.58804297     100.52197284      82.17305872
C      61.70042220      97.85178957      82.70029236
H      61.17885774      97.66092721      84.66182827
C      69.43129255      95.32144603      86.13959425
O      71.00165512      93.69061222      85.64637568
N      68.95130207      95.88647420      88.54521584
H      67.76455394      97.35479154      88.83812342
C      70.38371461      94.87358090      90.77698262
H      72.30556627      95.51041867      90.40092708
C      69.47475626      96.24741192      93.21283984
H      69.71475150      95.11735558      94.92304215
H      67.43385184      96.42693592      93.00119049
C      70.76165988      98.72484311      93.62102072
C      69.40483638     100.96038934      93.94038447
H      67.36393196     100.94338181      93.98384817
C      70.65016602     103.43593082      94.16337217
H      69.58436038     105.16314067      94.36368316
C      73.40160753     103.32632670      94.24274068
O      74.69040088     105.42959208      94.80209967
H      73.47719659     106.77885667      94.82288665
C      74.63748854     101.06243457      94.16904135
H      76.64815734     100.85834413      94.44116194
C      73.43751233      98.70405612      93.75897074
H      74.52032551      96.98062574      93.91959748
C      70.30056665      91.95017429      91.00563950
O      68.38627390      90.72941108      90.55210519
N      72.54367179      90.85602275      91.59901356
H      73.94584871      91.97852018      92.24718969
C      73.28633423      88.20284700      91.09067719
H      71.62715453      86.98397354      91.03587512
C      74.55623031      87.79277640      88.55655420
H      76.40060319      88.70173476      88.45828843
C      74.85858652      85.10558559      87.69672873
H      72.99531638      84.30245190      87.35657799
H      75.89037709      83.93773472      89.04410359
H      75.80911886      85.28510959      85.87692229
O      73.03311090      88.96629644      86.71407105
H      72.89894034      90.74074945      87.06744987
C      74.86047625      86.98964272      93.26008299
O      76.28910934      88.32189976      94.48273592
N      74.83213035      84.47441699      93.84400842
H      73.62081579      83.41239081      92.82355622
C      76.33068332      83.35380928      96.00585533
H      78.11836441      84.35347450      96.22695331
C      74.91905776      83.41239081      98.53430913
H      74.25198438      85.35691918      98.63257490
C      72.57957659      81.53022340      98.39446939
H      71.45140998      81.87415359     100.08388471
H      73.27310615      79.61404092      98.10156181
H      71.34558531      81.85525632      96.77875339
C      76.64437789      82.88137771     101.06654239
H      76.94295465      80.84425275     101.07032185
H      75.71085309      83.53711275     102.78241388
C      79.11802963      84.20607585     101.08732938
H      80.44461750      83.16294693      99.90625044
H      79.85691262      84.40071767     102.99784268
H      78.96307207      86.13926588     100.39379983
C      77.06956631      80.72331026      95.31232577
O      75.98486340      79.42884774      93.70983786
N      79.17283169      79.73687313      96.32899853
H      80.48430176      80.88015755      97.11512467
C      80.17060719      77.07046929      95.96239162
H      78.61914188      75.76466842      96.32332935
H      81.68427796      76.57725074      97.27197196
C      81.27609708      76.58669937      93.21661929
O      82.78409868      78.17217974      92.33600683
N      80.28965995      74.77256211      91.69727933
H      78.90449056      73.60849070      92.30577121
C      80.75453262      74.51177988      88.86835904
H      82.44961712      75.65506430      88.62080490
C      81.52932041      71.83403768      88.14081441
H      79.79644138      70.74177588      88.35624321
C      82.09056912      71.71498492      85.32512221
H      82.76520142      69.87250178      84.70151252
H      83.66093169      72.99055019      84.94150776
H      80.53154491      72.16285007      84.05711585
C      83.88769885      70.88350535      89.71117698
H      83.39070083      70.84382109      91.71050742
H      85.46562032      72.12127609      89.23118649
C      84.42627084      68.10560766      89.20662005
H      85.33144975      68.06214397      87.35657799
H      82.67071510      67.02846367      89.24063513
H      85.88891901      67.38373222      90.46328805
C      78.35080075      75.51144509      87.51720473
O      76.66705460      74.01478185      86.71596077
N      78.22229936      77.98887629      86.97863273
H      79.85880235      78.96775451      87.05989096
C      76.16249768      79.14727851      85.35535783
H      76.32123469      78.29312223      83.48641850
H      76.53477376      81.12204252      84.89993379
C      73.44696097      79.02633603      86.25486755
O      71.55912438      79.66317380      84.92450023
N      73.05578762      77.99265573      88.43750144
H      74.50520770      77.50132690      89.57700641
C      70.56512834      77.88494133      89.50519681
H      69.40294666      76.90039393      88.12002742
C      70.43473722      76.35426302      92.04120952
H      71.87848813      76.90228366      93.40370219
H      71.04511882      74.43808055      91.58767521
C      67.84770190      76.21442328      93.33567205
N      65.77845159      74.88594568      92.50419247
H      65.79356940      73.76533797      90.96028607
C      64.10982325      74.85948952      94.38258042
H      62.22954557      74.06580446      94.32399891
N      65.01500216      76.18796712      96.33466771
H      63.99832940      76.62260416      97.88991246
C      67.37338060      77.02700560      95.72806556
H      68.79634451      78.02667082      96.79954038
C      69.48609461      80.67606711      89.73007424
O      70.39316324      82.21241459      91.26264228
N      67.69652380      81.46597270      88.13703496
H      67.17873879      80.36426226      86.66682789
C      66.26978043      83.83191005      88.45828843
H      67.61148611      85.35313973      88.11813770
C      63.96998351      83.93773472      86.72540940
H      62.52056342      82.47886601      86.79910873
H      64.66918224      83.56356892      84.82623446
C      62.39017231      86.43595290      86.41738401
H      61.48121395      87.13704137      88.12758633
C      64.01155749      88.50331350      85.32701193
H      65.50444127      89.15904853      86.58745938
H      62.65662372      89.90738015      84.67127690
H      64.99988435      87.63970857      83.73775210
C      60.01478633      86.21485492      84.58623922
H      60.65351383      86.24320083      82.62848276
H      58.73922107      87.83057093      84.58434949
H      58.87717109      84.54622660      85.00008928
C      65.33625563      84.16639161      91.25130392
O      64.23265546      82.27288583      92.18293900
N      65.50633100      86.35280495      92.50797192
H      66.41906881      87.77198940      91.61413138
C      64.87894186      86.78555228      95.16114766
H      64.16084586      84.99598146      95.88491284
C      67.40550594      87.50742772      96.53686842
H      68.02533617      89.42738965      96.12112863
H      68.87760274      86.13737615      96.08522383
C      67.18818742      87.95907232      99.39413461
H      65.79167967      89.43494856      99.72105726
C      66.47954005      85.58179662     100.80198071
H      64.49721715      85.13015203     100.47505806
H      66.77055790      85.81801241     102.82776732
H      67.48298472      83.87915320     100.21994500
C      69.79978918      88.70362449     100.47127860
H      69.43885146      89.63714929     102.27218778
H      70.84291811      89.95840275      99.21272088
H      70.96575032      87.05389342     100.87001086
C      62.68496961      88.71307312      95.41059154
O      61.02956936      87.97419013      96.88268834
N      62.53190178      90.75964670      93.95739200
H      63.93218898      91.22262966      92.74607744
C      60.30391446      92.43772368      94.08778312
H      58.62205804      91.36813858      94.60556813
C      60.69697753      94.57689387      96.10601082