 %block lattice_cart
   137.793   0.000   0.000
   0.000 143.498   0.000
   0.000   0.000   162.326
 %endblock lattice_cart

 %block positions_abs
N      84.54343388      38.81862927      79.74003608
H      86.10056836      38.24793193      78.79517293
H      83.33589876      39.51593828      78.43612493
H      83.56266591      37.35787083      80.48647798
C      85.05932916      40.79150354      81.54661445
H      86.58433830      40.23970346      82.81840026
C      85.88513955      43.10263882      80.07640738
H      84.35257151      43.91711086      78.96524831
H      87.15503564      42.59241272      78.53817016
C      87.48384802      44.98480623      81.64299048
H      88.81232561      43.71679988      82.57462555
H      86.35757114      45.72179949      83.20390443
S      89.11468182      47.47168606      79.99892859
C      91.25952119      48.28615810      82.29494607
H      90.33166557      49.39542745      83.76137368
H      92.41792342      49.55227473      81.15355137
H      92.24217888      46.53060236      82.72769338
C      82.72551716      41.38865706      82.94690164
O      80.75453261      41.95557495      81.86408846
N      82.89370281      41.29606047      85.43378146
H      84.51697770      40.96724809      86.38242408
C      80.75642235      42.11998114      87.10240980
H      79.25597966      40.75370902      86.75658988
C      81.72774166      41.86297836      89.77826226
H      83.54943783      42.81162097      89.93510955
H      82.06978213      39.84664039      90.02014723
C      80.09690786      42.68122986      91.95144752
O      78.78354807      44.66355276      92.01380849
N      79.91549413      41.05228577      93.74290806
H      78.63803914      41.42645158      95.10918019
H      80.97185114      39.46680540      93.87707864
C      79.82478728      44.93945280      86.64320632
O      81.43483409      46.64776539      86.53549191
N      77.33034853      45.49503234      86.33518093
H      76.12281343      44.01915609      86.43344668
C      76.22296891      47.94033819      85.67377672
H      77.13759645      48.29749646      83.86530862
C      73.27121641      47.52459840      85.51503970
H      72.85736635      45.85785979      84.37553474
C      72.16005734      46.98035722      88.10585448
H      70.20041116      46.43989549      87.78082156
H      72.12604228      48.55638896      89.43244234
H      73.17861982      45.40432547      88.95623131
C      71.91061347      49.91132273      84.44545460
H      72.37737587      51.52892845      85.63031301
H      69.92640084      49.41054526      84.68167039
C      72.74398278      50.49335843      81.69212337
H      71.41928463      51.93710934      81.05150615
H      72.34525052      48.91354724      80.43167591
H      74.66205498      51.21712361      81.48803292
C      77.00153617      50.09273646      87.40476601
O      77.21129579      52.26403199      86.49769738
N      77.47018829      49.61652542      89.89164584
H      76.98452862      47.91388202      90.60218294
C      78.59457545      51.45144967      91.60373789
H      77.85191301      53.36574243      91.44122142
C      78.04655482      50.49902761      94.33439241
H      78.77031998      52.09395662      95.41909530
H      79.17850087      48.89087052      94.95044318
C      75.25542904      50.16076660      95.03359113
C      73.91372337      52.11285388      96.47167287
H      74.87181460      53.79660003      97.11229008
C      71.28133461      51.89364563      96.99134761
H      70.30623583      53.23913077      98.17809572
C      69.95474673      49.62408433      96.50946740
H      68.05368207      49.36708155      97.20488667
C      71.47597642      47.55672374      95.31893981
H      70.47631121      45.86919815      94.75580138
C      73.95529734      47.84774160      94.60840271
H      75.16283246      46.38131398      93.86196082
C      81.45373136      51.69522437      91.25413851
O      82.44394794      53.81927675      91.40720634
N      82.95606377      49.66943776      90.70044870
H      82.08112049      48.03104505      90.25447329
C      85.60546006      49.84140286      90.23935549
H      86.16292932      51.07350441      91.79271051
C      86.94905547      47.27704425      90.33006235
H      87.21361716      46.47202084      88.45167439
H      85.93994162      45.80683718      91.35996318
C      89.55309833      47.63420252      91.79082078
H      90.79653824      48.89842943      90.74013295
H      90.45071834      45.79360909      91.99869068
C      89.45105312      48.54694033      94.47612188
O      88.59122763      47.16177094      96.26191325
O      90.30142996      50.74658176      94.81249316
C      86.25930536      51.21145443      87.65232016
O      88.38335774      52.19600184      87.33673586
N      84.35257151      51.15287292      85.84763154
H      82.76520142      50.20423031      86.32006311
C      84.47351400      51.85018193      83.21335305
H      86.32733551      51.59884833      82.34974813
C      82.74441443      50.15887688      81.77716105
H      80.81311414      50.17588441      82.49147761
H      83.32078096      48.20678960      82.09463507
C      82.99574802      50.75603039      78.82162910
H      84.95161476      51.09996058      78.26982901
H      81.96773691      52.48512997      78.37754342
S      81.46506971      48.52426362      76.80151168
C      82.83512128      49.53526719      73.86865643
H      84.86090789      49.20078564      74.04818043
H      82.50063973      51.54404626      73.56630022
H      82.25497531      48.19356151      72.41923635
C      83.99919270      54.73012483      82.87509205
O      85.09901342      56.13419148      81.39732607
N      82.06978213      55.79970992      84.35852719
H      81.00208677      54.53548302      85.30905954
C      81.01531485      58.39241442      84.00136892
H      81.77687456      59.08027480      82.21557755
C      78.07868016      58.65130693      84.31317377
H      77.69884518      60.65441682      84.02026618
H      77.45884993      58.21289042      86.22746652
C      76.38359565      57.06960600      82.54627967
H      76.85602723      55.08161392      82.80139271
C      73.52443974      57.48534579      83.12831536
H      73.15405338      59.49412486      82.85808450
H      73.16350202      56.85039775      85.05583620
H      72.37926559      56.30426685      81.88865490
C      76.67650323      57.70077459      79.79294842
H      76.25131482      59.70199476      79.56051208
H      75.50676265      56.37796617      78.73092223
H      78.57189872      57.29826289      79.08997023
C      82.22096024      60.38229623      85.63787192
O      82.06033350      62.59894520      85.11063827
N      83.50786385      59.60561872      87.82050580
H      83.51920222      57.73478967      88.18900243
C      84.95728393      61.27991623      89.47779578
H      83.67415977      62.75768221      90.11841299
C      85.61679842      59.95143863      91.91743245
H      87.51219391      59.15208440      91.82861531
H      84.48674209      58.23178769      91.99680095
C      85.57333471      61.67675875      94.27959035
H      84.09556874      63.10539185      94.16242730
H      87.41770759      62.56870957      94.51013695
C      85.25775042      60.03080714      96.67009412
H      83.80077144      58.59650486      96.42253997
H      84.77020103      61.40274844      98.12707312
N      87.63124667      58.56248979      97.22378394
H      89.12224073      59.41664608      98.05337379
C      88.14525223      56.17009628      96.92520717
N      86.67693489      54.44477615      95.99357210
H      87.53487062      52.77614782      95.64586246
H      84.81366474      54.58461590      95.59295013
N      90.34489365      55.29326327      97.55637576
H      90.68126495      53.46778765      97.10662090
H      91.66203289      56.47245249      98.27825121
C      87.49518638      62.49312052      88.55182989
O      88.73295712      63.98033513      89.81227734
N      88.24162827      61.80714987      86.32573229
H      87.01519590      60.73567505      85.32984652
C      90.69827247      62.54414313      84.95379098
H      91.66014318      64.06159336      85.95723566
C      92.67681592      60.29914827      84.85741495
H      94.09411066      61.12873812      83.61586476
C      93.63301745      59.60939817      87.48602424
H      94.05820586      61.32337993      88.54805043
H      95.27141015      58.36406853      87.59184891
H      92.10422886      58.69099118      88.51403536
C      91.62423838      57.89730613      83.53082708
H      91.00251841      58.84783846      81.81306586
H      90.12379567      56.94866352      84.57773545
C      93.48372907      56.13608120      82.35352758
H      95.00117929      57.24724028      81.51826854
H      92.36879053      55.02492213      81.02504998
H      94.54764497      55.00035569      83.70279217
C      90.09544978      63.71010427      82.34407894
O      91.79809320      64.79291744      81.21591233
N      87.67471037      63.83671593      81.59385760
H      86.35190195      63.21877543      82.82217970
C      86.68827325      65.42786549      79.48681276
H      87.13424865      64.49245096      77.70858030
C      83.93872146      65.51290317      79.58885799
H      83.42471589      66.76012254      81.14599246
H      83.48896659      63.52680081      79.89499364
C      82.63103084      66.60138553      77.27394325
O      82.72173771      68.93330780      77.05851445
O      81.99797254      65.17275243      75.51082861
C      87.86746246      68.17174809      79.63610114
O      88.55343311      69.24133319      77.72180839
N      88.15092140      69.07881672      81.96235423
H      87.56321653      68.01490081      83.43256130
C      89.54931887      71.33514994      82.53683103
H      91.04787185      71.68663903      81.16677945
C      87.82777820      73.50833520      82.46313170
H      87.09456439      74.03178939      84.31506350
H      86.21773139      73.12283103      81.23858905
C      89.02397497      75.74577115      80.91355612
H      89.36790515      75.23176560      78.94824076
H      90.76630263      76.33158631      81.84330148
C      86.96228355      77.88683107      80.78694447
O      87.24385277      79.48742925      79.04461681
O      85.32956003      78.12493658      82.51226458
C      90.80598688      71.11783141      85.17677869
O      91.03653349      69.05614001      86.29549667
N      91.58455412      73.20030981      86.33707064
H      91.28786708      74.90862240      85.53960614
C      92.24028914      73.17385364      89.19055737
H      93.55175922      74.68563469      89.67621705
H      92.96783378      71.33703967      89.77259308
C      89.88757989      73.54612973      90.75336104
O      88.23595909      75.10893339      90.14675890
N      89.87624153      72.17985760      92.92087713
H      91.27085955      70.90429234      93.18354908
C      87.69927681      72.36883023      94.84650824
H      85.90781627      72.65606863      93.87518891
C      87.55943708      69.96698809      96.33183311
H      89.33011063      69.97643672      97.38252094
H      87.60101105      68.20009399      95.27547610
C      85.22184562      69.81580998      98.05148406
H      85.32011139      71.38239310      99.38563084
C      82.81811375      70.26934430      96.45088587
H      81.10035253      69.88950931      97.52425043
H      82.77276033      68.90307218      94.91264865
H      82.65937675      72.21954185      95.81404810
C      84.94216612      67.10783218      99.25901917
H      83.24519190      66.73933555     100.36450906
H      86.53331568      66.93019790     100.55537143
H      84.90437160      65.73778060      97.72078195
C      88.10178852      74.74232648      96.61151261
O      90.06521416      74.90106349      97.88140870
N      86.17426768      76.41473427      96.59261534
H      84.52264689      75.95742050      95.75168713
C      86.24040811      78.73342846      98.38029644
H      88.19060566      79.30979498      98.70721909
C      84.96295312      80.99732058      97.23701202
H      84.91948941      82.46185847      98.68643210
H      83.03165283      80.66283902      96.61151261
C      86.41804237      82.32768790      94.99201716
H      88.21328238      82.99098184      95.75546660
H      85.32200112      83.86403540      94.16431703
C      87.20794797      80.58913970      92.87363396
H      85.64325460      79.35514841      92.35017978
H      88.91248111      79.54979022      93.38386006
N      88.04698647      82.11603856      90.61163156
H      89.06554894      83.69584975      90.94233368
C      87.32322128      81.81179262      88.29482710
N      86.63914035      79.60837174      87.58995919
H      86.28954099      79.27011073      85.74369658
H      86.52386705      78.24965852      88.92788542
N      87.38747197      83.71852647      86.82839948
H      86.82433353      83.40861135      85.03315949
H      87.80132203      85.44384659      87.53326741
C      85.00074764      78.26477633     100.96733176
O      83.12613914      76.83236378     101.08260506
N      85.82844776      79.72742450     102.86083752
H      87.44605350      80.63827258     102.42053130
C      85.02531408      79.81246218     105.50834409
H      83.14692614      78.96019561     105.52724136
C      87.11157194      78.44430033     107.19964914
H      86.74874449      76.46008770     106.78957854
H      86.70339105      78.79767915     109.18575150
C      89.88946961      79.06979974     106.83115251
H      90.34867310      78.92618054     104.82993235
C      90.64347041      81.67006315     107.89317870
H      89.74396068      82.08580293     109.69975705
H      89.81199083      83.06846062     106.63084152
H      92.68626456      81.93084538     107.91774514
C      91.78864456      77.24621385     108.17285820
H      91.43715546      77.22920631     110.20242425
H      93.82954897      77.46353237     107.98388556
H      91.31054381      75.31680328     107.63428620
C      84.57177977      82.57335232     106.44186889
O      83.66471114      82.96263594     108.54135482
N      85.01397572      84.32134916     104.64851862
H      85.51097375      83.67317304     102.92130877
C      84.36768932      86.99342217     104.76946111
H      83.04866036      87.43939758     106.28691133
C      86.90937121      88.55055665     105.13039883
H      88.02808920      88.15182440     103.44854241
H      87.92226453      87.97230040     106.82737305
C      86.67693489      91.46073517     105.23244406
H      85.33144974      91.91804894     106.72343811
H      85.73396145      92.23552296     103.57326434
C      89.12224073      93.01975938     105.35338653
H      90.28631214      92.52087164     103.72822190
H      90.21450254      92.55299698     107.03524296
C      88.90870165      95.92426873     105.66141192
H      87.63313640      96.36835441     107.21854640
H      88.07155291      96.54598868     103.88695891
N      91.43337601      97.02408944     106.10738733
H      92.60878578      96.93905176     104.60694464
H      92.18926654      96.03954203     107.55869714
H      91.21416776      98.83822670     106.65918742
C      82.81055484      87.72474625     102.49423063
O      83.23952273      86.63626390     100.50056937
N      81.15893404      89.58801640     102.77768957
H      81.08145527      90.27587678     104.55403230
C      79.49597489      90.56500490     100.76702077
H      78.36969801      89.03243686      99.97522544
C      77.37759170      92.21662570     101.96888671
H      78.03143700      93.87391568     103.00256701
C      75.70707364      93.25219572      99.80515008
H      74.13293161      94.35957534     100.54025361
H      74.86236597      91.64592835      98.83383075
H      76.65949570      94.71484388      98.70721909
C      75.86014146      90.78421315     104.04380620
H      77.17161153      90.52721038     105.61038931
H      75.27999549      88.92661219     103.36539446
C      73.52632947      92.17127227     105.16063445
H      74.22552820      93.97218144     105.87495099
H      72.73264441      90.81255905     106.48911204
H      71.89927511      92.49063601     103.94176097
C      80.89815182      91.89537223      98.48045194
O      82.53087536      93.52620603      98.81682321
N      80.18572499      91.27176254      96.15419884
H      78.69662066      90.11902949      95.84428372
C      81.29499434      92.21662570      93.86951973
H      82.22662941      93.91548965      94.56493901
C      83.23952273      90.36280419      92.90953876
H      84.64925855      89.72029724      94.26636226
H      84.49052153      91.34735159      91.60373789
C      82.35324107      88.12158878      91.30138168
C      82.44961713      88.11969905      88.66143401
H      83.21306655      89.73163560      87.66365851
C      81.49719505      86.25453918      87.13264542
H      81.54065876      86.49831388      85.10685881
C      80.34257228      84.13615598      88.37041616
O      80.02698799      82.05745704      87.04193856
H      80.25564488      82.33335708      85.26370610
C      80.37280791      83.94718335      91.05193780
H      79.83045645      82.19540706      91.94577834
C      81.21562583      86.01454394      92.40498184
H      81.15137515      86.09391244      94.44399653
C      79.38826049      93.21818064      91.93821943
O      77.13948619      92.72118262      92.29159825
N      80.30855720      94.41626713      89.89164584
H      82.13214310      94.89058843      89.58551017
C      78.46229460      95.16459875      87.76948319
H      76.65760597      94.36713424      88.35907780
C      78.15048975      98.05588001      87.35563314
H      77.13192728      98.36201567      85.59251848
H      80.02887771      98.90247739      87.31972833
C      76.66894432      99.25774594      89.62519443
H      77.43617321      98.91570548      91.50736183
H      74.83402007      98.32422114      89.65165061
C      76.35147030     102.15469638      89.07906352
H      75.33857700     102.26241078      87.28760298
H      78.24308634     102.91436636      88.78615595
C      75.06456668     103.67592606      91.09162206
H      76.24186618     103.87245760      92.77158875
H      73.28066505     102.77830606      91.59617898
N      74.72063650     106.28374837      90.23179658
H      74.01387886     106.23650522      88.45923330
H      76.37414702     107.23617043      90.24124521
H      73.36570273     107.22672180      91.19177754
C      79.17661115      93.66037660      85.53393696
O      81.35357586      92.90259635      85.28260336
N      77.32467937      92.98574431      83.99947919
H      75.64093321      93.87202595      84.14498812
C      77.52499034      91.71962768      81.63921104
H      79.41093720      90.91649400      81.42378224
C      75.40660715      89.53888351      81.33496510
H      73.58680072      90.48374667      81.53338636
H      75.58235169      87.95151341      82.63509681
C      75.70707364      88.27843606      78.84808526
O      77.31334100      86.57768238      78.38699204
O      74.40883166      89.14393071      77.11520624
C      77.35869443      93.81344443      79.51704838
O      76.18517439      95.76175226      79.93845735
N      78.48308159      93.52242658      77.22292063
H      79.53754887      91.99363799      76.77505550
C      78.38670554      95.44994742      75.10075799
H      79.41471666      97.17337782      75.55807176
C      79.28621527      94.15548490      72.59309117
H      78.41883089      95.23829807      71.07186149
C      82.22473969      94.28587601      72.56852473
H      83.01842475      93.13125323      74.07463660
H      83.21873573      96.07166738      72.82930697
H      83.06755763      93.39203547      70.91312448
O      79.00842550      91.43805846      72.53828911
H      77.30200264      90.82578713      72.47214868
C      75.57668252      96.19072014      74.39400034
O      75.26298795      97.90848135      72.88599876
N      73.55278563      94.88491925      75.29728952
H      73.83435486      93.51108822      76.59175206
C      70.88827154      95.43105016      75.01005113
H      70.32513309      95.93371736      73.09197891
C      69.34247541      93.15581968      76.04751088
H      69.46152817      92.93661142      78.09219475
H      70.06435086      91.45317627      75.14044225
C      66.45497360      93.39959437      75.42768064
H      66.03923381      94.37658287      73.66267627
H      65.62349403      94.69216717      76.79773221
C      65.29279192      90.73885972      75.43901900
O      63.96620405      90.09635278      73.61165365
O      65.81246666      89.16660743      77.19457474
C      70.02655633      97.77242106      76.60120068
O      67.88549642      98.68515887      76.39522051
N      71.58180110      98.74940956      78.23581395
H      73.29956232      98.00107794      78.60053113
C      70.94118388     100.90180783      79.86853747
H      69.32357815     101.90714223      79.08619078
H      72.46430328     102.26619023      80.10475326
C      70.05112278      99.99662893      82.54438993
O      70.41395023     101.44037983      84.31506350
N      69.15917196      97.57399980      82.89587903
H      69.04011920      96.37969277      81.41055414
C      68.07257934      96.70094624      85.13898416
H      66.84992640      98.18060194      85.88353634
C      66.29434688      94.61279866      84.37364501
H      65.55168443      93.90982048      86.16321582
H      67.39794703      93.33156422      83.19634552
C      64.00588830      95.65403786      82.87320232
C      63.17440872      94.09690338      80.89843831
H      64.03045474      92.27709694      80.54883895
C      61.00878237      94.69216717      79.42823124
H      60.50044599      93.51297795      77.84086115
C      59.53101639      96.80866064      80.01404641
O      57.19909412      97.23951824      79.12965449
H      56.48099812      98.86279314      79.50571002
C      60.15273635      98.21650674      82.15888576
H      58.85260465      99.67915491      82.73903174
C      62.40717984      97.71383954      83.61019557
H      62.66229289      98.61901845      85.42244311
C      70.05301250      95.47262414      87.11752762
O      71.96352581      94.40870822      86.45801314
N      69.33113705      95.36302001      89.56661291
H      67.74376695      96.28142700      90.09195684
C      70.58591533      94.11769037      91.72279063
H      72.56445877      94.68838772      91.79271051
C      69.28578362      94.92460351      94.21911909
H      69.36893158      93.52998549      95.73090014
H      67.37338059      95.00964119      93.45566967
C      70.26466185      97.43793950      95.18098980
C      68.66028421      99.64136038      95.17721033
H      66.79701407      99.58277887      94.34951021
C      69.61459600     102.01674636      96.02569745
H      68.54879037     103.75907402      96.04081526
C      72.09391693     102.22083680      96.87418456
O      73.12759722     104.57543579      97.46377917
H      71.87281895     105.84911132      97.77369429
C      73.78144252     100.09111525      96.70599893
H      75.77888323     100.41425844      96.95922226
C      72.82146155      97.83100257      95.81593783
H      73.90616446      96.10190300      95.75735631
C      70.57835643      91.17916595      91.57161253
O      68.79634450      90.03210208      90.68533089
N      72.70618826      90.11713977      92.69222023
H      74.18395423      91.15459951      93.30827102
C      73.31279040      87.52065581      92.14042016
H      71.47975587      86.59846937      91.95522698
C      74.67150362      87.07468040      89.65165061
H      76.70673885      87.07279067      89.96534517
C      74.22363849      84.45929918      88.34207027
H      72.51532589      84.46496836      87.19311667
H      74.35025014      83.14215994      89.92188146
H      75.60502841      83.99064706      86.88887073
O      74.37292686      88.98708343      87.89987430
H      75.99809149      89.75053286      87.63720235
C      74.82646117      86.38870975      94.33817185
O      76.13793123      87.71151817      95.85940154
N      74.65449609      83.88860184      94.56493901
H      73.21452462      83.17050584      93.53692790
C      76.00942984      82.27855502      96.33183311
H      77.80655957      83.14971885      96.83827976
C      74.50331797      82.31068037      98.77902869
H      73.94395898      84.27977518      99.03225201
C      72.15438817      80.67039793      98.40297315
H      70.77299823      81.00298976      99.89207749
H      72.79689511      78.71453119      98.45588550
H      71.21708391      81.26944117      96.67009412
C      75.85069283      81.32613296     101.08260506
H      76.51965595      79.42506829     100.65552693
H      74.32190424      81.14471923     102.44698746
C      78.01065001      82.99287157     102.14085180
H      77.28877456      84.90149514     102.41675184
H      79.47896736      82.77744277     100.71221871
H      78.76843027      82.44107148     103.97577605
C      76.43839772      79.60837174      94.97878907
O      75.48030647      79.26066210      92.87741341
N      77.90482533      77.88116189      96.14286048
H      78.87614466      78.31579894      97.72834086
C      78.22418909      75.25822177      95.17910007
H      76.29666825      74.69319360      94.72178630
H      78.97063098      73.77667634      96.39797353
C      79.82289754      75.28656766      92.69599969
O      82.00553143      76.24654863      92.70733805
N      78.83079123      74.10926817      90.72879459
H      77.11114029      73.41762834      91.18421865
C      79.51865161      74.20186476      88.05294213
H      81.08145527      75.52845263      87.84696197
C      80.54666273      71.42963626      87.12697624
H      79.33156870      69.88195041      87.73924757
C      80.71295864      71.46365133      84.28482788
H      81.91671430      70.03123878      83.42122294
H      81.49341560      73.29668585      83.75570450
H      78.80055562      71.24444308      83.55161406
C      83.03732200      71.11594169      88.70489772
H      82.50063973      70.79279849      90.66832335
H      84.21084204      72.78079057      88.40065178
C      84.54721333      68.65740775      88.08695721
H      86.56733076      68.79724750      88.45923330
H      84.39981467      68.12450493      86.10274458
H      83.89147829      66.98688969      89.09985051
C      77.21696496      75.02767516      86.57517617
O      75.57857225      73.55368863      85.73046851
N      77.04688959      77.48998854      86.00636855
H      78.34702129      78.67673667      86.74147208
C      74.78488719      78.46508732      84.40388062
H      74.34647069      77.26511111      82.78627490
H      75.22330371      80.30379102      83.58373941
C      72.28099983      78.89405519      85.84574181
O      70.36670707      79.59136420      84.63253751
N      72.15816763      78.51799966      88.31561410
H      73.70018429      77.81124201      89.19433684
C      69.64105217      78.42729279      89.70834238
H      68.17084510      77.44274538      88.65387510
C      69.76388438      76.88905557      92.20467084
H      71.00165512      77.92462559      93.48212584
H      70.67473247      75.08058749      91.83239477
C      67.21464359      76.48087469      93.50291282
N      65.71231116      74.31713806      93.19110799
H      66.03167491      72.72220905      92.19333249
C      63.59959714      74.75744429      94.51958559
H      61.93852771      73.63305714      94.13975059
N      63.59392797      77.04968231      95.59483986
H      62.31647298      77.90761806      96.72489618
C      65.96931394      78.06257561      95.00335551
H      66.63260788      79.94663275      95.41909530
C      68.56390817      81.01621784      90.29415755
O      69.55412476      82.32957763      91.80215915
N      66.35292838      81.69085014      89.20756491
H      65.72742897      80.44929995      87.89987430
C      65.15484190      84.11725872      89.44756016
H      66.69874830      85.37959590      88.93733405
C      63.34826354      84.55567523      87.34240504
H      62.17285378      82.86437018      87.35374341
H      64.46131234      84.78055266      85.62275410
C      61.77601125      86.92161257      87.53704685
H      61.59081807      87.61136267      89.47023687
C      62.92874430      89.11180537      86.12920075
H      64.51989387      89.70895888      87.29516188
H      61.55113382      90.63114532      85.95156647
H      63.55802317      88.51843130      84.26026142
C      59.10015879      86.48886524      86.45990285
H      59.21921155      86.48319607      84.40388062
H      57.84727025      88.08379425      86.81328167
H      58.32348128      84.67850744      87.06083582
C      64.28745752      84.58024167      92.04971330
O      62.61504973      83.12326268      92.98134837
N      65.27767411      86.37170221      93.46511829
H      66.76866817      87.39782360      92.86229560
C      64.63516716      86.49075497      96.14097075
H      63.91896089      84.70496360      96.87607429
C      66.97464834      87.55278116      97.45811000
H      67.22031276      89.52754516      96.92142773
H      68.49020884      86.38870975      96.68710167
C      67.04456821      87.42994895     100.40986250
H      65.69341390      88.80000053     101.14496603
C      66.32836194      84.79567047     101.29803386
H      67.34125524      83.36514765     100.21333096
H      64.34225960      84.35914369     100.97678039
H      66.59103390      84.67283826     103.33893828
C      69.77711246      88.12914768     101.33771812
H      69.57680147      88.74519846     103.29358485
H      70.27033103      89.94139522     100.48923100
H      71.37582092      86.86114133     101.05047973
C      62.23710447      88.38804019      96.54726191
O      60.76500767      87.85135792      98.17431627
N      62.02734485      90.54232819      95.04870895
H      63.42196287      90.69539602      93.75424643
C      59.84471096      92.21851543      94.86351577
H      58.17041345      91.07145155      95.21689459
C      59.91652056      94.21595614      97.11606953