 %block lattice_cart
   137.793   0.000   0.000
   0.000 143.498   0.000
   0.000   0.000   162.326
 %endblock lattice_cart

 %block positions_abs
N      85.83506181      38.58241348      81.25370686
H      87.57549975      37.84164077      81.00048354
H      85.21334186      39.74081571      79.87042720
H      84.79382261      36.98370502      81.18189727
C      85.75380358      39.98836986      83.68200519
H      86.92732362      38.94335121      85.01237251
C      87.14464215      42.46580105      83.47224556
H      86.02781390      43.78860947      82.35730703
H      88.84917527      42.24092362      82.33840978
C      87.80982581      43.59585739      85.97235348
H      88.80004239      42.14454758      87.04949747
H      86.18466118      44.06261979      87.14965297
S      89.65419869      46.36619616      85.63976164
C      92.53414159      44.82417949      85.05205675
H      92.76468819      43.57884985      86.67722138
H      94.04970210      46.19612079      85.29583145
H      92.72689368      44.14198829      83.11886673
C      83.10818674      40.22080619      84.79127453
O      81.24869605      40.36820485      83.31161882
N      82.75480792      40.10175344      87.23658037
H      84.01525537      39.19846426      88.34962917
C      80.48713635      41.06173440      88.45923329
H      78.91866351      39.81829449      87.97168391
C      81.06161314      40.93701247      91.36752209
H      82.88897848      41.74959478      91.86452012
H      81.31294675      38.94713066      91.83995368
C      78.85252309      42.05195099      93.04748878
O      76.89665634      42.87965112      92.25569347
N      79.05661352      41.63432148      95.49279463
H      77.81506333      42.19557019      96.82883114
H      80.67610898      40.91244602      96.19577283
C      79.85218830      43.67711562      87.58051056
O      81.46223513      45.35141313      87.39720711
N      77.50514822      44.12687048      86.79816388
H      76.27115693      42.70579629      87.09863035
C      76.55650561      46.46068248      85.81361646
H      77.90765992      46.85374555      84.30750459
C      73.96002165      45.97313309      84.67222176
H      74.12253813      44.28749722      83.49681200
C      71.87943298      45.31361861      86.39187272
H      70.17112040      44.69000892      85.42622256
H      71.45802402      46.88209145      87.65609961
H      72.37832073      43.82451427      87.72224003
C      73.12476263      48.21245877      82.85430505
H      72.28950360      49.86218984      83.76326341
H      71.57896651      47.45089907      81.72613845
C      75.09196772      49.15165275      80.95701983
H      74.38332035      50.37808513      79.45846687
H      75.82518153      47.37153056      80.22380602
H      76.63020493      50.13808988      81.90755218
C      76.56028507      48.66032391      87.73357839
O      77.28971943      50.79193519      86.96634951
N      76.27115693      48.14631835      90.20911986
H      76.19367816      46.32651191      90.78170693
C      76.63398439      50.11163372      92.11018454
H      75.70612877      51.89175590      91.64720159
C      75.47180271      49.28015414      94.61596162
H      76.01604389      50.70122833      96.00491046
H      76.33540763      47.50570113      95.20366651
C      72.59185981      48.90598833      94.54037257
C      71.17645480      50.56516803      96.03136663
H      72.12887686      51.94088879      97.19921749
C      68.47036672      50.46879199      95.97467484
H      67.37432546      51.82183603      97.04048048
C      67.19858091      48.63764719      94.55171093
H      65.19169156      48.35418824      94.77658836
C      68.71036195      47.08618189      93.00402508
H      67.82030087      45.50637069      92.07050028
C      71.23125687      47.19389629      93.02859152
H      72.31029058      45.91455157      91.86074066
C      79.40999235      50.74658176      92.46923254
O      79.97879997      52.81583207      93.40275733
N      81.15043027      49.05716643      91.82483586
H      80.67799870      47.40176618      91.00280491
C      83.84518001      49.76203435      91.92121191
H      84.28737596      50.96956946      93.52936899
C      85.33050489      47.33940521      92.38041539
H      87.36385040      47.59829772      92.18577358
H      84.66910068      45.84652143      91.12374740
C      84.95255962      46.30950437      95.02225279
H      85.85206934      44.48213903      95.32460900
H      82.93622164      46.21312833      95.43043366
C      86.00702691      48.35229852      96.84016949
O      84.75791781      48.91732669      98.72800609
O      88.12163065      49.28204386      96.48868040
C      84.84673495      51.01303317      89.53448757
O      86.27158858      52.90086975      89.71212184
N      84.13052867      50.04360357      87.33673586
H      82.78693327      48.68678008      87.39909683
C      84.48768695      50.95823110      84.75725945
H      86.50969410      50.99413590      84.36230665
C      83.05527441      49.14598357      83.00359343
H      81.07673096      49.41432471      83.50815035
H      83.82061355      47.31483877      83.55917296
C      83.43510940      49.60140761      80.19734985
H      83.15920934      47.85152105      79.14855175
H      85.38908639      50.02848576      79.70602102
S      81.45845567      51.85585110      78.45124275
C      83.78659849      53.22023350      76.39711024
H      84.76547672      51.69900382      75.41256283
H      85.07917129      54.33328230      77.55173303
H      82.84362505      54.41265080      75.00816140
C      83.66376628      53.59628904      84.29616623
O      85.03948704      55.00602487      82.95257082
N      81.34696182      54.52036520      85.16544033
H      80.36430413      53.36385270      86.32573229
C      80.61752746      57.33227796      85.14465334
H      80.98035491      57.96155682      83.21524278
C      77.70356949      57.50802250      85.58495957
H      76.95523787      59.38641046      85.98369182
H      77.40688246      56.26269286      87.19500640
C      76.08974321      56.28159013      83.45145856
H      77.00248103      54.48823986      83.00548316
C      73.38743458      55.60884756      84.08829633
H      72.74870710      54.54871110      82.44234471
H      72.28194469      57.16976149      84.85174577
H      73.64065791      54.34651038      85.69456371
C      76.37320216      58.12218356      81.14788219
H      75.29794789      59.84939341      81.46913566
H      75.39810339      57.31149097      79.52271756
H      78.27804629      58.48879046      80.45624236
C      82.02348384      59.31082141      86.69989810
O      81.64175912      61.52369092      86.16132611
N      83.83384165      58.49823909      88.27404012
H      84.01147592      56.59717442      88.33451136
C      85.47979327      59.91364410      89.95967599
H      84.66532123      61.80526014      89.89353557
C      85.38341722      58.71933707      92.50135789
H      86.71378455      57.22456356      92.99457645
H      83.53337516      57.81415817      92.44466610
C      85.22090076      60.65630654      94.77658836
H      84.13808758      62.28714035      94.13408141
H      87.11062706      61.17031210      95.41720559
C      83.93588687      59.57916254      97.15764351
H      82.00836603      58.96122204      96.77024962
H      83.65620737      61.04936962      98.57493826
N      85.48168298      57.67053897      98.59572524
H      86.73268180      58.21289042      99.92987202
C      85.27003365      55.17043106      98.55415127
N      83.28015183      54.10462541      97.52614014
H      83.10251755      52.21300938      97.71322305
H      82.06127836      55.04192967      96.39608381
N      87.01614076      53.79093085      99.58783156
H      86.97834622      51.93710933      99.13618697
H      88.58083415      54.69422002     100.20010289
C      88.27658820      60.12151400      89.01481283
O      89.88663503      61.38574090      90.13542053
N      88.74901979      58.90453025      86.77737688
H      87.28259217      57.88218831      86.10652404
C      91.00535300      59.19176865      85.26181637
H      91.90675246      60.87929425      86.02526581
C      93.01980126      56.92976625      85.26937528
H      94.53158231      57.54959648      84.01837646
C      94.12529115      56.10584558      87.87908733
H      95.14574336      54.33139257      87.64287153
H      92.50201624      55.79593047      89.10929916
H      95.36873106      57.61006773      88.53671207
C      92.09761481      54.36540765      84.19223128
H      90.26458028      54.04793363      85.07284375
H      93.24278896      52.69111013      84.54749983
C      91.62329350      54.28225969      81.31795757
H      91.53825582      52.31883405      80.70379651
H      93.15964099      55.23468175      80.32963070
H      89.82616379      55.16665160      80.84363626
C      90.47811935      60.02513795      82.40643991
O      92.06926892      61.12684839      81.20457398
N      88.04982105      60.14985989      81.77716105
H      86.89708799      58.94043505      82.69745778
C      86.91031609      61.61250806      79.65688814
H      88.04226214      61.27424705      77.96936253
C      84.25525061      60.36528869      79.23547916
H      83.04960522      60.56937913      80.89276914
H      84.48390750      58.34328153      78.91044623
C      83.08551002      61.44432241      76.89032882
O      81.56994951      63.31326174      77.07930144
O      83.92643824      60.88118397      74.76816616
C      86.71000510      64.52268658      80.20868821
O      87.13141405      66.05525462      78.47391946
N      86.30560367      65.43731411      82.53494130
H      86.00324746      64.02946801      83.78971957
C      86.29426531      68.20198371      83.18878661
H      87.33361478      69.25834072      81.75637406
C      83.49936009      68.88606464      83.19067634
H      83.42755049      70.71154025      84.14498812
H      82.42977500      67.49333634      84.26782033
C      82.29938387      69.06747836      80.55261841
H      80.30005343      69.34526813      80.96646846
H      82.42977500      67.43664455      79.29972986
C      82.94567027      71.59593217      79.15989011
O      84.25147115      71.55057874      77.17378776
O      82.05938864      73.62360850      79.82318405
C      87.64164017      68.84260093      85.74180687
O      88.42965603      67.13806780      87.09674062
N      88.24635259      71.22365608      86.21234871
H      87.85517924      72.51811861      84.86497385
C      89.31782741      72.17040897      88.65198538
H      90.15497616      74.03178939      88.36852644
H      90.68409952      70.92507933      89.55905401
C      87.24290791      72.58236930      90.75336104
O      85.34562270      73.88061128      90.37541579
N      87.70967032      71.50900476      93.00591481
H      89.13641368      70.24477785      92.91142849
C      86.36418517      71.59404244      95.39074941
H      84.34406774      71.54113010      94.99012744
C      86.87819074      69.03157356      96.72111673
H      88.86807254      69.10527289      97.24835038
H      86.50213519      67.53680005      95.35295489
C      85.26436446      68.76701188      99.12862806
H      85.50246997      70.44319912     100.30403782
C      82.38064210      68.16985836      98.59005606
H      81.53215500      67.65396308     100.39663441
H      82.20111811      66.59760607      97.27102709
H      81.25247549      69.64762434      97.70566414
C      86.17521254      66.52390674     100.41742140
H      86.03726252      65.03669214      99.00012667
H      85.12074527      66.07415188     102.12951344
H      88.18966080      66.78279925     100.76324132
C      86.78370442      73.99966404      97.02158323
O      88.85106501      74.31524833      97.98723336
N      84.98279525      75.74388143      97.21811476
H      83.40487376      75.38861288      96.20522145
C      85.18688568      78.15706193      98.53714372
H      87.18054695      78.44241060      98.96611160
C      84.04549099      80.40583624      97.09906201
H      84.19855882      82.09525156      98.26502314
H      82.07828589      80.01277317      96.62852015
C      85.45333709      81.17117540      94.68210204
H      87.47912371      81.10503498      95.05059868
H      84.79004316      83.04578390      94.14541977
C      84.82216851      79.45719363      92.37474621
H      82.79827163      79.08491755      92.27648045
H      85.58750767      77.57313650      92.70166887
N      85.27003365      80.87637809      90.13542053
H      85.85017962      82.68295645      90.35273906
C      84.52737120      80.12615674      87.96979418
N      83.41054295      78.04745780      87.37075094
H      82.74724901      77.96242012      85.58306985
H      82.95700863      76.70764184      88.65387510
N      84.95066990      81.79289535      86.23313570
H      84.56516573      81.14660895      84.47757995
H      85.59695630      83.57868672      86.42210833
C      84.00580673      77.86793380     101.19598864
O      81.78159887      77.32558235     101.37929210
N      85.50246997      78.77311270     103.11028140
H      87.13330379      79.60459228     102.57548886
C      84.65398286      79.24932374     105.70109618
H      82.73969010      78.49721266     105.80503112
C      86.26969887      77.74132214     107.54357934
H      86.26402968      75.75710951     106.99555871
H      85.38530694      77.60715157     109.39929057
C      89.05704518      78.65972913     107.85727390
H      89.07972188      80.68551573     108.22954999
C      90.40442004      77.35770770     110.07014341
H      92.30548470      78.14950302     110.07770232
H      90.69921734      75.35648753     109.69597760
H      89.49546168      77.71675570     111.88428067
C      91.02802972      78.05312698     105.62172767
H      90.44599401      78.88838601     103.83215685
H      91.35495237      76.02356092     105.49889547
H      92.82326972      78.96964424     106.04502636
C      84.37052392      82.09714129     106.52690657
O      83.07795111      82.72642015     108.30324931
N      85.29082063      83.76954908     104.90741112
H      86.23946324      83.00798937     103.43720405
C      84.89019866      86.46240907     104.83938098
H      84.18533074      87.04822423     106.68375386
C      87.48290316      87.65860583     104.23277884
H      88.37485398      87.20507151     102.43564911
H      88.62618757      87.10491602     105.85416401
C      87.43377026      90.62925559     104.37828776
H      86.42465642      91.09979744     106.11116678
H      86.42087696      91.31900570     102.72288750
C      89.97167271      92.18072090     104.18931513
H      90.68787898      91.76876056     102.30336826
H      91.40219552      91.68750233     105.58771261
C      89.46900551      94.98129529     104.03813702
H      88.21800669      95.61435361     105.54991807
H      88.35595671      95.24774670     102.32604498
N      91.67620584      96.72929213     104.26679390
H      92.76657793      96.41937702     102.73233615
H      92.75523957      96.48929689     105.82392838
H      91.28314277      98.59823145     104.31592679
C      83.06094358      87.32601400     102.71154916
O      82.94000110      86.35469467     100.56293034
N      81.48491183      89.20818141     103.26145951
H      81.43010978      89.76943012     105.08504540
C      79.76337116      90.30044321     101.28669551
H      78.46134973      88.78488271     100.78402832
C      78.14576544      92.30922228     102.74745395
H      79.54605263      93.46573479     103.71877327
C      76.84752346      94.14225681     100.83694064
H      78.23269286      94.85657335      99.48767606
H      75.97258018      95.56900017     102.03880659
H      75.36597804      92.99330321      99.98845353
C      76.32784872      91.21129130     104.72788712
H      77.47113315      90.15682401     106.07904145
H      75.12598279      89.81667328     103.80381096
C      74.76126562      93.19739365     106.07526198
H      75.88943223      94.57878359     107.10138337
H      73.62176064      92.28087639     107.52468207
H      73.44223665      94.29910409     104.93953647
C      81.10318713      91.10357690      98.86595610
O      83.09495865      92.04844005      99.06815682
N      79.90132119      90.49508502      96.80237497
H      78.13631681      89.79210684      96.97056061
C      80.72146241      91.56655984      94.25880335
H      81.97435096      93.11991487      94.76147055
C      82.20111811      89.37825677      92.95300248
H      83.52203680      88.36725320      94.16620676
H      83.36518951      90.26264869      91.50358238
C      80.91988367      87.08601876      91.48657485
C      80.95389875      86.77421391      88.88253199
H      81.72868654      88.25009016      87.70523250
C      79.90888010      84.59724920      87.76570374
H      79.97691023      84.46874781      85.72857877
C      78.71646279      82.69429480      89.37575057
O      78.12686817      80.48142529      88.20223053
H      77.86230650      80.67039792      86.41643916
C      78.70701415      82.97397430      92.05160302
H      77.97191062      81.58313573      93.35551417
C      79.81250404      85.22274861      92.97001001
H      80.04116093      85.26810204      94.99579661
C      78.45379082      92.41882641      92.67332297
O      76.46579875      92.88180936      93.86385055
N      78.91488406      92.93094224      90.27337055
H      80.68177815      92.52843054      89.67810678
C      77.03460637      93.73974510      88.59529359
H      75.17322595      93.15581967      89.25102863
C      76.98358376      96.63480582      88.28348876
H      75.68345206      97.23006960      86.80383305
H      78.94700940      97.13180384      87.91310239
C      76.33162818      98.18438139      90.67777200
H      77.65632633      97.78375941      92.20089139
H      74.47780667      97.48329293      91.24846933
C      76.06895622     101.06999347      89.99936024
H      77.51270712     101.86556825      88.76536896
H      76.27871584     101.95438539      91.84751257
C      73.43467775     101.70683124      89.03559982
H      72.34241593     101.13613389      90.68722062
H      72.89799547     100.56165709      87.40854547
N      72.99626123     104.42047822      88.71245662
H      73.55939968     105.54297565      90.15242807
H      71.12732192     104.78141595      88.58206551
H      73.66144490     105.14046395      87.07595363
C      77.08562897      92.38859079      85.98936101
O      79.04149571      91.85568797      84.98402660
N      74.92945126      91.82356262      85.03315950
H      73.48003117      92.70984426      85.89865414
C      74.29828267      90.25697951      82.83540779
H      75.53794312      88.62236625      83.02815988
C      71.59786376      89.21007113      83.08485167
H      70.20702519      90.69917547      82.79005437
H      71.35975826      88.46929842      84.99158551
C      71.07629930      86.95373791      81.29339112
O      70.14844368      87.27121193      79.05784489
O      71.42211922      84.68417661      82.00014877
C      74.73103000      91.51742696      80.18223205
O      75.04661429      93.77187045      80.05939983
N      74.94645880      90.25508978      78.09408447
H      74.84441358      88.35213539      78.00526733
C      75.02393757      91.49286052      75.58830739
H      76.48469601      92.92527306      75.80940537
C      75.65321643      89.67872326      73.36032005
H      75.21479992      90.38359117      71.47437319
C      78.49725453      89.19495332      73.21292141
H      78.64465319      87.48853046      72.06774727
H      79.17566629      88.99653206      75.14800116
H      79.51959648      90.71807273      72.27750689
O      74.56473407      87.33546263      73.66456600
H      74.87842865      86.63248444      72.02239382
C      72.78083244      93.09912788      75.01949977
O      72.88665711      95.13625285      74.00660645
N      70.55284511      92.16182363      75.69980123
H      70.58497046      90.54988709      76.72214317
C      68.25115847      93.65848687      75.83019235
H      67.89400020      94.37280342      73.93290713
C      66.24237940      91.71017904      76.61820822
H      64.47737502      92.71929289      76.94891032
H      66.72614934      90.87680974      78.43990439
C      65.79073480      89.52376570      74.55840654
H      64.74382643      88.00064629      75.47114436
H      67.56329808      88.65638132      73.96881193
C      64.32241747      90.43839323      72.14900549
O      62.02451027      89.90171096      72.13199796
O      65.27483953      91.57978793      70.22148465
C      68.30973998      95.96206325      77.60464536
O      66.52583835      97.45872649      77.18512612
N      70.17678958      96.30599344      79.28461204
H      71.70935762      95.17026792      79.29595040
C      70.20702519      98.30343415      81.13654383
H      69.61365113     100.08355634      80.28616700
H      72.21391454      98.62468762      81.45590759
C      68.91067295      97.99540876      83.68767435
O      68.72359005      99.86812754      85.14087389
N      68.05084748      95.74852417      84.27726896
H      68.27572491      94.27642738      83.08296193
C      66.72048016      95.12113504      86.52037411
H      65.63766698      96.74440994      87.18177832
C      64.93846824      92.81377921      86.02148636
H      63.58542420      92.44906203      87.52948796
H      66.07230402      91.10357690      85.85519045
C      63.23015566      92.91393470      83.68578464
C      62.41190416      90.41571652      82.84107697
H      63.05063166      88.67527858      83.69334353
C      60.62989225      90.16627265      80.89276914
H      59.93069351      88.28977442      80.49970606
C      59.69825718      92.50008464      79.72491829
O      57.99183432      92.45662094      77.76149265
H      57.25295133      94.11202119      77.75204400
C      60.83209297      94.92460350      80.26349027
H      60.14423259      96.53842977      79.22036135
C      62.51772883      95.09845832      82.31195360
H      63.45881253      96.83511680      82.82406943
C      68.68390580      94.43327466      88.57828606
O      70.83252461      93.89659239      87.77137292
N      68.31540917      94.47484864      91.06138644
H      66.53906643      94.87736034      91.63586323
C      70.10686971      93.58856700      93.00969427
H      72.06273644      93.70573003      92.37285650
C      69.81774158      94.89058843      95.58917067
H      71.21424932      94.07611639      96.86662566
H      67.92423582      94.60523976      96.34695092
C      70.31662933      97.68360392      95.67420836
C      68.41367493      99.44860830      95.23768158
H      66.60709657      98.66626160      94.69721985
C      68.86342980     102.00729772      95.47767683
H      67.54629056     103.56254248      95.41720559
C      71.41456031     102.86901292      95.89530634
O      72.13643577     105.33321603      95.61562684
H      70.80606844     106.56720732      95.61562684
C      73.38176541     101.12479553      96.08427897
H      75.32818350     101.58966821      96.48679067
C      72.72036120      98.54720884      96.05404336
H      74.23781142      97.18660590      96.16553720
C      69.70813746      90.66327067      93.34795528
O      67.49337822      89.77887875      93.19488743
N      71.88321243      89.40660267      93.89030672
H      73.50837706      90.40248844      93.78448205
C      72.12698714      86.67972760      93.96778550
H      70.18623822      86.02966175      94.19266293
C      73.20602085      85.50809728      91.47523649
H      74.01482373      83.61648125      91.59995843
C      71.14243973      85.40794179      89.38519919
H      69.78183678      83.91127855      89.76881363
H      72.06840561      84.92606158      87.60885645
H      70.13899506      87.18050507      89.07339436
O      74.99559168      87.36569825      90.49068908
H      76.61508713      86.55500566      90.40376167
C      73.78805657      85.50242811      96.05593307
O      75.30739651      86.61736663      97.23134285
N      73.62176064      83.02121746      96.34506121
H      72.50871184      81.93462483      95.24146103
C      75.29038898      81.60203300      98.20266216
H      77.13098242      82.49020436      98.46155468
C      74.08285387      81.44140626     100.81993311
H      73.62742983      83.33491202     101.49834485
C      71.67345281      79.73120395     100.71410843
H      72.14399468      77.74510159     100.43631867
H      70.28639370      80.36615199      99.32704932
H      70.61709580      79.66884298     102.48100254
C      75.74392330      80.38315952     103.01768481
H      76.11053021      78.35737292     102.95154439
H      74.77071424      80.59102942     104.82048371
C      78.18355997      81.80612344     103.42586569
H      79.39865399      81.52266449     101.78936271
H      79.24558616      81.01243839     105.00189744
H      77.93222636      83.82813059     103.72822190
C      75.76848974      78.95830588      97.15953325
O      74.25103950      77.98698656      95.64397274
N      77.64876742      77.64305637      98.10817585
H      78.62953537      78.59547843      99.44043290
C      78.13442708      74.95586555      97.65275181
H      76.31084119      74.02423048      97.88140870
H      79.61975197      74.37760930      98.95855269
C      78.76748539      74.56658193      94.88808221
O      80.69689597      75.36782589      93.88274781
N      77.13098242      73.13416939      93.62196558
H      75.76848974      72.08726101      94.45533489
C      77.27271189      72.98488101      90.83272955
H      78.65410181      74.37949903      90.20723014
C      78.10986064      70.40162514      89.86707940
H      76.44879121      69.19220030      90.02581641
C      78.74669840      70.49611145      87.12886597
H      77.33318313      71.59593217      86.11408295
H      78.99236283      68.62528240      86.30116584
H      80.50414388      71.49010749      86.72446454
C      80.12808835      69.20920783      91.70767283
H      79.36085947      68.49300156      93.47834638
H      81.47357347      70.68697381      92.21411948
C      81.83640094      67.23822329      90.74202268
H      83.32172582      66.88862392      92.12530234
H      82.51103323      67.79569255      88.87686281
H      80.71768296      65.51479289      90.57383705
C      74.58552106      73.68407974      89.80282870
O      72.87531875      72.17607815      89.80282870
N      74.41544570      76.00466366      88.87308336
H      75.70612877      77.30101591      89.41732454
C      72.27816523      76.93062955      87.34618450
H      71.86809462      75.57380606      85.85141099
H      73.11153455      78.52177911      86.33896037
C      69.94624297      77.70919679      89.02048201
O      68.01683241      78.65217022      88.09451612
N      70.05206764      77.28778782      91.49980293
H      71.68668091      76.84370214      92.38041539
C      67.76171935      77.28967755      93.01914289
H      66.38221914      76.27867397      91.87207903
C      68.26060710      75.94041296      95.51169189
H      69.56262853      77.15172753      96.55104137
H      69.00137982      74.05824555      95.11862883
C      65.99104580      75.56435743      97.19732777
N      64.76650315      73.26645023      97.78881211
H      64.99893948      71.56569655      96.95544280
C      63.05063166      73.81825031      99.55381648
H      61.64089583      72.48410354     100.18687479
N      62.92779945      76.27111507      99.95254873
H      61.81853009      77.12149191     101.25268044
C      64.77595178      77.41250976      98.56926907
H      65.19736074      79.40995047      98.62407114
C      66.75071578      79.99387590      93.55393543
O      67.92234609      81.51699531      94.80871371
N      64.38666815      80.64394175      92.81316272
H      63.20747894      79.40806075      91.96278588
C      63.43613583      83.32357367      92.68844078
H      64.80807713      84.42906356      91.62074542
C      61.09287520      83.40672162      91.07650424
H      59.73605170      81.98186798      91.68310639
H      61.53507115      83.05334280      89.09607106
C      59.62833730      85.84446857      91.12563712
H      59.20692834      86.49075497      93.03615042
C      61.20814850      88.01009492      90.04849312
H      59.90234762      89.59557530      89.88030749
H      61.97348765      87.67183391      88.16632573
H      62.84276176      88.53921829      91.18421864
C      57.17547255      85.52132537      89.54393620
H      56.37044914      83.91883746      90.55493978
H      57.57420479      84.78811156      87.65798935
H      55.92825318      87.15215918      89.39086837
C      62.90323301      84.33079779      95.32460900
O      61.25728139      83.33113257      96.53970301
N      64.18068799      86.35091522      96.16931665
H      65.50538614      87.08979821      95.00902471
C      63.25283237      87.70395926      98.36895809
H      62.13789385      86.43973236      99.55381648
C      65.48270942      88.91338410      99.68987677
H      64.60965587      89.82990136     101.31693114
H      66.51449999      90.32878911      98.60895332
C      67.56140837      87.06901122     100.59127623
H      68.14533379      85.88226309      99.01146503
C      69.76293951      88.71307311     101.53424965
H      70.35820330      89.85446780      99.92420284
H      71.33897126      87.49042019     102.04825521
H      69.20735999      89.72596641     103.23689307
C      66.28395338      85.23219724     102.43564911
H      65.70758685      86.26020836     104.12506443
H      67.72770428      83.79033607     102.71532860
H      64.62288395      84.39315876     101.55503665
C      61.17224370      89.67683353      97.76235593
O      59.15023655      89.63714928      98.86973556
N      61.87711162      91.55144203      96.24868516
H      63.56274749      91.70639959      95.36429324
C      59.91368597      93.51108822      95.49279463
H      58.24694737      92.35457572      95.13563636
C      59.00094817      95.34034329      97.44110247