 %block lattice_cart
   137.793   0.000   0.000
   0.000 143.498   0.000
   0.000   0.000   162.326
 %endblock lattice_cart

 %block positions_abs
N      89.33011062      39.78333455      80.61875883
H      89.78364494      39.18240158      82.37242484
H      90.88346565      39.62648726      79.51893811
H      87.84478574      38.81390495      79.91200118
C      88.49485159      42.36092125      80.76804721
H      89.82899837      43.49097758      81.86030901
C      88.02053029      43.43617552      78.09408448
H      86.21395193      42.90327269      77.26071516
H      89.48128873      43.06389943      76.69001782
C      88.02242001      46.40682528      78.10353310
H      86.24607728      46.97752262      78.98036611
H      87.79565285      46.87925685      76.11365129
S      90.50741011      48.15860157      79.41122372
C      91.76596784      49.69872851      76.70513564
H      92.41225424      51.54310139      77.35709121
H      90.25607651      49.98974637      75.33508405
H      93.28719752      48.56489274      75.90200194
C      86.06088410      42.41761304      82.20801866
O      84.22973930      41.13259915      81.46724595
N      85.73774090      44.18828659      83.83696274
H      87.31755210      45.06511959      84.44545462
C      83.48140768      44.53599623      85.37519995
H      82.09812802      43.02610490      85.13898416
C      84.21462149      44.37914894      88.20600998
H      85.59412170      45.89470945      88.40254151
H      84.89492296      42.44595892      88.41576960
C      82.05655404      44.69095379      90.04849313
O      79.78510301      44.63426200      89.36252248
N      82.56678015      45.32212237      92.36718731
H      81.17594158      45.43928540      93.66920875
H      84.36202014      44.98764081      92.92465658
C      82.33056436      47.12870073      84.65521424
O      83.69683648      49.00897842      84.70434712
N      79.85880234      47.47830011      84.41899844
H      78.66260558      46.00242384      84.23002582
C      78.78354807      50.00108472      83.91255179
H      79.62258655      50.69461429      82.16266522
C      75.79211131      49.75353058      83.53082708
H      75.75053733      48.34379476      82.02849466
C      74.45040563      48.78977016      85.97235348
H      75.47085784      47.12681100      86.63564741
H      72.57579713      48.07734335      85.49614245
H      74.31056588      50.15982173      87.50303179
C      74.62992963      52.20639533      82.51793378
H      74.83213035      53.66526405      83.95790523
H      72.64382728      51.71317677      82.26471045
C      75.89982571      53.03220573      80.08018682
H      74.49008988      54.11312918      79.03705790
H      76.58012719      51.37680548      79.05973461
H      77.71963215      53.95061272      80.37120468
C      79.32778925      51.73018430      86.19534117
O      79.77376466      53.94305381      85.69078425
N      79.10858099      50.82500540      88.53482236
H      78.34324184      49.08267774      88.71056689
C      79.55077695      52.36702207      90.77225830
H      78.32056512      54.02053259      90.77603776
C      78.60024461      50.90437390      93.21000525
H      79.19739813      51.95884118      94.87296441
H      79.42227556      49.01653731      93.16087237
C      75.73541952      50.61902523      93.48212584
C      74.42205974      52.57300224      94.58005682
H      75.35558454      54.29454291      95.15831307
C      71.79345044      52.49174401      94.54415203
H      70.69173999      54.07533465      95.20744597
C      70.53111326      50.40737588      93.55204572
H      68.49587802      50.23352107      93.60495805
C      71.97297444      48.38347900      92.54671131
H      70.99598593      46.77343219      91.75302627
C      74.53355359      48.41749407      92.75269148
H      75.51621127      46.83012397      91.92688109
C      82.31922600      53.36857701      91.15020356
O      82.81244457      54.77642312      92.95867166
N      83.98974406      52.61268649      89.48346496
H      83.45684124      51.62246991      87.94333801
C      86.59945610      53.60857225      89.19055739
H      86.82622326      55.11279441      90.58139594
C      88.73862628      51.63569798      89.62897388
H      88.75374409      50.14470393      88.20789969
H      88.24540772      50.69461429      91.39208853
C      91.42770683      52.77898240      89.87463831
H      92.06454459      53.72384557      88.16065654
H      92.65224948      51.13114106      90.03148560
C      91.96816855      54.24163058      92.46545309
O      94.20749423      54.89358615      92.96812028
O      90.06143470      55.10334577      93.61629640
C      86.95283492      54.97295465      86.66210358
O      88.27753306      56.79843028      86.49958711
N      85.78876351      54.13769562      84.64198615
H      85.16515383      52.33489672      84.60986080
C      86.07222246      55.16192729      81.87542683
H      88.03375837      55.08066906      81.25370686
C      84.32989480      53.41204072      80.17089370
H      82.36646916      54.01108396      80.00648750
H      84.50941880      51.44294591      80.74348077
C      85.30121412      53.50085785      77.47803369
H      87.23251441      52.78654131      77.39866518
H      85.27286823      55.48318077      76.91867471
S      83.43605425      51.67160279      75.00816140
C      80.64492849      53.54054211      74.94769016
H      79.72274204      54.23974085      76.65033356
H      79.27865636      52.44072139      73.86676671
H      81.19105939      55.30932594      74.04818044
C      85.25964014      57.90392017      81.53905554
O      86.41804237      59.20972106      80.07073820
N      83.20172819      58.74106892      82.83351807
H      82.42883012      57.45038585      84.00703811
C      82.34757189      61.35078096      82.64265570
H      82.82756238      61.87423515      80.70946568
C      79.46951872      61.47361317      82.94690164
H      78.78165834      63.41436210      82.97713726
H      79.00653577      60.53063975      84.71946492
C      78.00687055      59.78041839      80.96646847
H      78.60969325      57.81132358      80.94568148
C      75.14771464      59.68404236      81.41811306
H      74.19718231      61.22416931      80.43356565
H      74.72630567      59.71994715      83.43256131
H      74.40316247      58.00218593      80.48836771
C      78.37536718      60.72339182      78.32841054
H      77.89537670      62.72272227      78.21124751
H      77.20184714      59.54231289      77.11709597
H      80.27076268      60.61756716      77.52716657
C      83.87069130      63.31420660      84.25081280
O      83.69305703      65.57998845      84.01837647
N      85.73963063      62.39768935      85.78338084
H      86.10812726      60.52497057      85.81928564
C      87.29676511      64.10600193      87.26870573
H      85.96261833      65.20582264      88.38931342
C      88.76697218      62.41847633      89.12252724
H      90.32788611      61.44526727      88.19467162
H      87.43849458      60.95393843      89.70267322
C      89.59089285      63.83577107      91.47901595
H      87.90336725      64.20804714      92.60151337
H      90.27308405      65.73872547      91.09162206
C      91.54486986      62.41280715      92.98323810
H      92.48217411      63.66380598      94.32116432
H      93.03208447      61.67014471      91.76625435
N      90.53386628      60.30576231      94.57627738
H      90.46016696      58.53697848      93.86007111
C      89.79498329      60.54197810      96.92331746
N      89.59467230      62.64713321      98.17620600
H      89.83088809      62.54130854     100.06593231
H      90.25796624      64.26095949      97.39952849
N      89.26019075      58.47650724      98.10061694
H      88.87279685      58.56154492      99.96577681
H      89.75907849      56.85701179      97.22378394
C      88.87279685      66.06753785      85.78149111
O      89.18082224      68.31820187      86.46935149
N      89.38302296      65.30786786      83.53082708
H      88.92004001      63.49939978      83.13398455
C      91.27841845      66.46060092      81.81873504
H      92.45193849      67.79474769      82.86186396
C      93.12090160      64.46504993      80.68111980
H      94.76118404      65.28897061      79.74381555
C      94.40591550      62.80775995      82.79005437
H      95.79297461      63.77152037      83.97302303
H      95.45849305      61.35645014      81.77527133
H      92.99051049      61.64368855      83.73113806
C      91.75840893      62.63201541      78.77438595
H      90.97795196      63.76018201      77.23614873
H      90.03686826      61.97439064      79.69468265
C      93.40814000      60.46071987      77.70480086
H      92.30076038      59.35522998      76.36309517
H      93.68970922      59.13035254      79.25059697
H      95.16558547      61.15046997      76.88465964
C      89.87246207      67.86655729      79.79861761
O      91.12724034      69.04574651      78.15644545
N      87.25519113      68.22560529      79.92333955
H      86.40292456      67.37522844      81.40488498
C      85.76608679      69.49172192      77.96369336
H      86.69583214      69.38400753      76.12876911
C      83.34534739      68.03474293      77.51771795
H      82.16804789      68.21426693      79.19957437
H      83.67793922      66.00517688      77.41945218
C      81.90726566      68.61866836      75.16878813
O      79.69250642      69.54841370      75.45035737
O      83.12613913      68.53174095      73.09764811
C      85.37680317      72.29985522      78.42100713
O      84.84201063      73.73226776      76.57852397
N      85.96072860      73.17479850      80.75859857
H      86.76764174      72.00505791      82.03416384
C      86.13647315      75.82986397      81.39165689
H      86.80543627      76.78417577      79.69279293
C      83.46251042      76.77850658      81.95857478
H      82.53465480      75.69569341      83.44767911
H      82.28710065      76.65756409      80.27104918
C      83.45306179      79.50916110      82.84485643
H      84.73996541      79.83230430      84.42088816
H      81.71073413      80.00048994      83.82751411
C      83.93305227      81.38376960      80.64899444
O      86.15914987      81.96202585      80.05184094
O      82.06978213      82.27949988      79.48681276
C      87.98084603      76.11332292      83.49303255
O      88.01297138      74.65256448      85.29772118
N      89.48884763      78.09186637      83.44012022
H      89.57010586      78.85909525      81.69401310
C      91.51841369      78.61154111      85.25236775
H      92.72216935      80.11198380      84.51159503
H      92.49162274      76.79740384      85.30339036
C      90.32410666      79.30507066      87.67499688
O      88.29832005      80.53906195      88.00191953
N      91.58077466      78.45847327      89.67243760
H      93.27585916      77.59297863      89.51748004
C      90.73039782      78.89688978      92.36529759
H      88.73673656      78.61343083      92.79426546
C      91.82643908      76.79740384      94.00558003
H      93.78608527      76.56685724      93.41598541
H      91.20849858      74.92468507      93.40842652
C      91.86990278      77.16212102      96.85906676
H      93.10578379      78.72870414      97.37496205
C      89.21672704      77.50038204      97.96455665
H      87.79754258      76.38544351      96.97056061
H      88.76130300      79.46758712      97.56015523
H      89.25452157      77.20180527     100.00168161
C      93.08877626      74.84153711      98.06660188
H      95.02196627      74.58453434      97.40519767
H      91.86801306      73.18235740      98.08927859
H      93.43270645      75.20814401     100.06215287
C      91.12535062      81.68423609      93.27992513
O      93.26830026      82.54217183      93.45755940
N      89.10712292      82.97491916      94.22289856
H      87.41770759      82.10186561      94.06605126
C      89.12790990      85.41077638      95.54003780
H      91.10267390      85.76037574      96.01624883
C      87.69738709      87.47057806      93.83550465
H      87.46495075      89.07873515      95.10162129
H      85.85490393      86.63342930      93.45000049
C      89.03153386      88.42111039      91.31272003
H      91.01007731      88.90488034      91.62452488
H      88.14714195      90.09162845      90.49824799
C      88.95783454      86.57295806      88.98457722
H      87.29109593      85.38432021      89.22268272
H      90.52063820      85.26904690      89.30016151
N      89.25830102      87.85608223      86.55816863
H      89.65136409      89.72313182      86.54494055
C      88.96539344      86.61642176      84.40577036
N      88.35690157      84.28449949      84.18467238
H      88.46272624      83.56073432      82.42344746
H      88.20950292      83.00704451      85.59629793
N      89.01074687      87.60096917      82.22880564
H      88.95216536      86.38209570      80.76237803
H      89.49451681      89.43589342      82.03416384
C      87.76919669      84.94968316      98.11762449
O      85.90781627      83.61175693      98.14786011
N      88.86145849      86.02304770     100.22277960
H      90.39969571      87.07373553      99.80703981
C      87.99596384      85.65266134     102.88729369
H      86.69205269      84.06718097     102.70965942
C      90.35623201      84.96669069     104.56159122
H      89.95938948      85.17078113     106.57226001
H      91.75840893      86.45579503     104.33860350
C      91.49951643      82.32296358     103.93420208
H      91.85100552      82.21902864     101.90652574
C      94.05253668      81.89021625     105.17197282
H      95.43959579      83.11097945     104.26301446
H      94.90102379      80.02316666     104.96977209
H      94.02985996      82.21524918     107.20531833
C      89.68537917      80.26505163     104.84882961
H      89.76096822      80.23292628     106.90674157
H      90.49040258      78.52461369     104.09482881
H      87.82399875      80.53906195     104.01357058
C      86.32544578      87.64065343     104.07404182
O      85.48073812      87.41955545     106.16407913
N      85.72262309      89.52660029     102.41108266
H      86.59189719      89.38676055     100.71788790
C      83.59290153      91.36719371     102.68131354
H      82.57811850      90.73035595     104.35750078
C      84.81744418      93.98446466     103.28791567
H      85.79632241      93.83706601     105.09449403
H      83.28109669      95.27892719     103.73956026
C      86.53709513      95.01436551     101.12039959
H      86.13647315      94.49847022      99.16642259
H      88.33044540      94.02981809     101.36228456
C      86.93204793      97.88297004     101.12606878
H      85.09145450      98.53681535     100.46466457
H      88.44571871      98.38185779      99.82215761
C      87.37991307      99.23412436     103.64129449
H      85.85868338      98.60862495     104.88095496
H      87.36479525     101.27502877     103.36728419
N      89.73640178      98.49524137     104.79402755
H      91.14613761      98.16264954     103.55058763
H      89.56254696      96.78503905     105.62172768
H      90.27686350      99.72545320     106.14896131
C      82.02820815      91.59207115     100.38907552
O      82.14915063      89.88942774      98.71099854
N      80.32367501      93.39675977     100.40419332
H      80.23485788      94.53815447     101.92920245
C      78.51709666      93.88808862      98.41242179
H      77.99931165      92.03615683      97.67731826
C      75.99620176      95.20522786      99.43287399
H      76.53099430      96.80582604     100.61206322
C      74.09702681      96.13686293      97.39952849
H      73.98931241      94.67043531      95.95577759
H      74.78866664      97.88485977      96.55860028
H      72.33013271      96.75858289      98.24801561
C      74.68473169      93.14920564     101.17520165
H      76.06612163      92.31961578     102.45832583
H      73.76821443      91.75836706      99.96388710
C      72.98586774      94.61752297     102.97800057
H      74.07435010      95.97434647     104.07782128
H      71.87470867      93.23424332     104.02490893
H      71.39660791      95.62096766     102.13329291
C      79.62825573      95.34128816      96.05404336
O      81.06822718      97.17432267      96.32616395
N      78.68717203      94.72901683      93.79582041
H      77.41916567      93.30794264      93.71267244
C      79.12180908      96.22379034      91.52625910
H      79.50353379      98.16453926      92.10073591
C      81.36680394      95.49435598      89.93510955
H      83.04110145      95.68710807      91.11807823
H      81.74474920      96.72834726      88.32884218
C      81.37436284      92.74480420      88.93355460
C      80.78098878      92.26103426      86.32195284
H      80.33501337      93.93911123      85.24669857
C      80.37280790      89.72313182      85.40165613
H      79.46007009      89.53415920      83.58562914
C      81.21373611      87.65955069      86.83595840
O      80.69406137      85.23881128      86.05550143
H      79.64715299      85.36164349      84.57584572
C      82.20395269      88.15843844      89.25102863
H      82.77276031      86.60886286      90.45289456
C      82.24174722      90.65476689      90.28848838
H      82.87291581      90.86452652      92.21789893
C      76.70862858      96.13875265      89.94455819
O      75.37826125      94.22068045      89.96345544
N      76.15871822      98.06249404      88.44600521
H      77.28310537      99.60262099      88.48757919
C      74.11214462      98.08139130      86.60730152
H      72.41894985      97.22534528      87.40665574
C      73.23909106     100.70622115      85.70023289
H      72.13171145     100.46433620      83.97869221
H      74.92094748     101.86273366      85.43189175
C      71.46652778     101.99123505      87.64476126
H      72.53800260     102.35973168      89.36630193
H      69.67884669     100.99345956      87.85074142
C      70.92606606     104.75023546      86.47313094
H      71.00165511     104.57260119      84.42277789
H      72.09580665     106.26012679      87.24413929
C      68.31635402     105.78013630      87.43122218
H      68.14438892     106.15619184      89.44944989
H      66.81402160     104.42331281      87.04571802
N      67.58502994     108.14229420      86.10463431
H      68.88705137     109.53691222      86.19345146
H      65.82380501     108.72621963      86.54305082
H      67.46975663     107.76245921      84.23758471
C      74.97385982      96.37118899      84.36419638
O      76.95996218      96.84740002      83.22469141
N      73.51877056      94.55705173      83.47224556
H      71.95974635      94.14887085      84.49647723
C      73.47341713      93.60085022      80.93812257
H      75.20629616      92.50669868      80.73214241
C      71.33424694      91.59963005      80.91166641
H      69.54278640      92.48591169      81.41433360
H      71.97108471      90.28060109      82.35919677
C      71.28322433      90.20312231      78.30762354
O      72.66272454      88.26615283      77.89188375
O      69.76955355      91.04405052      76.70135618
C      73.25987805      95.57183476      78.86320308
O      72.22430803      97.68643851      79.20902299
N      73.96474597      94.89720248      76.45191231
H      74.74331321      93.16999262      76.21947597
C      73.76065553      96.54126436      74.21636607
H      74.88693241      98.24390777      74.48281748
C      74.96630091      95.25814019      71.79940613
H      73.76254525      93.94667013      70.76761556
C      75.89037708      97.43510491      70.14022642
H      74.28599944      98.45555711      69.34843109
H      77.16405262      96.60740478      68.75127758
H      77.02799232      98.69933181      71.30240810
O      77.13759645      93.98635438      72.38711100
H      77.16972180      92.85818778      73.80818520
C      71.09047225      97.44455354      73.75527286
O      70.85236673      99.35128739      72.38711100
N      69.12137743      96.15953964      74.72848190
H      69.37838021      94.63075106      75.84153070
C      66.51544484      97.11763089      74.66990039
H      66.18852219      98.19855434      72.94647000
C      64.84870624      94.82917232      74.52061201
H      64.57091647      94.42099144      76.51994246
H      65.64806047      93.15487481      73.62299201
C      62.34670860      95.37530322      73.24315703
H      61.78734961      97.29526516      73.74015504
H      60.81036110      94.36807910      74.17101265
C      62.39395175      95.03515249      70.35754495
O      60.71965424      96.27103350      69.09331805
O      63.98699104      93.64242420      69.20859135
C      65.79923857      99.07916680      76.72781235
O      63.80935676     100.31882726      76.53317053
N      67.32424771      99.23790381      78.74415033
H      68.88894109      98.14564200      78.80840102
C      66.88961065     100.78369994      81.02316026
H      65.38349878     102.14997207      80.69245815
H      68.64894585     101.77580625      81.42945142
C      65.97120367      99.17365311      83.34374417
O      65.74632623     100.35095261      85.44323010
N      65.41751386      96.67921438      83.10563866
H      65.10003983      96.00836154      81.34630345
C      64.63138771      95.06538811      85.15599171
H      62.99299500      95.88930878      86.09329596
C      63.29346148      92.62764117      84.21112854
H      62.65284426      91.50136428      85.81361646
H      64.68430005      91.41632660      83.29461129
C      61.09759950      92.89976176      82.42533719
C      60.77634603      91.15743409      80.43545538
H      61.85915921      89.42833452      80.49781635
C      58.93575260      91.62608622      78.60997975
H      58.80536149      90.26548327      77.09441926
C      57.51656814      93.79927148      78.55517769
O      55.82148364      94.16587838      76.66923084
H      55.29613972      95.89875741      76.74104044
C      57.66585652      95.54159914      80.50159580
H      56.60194061      97.27636791      80.34474852
C      59.55558283      95.08239565      82.37053511
H      59.85604932      96.71700891      83.55350379
C      66.82913941      94.42855034      86.98902623
O      69.01555276      94.14698112      86.14809802
N      66.32647221      94.19044483      89.35118411
H      64.60115209      94.28304142      90.15998699
C      68.42406842      94.03170782      91.25413851
H      70.04545360      94.95956345      90.38675414
C      67.65683954      95.30349362      93.67487793
H      69.02311166      94.84806958      95.15075418
H      65.84270228      94.61563325      94.37029720
C      67.51133061      98.13052419      93.45189022
C      65.12460628      99.29081615      93.14575455
H      63.50133137      98.05682486      93.20622579
C      64.72587402     101.93454326      93.11740866
H      62.80969154     102.62618309      92.99268672
C      66.94819217     103.52758255      93.36118335
O      66.68174076     106.07304388      93.51425119
H      64.94319255     106.52846793      93.76180534
C      69.32168842     102.38996730      93.62007587
H      70.99409620     103.55970789      93.69755464
C      69.59758846      99.73679155      93.58417107
H      71.52510930      99.08105652      93.72023135
C      69.21586374      91.26325877      91.56216391
O      67.70030324      89.65888114      91.98546260
N      71.65172096      90.66421553      91.49224403
H      72.95752184      92.04371573      91.31460976
C      72.72319578      88.14521035      91.53759747
H      71.25487844      86.70523890      91.65476050
C      74.24064601      87.64254315      89.09229161
H      75.93384079      88.80283511      88.91087789
C      75.06645641      84.83818931      89.05071763
H      73.43373288      83.61742612      89.33984577
H      76.73508474      84.41867007      90.18455343
H      75.81100858      84.60197351      87.14398379
O      72.50776698      88.12820281      87.01926185
H      72.30745599      89.91777363      86.81895085
C      74.39371384      88.02993705      93.88841700
O      75.23653178      90.02359832      94.76525000
N      75.13637628      85.80383945      94.85217741
H      74.20285148      84.29961730      94.14164032
C      77.00153615      85.23314210      96.77024963
H      78.51709666      86.62587041      96.70221948
C      75.50487291      85.42211473      99.32326987
H      74.51843578      87.22491365      99.47066852
C      73.56412399      83.21302467      99.56515484
H      72.67028344      83.19412741     101.42275580
H      74.70173923      81.50471209      99.37996166
H      72.41328067      83.24326030      97.85873199
C      77.35491497      85.48069625     101.35661538
H      79.06700701      86.48603065     100.80292558
H      78.12214386      83.63443365     101.84416477
C      76.40816209      86.47658202     103.79814178
H      75.07023586      85.14999414     104.62962135
H      75.23275233      88.13387199     103.45988078
H      77.99364247      86.92255743     105.03591252
C      78.27710142      82.60075335      96.17876528
O      77.09791220      81.02094216      94.87674386
N      80.51642710      82.13021150      97.30882163
H      81.55577657      83.58719048      97.97589502
C      81.48774642      79.59041933      97.47889699
H      79.96273729      78.28083900      97.93054159
H      82.88236444      79.46191794      98.99067804
C      82.64236920      78.74382194      94.96556100
O      84.14092216      80.03639474      93.72590053
N      81.80333072      76.49315791      94.23801637
H      80.22351952      75.77695163      95.03170142
C      82.61969248      75.34987349      91.83050504
H      84.19194477      76.37032569      90.97067956
C      83.27164806      72.44725388      92.30860580
H      81.54632794      71.45892702      92.84150861
C      83.98218515      71.32097699      89.81038761
H      82.40237396      71.03373859      88.51781481
H      84.68705307      69.46148630      90.34518015
H      85.34656755      72.54362991      88.86741419
C      85.15003602      72.16757438      94.45911435
H      84.51886743      73.01039231      96.23167763
H      87.00952671      72.91779572      93.99046221
C      85.58845252      69.32542600      94.98067880
H      86.10434780      68.99283417      96.94788390
H      86.99629862      68.29174571      93.88841700
H      83.84045568      68.26528954      94.73123494
C      80.55800108      75.73537765      89.78393145
O      78.93661590      74.09509522      89.20945464
N      80.12147430      78.05218211      89.13953478
H      81.18727994      79.53750700      89.68377596
C      77.98041438      78.82696990      87.71657086
H      78.13726167      77.81974578      85.92700004
H      78.26954251      80.79606472      87.18177832
C      75.21196534      78.41500957      88.79938404
O      73.47152740      78.67390208      87.41610438
N      74.60347346      77.70069302      91.17477002
H      76.03966546      77.76872317      92.43332774
C      72.06179157      77.52116902      92.19900168
H      71.01299347      76.30607500      90.90642888
C      72.07690938      76.41000995      94.93721511
H      73.36759245      77.37754982      96.21844954
H      72.40761149      74.41445896      94.55360065
C      69.60514736      76.60654148      96.33183311
N      67.61526556      74.89066999      96.25057489
H      67.72675941      73.34487387      95.13563636
C      65.76144404      75.70514203      97.80392991
H      63.91896089      74.84342683      97.97022583
N      66.51166539      77.77628207      98.93965544
H      65.35515289      78.56240822     100.23600769
C      69.03633974      78.31863352      98.17998545
H      70.24765431      79.84553238      98.78280815
C      70.70496808      80.10820434      92.21222975
O      71.63471343      81.87131899      93.33283746
N      68.58469516      80.36709685      90.87808297
H      67.96486493      78.89688978      89.83306432
C      66.88394147      82.63476842      90.78548640
H      67.91384231      84.37520636      90.39998223
C      65.09248093      81.92612105      88.69166963
H      64.42729727      80.00993857      89.04693819
H      66.29623659      82.09241697      87.02871049
C      62.87583196      83.68923570      88.38175453
H      61.95553525      83.94623848      90.20534041
C      63.68274510      86.25737376      87.33295641
H      62.06513938      87.41577599      86.80194332
H      64.88083158      86.14021073      85.66054863
H      64.78256581      87.33451777      88.70111827
C      61.09382005      82.53461293      86.32573229
H      59.41574309      83.71191242      86.10085487
H      60.59304258      80.58630510      86.76036935
H      62.20119967      82.47792114      84.58907382
C      65.47798510      82.93145545      93.40275734
O      64.76555828      81.14188463      94.80115480
N      65.10003983      85.31440033      94.11896361
H      66.10726396      86.60508341      93.13441620
C      64.10226434      86.09674703      96.54348246
H      63.74132662      84.51693583      97.81904773
C      66.21875781      87.55372601      97.79826073
H      66.91795655      89.13731667      96.68143249
H      67.67195735      86.13832101      98.15541902
C      65.58003032      89.04472008     100.21522069
H      64.26478080      90.62642100     100.13774192
C      64.85437541      87.14365541     102.28069156
H      66.35859756      85.77738328     102.61706283
H      63.28590257      85.90588467     101.77613462
H      64.31958287      88.15654871     103.98900414
C      68.17084509      90.00848050     101.18276056
H      67.89305533      91.30861220     102.75501286
H      69.18751785      91.17255190      99.82026790
H      69.38593911      88.42300013     101.67975859
C      61.62483315      87.67655823      96.30348722
O      59.76534245      86.81106357      97.36929287
N      61.55680300      89.77037498      94.75958083
H      62.95897992      90.35807986      93.60684778
C      59.53290612      91.65821157      94.49123970
H      57.77546065      90.59240593      94.64619724
C      59.65762805      93.80494066      96.62096125