 %block lattice_cart
   137.793   0.000   0.000
   0.000 143.498   0.000
   0.000   0.000   162.326
 %endblock lattice_cart

 %block positions_abs
N      86.23757352      41.01260152      77.21630660
H      84.84106576      41.54928380      76.03522765
H      85.62530219      39.40822388      78.05156563
H      87.66053743      40.41733773      76.09002972
C      86.86685238      42.84752577      79.29689527
H      88.27280875      41.84408110      80.41750297
C      87.84384088      45.22480147      78.14794167
H      86.31316256      46.46635166      77.54889843
H      88.72067390      44.78260552      76.33758386
C      89.57671991      46.64965511      80.04522689
H      91.09228042      45.38353848      80.62537287
H      88.37296424      47.33940522      81.57023602
S      90.69543788      49.53904665      78.67328559
C      92.81571082      50.81461191      80.92772908
H      94.59205354      51.49491338      80.13782348
H      93.34105472      49.12897604      81.98786554
H      91.77258188      52.19789157      82.04266760
C      84.53681984      43.33318544      80.76710234
O      82.52426131      42.90043811      79.71641451
N      84.67854930      43.50137108      83.23697463
H      86.33772900      43.15177171      84.11002819
C      82.67354969      44.03427390      84.98308175
H      81.08428986      42.79272371      84.55789333
C      83.51447789      43.42200257      87.77987669
H      85.16231924      44.58229453      88.20128566
H      84.03604237      41.42834131      87.69672873
C      81.53404473      43.99647937      89.60157286
O      79.90321092      45.62164400      89.20662006
N      81.64742831      42.59619217      91.66515399
H      80.49847471      43.14610253      93.08433845
H      82.66788050      40.98236590      91.61980056
C      81.89120300      46.82162021      84.44450975
O      83.61652312      48.41088004      84.03254941
N      79.44967659      47.31861823      84.30655973
H      78.16088326      45.98636118      84.76387349
C      78.50292372      49.88675629      83.81712061
H      79.27960124      50.39131321      81.97652718
C      75.47936162      49.90376383      83.46941097
H      75.35463968      48.41088004      82.05589569
C      73.69734970      49.07417397      85.78621543
H      72.14588439      47.97057381      85.00008928
H      73.16066743      50.79571465      86.78210120
H      74.74236835      47.62853334      86.81989572
C      74.49859366      52.40387174      82.27699367
H      75.17511568      53.97801376      83.41838836
H      72.50115295      52.83850879      82.53399644
C      74.94456906      52.61552108      79.46319119
H      74.69701492      54.53926247      78.76777190
H      73.58396612      51.49302365      78.40305472
H      76.90043581      52.13931005      79.02666441
C      79.43266906      51.87663810      85.68039076
O      80.27170754      54.01580828      84.99442010
N      79.59140608      51.12641675      88.16160140
H      78.87708953      49.44833978      88.72662957
C      80.30383289      52.80638344      90.23463117
H      79.27015260      54.57138782      89.97762839
C      79.86352666      51.63286340      92.83867403
H      80.98602410      52.60229300      94.26730712
H      80.58918156      49.70534256      92.77442333
C      77.12153378      51.61585587      93.75330156
C      76.29194392      53.36007325      95.47673196
H      77.65821605      54.58839536      96.36679306
C      73.77482849      53.68510618      96.11545946
H      72.86964958      55.08917283      97.28897950
C      72.01738300      51.92010180      95.30287714
H      70.03883956      52.06372100      95.78475735
C      72.66177968      49.80927751      93.83644952
H      71.29550756      48.39009305      93.30354670
C      75.17133623      49.89431519      92.85757129
H      75.84785824      48.40710059      91.63302864
C      83.11196620      53.45266984      90.15904212
O      84.04360127      55.27814546      91.18327378
N      84.67854930      51.96356551      88.63214326
H      83.83951082      50.45367418      87.82523012
C      87.34873258      52.54749094      87.97640823
H      88.28603684      53.72856988      89.37858515
C      88.74335060      49.95667616      87.72318490
H      90.70866598      50.27981936      87.18650263
H      87.89297376      48.65654446      86.37014086
C      88.80193213      48.55260951      90.28565378
H      90.38741250      47.25436753      90.07211471
H      86.92165445      47.73624774      90.48218532
C      89.65230897      50.20234058      92.45505959
O      91.39274690      51.81427713      92.11301913
O      88.75090951      50.00580905      94.60556813
C      87.42621137      53.82683565      85.46118250
O      88.83216774      55.68065716      85.23252562
N      85.85584880      53.03315060      83.52043358
H      84.86185276      51.43255241      83.82467952
C      86.12607966      54.05549254      80.87859619
H      87.97612173      53.56227397      80.12459540
C      84.15131566      52.62685944      79.13059935
H      82.17466194      52.82528071      79.67484053
H      84.38753146      50.57839612      79.13815826
C      84.63508561      53.56416369      76.53600513
H      86.57772425      53.15598281      75.98798450
H      84.20044855      55.54459687      76.18829549
S      82.76425656      52.01269839      74.04345612
C      81.23735770      54.87941321      72.73198606
H      82.47134898      56.09261750      71.61515781
H      80.07139656      55.86962980      74.11148627
H      79.77848898      54.16698639      71.46586943
C      85.65364809      56.94110462      80.84269139
O      86.66465167      58.41320141      79.40649940
N      84.00580673      57.77636365      82.60013687
H      82.80016136      56.53292373      83.40138082
C      82.99858262      60.33127362      82.82501430
H      82.84551479      61.34038747      81.03544348
C      80.16399315      60.18954415      83.58846373
H      79.33062384      62.06982183      83.69428840
H      80.02982257      59.56782419      85.54999964
C      78.39709905      58.71366790      81.69117851
H      78.61630730      56.66709430      81.73842167
C      75.66266506      58.96122204      82.46785602
H      75.33385269      58.08438903      84.30278027
H      74.51371147      57.83494516      81.18284213
H      75.12220335      60.92653741      82.75509442
C      78.52182097      59.91931328      79.09091510
H      77.13098242      59.13507686      77.79078340
H      80.40587812      59.52436049      78.35581157
H      78.31017163      61.96210743      79.27232883
C      84.29493487      62.28714035      84.43506112
O      84.19855882      64.50378932      83.73208293
N      86.00324746      61.55014709      86.09991000
H      86.38308245      59.68309750      85.96762916
C      87.56038194      63.11106103      87.89137054
H      86.54559890      64.87039622      88.23152128
C      88.07249777      61.77313480      90.51053121
H      86.37930299      61.82037796      91.68027180
H      89.14775203      63.17909117      91.56310877
C      89.77703089      59.41286663      90.25919761
H      91.25479688      59.91553383      88.91749193
H      88.78114514      57.83683489      89.38236460
C      90.74646050      58.43965758      92.69883428
H      91.01858108      60.01568933      94.00085571
H      92.60595119      57.64219308      92.31144039
N      89.31026850      56.38363535      93.84022898
H      89.67120622      54.67910222      93.05977201
C      87.72856757      56.35717918      95.79987516
N      87.38841684      58.31871510      97.22472880
H      86.28670640      58.21289042      98.77997356
H      88.29170602      59.98734343      97.02630754
N      86.63441604      54.21800900      96.52741979
H      85.02625894      54.35973847      97.54409255
H      86.75157907      52.59473410      95.53342375
C      89.98868025      64.20521256      86.78021147
O      91.12251603      65.86628199      87.92160616
N      90.68787898      63.29058503      84.50876044
H      89.49735140      61.92998208      83.89648912
C      92.71555531      64.06537282      82.79477868
H      93.96466441      65.38440178      83.76987745
C      94.21977746      61.78636288      82.06912377
H      95.71644070      62.29469926      80.74820508
C      95.86005991      60.69032162      84.24608848
H      97.14318407      59.35806457      83.34090958
H      94.72433438      59.64341324      85.61047088
H      96.75012100      62.38729585      85.00575846
C      92.80815191      59.46766870      80.77844070
H      91.54770446      60.25379484      79.35358706
H      91.64030105      58.73634461      82.30911901
C      94.43331654      57.43432318      79.53689051
H      95.28180364      58.40186306      77.92873342
H      93.36751090      55.96411611      78.56557119
H      95.89785442      56.87118474      80.87103729
C      91.90675246      65.40707850      80.47230504
O      93.56026298      66.52390675      79.20996786
N      89.38963700      65.27668738      79.84491590
H      88.19910942      64.16363858      80.83891194
C      88.19155052      66.68642321      77.74920942
H      89.48034387      66.29524986      76.19018521
C      85.55727204      65.71699361      77.15394563
H      84.27414788      66.69209239      78.43518007
H      85.36074050      63.71199399      77.58669296
C      84.89397811      66.37083892      74.50832879
O      83.19133469      67.92797340      74.05857393
O      86.05427006      65.38818123      72.65261755
C      88.32005191      69.50967432      78.25376635
O      88.23690396      71.09515470      76.68151405
N      88.05360050      70.24099841      80.68773384
H      87.66242715      68.87661601      81.96329910
C      87.61329428      72.81858510      81.73842167
H      88.14241764      74.36060177      80.48175367
C      84.78437399      73.11149268      82.37903889
H      84.82972742      73.72187427      84.34435425
H      83.92076905      71.24066363      82.38092861
C      83.25369567      74.95964501      80.67828521
H      81.35263099      75.18074299      81.43795518
H      82.96645727      73.91273663      78.92839864
C      84.49146641      77.44274538      79.98475565
O      84.19855882      78.25910715      77.77566559
O      85.95411456      78.68429557      81.36614558
C      89.33861440      73.20597899      84.01554187
O      90.40253030      71.33326022      85.04922217
N      89.92253983      75.72498417      84.47663509
H      88.75657870      77.00810833      83.67917059
C      91.79525861      76.56780210      86.48730389
H      92.42642718      78.49154349      86.11502781
H      93.30326020      75.21475806      86.85202107
C      90.34205907      76.88716585      88.99686043
O      88.21422724      77.81691119      88.94583782
N      91.57038117      76.13883423      91.04154431
H      93.34294446      75.43018686      90.96217580
C      90.65386391      76.58103019      93.62480018
H      88.59973140      76.55079457      93.73818375
C      91.84061203      74.47398535      95.49751895
H      93.88340618      74.39461684      95.25563398
H      91.01291191      72.66173781      94.97217504
C      91.24345852      75.00121899      98.26785773
H      92.53225187      76.51488977      98.80642973
C      88.57705470      75.78356568      99.08232977
H      88.39375123      75.79679377     101.13268282
H      87.29015108      74.35493259      98.33966733
H      88.03470323      77.64494610      98.38502076
C      91.54959418      72.44441929      99.81365385
H      91.38329827      72.55024396     101.86400690
H      93.36184171      71.54868901      99.42059078
H      90.13040972      71.19531019      98.99351263
C      91.35873183      79.33058197      94.32210918
O      93.54325544      79.82002109      94.81721748
N      89.52947675      80.91984180      94.76808459
H      87.82116416      80.31134993      94.17282081
C      89.62396306      83.50687712      96.00396560
H      91.60817569      83.96041144      96.31577045
C      88.45044302      85.64982676      94.42226468
H      88.42776632      87.41672086      95.47673196
H      86.49457630      85.16038765      94.00463516
C      89.67498568      86.28099535      91.87302388
H      91.58927844      87.00665026      92.09979104
H      88.71878417      87.86647573      90.97162443
C      89.65608841      84.05867721      90.03998936
H      87.75313402      83.27444079      89.94361332
H      90.97889684      82.63760302      90.72784974
N      90.20977823      84.81078828      87.39059307
H      91.05070643      86.50776251      87.15815673
C      89.22712054      83.74687237      85.30433522
N      88.02714434      81.65116588      85.32890166
H      87.12574488      80.89149591      83.82656924
H      87.77014156      80.95385687      87.08823686
N      89.33672466      84.98464310      83.32201232
H      88.44666358      84.34591561      81.75920866
H      90.24946248      86.65894061      83.40705000
C      88.39942042      83.33491203      98.57777284
O      86.28859612      82.56579342      98.67981806
N      89.75246445      83.99253679     100.64324370
H      91.41731334      84.85803144     100.29364433
C      88.86429309      83.90182992     103.27563246
H      87.26558463      82.60547767     103.36633932
C      90.81260091      82.90594416     105.23338892
H      90.14930699      83.41994971     107.11366660
H      92.60595119      83.87726348     104.93481216
C      91.51746884      80.13749511     105.38456702
H      92.50201624      79.69718888     103.63279073
C      93.18042798      79.75954984     107.59932626
H      92.35839705      80.39827734     109.37755872
H      94.92464538      80.72708972     107.08532070
H      93.73222807      77.77533722     107.57853927
C      89.33861440      78.29690168     105.72093830
H      87.95533474      78.75988463     104.26584904
H      88.46556083      78.54067637     107.57098037
H      90.18143234      76.42985208     105.49606087
C      87.71911894      86.50776251     104.01829490
O      86.11663104      86.75720638     105.71715885
N      87.89675321      88.38804019     102.31754122
H      88.96444859      87.97230040     100.79064235
C      86.62685713      90.85413303     102.23250353
H      85.34751242      90.99964195     103.83877090
C      88.54492935      92.98196486     102.45171178
H      87.44510862      94.71295416     102.65391250
H      89.65608841      93.04621555     100.71694303
C      90.31938236      92.47173875     104.87434092
H      91.61573461      90.91649400     104.49450593
H      89.37262947      91.91615922     106.61855830
C      91.73478736      94.93027269     105.34677249
H      90.53292143      96.57811403     105.64912871
H      93.02358071      95.01531037     103.74428458
C      93.26924512      94.83767610     107.71648929
H      94.39930147      93.11424570     107.65601805
H      91.94454699      94.75830759     109.29063131
N      94.91897619      97.01275108     108.20781813
H      93.99867948      98.67948969     108.34198870
H      96.14540858      97.42093197     106.80375148
H      95.85061126      96.63669555     109.82920331
C      84.91287536      91.32845433      99.95538332
O      85.33995351      90.36658364      97.94093507
N      83.07795111      92.96873677     100.40324846
H      83.03637715      94.02131433     101.99439802
C      81.15043028      93.80021635      98.54942695
H      80.22068494      92.17883117      97.69149120
C      78.91677377      95.26853370      99.80609495
H      79.70289992      97.05621479     100.46749915
C      76.99114267      95.90915092      97.79164670
H      75.59274519      97.23951824      98.50785297
H      75.97824937      94.23485340      97.14913975
H      77.86797567      96.86535243      96.19104851
C      77.62231125      93.87013622     101.95471376
H      79.06417243      93.68305332     103.41358248
H      76.95901732      92.01631471     101.34811162
C      75.51715615      95.41215290     103.09988791
H      75.28849926      94.67704936     105.00851148
H      73.67845243      95.22884944     102.18903983
H      76.29761311      97.31888675     103.10744681
C      82.37875239      94.94728022      96.22128413
O      83.83951082      96.76708666      96.32521908
N      81.71167899      93.92493829      94.00841462
H      80.52682060      92.44339286      93.81188308
C      82.65276270      94.76586650      91.58578548
H      83.35385117      96.68582843      91.84467799
C      84.82783768      93.16526831      90.78076207
H      86.03726253      92.63425522      92.36057327
H      85.96356320      94.39170069      89.57700641
C      83.96801222      90.61602751      89.84345782
C      83.98501975      90.03966099      87.28854785
H      84.59351162      91.39459475      85.88826065
C      83.41999158      87.63025994      86.37203059
H      83.39164569      87.13515164      84.39348714
C      82.77181545      85.68006238      88.10490962
O      82.23702292      83.26499216      87.43594650
H      82.49024624      83.08735788      85.64637568
C      82.61496818      86.24887000      90.80910797
H      82.14253659      84.70685333      92.06010679
C      83.39164569      88.70551421      91.63113892
H      83.34251281      89.01542933      93.64747689
C      80.43233428      95.10223778      89.86991399
O      78.38954014      94.05910886      90.13447568
N      80.71579322      96.74440995      87.95184178
H      82.41276745      97.58344843      87.70617736
C      78.68622716      97.35479155      86.05455657
H      76.81161866      96.95039011      86.80855736
C      78.77315458     100.18371184      85.20984890
H      77.34641121     100.17237348      83.72452402
H      80.52871032     100.53709066      84.18939669
C      78.03238186     101.99595937      87.24130469
H      79.07929025     101.66714699      88.98363235
H      76.03683087     101.83533263      87.72696435
C      78.32339971     104.58110497      86.20195522
H      77.26704270     104.74929061      84.44262002
H      80.30761234     104.83054884      85.70873665
C      77.26137353     106.41980867      88.31655896
H      78.54071824     105.90580311      89.84534755
H      75.28849926     105.99273052      88.72285012
N      77.43522835     109.14857346      87.67027256
H      76.03683087     109.64935094      86.47218608
H      79.19078409     109.55675435      87.03910397
H      77.00059129     110.17469485      89.21984814
C      79.11708477      95.62380224      83.78688499
O      81.32050564      95.33656384      82.95351569
N      77.07429063      94.52587125      82.73997661
H      75.45857463      94.93405214      83.66783223
C      77.16121803      92.97440595      80.45529750
H      78.69567579      91.62136191      80.20963308
C      74.85575194      91.33223379      80.46474613
H      73.24759484      92.61724768      80.41183379
H      75.00881976      90.35902473      82.27321421
C      74.73480944      89.34235198      78.25943552
O      73.61798119      89.74297396      76.28089207
O      75.93289594      87.29388865      78.62415270
C      77.21035091      94.62602675      78.01566083
O      76.82673647      96.89180860      78.11203687
N      77.62042153      93.52431631      75.72909199
H      77.93222636      91.64592835      75.57980361
C      77.22357901      94.85279391      73.25921970
H      78.52937988      96.44394346      73.26299915
C      77.68845168      93.24085736      70.86682619
H      75.89888086      92.82889703      69.93519112
C      79.41377180      94.47295892      69.01678413
H      79.34763137      93.38258684      67.26878729
H      81.26381385      94.78665349      69.86716097
H      78.76748539      96.36079550      68.50088884
O      78.88275871      90.89381728      71.46020025
H      78.21190587      89.67494381      70.29423912
C      74.55717517      95.96206325      73.08914433
O      74.15277374      98.06154919      72.12349419
N      72.76382491      94.81121993      74.24943629
H      73.41389076      93.15959913      74.94863502
C      70.22970191      95.86001803      74.54801305
H      69.64955593      96.44205374      72.65828673
C      68.37777014      93.63392043      74.86359734
H      68.07352420      93.55644166      76.90072231
H      69.10153530      91.82734208      74.18707532
C      65.66790260      93.86635677      74.03589721
H      64.99138057      95.75986254      74.48943153
H      64.46792638      92.44528258      74.92028913
C      65.45625326      93.87391568      71.15973377
O      64.00305371      95.19105492      69.89928632
O      66.74693633      92.36591408      69.87849933
C      69.88955119      98.21083756      76.46419553
O      67.78439607      99.30687883      76.91206066
N      71.91722752      98.89680822      77.74165051
H      73.54239215      98.00485740      77.28433675
C      72.14777413     100.75629891      79.95074057
H      71.21613906     102.51185465      79.41027885
H      74.16978127     101.13424417      80.04144744
C      71.39755278      99.82277411      82.52265809
O      71.90966861     101.03975786      84.50309126
N      70.18812794      97.65714776      82.72485880
H      69.78183678      96.94283121      81.00331813
C      69.07318942      96.80299146      85.13237012
H      68.08108309      98.32422114      86.10557918
C      67.12866103      94.67704936      84.53710634
H      66.22159240      94.21595614      86.32856688
H      68.04328858      92.98385458      83.80767198
C      65.02350592      95.44616797      82.73808689
C      64.55296408      93.71517867      80.66883657
H      65.68868959      92.02954280      80.50443038
C      62.59520761      94.23296368      79.06445893
H      62.10765823      92.79866140      77.69818681
C      61.27428893      96.58378321      79.25154184
O      59.30897356      96.81432982      77.58480323
H      58.40757411      98.33178005      78.00810192
C      61.95648012      98.32611087      81.05056129
H      60.91335120     100.07977689      81.13559897
C      63.72148450      97.81966422      82.83824238
H      64.24493868      99.21995142      84.22719122
C      70.95157736      95.77875980      87.04855261
O      72.89232630      94.59012195      86.45139909
N      70.34308549      96.18883041      89.39370296
H      68.63477291      96.98629491      89.69983862
C      71.95124259      95.41971180      91.58578548
H      73.91466823      95.98851942      91.34012106
C      71.14810891      97.05621479      93.80999335
H      72.21202482      96.32489070      95.41437099
H      69.13744010      96.87858051      94.22573314
C      71.69235009      99.79631794      93.84022898
C      69.69301964     101.48384354      93.68527142
H      67.76738854     100.88669002      94.00085571
C      70.12387725     104.05576105      93.51330632
H      68.58941947     105.39746673      93.58511592
C      72.69012557     105.03841873      93.45661453
O      73.10019619     107.52151911      93.24496519
H      71.67912200     108.64779599      93.26197272
C      74.69512520     103.33577533      93.50007824
H      76.60752823     104.05198160      93.50385769
C      74.17545046     100.68448931      93.93660502
H      75.68345206      99.31632746      94.10290093
C      72.09108234      92.54165863      92.01853281
O      70.12198752      91.34924132      92.34167601
N      74.35686419      91.42672010      91.86357525
H      75.60975274      92.75519770      91.30799572
C      75.16755678      88.76787518      91.79365538
H      73.44034693      87.68884145      92.10357049
C      76.19745761      88.05355863      89.15937690
H      78.14198598      88.67149914      88.88158713
C      76.26170831      85.16416710      88.83245425
H      74.36064364      84.37615123      88.80032890
H      77.24814545      84.20229641      90.36313256
H      77.35208040      84.74653758      87.13548002
O      74.59119025      88.89448684      87.27720949
H      74.60063888      90.70673438      87.28665812
C      77.06295227      88.21607510      93.87424405
O      78.61630730      89.90171097      94.30888110
N      77.04216528      86.03155148      95.11201478
H      75.84218907      84.70685333      94.44683112
C      78.81472856      85.03566571      96.99985137
H      80.49091580      86.12981725      96.51230198
C      78.12686817      86.08824327      99.63412985
H      77.16499749      87.87592436      99.28830994
C      76.01982334      84.36481287     100.82276770
H      75.14488006      85.52321510     102.28352614
H      76.87775909      82.66783864     101.61645275
H      74.61008752      83.73742373      99.46027503
C      80.30005343      86.36603303     101.56920960
H      81.66065639      87.62837021     100.67914850
H      81.02570834      84.46874782     101.91502951
C      79.54416292      87.29388865     104.19025999
H      78.75992650      85.67439320     105.19181494
H      77.98135926      88.56756419     103.77263048
H      81.06539259      88.26142853     105.18425603
C      79.24180671      82.16328171      96.82221710
O      77.74703320      80.67984656      95.77341899
N      81.20334261      81.17495485      98.04487002
H      82.69622641      82.29934201      98.43226392
C      81.94600506      78.59358871      97.81243369
H      80.19989795      77.61471048      98.29620362
H      83.36518951      78.08336261      99.21839006
C      82.93055247      77.92651532      95.23295727
O      84.01903483      79.45530391      93.95550228
N      82.34284759      75.63616703      94.47517702
H      81.62097214      74.47965453      95.81310325
C      82.49591542      74.61949427      91.91081841
H      84.06438826      75.66451292      91.07744911
C      83.10818675      71.75844864      91.91648759
H      81.41688170      70.89862316      92.71962127
C      83.13653264      70.51689845      89.26709130
H      81.39798443      71.21420746      88.41293500
H      82.98346481      68.46843512      89.41071050
H      84.67288013      71.25011226      88.10679934
C      85.44199873      71.05358072      93.58133647
H      84.84862467      71.56191710      95.48618059
H      87.13330379      71.96064935      92.83300485
C      86.11096185      68.14907138      93.52086523
H      87.57172030      67.63128637      94.88146817
H      86.30749339      67.44420346      91.59523412
H      84.49902531      67.06058902      94.19171807
C      80.17722123      75.41695878      90.51053121
O      78.14765517      74.17162914      90.68060658
N      80.04305067      77.74510160      89.50897627
H      81.59640570      78.84681204      89.64692629
C      77.96435171      78.58225035      87.87247328
H      77.47113315      77.18007343      86.44572991
H      78.76559568      80.15450264      86.80477791
C      75.37542666      79.25688265      89.03843441
O      73.56317914      79.79167519      87.60791159
N      75.03338620      79.00554905      91.53665260
H      76.60941795      79.31357443      92.56844317
C      72.52193994      79.00743877      92.84623293
H      71.27850002      77.79423448      91.73885332
C      72.62587489      77.92651532      95.41626072
H      73.80695382      79.09058673      96.63702392
H      73.34964007      75.99521503      95.41248127
C      70.19757657      77.84336736      96.76741503
N      68.61776538      75.74766088      96.60300884
H      69.02783598      74.28879217      95.43893744
C      66.55418424      76.35048358      97.84077958
H      64.93279907      75.15428682      98.16770223
N      66.74315687      78.70886201      98.74028930
H      65.30318542      79.65939435      99.55665107
C      68.90311404      79.73876286      98.02219331
H      69.41522987      81.69840904      98.27541663
C      71.50526718      81.71919603      92.88213773
O      72.55406529      83.42750862      94.04053996
N      69.48137030      82.17273035      91.50641698
H      68.54973523      80.74031780      90.65981959
C      68.30407081      84.67850744      91.51964506
H      69.66089430      86.22241384      91.37980532
C      66.70725207      84.98842255      89.14425909
H      65.37877448      83.41428053      89.17827416
H      68.16423106      84.79378074      87.70050818
C      65.24649362      87.51120718      88.57545147
H      66.43324176      89.14771017      88.97796317
C      64.85532029      87.37703661      85.65960377
H      63.49282762      85.90305009      85.19095164
H      66.55418424      86.87436941      84.61269539
H      64.57942024      89.27810128      84.91505160
C      62.65756858      87.62270103      89.77920713
H      62.99016042      87.35813935      91.79743483
H      61.40656977      86.08824327      89.20662006
H      61.80719175      89.48219173      89.52598380
C      66.96236513      85.15660819      93.97250982
O      66.05529649      83.42183944      95.27264152
N      66.90756305      87.63403939      94.56966333
H      67.66723304      88.89448684      93.35456931
C      65.48648888      88.58268200      96.80143011
H      64.80240794      87.04822423      97.99006796
C      67.38566382      90.17572128      98.57399339
H      66.41056504      91.13570225     100.11412033
H      67.94691253      91.75553248      97.37779663
C      69.65144567      88.58079227      99.46594421
H      70.23348137      87.41861059      97.86723575
C      71.89077134      90.09635278     100.45049162
H      72.33485703      91.67049480      99.19760307
H      73.49703872      88.97196562     101.07788075
H      71.04606369      90.89570701     102.14935557
C      68.77650239      86.83279543     101.37267806
H      67.25905216      85.58368634     100.75662728
H      67.86376458      87.78899695     102.95248926
H      70.48481496      85.79533569     101.86967608
C      63.01283713      90.17383156      96.29687318
O      61.02295533      89.29510882      97.18126510
N      63.05252139      92.22985378      94.73595925
H      64.65878875      92.82889703      93.89692076
C      60.72437857      93.46762452      93.79109609
H      59.41857769      91.94261538      93.32811314
C      59.85888391      95.62380224      95.81688270