 %block lattice_cart
   137.793   0.000   0.000
   0.000 143.498   0.000
   0.000   0.000   162.326
 %endblock lattice_cart

 %block positions_abs
N      86.25836050      38.76477207      77.92684369
H      87.53203604      37.42495612      77.45630184
H      85.83695153      39.91372567      76.46230580
H      84.77870479      37.73487123      78.55801228
C      87.23534901      40.41261342      80.06034470
H      88.56382661      39.32602079      81.19795994
C      88.55437797      42.81823501      79.25721102
H      87.16731886      44.14293316      78.50509994
H      89.92065009      42.34958289      77.79078340
C      90.15686589      44.11458727      81.18473185
H      91.15842084      42.59146786      82.14282310
H      89.02303009      45.20306962      82.51509918
S      92.14107852      46.53154722      79.93751249
C      93.67364656      47.33468090      82.74186634
H      92.54925940      48.43450162      84.06845421
H      95.21566323      48.57434136      82.16927926
H      94.41819872      45.62825804      83.62247880
C      85.00925141      41.10425325      81.60803055
O      83.30660801      42.43651030      80.95040579
N      85.27003364      40.59024769      84.10813846
H      86.75535853      39.61892837      84.81489610
C      83.62975121      41.66928142      86.06211547
H      81.76459134      40.80378676      85.97707778
C      84.53681984      41.33102041      88.82678506
H      86.24324270      42.43084112      89.17071525
H      85.03381785      39.36759477      89.20662005
C      82.83795588      42.13226436      90.96595525
O      80.97468573      43.64404541      90.72029083
N      83.28582101      41.15338613      93.13725078
H      82.15765441      41.67306087      94.58667087
H      84.54626846      39.77199620      93.51897550
C      83.13653263      44.52843733      85.49519757
O      84.88452948      45.99297522      85.61425033
N      80.75925693      45.51676419      85.20040027
H      79.44022797      44.13915371      85.14370848
C      79.97313078      48.00742347      84.32167753
H      81.21090152      48.37969955      82.71918962
C      77.25192490      47.92805496      83.14059859
H      77.27649134      46.06100537      82.27132448
C      75.13354170      47.57845560      85.10402423
H      73.41955993      47.05122196      84.09113092
H      74.69890464      49.28487846      86.17549905
H      75.61920136      46.08557181      86.43439155
C      76.67177892      49.95762102      81.23197501
H      78.45001138      50.24485942      80.23230979
H      76.17667062      51.72073567      82.17305872
C      74.67055876      49.59479357      79.14004798
H      72.83374477      49.43416684      80.06034470
H      74.85953138      47.70695699      78.33880403
H      74.71402246      51.08578763      77.72086352
C      80.40209866      49.91982650      86.32289770
O      80.91610422      52.10435012      85.62936814
N      80.35674522      49.22629694      88.79465972
H      80.10352190      47.37436516      89.17449471
C      81.07484123      51.21050957      90.70706275
H      80.17722122      53.00763929      90.25541816
C      80.27737672      50.05399707      93.22417819
H      81.22412961      51.18027395      94.66603937
H      81.07106178      48.15482212      93.30543643
C      77.61286263      49.68361071      94.03109133
C      76.47902683      51.62435963      95.32744358
H      77.52215575      53.29298797      95.86412585
C      74.00348537      51.57900620      96.17215124
H      73.18334415      52.96228586      97.42692951
C      72.53516801      49.51353534      95.59011554
H      70.55851430      49.69305934      96.07010602
C      73.57640722      47.60302204      94.06321668
H      72.29517277      46.08746154      93.59267483
C      76.08974321      47.59546313      93.32433369
H      76.87397963      46.13470469      92.13191639
C      83.90754096      51.68105142      90.78265180
O      84.75224864      53.19283247      92.31144039
N      85.55349259      50.50942111      89.25575294
H      84.74091028      49.49085863      87.85924519
C      88.27847793      50.78154170      88.98741180
H      88.90775679      52.29143302      90.24030035
C      89.82427406      48.33623585      89.64881601
H      91.84061204      48.70662221      89.44094612
H      89.14019314      46.86791850      88.37325075
C      89.22523082      47.36680625      92.34734519
H      89.68065486      45.35991691      92.30199175
H      87.22212092      47.41215968      92.83489457
C      90.85228516      48.78977016      94.22951259
O      90.09450492      50.84768212      95.17059630
O      92.92342521      47.92427551      94.83989419
C      88.74335061      51.82845007      86.21140385
O      90.38930222      53.49518868      85.93550381
N      87.21078257      50.99130132      84.31222890
H      85.71411932      49.87636279      84.72229951
C      87.26369490      52.21584397      81.77243674
H      89.19688491      51.96451037      81.10158390
C      85.09050964      50.96862460      80.16616937
H      83.33306418      51.52609386      81.08268663
H      85.21523158      48.91638183      80.01877072
C      84.72201302      52.14403437      77.52433199
H      86.24702215      51.51097605      76.29223043
H      84.80705070      54.19249769      77.72464298
S      81.79104750      51.26720136      75.78578378
C      81.15987892      53.79376544      73.59181153
H      79.44778688      53.31755441      72.55435178
H      82.62819626      53.92793601      72.15184008
H      81.09373849      55.58522599      74.60470483
C      86.71378454      55.08066906      81.73464221
O      87.88541486      56.53197887      80.36081118
N      84.70311575      55.84033904      82.98564103
H      83.68833272      54.58556077      84.00609324
C      83.71478889      58.44249217      82.69840263
H      83.73557587      59.04342514      80.72741809
C      80.99547272      58.58989082      83.49019796
H      80.31139180      60.51363221      83.23130545
H      80.61185828      58.02108320      85.43283661
C      79.19078409      57.01007963      81.94251211
H      79.83896022      55.05610262      81.81967990
C      76.58863095      57.14047074      83.17083421
H      76.41666586      55.96317125      84.85080090
H      75.18834376      56.63969327      81.74598057
H      76.32217954      59.13224227      83.61680962
C      78.79016212      57.87746400      79.07012811
H      77.89065238      56.40536720      77.94574095
H      80.52493087      58.27052708      78.03266836
H      77.73380511      59.64435811      79.00587742
C      85.35318159      60.31521095      84.18183779
O      84.92043428      62.58855170      83.85869459
N      87.15975995      59.63113002      85.78621543
H      87.42054219      57.74329343      85.91093736
C      88.71122526      61.31487617      87.44728486
H      87.53014631      62.58288252      88.55844393
C      90.62929747      59.74073415      89.04032414
H      92.07115864      60.91614391      89.92282633
H      91.54203528      58.59367028      87.59090406
C      89.50680003      58.14580514      91.08878746
H      88.79815267      56.58300148      89.95117222
H      87.85328952      59.06421213      91.90703895
C      91.53258664      57.58644615      93.11457407
H      92.22233675      59.27586147      94.07077558
H      93.10861838      56.57166312      92.26797668
N      90.26835974      55.91781782      94.94949832
H      90.48567827      54.02431205      94.84178392
C      89.52758703      56.60000902      97.28897949
N      89.34617329      58.93382101      97.94282480
H      88.74524034      59.14736009      99.74373397
H      89.32916576      60.44182261      96.77308421
N      89.14397259      55.05799234      99.15413937
H      88.30115464      55.79120615     100.69993549
H      89.29326097      53.21550919      98.67981806
C      90.17198369      63.32365524      85.90904764
O      90.99968383      65.19070483      86.87658751
N      90.86362352      62.78319351      83.50909522
H      90.73512213      60.98795351      82.87225745
C      92.51146488      64.34788690      81.79322373
H      93.71711027      65.59888572      82.90060335
C      94.30103569      62.69248665      80.30600912
H      95.75234550      63.77341010      79.32713089
C      95.86950853      61.24873575      82.35636217
H      97.19987586      59.97506021      81.43606545
H      94.58638437      59.96372185      83.32768149
H      96.98066761      62.35800509      83.68861922
C      93.00468344      61.02763777      78.33880403
H      90.99779410      60.76496581      78.71108011
H      94.01190757      59.26263339      77.99676356
C      93.07838277      62.36745372      75.80468104
H      92.29225663      61.28842000      74.23620820
H      95.04180840      62.89279764      75.47775839
H      92.04092302      64.14190673      75.67617965
C      91.12440575      66.17525224      80.14916184
O      92.29036690      67.81364496      79.11926099
N      88.57138552      66.00895633      80.20774335
H      87.80604636      64.72772189      81.39827093
C      86.89330854      67.30152913      78.42195199
H      87.76636210      67.06342361      76.56813047
C      84.42910543      65.77840972      78.45218761
H      83.37841760      66.32643035      80.13593375
H      84.53870955      63.72238749      78.42951089
C      82.78315382      66.50406462      76.22420028
O      80.55138704      67.30341885      76.66639624
O      83.86407727      66.50784407      74.08503010
C      86.60984960      70.14367750      78.80745615
O      86.21300708      71.55530306      76.93473738
N      87.02558939      71.07342285      81.09780444
H      87.25424627      69.66746647      82.36581080
C      87.14275242      73.81919518      81.65149425
H      88.11029228      74.87366246      80.16994882
C      84.28548624      74.93413370      81.63826617
H      83.22346004      74.08564659      83.18595202
H      83.38219706      74.31052402      79.89593851
C      84.03793208      77.66100877      82.13148474
H      84.54815819      78.18446296      84.05900558
H      82.01781465      77.98982115      81.88771004
C      85.51758779      79.35231382      80.42317215
O      84.54248902      80.09497626      78.35959102
O      87.67943469      79.97403378      81.14315788
C      88.73768143      74.19903017      84.09491038
O      88.88885953      72.34898811      85.51976402
N      90.12474054      76.30418528      84.35569261
H      89.96411380      77.74415673      83.11414242
C      91.82738394      77.01472237      86.44761964
H      93.01602180      78.58319521      85.84101749
H      93.00468344      75.36688103      86.82367517
C      90.48189881      77.75738482      88.87591795
O      88.89641844      79.39010835      88.76253437
N      91.41920307      76.74071206      90.91304291
H      92.70988614      75.33664541      90.93382990
C      90.52725224      77.21314364      93.57944674
H      88.52792181      76.71803534      93.65692552
C      91.82738394      75.47648516      95.61279225
H      93.81348630      76.02072633      95.56554910
H      91.57982981      73.53762596      94.96650586
C      91.07527287      75.34987349      98.40391802
H      91.58360925      77.07330389      99.41492160
C      88.10462311      75.62199408      98.58911120
H      87.13708324      74.21414798      97.43637815
H      87.35062231      77.32652722      97.71416791
H      87.55660248      75.72592903     100.57143410
C      92.16186550      73.14834234      99.84955865
H      94.21221856      73.28062318      99.69838054
H      91.41731334      71.40790440      99.03508661
H      91.64597022      73.06519438     101.84321991
C      90.92220504      80.00615913      94.43360304
O      92.98956562      81.04739833      94.44683112
N      88.86807255      81.14944355      95.24240590
H      87.21078257      80.30284616      94.82099693
C      88.78681431      83.70813298      96.39513895
H      90.73323242      84.33174266      96.64647255
C      87.20511339      85.50904215      94.73217979
H      86.57016535      87.09830198      95.87924366
H      85.63475082      84.48292076      93.87991323
C      88.67721019      86.72602590      92.66859866
H      90.48189881      87.01704375      93.61913099
H      87.64541961      88.42866930      92.13758556
C      88.79815267      84.94212426      90.36880174
H      87.21078257      83.62876447      90.38391955
H      90.56693650      83.89521588      90.49730313
N      88.54114988      86.42555941      88.01609248
H      88.38619234      88.32662408      88.07845344
C      88.21422723      85.49959352      85.65204486
N      88.21989641      83.09964110      85.08701669
H      87.67943469      82.44579580      83.37681438
H      88.45233276      81.87698818      86.53265732
N      87.89108404      87.06239718      83.72452402
H      87.74746484      86.40477242      81.93684293
H      88.24824231      88.88031389      84.18750697
C      87.52258740      83.54939596      99.10878593
O      85.69711179      82.14721904      99.38090652
N      88.52036290      85.00826468     100.84355469
H      90.14741726      85.88320796     100.36734366
C      87.77392101      84.99503659     103.64790854
H      86.34150847      83.61931584     104.19214972
C      90.03025423      84.19001318     105.34488277
H      89.23845890      84.30906594     107.24027826
H      91.48345375      85.63754354     105.12945397
C      90.93543313      81.42912304     104.92536352
H      90.98456601      81.18912780     102.88067965
C      93.45632803      81.01149353     106.24628222
H      93.34861362      81.81840666     108.13789826
H      94.95299126      81.95824641     105.19559439
H      94.10828360      79.05562679     106.27462811
C      89.00035338      79.39766726     105.84188079
H      88.47123002      79.89844473     107.77129135
H      89.79970762      77.51738957     105.59243691
H      87.28259216      79.43924123     104.70615527
C      86.59662151      87.44601162     104.68347856
O      84.89019866      87.33073832     106.19525961
N      87.47534425      89.79683116     103.87656542
H      89.09106024      89.82328732     102.86367212
C      85.88797415      92.03615684     103.81231473
H      84.95255963      92.17788631     105.64345952
C      87.51313878      94.36807911     103.19437422
H      87.23723874      94.48524214     101.15535953
H      89.46144661      94.19233456     103.83310172
C      86.20355844      96.67732466     104.41891687
H      86.26780914      96.37307872     106.45604184
H      84.24391225      96.87952538     103.81609418
C      87.75313402      99.08483598     103.82554281
H      87.70211140      99.33050040     101.78085894
H      89.71089047      98.84862019     104.42269633
C      86.59662151     101.52258293     105.02929847
H      87.27692298     101.79470352     106.95492959
H      84.54626846     101.50368566     105.24472727
N      87.51691822     103.70143737     103.53830441
H      86.85362430     105.28313829     104.37356344
H      87.02180994     103.68065038     101.69393153
H      89.41042400     103.85639492     103.37389822
C      83.76581149      91.74513898     101.69393153
O      84.00013755      90.44878673      99.79475659
N      81.57183925      92.96023300     102.13990694
H      81.41310223      93.99391330     103.73672567
C      79.70289992      93.32117073     100.16325322
H      78.94889912      91.45601086      99.72105726
C      77.28405025      94.70634012     101.17614652
H      77.93033664      96.50158011     101.94904458
C      75.25070473      95.14097717      99.15791882
H      75.02771703      93.35518580      98.15636387
H      75.81195345      96.59795616      97.81432341
H      73.50837707      95.66065190     100.12545869
C      76.17100145      93.24369195     103.32287561
H      77.55617084      92.85062888     104.79686214
H      75.61542191      91.38987044     102.61422824
C      74.31529020      94.78192917     104.85733338
H      74.42111488      94.31516677     106.86044327
H      72.43123307      94.17532702     104.29041548
H      74.60630805      96.79637742     104.54363881
C      80.85941243      94.87641548      97.93337617
O      82.30694279      96.62063287      98.31510088
N      80.26414863      93.97690576      95.65625596
H      79.01881900      92.54071376      95.48429087
C      80.99547272      95.19011005      93.27898026
H      81.62097214      97.09306445      93.76086047
C      83.36141007      93.88997835      92.17160064
H      84.84484523      93.63675502      93.57944674
H      84.31005267      95.28459637      90.98863197
C      83.02314906      91.37286290      90.69572439
C      83.07795112      91.16310328      88.01231302
H      83.41621213      92.86007751      86.92949985
C      82.50536405      88.94645431      86.79343955
H      82.35796540      88.92944678      84.75820431
C      82.25214071      86.64287794      88.11057879
O      82.06883726      84.58307626      86.79532928
H      82.26536880      85.03661057      85.04922216
C      82.23135373      86.74870261      90.78454152
H      82.03860164      84.95913179      91.75019167
C      82.52993048      89.11086050      92.08467323
H      82.81149971      89.14109612      94.10668038
C      78.82795665      95.66065190      91.39114367
O      76.63398439      95.62096765      92.25096914
N      79.32684439      95.98568483      88.88536658
H      81.09373849      96.21623144      88.20884456
C      77.25948381      95.85907317      86.98241218
H      75.44912600      95.44333338      87.87247328
C      76.89098716      98.47445438      85.71440583
H      75.83463017      98.26469476      83.95696036
H      78.85630253      99.03948255      85.46874141
C      75.48503080     100.40197522      87.32445265
H      76.64532275     100.75724377      88.99119125
H      73.70868805      99.54781893      87.92160616
C      75.09952662     102.97578246      85.74842090
H      74.37387173     102.65074954      83.84924596
H      77.00059130     103.72600381      85.49519757
C      73.59341475     104.77291219      87.24697387
H      74.11308949     104.73133821      89.24063513
H      71.55440006     104.51590941      87.07689850
N      74.08474360     107.34671942      86.18494768
H      73.55373051     108.65252031      87.47185130
H      73.58018666     107.74545168      84.38781796
H      75.97824936     107.57726603      86.11124835
C      77.67333387      93.96556740      84.83568309
O      79.79360678      93.26258921      84.16105080
N      75.61164245      93.19077961      83.69806785
H      73.88065316      93.68777763      84.32734671
C      75.47558217      92.02481848      81.23764419
H      76.97602486      90.62075183      81.35480722
C      72.93956945      90.67933334      80.99009004
H      71.49581854      92.14387124      81.13559897
H      72.47658651      89.60785852      82.68517455
C      72.78839135      89.02582282      78.59202735
O      74.23025252      87.19656775      78.46352596
O      71.30306647      89.79116198      76.94985519
C      75.98769800      93.83706601      79.07390756
O      75.91021921      96.19922390      79.27232883
N      76.66610974      92.75425284      76.83458188
H      76.58863095      90.85696762      76.63994007
C      76.84374401      94.25091608      74.48943153
H      78.12875791      95.83828618      74.75966239
C      77.98135926      92.58417747      72.42207094
H      77.53916329      93.48179747      70.62116177
C      80.88019942      92.80338572      72.78300867
H      81.59640569      94.73468601      72.76600113
H      81.79671667      91.55049717      71.42618517
H      81.36585908      91.91899381      74.57824866
O      77.46735369      90.00092160      72.71686825
H      78.46323947      89.13164749      71.47531806
C      74.35686419      95.34506761      73.71275401
O      74.51371147      96.57527944      71.75499755
N      72.30840086      94.91232028      75.03178298
H      72.16289194      93.42888513      76.22609001
C      69.79317513      95.98757456      74.26644382
H      69.72703472      96.66787603      72.32380517
C      67.67668167      93.84840437      74.28156163
H      67.13244049      93.39487006      76.21853110
H      68.71036197      92.28560071      73.42551561
C      65.43546627      94.19233456      72.58836686
H      64.36021199      95.84773481      73.17796147
H      64.10320920      92.62764117      72.70741961
C      66.06474513      94.41532226      69.80480000
O      65.81908071      96.33717392      68.65962585
O      66.97181375      92.52370623      68.82781149
C      68.96736474      98.12107556      76.11459616
O      66.72992878      98.98845994      75.72531254
N      70.60197799      98.82783321      77.95707931
H      72.43123307      98.31949683      77.74731969
C      70.03883956     100.68732390      79.92617413
H      68.67823662     101.94588162      79.02477468
H      71.77360832     101.72856310      80.30600912
C      69.08452777      99.81238061      82.56423206
O      69.42089906     101.14274794      84.36703097
N      68.19446668      97.42943573      82.62848276
H      67.87321320      96.30504858      81.11859143
C      67.07196924      96.02536908      84.77899130
H      65.70380739      97.21022748      85.76353871
C      65.57152655      93.68777763      84.02876996
H      64.39611679      92.71267886      85.41204962
H      67.13433022      92.37819730      83.72263429
C      63.87644205      93.64998311      81.64771480
C      63.72337423      91.50703347      79.94318167
H      64.98760112      89.94045036      80.28333240
C      62.24749798      91.69411637      77.71708407
H      62.41568361      90.15587916      76.38482702
C      60.94169709      93.90887561      77.12371001
O      59.61510922      94.02603864      74.92406858
H      58.94047692      95.64931355      74.47431372
C      61.00216832      96.08395060      78.90194247
H      60.43902989      97.93210293      78.23864853
C      62.51583910      95.80427110      81.05245101
H      62.54418501      97.52014260      82.15416145
C      69.17145518      95.50002517      86.59879774
O      71.31062536      95.13341826      85.85991475
N      68.59508865      95.22601485      89.02709605
H      66.80929728      94.60240517      89.27087075
C      70.51694031      94.79326753      91.00374978
H      72.23848098      95.63986492      90.25541816
C      70.01616284      96.22190062      93.52086523
H      71.35975826      95.86474235      95.04209491
H      68.10564955      95.75891767      94.13691600
C      70.23915055      99.00924693      93.11457407
C      68.09809064     100.45299783      92.24529996
H      66.28206364      99.75757855      91.62358001
C      68.44957973     103.15719619      92.26419723
H      67.04740281     104.25134772      91.26831146
C      70.70780268     104.30803951      93.00119049
O      71.03094588     106.78925016      92.66670893
H      69.70624772     107.43553656      91.61224165
C      72.79783998     102.85861943      93.80432417
H      74.55528544     103.84883602      94.11612901
C      72.49926321     100.29048137      93.86101596
H      74.09230249      99.25113190      94.59989895
C      71.16511644      91.87364037      91.56499849
O      69.46058331      90.26548328      91.32878270
N      73.41955993      91.30483275      92.27175613
H      74.75181699      92.60685418      92.68749592
C      74.27560596      88.58362686      92.42293424
H      72.52571939      87.55561575      92.78954114
C      75.65132671      87.74458838      89.91526742
H      76.71146316      86.10997512      90.57667163
C      73.86364561      87.13231705      87.69672873
H      72.65233104      88.79338648      87.55310953
H      72.99059206      85.29739280      88.04821782
H      74.94645879      86.95657251      85.95251134
O      77.24247627      89.65699141      89.15559744
H      78.89031761      88.92755705      88.94583782
C      76.10297130      88.06773158      94.51486127
O      77.16877693      89.74958800      95.64302788
N      76.49225492      85.64510245      95.27642097
H      75.56628903      84.24292552      94.37124207
C      78.35363534      84.64732695      97.06599179
H      80.02415339      85.77927301      96.65403145
C      77.35774957      85.09330236      99.87223536
H      76.49792410      86.96413141      99.92514770
C      75.24692527      83.24703975     100.24262172
H      73.97136002      83.83285491     101.75062332
H      75.95935209      81.37810043     100.73584029
H      73.99970592      83.04672877      98.61367764
C      79.44589715      84.86464548     101.93770622
H      81.15420973      85.80383946     101.27063284
H      79.60841360      82.89933011     102.52541111
C      78.59552031      86.13643129     104.40568879
H      78.71457306      88.19056379     104.29419494
H      79.83896022      85.51849078     105.92502874
H      76.69445563      85.54872640     104.94048134
C      79.10952586      81.82218611      96.63702392
O      77.85096814      80.52772359      95.14225040
N      81.08051040      80.97747845      98.01274467
H      82.18411058      82.19635192      98.98406400
C      81.84773929      78.40367121      97.58377680
H      80.31706098      77.15267240      98.16392278
H      83.48991145      77.81218688      98.67792833
C      82.83984561      77.99738006      94.94193941
O      83.43699912      79.84553239      93.52275495
N      82.75480792      75.64278107      94.07833449
H      81.88742355      74.39367198      95.23106754
C      82.65276270      75.21003375      91.32500325
H      84.09462387      76.41756886      90.48029559
C      83.26692374      72.32442167      90.93949908
H      82.44867226      71.13011464      92.40403698
C      82.73213121      71.22082150      88.29955142
H      83.44266830      69.30463902      88.04065892
H      83.87919507      72.41890798      87.07878822
H      80.77626446      70.93169337      87.71940545
C      86.18466118      72.01828600      91.30232653
H      86.62874686      72.70992583      93.19016312
H      86.91787498      73.40912457      89.97195921
C      87.32227642      69.50306028      90.86202030
H      87.71722922      69.05897460      88.88914603
H      86.18466118      67.89112374      91.45350464
H      89.16664929      69.37266916      91.77286839
C      80.06572737      76.04718250      90.29510241
O      78.31584081      74.60343160      90.77887235
N      79.93911571      78.17879378      89.03654469
H      81.42255087      79.36554191      88.86080014
C      77.99458734      78.80807265      87.27343004
H      78.06450720      77.48526423      85.69550856
H      78.53693879      80.61465100      86.44195046
C      75.24125609      78.86476443      88.14459387
O      73.58207640      78.91578705      86.45328882
N      74.64032314      79.05373707      90.67871685
H      75.99714662      78.83641854      92.00530472
C      71.91722752      78.84019799      91.57255740
H      70.83630407      77.48715395      90.45761887
C      72.15533303      78.02194650      94.41659550
H      73.45735446      79.13688502      95.55799019
H      73.03027631      76.16623526      94.22384341
C      69.71758608      77.81029715      95.79042653
N      68.38154959      75.54451530      95.99262724
H      69.03728462      73.87021779      95.35012030
C      66.59575822      75.93001947      97.85589739
H      65.38066420      74.55429871      98.75162766
N      66.62788356      78.37343559      98.45494063
H      65.63577724      79.05373707      99.93837578
C      68.63477291      79.60931660      97.40047335
H      69.29050793      81.50471209      97.76330080
C      70.55095539      81.44046140      91.43460738
O      71.45424457      83.34719525      92.52308973
N      68.28328382      81.62376485      90.25919761
H      67.85242622      79.99482077      89.36157761
C      66.72992878      83.92545150      90.15148321
H      68.02628104      85.39565857      89.51842490
C      64.62288394      83.55884460      88.22018292
H      63.92557494      81.63888266      88.48285488
H      65.59231354      83.41144594      86.40793538
C      62.45914732      85.54872640      88.15971168
H      61.61821911      85.75470657      90.03054073
C      63.49282762      87.96379663      87.26209168
H      62.05285616      89.40943726      86.98808136
H      64.51516954      87.66899933      85.49897703
H      64.91768125      88.43622821      88.67182751
C      60.62044361      84.64732695      86.20006549
H      58.99905844      85.90777440      86.34368469
H      60.24816754      82.64988624      86.54777513
H      61.61821911      84.75315163      84.40104604
C      65.85687523      84.43567761      92.83678430
O      65.13122033      82.76138009      94.20305642
N      65.83608824      86.79216632      93.62102072
H      66.61843494      88.04694459      92.41537533
C      64.66256820      87.79939044      95.98128889
H      63.92746467      86.31973474      97.21150072
C      66.51638972      89.53226947      97.35511992
H      65.61876971      90.84751899      98.65903107
H      67.35353846      90.75870185      95.93026628
C      68.48737425      87.97702472      98.95193865
H      69.87254365      86.84885811      97.93148644
C      70.28072453      89.88942774     100.13490732
H      71.02905614      90.80783473      98.45116118
H      72.02494191      89.07495570     100.87190058
H      69.33586138      91.12152930     101.48795136
C      67.42912752      86.34997036     100.93615128
H      66.39544722      87.56506438     102.24195216
H      69.01271818      85.50337297     101.94526513
H      66.23104104      84.78527697     100.33710804
C      62.15679111      89.09007351      95.18193466
O      60.11588668      88.16599735      95.42381962
N      62.51583910      91.45979031      94.32588864
H      64.32052773      92.07773082      94.25218931
C      60.50139086      93.19266934      93.62857963
H      58.86110842      91.97379587      93.37346657
C      60.20659355      95.44711283      95.39925318