 %block lattice_cart
   137.793   0.000   0.000
   0.000 143.498   0.000
   0.000   0.000   162.326
 %endblock lattice_cart

 %block positions_abs
N      87.77297615      35.15161536      85.38937290
H      89.67782027      35.03823178      85.36291673
H      86.75630339      34.16895768      84.10813846
H      87.43471514      34.43918854      87.12792111
C      86.93960684      37.83880618      85.43094688
H      87.99029467      38.37170900      87.12036221
C      87.92793370      39.34491805      83.09902461
H      87.13046920      38.42840080      81.43606546
H      89.98773538      39.33168996      83.10469379
C      87.19094044      42.11525683      82.90060335
H      85.18216137      42.28533219      83.32957122
H      87.75029943      42.87114736      81.06756882
S      89.08633593      43.74798037      85.28354823
C      92.02863980      44.46418664      83.62625825
H      92.56532208      42.61036513      82.90627253
H      93.48939824      45.17472372      84.89615433
H      91.64502536      45.80778204      82.11447720
C      84.03698722      38.08825006      85.81834078
O      82.55733152      37.13582799      84.30089055
N      83.20550765      39.53200096      87.74775134
H      84.63603047      40.21986134      88.80788780
C      80.50697847      40.09324967      88.46584734
H      79.25975911      38.98398033      87.26209168
C      79.97407565      38.73642618      91.14169980
H      81.46506971      37.31913144      91.24563475
H      78.03143700      38.05045553      91.15303816
C      80.14604075      40.35970108      93.50763714
O      78.49064050      41.78455472      93.99329681
N      82.16426845      40.05923459      94.86257091
H      82.25119586      41.24031354      96.36112388
H      83.42093645      38.65516795      94.55454552
C      79.69439616      42.91461105      88.09924044
O      81.29310462      44.58701885      87.70617736
N      77.31334100      43.58168444      88.20695484
H      76.06423191      42.13793354      88.18049867
C      76.31556551      46.08557181      87.56444789
H      76.99019780      46.62603354      85.69361884
C      73.39404863      46.02699030      87.30366566
H      72.88193280      44.53977568      85.97140861
C      71.84069360      45.35991691      89.73196397
H      69.84703234      45.07456824      89.30110637
H      71.88415731      46.96429455      91.02264704
H      72.56634850      43.93317353      91.02642649
C      72.40194232      48.46095779      86.19628604
H      72.86114581      50.00108473      87.48129993
H      70.34592009      48.35891256      86.23974974
C      73.18050956      49.24330448      83.53933084
H      72.04100459      50.86657938      82.98564103
H      72.64571701      47.84112755      82.13148474
H      75.22708315      49.47007163      83.51098495
C      77.05633822      48.23797009      89.32756254
O      77.61191776      50.39036835      88.55466448
N      77.19806770      47.69183917      91.73129441
H      77.02232315      45.86825328      92.26797668
C      78.16560757      49.49652780      93.64558716
H      77.22263414      51.31633424      93.43582754
C      77.76876504      48.47229615      96.28364510
H      78.66827477      49.78376620      97.59511516
H      78.84779877      46.71674040      96.36301360
C      75.01921326      48.10946870      96.97150547
C      73.76065553      49.94817240      98.45116118
H      74.81701254      51.52042468      99.21272088
C      71.15472295      49.77053813      98.87257015
H      70.05490223      51.25019382      99.75129288
C      69.83947343      47.69183917      98.02597276
H      67.81746628      47.64270629      98.30754198
C      71.06590581      45.80211286      96.58789103
H      70.05868169      44.23741947      95.74885255
C      73.63404387      46.00242386      96.26285811
H      74.43150838      44.50576061      95.12902232
C      80.94350525      50.14470393      93.12591243
O      81.84868415      52.03820969      94.11801874
N      82.34379245      48.64048179      91.71806632
H      81.53121013      47.11925211      90.89981483
C      84.97807093      49.13936954      91.03020595
H      85.75852790      50.51320057      92.34923491
C      86.69961160      47.00019934      91.02075732
H      88.42115227      47.39515214      89.95873113
H      85.52231211      45.56778680      90.12502704
C      87.59156242      46.06100536      93.62291045
H      88.34367349      44.14860233      93.46606316
H      85.93049299      46.22919101      94.82477638
C      89.60412094      47.57089670      95.01185929
O      89.23751404      48.18505774      97.25496442
O      91.66770208      47.89781935      93.84589815
C      84.94594558      50.49808275      88.48096515
O      86.04198684      52.59189951      88.32222814
N      83.40203918      49.63825728      86.60257720
H      82.46095548      48.00553374      86.89926423
C      83.30755287      50.65115058      84.11947682
H      85.26341960      50.71162182      83.48074933
C      81.89025813      49.00141951      82.32045737
H      80.17627637      48.32867694      83.24642326
H      82.97307131      47.35168844      81.73653194
C      81.15893405      50.11824776      79.73909123
H      81.05499910      48.58945918      78.36148074
H      82.60079523      51.42782809      79.06634866
S      78.43772816      51.93616447      79.61247956
C      78.37914664      53.17960439      76.40372428
H      77.82167738      51.64703635      75.14327683
H      80.25564487      53.76919899      75.79145296
H      77.04688959      54.72540052      76.13538315
C      82.41749177      53.44605579      84.09302065
O      83.32267068      54.96539576      82.61147522
N      80.63359013      54.27375593      85.85046612
H      79.57912285      53.02653655      86.83690326
C      79.74352904      57.03275634      85.99030587
H      79.68116807      58.01163458      84.17805834
C      77.08090467      56.97039537      87.17138482
H      76.41194155      58.87901894      87.56255816
H      77.18483961      56.14836442      89.05544195
C      75.12881738      55.64947668      85.51409484
H      75.65605103      53.71061749      85.06622970
C      72.59091495      55.75908080      86.87091833
H      72.09580665      57.68660164      87.40571088
H      72.82524101      54.54776625      88.52064940
H      71.10559006      54.70461352      85.91093736
C      74.71685705      56.61890628      82.92516979
H      73.49042467      58.27052708      82.97619240
H      73.70774320      55.14869920      81.89337922
H      76.42139018      56.98740292      81.82912853
C      81.39514984      58.79776071      87.59657324
O      80.91137990      60.98039461      87.87436300
N      83.54565838      57.69982973      88.47529597
H      83.70628512      55.82333150      88.17105004
C      85.37302373      58.95082854      90.22140308
H      84.69461198      60.83488569      90.70895247
C      85.18405110      57.31054611      92.56655344
H      85.56766554      55.32444376      92.18104927
H      83.21873573      57.28786940      93.18260422
C      86.66559653      58.33477777      94.76997432
H      86.01364095      60.15269448      95.48807032
H      88.68949341      58.52186067      94.43927222
C      86.45961636      56.58867066      97.09622741
H      87.12668975      54.70839297      96.58411158
H      84.57744895      56.24096101      97.85589739
N      88.16037004      57.45794476      99.11256539
H      89.36790515      58.84311415      98.59855983
C      87.87313164      56.74929739     101.50306917
N      86.44260882      54.99185192     102.37801246
H      86.39536566      54.49674362     104.22238534
H      85.51475320      53.91848737     101.10244720
N      89.37735378      57.90014071     103.10744681
H      88.73484684      57.97761949     104.90268681
H      90.04442717      59.57254851     102.47060905
C      88.02808920      59.31365600      89.05922140
O      89.40569968      60.86134185      90.13069622
N      88.56288174      58.07210582      87.02020671
H      87.42337678      56.55654531      86.78588065
C      90.52441766      58.69760523      85.08701669
H      92.18170763      59.38735533      86.09991000
C      91.42959656      56.31088089      83.74909046
H      92.89413445      56.89669604      82.42439232
C      92.95838515      54.60445802      85.68039075
H      91.71494523      53.57455719      86.95973547
H      94.40591550      55.59845407      86.75942448
H      93.98828599      53.28731878      84.47852482
C      89.42648667      54.71028270      82.34124436
H      88.31910705      55.81010342      80.99764895
H      87.93360288      54.06777575      83.60547126
C      90.10678814      52.36324262      80.87670647
H      91.06298966      52.83567421      79.11548154
H      88.36635021      51.41460002      80.32112693
H      91.34644860      51.14625888      81.98597581
C      89.53987025      60.65914113      83.26909998
O      91.06487938      61.82132282      82.00298335
N      86.96606301      60.91614391      82.91950061
H      85.84923476      59.82199237      84.01365215
C      85.75474844      62.54130854      81.09213527
H      86.77520065      62.36178454      79.31390281
C      82.90882062      61.76841049      80.76143316
H      81.89970676      62.53752909      82.38470806
H      82.58000824      59.74073415      80.61403451
C      81.88269923      63.10444698      78.39549582
O      82.40426369      62.27863659      76.25443591
O      80.63170041      65.07354181      78.53155611
C      86.09867863      65.31353705      81.78188537
O      87.04354179      66.67413999      80.13404403
N      85.48640731      66.32265089      83.99475488
H      84.76831131      65.35889047      85.47819004
C      86.09300945      69.04574651      84.69206389
H      87.39125143      69.75061442      83.25587190
C      83.72518238      70.71815430      84.55978305
H      84.17682697      72.64756486      85.12103177
H      82.49308083      69.82998293      85.95251134
C      82.34379245      70.73516183      81.99353472
H      80.33690310      71.19436534      82.08424158
H      82.33434382      68.79819236      81.29433598
C      83.65526251      72.53229156      80.28144268
O      84.68138390      71.69892225      78.33691430
O      83.83856596      74.85287547      80.90316264
C      87.39314116      69.24416777      87.39059307
O      87.67660010      67.30341885      88.68883505
N      88.37768857      71.43814002      88.01987193
H      88.18304676      72.85165530      86.75375530
C      89.33389008      72.11088259      90.56722300
H      90.20505391      73.97226301      90.71651138
H      90.64536014      70.67280086      91.24752447
C      87.10968221      72.16568465      92.41915479
O      85.37113400      73.67746570      91.97128965
N      87.13802810      70.68413922      94.46194893
H      88.80476671      69.78462950      94.69627499
C      85.24452234      70.74461046      96.38569032
H      83.47762824      70.98649543      95.35389975
C      85.31444221      68.10655253      97.62157133
H      87.21739661      67.46782504      98.08077482
H      84.71728870      66.92547359      96.04364986
C      83.73463101      67.83254222      99.94215524
H      84.44705783      69.11188694     101.38968559
C      80.89059291      68.40512929      99.53208463
H      79.97596538      68.65835261     101.36322943
H      80.05911334      66.79697220      98.54753722
H      80.50130929      70.09454461      98.42470501
C      83.88013994      65.00929111     100.55820602
H      82.67827401      64.45938075     102.13990694
H      85.83600667      64.46127047     100.90213621
H      83.41526727      63.77341010      98.97839482
C      85.75096899      73.22393139      97.97872960
O      87.82588848      73.47715471      98.98217427
N      84.12769409      75.05507618      98.12234880
H      82.40426369      74.73949190      97.36456855
C      84.75697295      77.43991079      99.34878118
H      86.79409792      77.68746495      99.15980855
C      83.59101181      79.77372279      98.02975221
H      84.56611059      81.34219563      98.94249002
H      81.56711493      79.92301117      98.38313103
C      83.84234541      79.92301117      95.06855108
H      83.58912209      81.93179025      94.70194417
H      82.48174247      78.60020275      94.26352767
C      86.35379168      79.12743639      94.12179819
H      86.88858423      77.22448199      94.69627499
H      87.81643985      80.30284615      94.97406476
N      86.70717050      79.57719125      91.36657723
H      86.76764175      78.13721981      90.11746814
C      86.60701501      81.83163474      90.30077159
N      86.89047396      83.95946657      91.49507862
H      86.76575202      85.49014488      90.36502228
H      87.73329189      83.83663436      93.20339121
N      86.26686427      81.98848203      87.87814246
H      86.31788688      83.63632337      86.92005122
H      85.99474368      80.35386877      86.93327930
C      84.20706259      77.42857243     102.22494463
O      82.09812803      76.77283740     102.86745157
N      85.91348545      78.39611231     103.74806403
H      87.59345215      78.96114047     103.03941667
C      85.54876827      79.08397268     106.34832744
H      84.25241602      77.80651770     107.31208786
C      87.96383850      78.92145623     107.92057973
H      87.78809396      79.46191795     109.89912318
H      89.23562431      80.26505163     107.01351110
C      89.22806541      76.23615513     107.87144685
H      90.27119433      75.96592427     106.11778083
C      91.07432801      75.91490167     110.08431636
H      89.94427168      75.63522217     111.78507004
H      92.10989803      77.65722932     110.45281299
H      92.39146725      74.35020827     109.83865194
C      87.51030419      73.88722532     107.72971737
H      88.74618520      72.24505317     107.81097561
H      86.45583691      73.81919518     105.96093355
H      85.97017724      73.59431774     109.06386415
C      84.37902769      81.72392034     106.94926041
O      83.92171392      82.23981563     109.07709224
N      83.95761872      83.19790688     105.02173957
H      84.53209552      82.64421706     103.28697081
C      83.42660563      85.95501756     105.22205056
H      82.70473017      86.31973474     107.11555632
C      86.18938549      87.03972047     104.86300256
H      86.79976709      86.77704850     102.91469473
H      87.42148705      85.92667167     106.08376576
C      86.45583691      89.88942774     105.51117868
H      85.70939501      90.23713738     107.39901527
H      85.20483809      90.82862172     104.17136273
C      89.22428595      90.82484227     105.17480740
H      90.51307930      89.45668043     106.01762534
H      89.51719353      92.57283911     106.22549523
C      90.20694364      91.22735397     102.47627822
H      89.03153387      92.70134049     101.64668837
H      89.95938949      89.48313658     101.41236231
N      92.84122212      92.01725957     102.45360151
H      93.12279134      93.13219809     103.97672092
H      93.14735778      93.17377208     100.96638690
H      94.15836136      90.63586963     102.38557136
C      81.55010740      87.05105882     103.37389822
O      81.16460323      85.82084699     101.43314930
N      80.02320854      89.02960228     103.98994900
H      79.90604550      89.90832500     105.68125405
C      78.12403359      89.98958324     102.10967132
H      77.00342589      88.40221313     101.42370067
C      76.29855797      92.17977603     103.22838930
H      77.36247389      93.64242420     104.21293671
C      74.47686181      93.02637342     101.08166021
H      75.49353456      93.36463443      99.32232501
H      73.27877532      94.63453051     101.55220206
H      73.28444450      91.42577523     100.57521355
C      74.64504745      90.93444639     105.25417590
H      75.85636202      90.08595929     106.68658845
H      73.46207878      89.43022425     104.49450593
C      72.61548139      92.64464871     106.32376100
H      71.34558531      93.29849401     104.83843612
H      73.51499111      94.39075582     106.93603232
H      71.63471343      91.70356501     107.87144685
C      79.65471190      90.83996009      99.85333810
O      81.38948066      92.41221237     100.32010050
N      78.97252071      89.89509692      97.57054872
H      77.45318075      88.74236387      97.64802749
C      79.76431603      90.87019571      95.13658122
H      80.70539973      92.69756105      95.27264152
C      81.58601220      88.90488034      94.11234956
H      82.95039459      88.23591722      95.50129840
H      82.54410344      89.91399418      92.59300961
C      80.31233666      86.54083271      93.00685967
C      80.69028192      85.84163399      90.45950860
H      81.55199712      87.15121431      89.15370772
C      79.66605026      83.63632337      89.42582831
H      79.96273729      83.27160619      87.43783623
C      78.47930214      81.79950940      90.97729361
O      77.28499511      79.82096595      90.12880650
H      77.43239376      79.71136182      88.32411787
C      78.17505620      82.35130949      93.59834401
H      77.73474997      80.84708733      94.90603461
C      79.07834538      84.69457011      94.52053045
H      79.06889675      84.96858042      96.54253760
C      77.44184239      91.26514850      93.55677003
O      75.33668728      91.66766020      94.44683112
N      77.72152189      91.35396563      90.99808060
H      79.42038584      91.11586012      90.16282157
C      75.65416130      92.02670820      89.25386321
H      73.83435486      91.85663283      90.20628527
C      76.00187094      94.76492163      88.14270414
H      74.52410496      94.95956345      86.71974023
H      77.88025890      95.06349839      87.34901909
C      75.51054210      97.06471855      89.93416469
H      77.04688959      97.23479392      91.29665736
H      73.70585347      96.47323422      90.73351892
C      75.16283246      99.45522234      88.34301513
H      74.20474122      98.87696610      86.61580528
H      77.01665397     100.20166423      87.84601711
C      73.54900619     101.34872810      89.83211946
H      74.66583444     102.57138104      91.05666212
H      72.28099983     100.30181973      91.07555938
N      72.08068884     103.02680507      88.18427812
H      73.19562737     104.40630529      87.47563075
H      70.66339411     103.71655517      89.26142212
H      71.16795103     102.22934057      86.71218132
C      75.58046197      90.29004972      86.90493341
O      77.54388761      89.62864551      85.96384970
N      73.16161229      89.63431470      86.28132372
H      71.89549566      90.68122307      87.25453277
C      72.51910535      88.72724606      83.79822335
H      73.87403911      87.17767048      83.69806785
C      69.84325289      87.68222741      83.86436377
H      68.65083558      89.35274547      84.04010832
H      69.36704186      86.60508341      85.55377909
C      69.08925209      86.06840114      81.45874217
O      67.70219297      87.39498901      79.98853510
O      70.15127828      84.04261453      81.00331813
C      73.06901570      90.70389978      81.67039152
O      72.85547663      93.03582205      81.94251211
N      73.60569798      89.88186884      79.29122609
H      73.82301650      87.98836307      79.22697540
C      73.99876105      91.42766496      76.98009081
H      75.19873726      93.03015287      77.46197102
C      75.32912837      90.01037022      74.88060488
H      75.51621128      91.35018618      73.32536012
C      77.96718631      89.05794816      75.22453506
H      78.23741717      87.80128016      76.83458188
H      79.37125296      90.44122782      75.82168858
H      78.45284597      87.74458839      73.71464374
O      73.84002404      88.02048842      74.04723557
H      74.35969878      87.48191642      72.39561477
C      71.57991137      92.75803228      76.02010984
O      71.79345044      94.69878121      74.74643431
N      69.37082131      91.97946504      76.78922845
H      69.38404939      90.18800450      77.44496348
C      67.00110451      93.40242896      76.28278180
H      67.16173125      94.07517153      74.34392260
C      64.61438018      91.82450749      76.72686748
H      63.11582721      93.20211797      77.03111342
H      64.86193433      91.13286765      78.65060887
C      63.76967252      89.98013460      74.70863978
H      65.33814536      88.66677482      74.48187262
H      63.57881016      90.87586488      72.86426690
C      61.31302831      88.69890016      75.36626454
O      59.23243964      89.79305170      74.99020900
O      61.37727901      86.51059709      76.18451603
C      66.79890380      95.80994028      78.01566083
O      65.10381929      97.39731038      77.85692382
N      68.49209857      95.98946428      79.98286592
H      69.64672135      94.48713186      80.20963308
C      69.15350278      98.31004819      81.57779493
H      68.00643891      99.94277173      81.06567910
H      71.18306884      98.65964757      81.58535383
C      68.27478005      98.14186255      84.38970768
O      68.96264043      99.65742305      85.98274696
N      66.65339487      96.30315885      84.90371324
H      66.26600098      95.01058605      83.55255893
C      65.62160430      95.61718820      87.36602663
H      64.65406443      97.27447817      88.11624797
C      63.55802317      93.64053447      86.96918410
H      62.36371614      93.49880500      88.64159189
H      64.39706165      91.78293351      86.65359981
C      61.79112907      94.24146744      84.80355775
C      60.37194461      92.34607195      83.66972196
H      60.74233096      90.41288194      84.20829396
C      58.44631349      92.87897477      81.87826141
H      57.31625716      91.45979031      80.94473661
C      58.25545114      95.40931830      81.06567910
O      56.19753918      95.96678756      79.61814874
H      55.82337337      97.71478440      79.30256445
C      59.52156777      97.45400217      82.35636217
H      59.01890057      99.39853055      81.99920390
C      61.29980023      96.88330483      84.23475013
H      62.30891408      98.30626874      85.29677631
C      67.65683954      94.33784348      89.22362759
O      69.65428026      93.38731115      88.35057404
N      67.35637306      94.32272568      91.68027180
H      65.62727348      94.36429965      92.48907466
C      69.06657537      93.17188235      93.61157209
H      70.96575032      93.35329607      92.83489458
C      68.83224931      94.64397914      96.08333411
H      69.80734809      93.59140159      97.56298981
H      66.85937504      94.80460589      96.65214173
C      69.68829533      97.34439805      96.00774506
C      68.19352182      99.40231000      96.72206160
H      66.21497837      99.25113190      97.20394181
C      69.05712674     101.94966107      96.66159036
H      67.91573205     103.63907639      96.74095886
C      71.63849288     102.26713510      96.06443684
O      72.63059920     104.63685189      95.87924367
H      71.52888876     106.07682334      95.94727381
C      73.35436438     100.26024575      95.61846143
H      75.20818589     100.66086772      94.86824009
C      72.27344093      97.77336592      95.70727857
H      73.43940206      96.10851704      95.50696758
C      68.71886573      90.27493191      94.22006396
O      66.58725445      89.44723178      94.13313655
N      70.77866741      88.89165225      94.49974346
H      72.42272930      89.82517705      94.24274068
C      70.96197086      86.08351895      94.67926746
H      69.14972333      85.32006952      95.29531824
C      71.57424219      84.74559272      92.13947529
H      72.16572653      82.78594653      92.37191163
C      69.23476101      84.85897630      90.57289218
H      69.42373365      83.90655424      88.75875492
H      68.53556228      86.78271768      90.33478666
H      67.83069436      83.78750148      91.63302864
O      73.55467537      85.93801002      90.76942372
H      75.20251671      85.18022978      90.85068195
C      72.77421840      85.08007428      96.74662804
O      74.40883166      86.29327858      97.84455903
N      72.24887448      82.73114447      97.65369667
H      70.86181537      81.77872241      96.75796640
C      73.55467537      81.17967916      99.45460585
H      75.53699827      81.72581007      99.56987916
C      72.85925608      81.79950940     102.25140079
H      72.64760674      83.79695012     102.70682483
C      70.33269200      80.35197904     102.82398787
H      68.86626438      81.11542848     101.59566576
H      69.78845082      80.52583386     104.80442104
H      70.37615571      78.36209723     102.28352614
C      74.83968926      80.88677159     104.19970862
H      75.13826602      78.84775689     104.21671616
H      74.28410972      81.51416072     106.08187603
C      77.52499035      82.04139437     103.85199898
H      77.30578210      84.08796796     103.96727229
H      78.11269523      81.60675731     101.92825759
H      78.68150285      81.41400523     105.43558963
C      73.76821444      78.37721504      98.65147217
O      72.63248893      77.61754507      96.80709929
N      75.33668728      76.89944907      99.87979427
H      76.16816686      77.58164026     101.45582602
C      76.21163056      74.26517058      99.16547772
H      74.54111250      73.07842246      99.36956817
H      77.65538147      73.47715471     100.41080736
C      76.95240328      74.24627332      96.42726430
O      79.06322757      74.96814877      95.94160463
N      75.44629141      73.38266840      94.63958320
H      73.72475073      72.78740461      95.21028055
C      75.96218669      73.39778621      91.86924443
H      77.25098003      74.88122137      91.24563475
C      77.06956631      70.77862554      90.85824085
H      75.83368530      69.23660888      91.43460738
C      77.34357662      70.85799404      87.88948081
H      77.92183288      69.01551089      87.16949509
H      78.61158298      72.34331892      87.23374578
H      75.51999073      71.34743316      87.06367042
C      79.67360917      70.16824395      91.99963555
H      79.54888723      70.26461998      94.05187832
H      81.01720458      71.61766402      91.41759984
C      80.80366550      67.69081274      91.27776009
H      81.98474445      66.93492222      92.78576169
H      81.96395746      67.75695316      89.57889614
H      79.25031047      66.36044542      91.02264704
C      73.38837945      73.92501986      90.65226068
O      71.69518467      72.37922372      90.42738325
N      72.95941158      76.34953871      90.01353319
H      74.43339810      77.49282313      90.42549353
C      70.82024139      77.32463749      88.70584258
H      70.31568447      76.04529277      87.17327454
H      71.36826202      79.09909049      87.81578149
C      68.40328144      77.56274301      90.24407980
O      66.45308388      78.41689929      89.27087075
N      68.53178283      76.93913333      92.64025277
H      70.16639609      76.79362439      93.61535154
C      66.40017155      77.37377037      94.36935234
H      64.82036035      76.37032570      93.50952687
C      66.81024216      76.09631538      97.04709453
H      68.02155672      77.19424637      98.29998307
H      67.62660392      74.24816305      96.65214173
C      64.21564793      75.59364818      98.25840909
N      63.28023340      73.23904921      98.99729208
H      64.28178835      71.65734827      98.62690573
C      61.32247694      73.57542048     100.50718341
H      60.48343846      72.24694288     101.81109456
N      60.81225084      76.04529277     100.55253684
H      59.41763282      76.94291277     101.49928972
C      62.63205728      77.39266763      99.30720720
H      63.02134090      79.39388780      99.21839006
C      65.61782485      80.22725710      94.64336266
O      67.07669357      81.55762443      95.90947929
N      63.50322111      81.06440586      93.61913100
H      62.51489425      79.68301592      92.74985689
C      62.56402713      83.70813297      93.30732615
H      64.30446506      84.70401874      92.83111512
C      60.58548368      83.87064943      91.11146418
H      58.93575261      82.71980611      91.54799096
H      61.52278793      83.03728013      89.47685092
C      59.34393349      86.37831626      90.44439079
H      58.36694499      87.10208143      92.10734995
C      61.32247694      88.24914530      89.51275572
H      60.35871652      90.04060585      89.18772279
H      62.45631273      87.53860821      87.94806233
H      62.59237302      88.70267963      91.06800047
C      57.51845787      86.14210046      88.26742608
H      56.07092752      84.90055028      89.04410359
H      58.28568676      85.46368872      86.48163471
H      56.68319884      87.93734046      87.70050818
C      61.67585576      84.64543722      95.87357449
O      59.85415960      83.70435353      96.95827739
N      62.87394225      86.54839162      96.90725478
H      64.37627466      87.42522463      96.12112863
C      61.98577088      87.92600210      99.31476610
H      61.19208583      86.70145945     100.76607591
C      64.31202397      89.02771254     100.58088273
H      63.68652456      90.44689700     101.93770623
H      65.37216043      90.04627502      99.13902156
C      66.29434687      87.08696362     101.66369591
H      66.65150514      85.73202985     100.15191486
C      68.87760274      88.17355625     102.15880420
H      69.44830009      89.45857014     100.65269233
H      70.27600021      86.66366492     102.22872408
H      68.57902598      89.16188311     103.94081612
C      65.50255155      85.48447572     103.88979351
H      66.92929491      84.24292552     104.70615527
H      63.90195336      84.24481524     103.52129688
H      64.97909736      86.78649713     105.39590538
C      59.82959315      89.81005924      98.79698109
O      57.77924011      89.53037974      99.88168400
N      60.33037063      91.73946980      97.20583154
H      62.08403665      91.81127940      96.46127937
C      58.71843408      93.70100571      96.24774030
H      56.70020638      93.31361182      96.36679305
C      58.95087042      96.00836154      98.10534126