 %block lattice_cart
   137.793   0.000   0.000
   0.000 143.498   0.000
   0.000   0.000   162.326
 %endblock lattice_cart

 %block positions_abs
N      85.14720143      37.23881807      81.12331575
H      83.42566077      37.39566535      80.31829235
H      85.13775280      35.54751303      82.01148711
H      86.44166395      37.21614135      79.72113882
C      86.01836526      39.32696564      82.80895162
H      87.31849697      38.34430796      84.07128879
C      87.25802573      41.43023103      81.35575209
H      85.56672067      42.28438732      80.54694922
H      88.59028277      40.76504737      79.93656763
C      88.59973140      43.36153132      82.99603452
H      90.23812412      42.41666817      83.80861684
H      87.42054219      43.58829848      84.67033204
S      89.61451443      46.31328382      81.35197264
C      91.40408526      47.68522513      83.94845659
H      92.60784091      46.15265709      84.61930943
H      90.30237482      48.47324100      85.50181162
H      92.67965051      49.18566782      83.34752363
C      83.75447314      40.15466577      84.55505873
O      81.71167899      40.37576375      83.58184969
N      84.14753622      40.65166379      86.98713649
H      85.94466594      40.82173916      87.60696673
C      82.07450644      41.73447697      88.64442647
H      80.54382814      40.40033019      88.30427574
C      82.85685315      41.49826118      91.48279540
H      84.38564172      42.86264359      91.68877556
H      83.45211693      39.58396842      91.95522697
C      80.63831444      42.24281335      93.09095250
O      78.45379084      41.89321398      92.44844554
N      81.10507685      43.28216283      95.19988706
H      79.79549651      43.73569713      96.51135712
H      82.93244219      43.44845873      95.72523097
C      81.42255087      44.47269040      87.89420512
O      83.06850249      46.17155435      87.73924758
N      78.97346556      44.93756307      87.66365852
H      77.71301812      43.60908548      88.20034079
C      77.89821130      47.36208193      87.07217418
H      78.69378607      47.75892445      85.21079377
C      74.94645880      47.13909422      87.05516664
H      74.32095939      45.83707279      85.58684930
C      73.90710932      46.19423107      89.65354032
H      71.88132272      45.89376458      89.43433207
H      74.06584634      47.72301965      91.02170218
H      74.74614780      44.41032943      90.25447329
C      73.61042230      49.72990900      86.08573705
H      73.89388124      51.30027156      87.38775847
H      71.63187885      49.16866028      86.15565692
C      74.21135526      50.70689751      83.46846611
H      73.88821205      49.22346235      82.07573781
H      76.23147268      51.00547426      83.20957359
H      73.12476263      52.41143064      83.06973386
C      78.79961074      49.55416445      88.87497308
O      79.53660401      51.54593598      87.96034556
N      78.95645803      49.26881578      91.48657485
H      78.64654291      47.53593675      92.22545783
C      79.84084995      51.16799072      93.28370458
H      78.57473332      52.78559645      93.11362920
C      79.38542591      50.13808988      96.03325635
H      80.03738148      51.47223666      97.45811000
H      80.36997332      48.36741633      96.39419409
C      76.57729260      49.53715691      96.33939202
C      75.07307045      51.35885308      97.48834562
H      75.90455003      53.13708554      98.03825597
C      72.46902760      50.79004546      97.90219569
H      71.45046512      52.32072377      98.78847733
C      71.32196373      48.52048416      97.28803464
H      69.36420727      48.15009780      97.72645113
C      72.94145918      46.60619140      96.22978789
H      72.21580428      44.87331237      95.43232339
C      75.56061984      47.05783599      95.68932617
H      76.77571387      45.62731317      94.88997194
C      82.57150447      51.81805657      92.99268672
O      83.23290868      54.07061034      93.40275733
N      84.16265402      49.97557343      92.22356812
H      83.64108957      48.32206289      91.42043442
C      86.88008046      50.38375430      91.60562760
H      87.84384088      51.48168529      93.05882715
C      88.20099916      47.79482925      91.15398301
H      89.71466994      47.82506487      89.75558555
H      86.81960922      46.54949961      90.26959110
C      89.19877465      46.59107359      93.55015599
H      90.98456602      47.50759085      94.00180058
H      89.83372268      44.68811919      93.08150385
C      87.53014631      46.05250159      95.74412824
O      86.34906736      44.05884033      95.93877004
O      87.55093331      47.66254841      97.39007986
C      87.16731886      52.06561072      89.24346972
O      88.38619234      53.98368293      89.48913414
N      86.08828514      51.38719897      86.99469540
H      85.05271512      49.78282133      86.99469540
C      85.96167347      52.77425810      84.58529436
H      87.85328952      52.99724579      83.80294767
C      84.12296978      51.44955994      82.73903175
H      82.32017086      51.53648735      83.73113807
H      84.67665958      49.49558293      82.40266046
C      83.80360602      52.71378685      80.27104919
H      85.56672067      52.37741556      79.25815587
H      83.63542039      54.76413991      80.25782109
S      81.35830018      51.33617637      78.39644068
C      80.19800822      53.99691101      76.70513564
H      78.17033188      53.68132672      76.53694999
H      81.25814468      54.05927198      74.94013126
H      80.68177816      55.69199552      77.77094127
C      85.01870005      55.44444137      85.00292387
O      86.25647077      57.28692452      84.43789570
N      82.90976548      55.94710857      86.43533641
H      81.85151874      54.48257067      87.05516664
C      81.73246599      58.31304591      86.48257957
H      82.03482220      59.01980355      84.57206627
C      78.79961074      58.11462466      87.12319679
H      78.02293324      59.96088726      87.60696673
H      78.57662304      56.72189636      88.62174977
C      77.14987967      56.84661829      85.19756569
H      77.49947905      54.87941320      84.70245739
C      74.42678406      57.24913000      86.00069937
H      73.99403674      59.20310700      86.48068985
H      74.36064364      56.24379560      87.79782908
H      73.13610099      56.48568057      84.58529436
C      77.34452149      58.33950208      82.77493655
H      78.96212721      57.74234857      81.64676994
H      77.61286262      60.34072225      83.17933798
H      75.85730688      58.05037395      81.38031853
C      82.95700863      59.96844616      88.44033604
O      82.47701815      62.18320540      88.58395523
N      84.73524109      59.01224465      89.99747052
H      84.89775755      57.11117998      90.01825751
C      86.45111259      60.37473732      91.64909131
H      85.67065562      62.12840334      92.39553320
C      87.08984008      58.53603362      93.87896836
H      88.33894918      57.01858340      93.26669703
H      85.36451995      57.53069922      94.38919447
C      88.40697933      59.71522284      96.12207349
H      87.32227642      61.32904911      96.80048525
H      90.26269057      60.42764966      95.57972205
C      88.45611221      58.15430891      98.50501837
H      86.54559890      57.42865400      98.77524923
H      88.99279448      59.34483648     100.09805765
N      90.26269057      56.11151476      98.36895809
H      92.02580521      56.53670319      97.77558403
C      89.70900076      53.74746714      98.05904297
N      87.50935932      52.76103000      98.48612112
H      87.37896821      50.86374479      98.64485812
H      86.22434544      53.88730689      99.33649795
N      91.31715784      51.88986617      97.53558878
H      90.51969333      50.15509742      97.50346343
H      93.20310471      52.15820731      97.66786963
C      88.83027802      61.41597652      90.37541577
O      90.01513642      63.23200350      91.29949194
N      89.29704041      60.52024624      88.09640584
H      88.36540534      58.97256039      87.47657562
C      91.35117292      61.20243744      86.31250421
H      92.29603608      62.83138153      87.14965297
C      93.41853350      59.10484124      86.05361171
H      94.85094605      59.84372422      84.77048754
C      94.52591313      58.39997332      88.73513334
H      94.55425902      59.98167425      90.05416231
H      96.27957915      57.38519029      88.35718808
H      93.16531018      57.11306970      89.59306908
C      92.43209637      56.69544019      84.79127453
H      91.40219552      57.33416768      83.12642565
H      91.15653110      55.63341400      86.01203772
C      94.55425902      54.84728785      83.74436614
H      96.21343873      54.76036044      84.96323961
H      95.32337763      55.60506811      81.98881041
H      93.84750138      52.94811291      83.37397978
C      90.41197894      62.37595749      83.72735861
O      91.87651683      62.97122127      81.98503095
N      87.95344500      63.00334662      83.48736336
H      86.60795988      62.34194241      84.66655259
C      86.98590513      64.30347833      81.16111027
H      87.69833196      63.59672068      79.36209082
C      84.12485950      63.99167348      80.99103490
H      83.16298880      65.00834624      82.50281595
H      83.61841284      62.02068894      81.31417810
C      83.36896898      64.83827088      78.29817492
O      82.84551479      67.11917053      77.86920703
O      83.35007171      63.08271514      76.65978219
C      87.92887856      67.12294998      80.94946093
O      88.83783693      68.06592342      79.00115310
N      87.89864295      68.32859537      83.19445579
H      87.81927444      67.09460409      84.64954506
C      89.63152197      70.59626696      83.50815035
H      91.27936332      70.24477785      82.32140223
C      88.10840257      73.08125706      82.73147284
H      86.90653663      73.61415987      84.31506350
H      86.88952910      72.49355217      81.17811782
C      89.67876513      75.30924437      81.72613845
H      90.88630025      74.59492782      80.21813685
H      90.84472626      75.80435267      83.34941334
C      88.04226214      77.52778306      81.01749108
O      88.02147515      79.56490804      82.19101112
O      86.86874210      77.32558235      78.91800514
C      90.58772348      70.76445259      86.32006312
O      90.67654063      68.85015983      87.54460577
N      91.19243590      72.99243992      87.22902146
H      91.28692223      74.54768467      86.12542131
C      91.91809081      73.50833520      89.88219721
H      93.06137524      75.19775053      90.15620752
H      93.14074374      71.98521579      90.53604251
C      89.42932125      73.68030029      91.47712621
O      87.46589561      74.54201549      90.54171170
N      89.60884526      72.81858510      93.83361493
H      91.34550373      72.32158707      94.44777598
C      87.53770522      72.43686038      95.61751657
H      85.73679605      72.58992821      94.62729999
C      87.97612173      69.77612573      96.64741742
H      89.80537680      69.75911819      97.59228057
H      88.22556560      68.54213444      95.01658360
C      85.61963302      68.57803924      98.07227105
H      84.23068417      68.61205433      96.55104137
C      86.30371393      65.79825184      99.13429723
H      87.51880795      65.03669213      97.65464153
H      84.51225340      64.81559415      99.38752056
H      87.36762985      65.73778060     100.89741188
C      84.47256914      69.90651684     100.35506043
H      85.88041524      70.22588060     101.82148806
H      82.81716889      68.82181395     100.92575779
H      83.76203205      71.73577191      99.72767131
C      87.80793608      74.33981478      97.77180456
O      89.58427882      74.19808531      99.19665821
N      86.23568378      76.32591713      97.97778474
H      84.71823356      76.05379654      96.85150785
C      86.52670165      78.65783941      99.47255824
H      88.54492935      78.81846613      99.84861378
C      85.61585356      80.91795207      97.94565938
H      85.29271035      82.63193383      99.03981093
H      83.75447314      80.57969106      97.13118735
C      87.34117369      81.94785291      95.85373236
H      89.28570206      82.32012900      96.42442970
H      86.62118796      83.75632100      95.18476924
C      87.37518876      80.16395127      93.51236145
H      85.57805903      79.21341893      93.19110799
H      88.86240337      78.75610517      93.73156972
N      87.71344977      81.46219325      91.15776247
H      88.50713482      83.19696200      91.18421864
C      86.78559415      80.71197190      88.85418609
N      85.45900628      78.74665653      88.29104765
H      84.86185276      78.54634555      86.48824876
H      85.68955289      77.10448437      89.23591082
N      87.01992021      82.13304609      86.93044471
H      87.05960447      81.28266926      85.22213213
H      87.90431212      83.77710798      87.33673587
C      85.16987815      78.39138800     101.97833535
O      82.96078808      77.62415910     101.89518738
N      86.35851600      79.00743876     104.10049799
H      88.10084366      79.76521902     103.93231234
C      85.21334186      79.34758951     106.58359837
H      83.50313954      78.21186399     106.73855592
C      87.00102295      78.29123250     108.57725963
H      87.10873735      76.28056370     108.13695340
H      85.95033512      78.76744353     110.28179275
C      89.77892063      79.15672714     108.73032746
H      90.60851048      79.15861688     106.84438059
C      89.93576791      81.76643918     109.93597285
H      88.75657868      81.93462482     111.61593953
H      89.41798289      83.21396954     108.56214181
H      91.93887781      82.13493582     110.23454960
C      91.18298728      77.59392349     110.70887090
H      90.28914672      77.77155777     112.55702325
H      93.18231772      78.08147288     110.68997365
H      90.87307216      75.61538003     110.22699070
C      84.51981230      82.06879539     107.14106763
O      83.52770599      82.62815438     109.24244329
N      85.05649457      83.94151418     105.46299067
H      86.21300708      83.47664151     104.01546031
C      84.35540611      86.57201320     105.64062494
H      83.13275319      86.74397830     107.28846627
C      86.64008521      88.23119291     105.93542224
H      87.79281828      88.09513261     104.23466855
H      88.05926969      87.53766334     107.25634093
C      86.31127284      91.12247416     106.17919693
H      85.12263498      91.72529686     107.74955951
H      85.24168775      91.95395375     104.62773164
C      88.93610269      92.32811956     106.11683597
H      90.23812412      91.45506599     104.77890973
H      89.79403844      92.07867567     107.97254720
C      88.58461360      95.10223777     105.29858447
H      87.01614076      95.76742143     106.45509698
H      87.82872307      95.35546110     103.39751981
N      91.01480163      96.37213386     105.56314615
H      92.20532922      95.46128577     104.38017748
H      91.85195040      96.26252973     107.27523819
H      91.07716261      98.22028619     105.09449403
C      82.77748464      87.61892158     103.40507870
O      83.32739499      86.98208382     101.16386329
N      80.89153778      89.24975538     103.92097399
H      80.76870557      89.56722941     105.79747221
C      78.94889912      90.08501441     102.18242578
H      78.30639218      88.35024566     101.27724688
C      76.78138305      91.49852970     103.55625682
H      77.68278249      92.83078674     104.84316043
C      74.96535606      92.80622031     101.70243529
H      73.53105379      94.00241707     102.56792996
H      74.03372099      91.29254954     100.65741665
H      75.85352743      93.98351980     100.26246384
C      75.62865000      89.66927462     105.45921121
H      77.03838583      89.07401083     106.83871142
H      74.88031838      88.08379425     104.37828776
C      73.49892844      90.73697000     107.12406010
H      72.24226044      89.34802115     107.98010611
H      72.22147345      91.84057017     105.94298115
H      74.25292924      92.04277088     108.52434729
C      80.36052469      91.64970780     100.17175699
O      82.27481744      92.94794978     100.63662966
N      79.41755126      91.36246940      97.77747375
H      77.83774006      90.34201720      97.44677164
C      80.43989319      92.76464633      95.63452410
H      81.12586383      94.57311441      96.34317147
C      82.77370519      91.30766734      94.71611712
H      84.03226291      90.90137619      96.29781804
H      83.78848822      92.55677643      93.43299296
C      82.27292771      88.93039164      93.21567443
C      82.24080237      88.93228136      90.60218294
H      82.64709351      90.75775698      89.78204171
C      81.72301735      86.73830911      89.17166012
H      82.07828589      86.83846461      87.16477077
C      81.03893643      84.55945467      90.52092470
O      80.46445963      82.35225435      89.14142449
H      80.78571311      82.73019960      87.39720711
C      81.28838031      84.46496837      92.99835591
H      80.71390350      82.73586879      93.92054235
C      81.70978927      86.59846936      94.44777598
H      81.45089677      86.51910086      96.46978314
C      78.44812165      93.29943887      93.61818614
O      76.92878169      91.71773795      92.89820041
N      78.84118473      95.44994741      92.31994416
H      80.34351714      96.50252498      92.84528807
C      77.09696734      96.54598868      90.46612264
H      75.21668966      96.33055988      91.28248440
C      77.35585984      99.35034253      90.50958635
H      79.06039298      99.68860353      89.40409646
H      77.79994552     100.02497482      92.40498184
C      75.02015812     100.80354206      89.21890328
H      73.45735446     100.61078998      90.54738087
H      74.57040326      99.93804741      87.40665574
C      75.80250481     103.50774042      88.72379499
H      76.19178844     104.52441318      90.46990210
H      74.26237786     104.65291457      87.97924281
C      77.88687294     103.71183085      86.69800838
H      77.01948856     103.21294312      84.89709920
H      79.25881424     102.36445599      87.44067082
N      79.01126010     106.27807920      86.70556727
H      80.56083567     106.16280588      85.59629793
H      79.54416292     106.92247586      88.42143877
H      77.61286262     107.42136361      86.09140622
C      77.55617084      95.34601248      87.84696197
O      79.55550128      94.52020207      87.13453516
N      75.49447943      95.43860907      86.38431381
H      73.89766070      96.03009339      87.24413928
C      75.53038423      94.51264316      83.73869697
H      77.17633585      93.34479230      83.32106745
C      73.20413114      92.80244085      83.28894210
H      71.42778839      93.83045197      83.47980447
H      73.29483799      91.33790296      84.73269300
C      73.49514899      91.45317626      80.81906982
O      75.16755678      89.81478355      80.67167116
O      71.97391931      92.00497635      78.98792502
C      75.58707602      96.76897639      81.78094050
O      74.76882453      98.84956505      82.26660016
N      76.57540288      96.29654480      79.44901824
H      77.18578447      94.51642262      79.13154421
C      76.36564326      98.08044645      77.33630421
H      77.66199550      99.65080901      77.64999879
C      77.09129816      96.84645517      74.74171000
H      75.56817875      95.53309537      74.29384486
C      77.45034616      98.71728422      72.51183295
H      79.17188684      99.77364123      72.91056520
H      75.74770276      99.84545083      72.24160208
H      77.62987015      97.74785461      70.70336486
O      79.51581702      95.61813306      75.03272785
H      79.16999710      93.83990060      74.95524907
C      73.71057778      99.26719457      77.01316102
O      73.55750996     101.54620450      76.66167193
N      71.75660078      97.85367928      77.45346725
H      72.07407480      95.97151188      77.54417412
C      69.21113944      98.89302876      77.41378299
H      69.14688874     100.29331595      75.90389168
C      67.25716243      96.80488118      76.79962194
H      65.35231831      97.52108745      77.10008842
H      67.42723779      95.16648847      78.03739268
C      67.63699741      95.74285499      74.13132839
H      69.56829771      95.07578161      73.87054617
H      67.53117275      97.17526754      72.65356242
C      65.82097043      93.52809576      73.53795432
O      63.57975503      94.03265268      72.86899121
O      66.64489110      91.43805846      73.91212014
C      68.50060235     100.51630367      79.70602102
O      66.31607873     101.32699625      79.86853748
N      70.14277451     101.00763251      81.49937128
H      72.00604466     100.61834888      81.37275962
C      69.72514499     102.55342863      83.72168944
H      68.86154007     104.37701452      83.31350854
H      71.56006924     102.76318825      84.63253751
C      68.07163447     101.07944210      85.72857877
O      66.83008428     102.30398475      87.27437489
N      67.99604541      98.62468763      85.59440821
H      69.13932984      97.78753886      84.31506350
C      66.87354799      96.90503668      87.47279617
H      65.52806286      97.89525327      88.67844154
C      65.50727586      94.59957058      86.18778227
H      64.47170585      93.43360945      87.53137767
H      66.95669595      93.29754915      85.52070889
C      63.68557970      95.53120566      84.04294290
C      63.23771456      94.21028695      81.74692544
H      64.24493868      92.47173875      81.38598770
C      61.28562728      94.83767610      79.94034708
H      60.90579229      93.65281770      78.32274136
C      59.91935516      97.11101684      80.56395677
O      58.15813023      97.76486216      78.92178459
H      57.97482678      99.45994666      79.54161483
C      60.44847853      98.59823145      82.77304682
H      59.52629209     100.41425845      82.91099684
C      62.21915208      97.69494227      84.49269777
H      62.29474113      98.88735958      86.14620830
C      68.83697363      95.88836392      89.28693343
O      71.15188836      96.38536194      89.00536421
N      68.17745915      94.32744998      91.17665973
H      66.34253490      93.98163007      91.56594336
C      70.12009780      93.09156899      92.83394971
H      72.00037547      93.68305331      92.23679620
C      69.81396213      93.88147457      95.47956655
H      71.09519657      92.81377922      96.68521193
H      67.83352896      93.51108823      95.89908579
C      70.26938617      96.68204897      95.85751182
C      68.29462218      98.35256703      96.00302074
H      66.45591848      97.51352855      95.70444399
C      68.78595101     100.89046948      96.45655505
H      67.21747817     102.13201967      96.86095649
C      71.26338222     101.92981894      96.56615919
O      71.83218984     104.37323506      96.87796403
H      70.34119577     105.40691537      96.85528730
C      73.30428663     100.21583718      96.18254473
H      75.30739653     100.59945163      96.24490571
C      72.74681736      97.67793474      95.79893029
H      74.26048815      96.41181811      95.28114529
C      70.13521561      90.25131033      92.72623531
O      68.19824614      89.06078275      92.28592908
N      72.27627552      89.15148962      93.52936899
H      73.83907917      90.23241307      93.70511354
C      72.96791534      86.52477004      93.34039637
H      71.26905139      85.36447809      93.36685253
C      74.61764641      85.96919051      90.97634874
H      76.61697685      86.26020836      91.38075018
C      74.28316485      83.39916272      89.66676842
H      72.35375430      82.93806950      89.11118888
H      74.94645880      81.85714605      90.85918571
H      75.47747188      83.65427578      88.00947844
O      74.22836280      87.83057092      89.13008613
H      75.73069521      88.84157451      89.27937452
C      74.53638818      85.63659867      95.64397274
O      75.55117122      87.14837972      97.10473118
N      74.60063888      83.11570377      95.96900566
H      73.48947981      81.99887552      94.89375140
C      75.92722675      81.84580769      98.06282241
H      77.72435648      82.83980374      98.22911834
C      74.65544095      82.00076524     100.69143173
H      74.55906491      83.98119843     101.25079070
C      71.95502204      81.04078429     100.44009812
H      71.25393357      80.61181640     102.32793470
H      71.81707202      79.37593541      99.23634247
H      70.75693556      82.41650504      99.48011715
C      76.05383842      80.59102942     102.95154439
H      76.48280629      78.70508255     102.24289702
H      74.83118548      80.28111430     104.58237819
C      78.43678329      82.04422895     103.57515408
H      79.43644851      81.23920555     105.18520090
H      77.99080789      84.00576487     104.02679867
H      79.80305542      81.95352210     102.03502712
C      76.54705699      79.21719839      97.15197434
O      75.08629855      78.07580369      95.76302549
N      78.65788127      78.13438522      97.88896759
H      79.92588763      79.09247645      98.94343488
C      78.93567104      75.38294371      97.42787437
H      77.18767421      74.30957915      97.61684701
H      80.22635411      74.58736892      98.82249240
C      80.04116093      75.02200597      94.79170618
O      82.16521331      75.94230269      94.28525952
N      78.65788127      73.61604959      93.01158398
H      76.89287690      73.05669062      93.46889776
C      79.14543066      73.65195439      90.31494453
H      80.66288090      74.96531419      89.85385131
C      80.16021370      71.03090400      89.24157999
H      78.70890389      69.64573462      89.70267322
C      80.35863496      71.31247322      86.44478505
H      78.42733466      71.52412258      85.75692466
H      80.90476585      69.58337364      85.46401710
H      81.49058102      72.89228442      85.76637331
C      82.65465242      70.25422649      90.37541577
H      82.81149971      70.77957040      92.36151814
H      84.07005743      71.37672391      89.38330946
C      83.45589639      67.62183773      89.89920474
H      83.22346004      67.16074452      87.90554349
H      82.35418595      66.40674372      91.14831384
H      85.41743229      67.23255411      90.38675413
C      76.65288166      74.46831617      89.00725392
O      74.99181222      72.95086593      88.47624083
N      76.30139257      76.85693022      88.32695245
H      77.83018115      77.96430985      88.60096277
C      74.42489434      77.61093102      86.43344669
H      74.38143063      76.24654863      84.89331974
H      75.04850401      79.48364980      85.83818290
C      71.71313707      77.52211389      87.54649549
O      69.92356625      77.45786319      86.08006786
N      71.43345758      77.36148715      90.07494930
H      73.00382014      77.01755697      91.10107068
C      68.82941472      77.47865018      91.09729124
H      67.62943852      76.47142605      89.75936501
C      68.78406129      75.96497941      93.68621627
H      70.08419299      76.90795284      94.97689936
H      69.16200656      73.96375925      93.37063198
C      66.19513624      75.79490404      94.87296441
N      64.67579629      73.78612496      94.79926507
H      65.00460867      72.14584253      93.88085808
C      62.60843570      74.33225587      96.30348722
H      60.91146147      73.20786871      96.44521669
N      62.82575423      76.75677473      97.16520242
H      61.53318143      77.62037965      98.27069231
C      65.12744088      77.57691596      96.45088588
H      65.94569237      79.37593541      96.96111197
C      67.86376458      80.07702387      91.55460500
O      68.93901885      81.61715080      92.97001001
N      65.67168206      80.63449313      90.39053358
H      65.31830322      79.35136895      89.02237174
C      64.69469355      83.14593939      90.44533566
H      66.06852457      84.67283825      90.29226783
C      62.68213503      83.42750861      88.32884218
H      61.42735676      81.79478509      88.36285725
H      63.63644682      83.43317780      86.50336656
C      60.96626354      85.81423294      88.57072715
H      59.82486884      85.85202747      90.28470892
C      62.47237541      88.16883193      88.62741894
H      63.87833178      88.03088192      87.12886597
H      63.57030640      88.41827581      90.35273907
H      61.21759714      89.77131984      88.30994491
C      59.08220640      85.70273909      86.30683502
H      57.52318219      87.04255506      86.42588778
H      58.04663638      83.93395527      86.12164184
H      60.17824766      86.16761177      84.62308888
C      63.61565983      83.45963396      93.11551894
O      61.77128695      82.30123173      93.91109371
N      64.72681890      85.19062326      94.46289379
H      66.23293077      86.17706040      93.82416629
C      64.13911402      85.74053362      97.11229008
H      63.53062214      83.92261691      97.86440115
C      66.52583835      86.73452966      98.48234167
H      67.15322747      88.58457172      97.82849635
H      67.82597005      85.18873354      98.07794023
C      66.25560749      86.95751737     101.41330717
H      65.01027785      88.58646146     101.61172844
C      65.13311006      84.70496360     102.63407037
H      66.20080542      83.00420992     102.16919770
H      63.20936867      84.52732933     101.91975382
H      64.93846824      84.98086364     104.66363644
C      68.76138457      87.38270578     102.81359438
H      68.43257220      87.51876609     104.84316043
H      69.46625249      89.20062250     102.15030043
H      70.09175190      85.87281447     102.38084704
C      61.96214930      87.71529763      97.14063598
O      59.99683394      87.01609888      98.13463201
N      62.23804934      89.97730001      96.03325635
H      64.05785578      90.44784186      95.69121589
C      60.13667368      91.78387838      95.56271451
H      58.30930834      90.84846384      95.37563160
C      59.91746543      93.69817112      97.76802512