 %block lattice_cart
   137.793   0.000   0.000
   0.000 143.498   0.000
   0.000   0.000   162.326
 %endblock lattice_cart

 %block positions_abs
N      86.37835813      40.71024532      78.11770605
H      84.97996065      41.41511322      77.02355452
H      85.96639778      38.93768204      78.68840339
H      87.87124191      40.58174392      76.93473737
C      86.94338629      42.52438257      80.11703648
H      88.46272624      41.73447697      81.26032091
C      87.78998368      45.13787406      79.03044386
H      86.18560604      46.20556944      78.29911978
H      88.64225024      44.69000893      77.20874769
C      89.68915863      46.75359006      80.46852559
H      91.40880956      45.66321798      80.77466125
H      88.74429546      47.58695936      82.09935939
S      90.59622726      49.34062538      78.35581157
C      92.92814952      51.02248180      80.18506663
H      93.31554341      52.79882454      79.21563704
H      94.73283815      50.03604466      80.26632487
H      92.28564257      51.52703872      82.07668268
C      84.71161951      43.31806762      81.72330386
O      82.58756714      43.27649365      80.86536811
N      85.09712368      43.87742661      84.13081518
H      86.71661914      43.44656902      85.04544272
C      82.99007884      44.53505137      85.79755378
H      81.42160601      43.27460392      85.36102701
C      83.87636049      43.90199305      88.55277474
H      85.19727918      45.31172889      89.26709130
H      84.71917842      42.04439208      88.83434397
C      81.68427797      44.00214854      90.43683189
O      79.62258655      44.45379313      89.69983863
N      82.10001775      43.72246905      92.87268909
H      80.57311890      43.91333142      94.00274544
H      83.83100706      43.33507516      93.57377757
C      82.06789240      47.19200656      85.21362835
O      83.75163855      48.91165752      85.13614957
N      79.61313793      47.59073882      84.88103653
H      78.39993363      46.16021600      84.53521661
C      78.68906175      50.02281659      84.18561723
H      79.85124344      50.48768925      82.55100398
C      75.90360517      49.65998913      83.35980685
H      75.98486340      48.35796771      81.76487783
C      74.16505697      48.46568210      85.40827017
H      74.04222476      49.72235009      87.03532452
H      74.94551393      46.67611128      86.06778465
H      72.24131558      48.22946631      84.70907142
C      74.70929815      52.07127990      82.42439232
H      74.48820016      53.34873489      84.02499051
H      72.83091018      51.46845722      81.83479770
C      76.04722437      53.12385747      79.97719674
H      77.99364248      53.62841438      80.42506188
H      74.90393995      54.59217480      79.09658427
H      76.21729973      51.65176066      78.54667392
C      79.08779401      51.89931481      86.30966962
O      79.18605978      54.12163296      85.79566406
N      79.79077220      51.14153457      88.64348162
H      80.16493800      49.27070551      88.70206312
C      80.57689835      52.69677932      90.80343878
H      79.47518790      54.40320217      91.14736898
C      80.10068732      51.11507839      93.21661929
H      81.17783132      51.78593123      94.83800447
H      80.76965042      49.18188837      92.97473433
C      77.33979717      50.80516327      94.06321668
C      76.03021684      52.80449371      95.32555386
H      77.01665397      54.46745287      95.98128888
C      73.32601847      52.56071902      95.77341900
H      72.26021284      53.99124184      96.76741503
C      72.08635802      50.31194471      95.06855108
H      70.07190977      50.07761865      95.28586961
C      73.37515136      48.29749646      93.88747213
H      72.32068408      46.65154484      93.30165698
C      75.93006134      48.57906568      93.37157684
H      76.95240327      47.03137983      92.52308974
C      83.43416452      53.57928150      90.73729837
O      83.97840571      55.29704272      92.07522460
N      85.25208124      52.33962105      89.41260023
H      84.72673733      50.76358929      88.47718570
C      87.73707135      53.23346159      88.69450423
H      88.19438512      54.78303716      89.97195920
C      89.47939901      51.06972496      88.85702069
H      89.05421059      49.73746791      87.34523964
H      89.14680718      50.16076660      90.67493740
C      92.32343710      51.74813671      88.61702544
H      93.01885639      53.23535132      89.86235508
H      92.85067075      52.43032790      86.74619639
C      93.71427567      49.24991852      89.26898103
O      94.32276755      47.81561625      87.46618212
O      94.34166480      48.77370749      91.59145466
C      87.85801383      54.31627476      85.90715790
O      89.13357908      56.28159014      85.78243597
N      86.58433829      53.39597806      83.88515076
H      85.50530457      51.89364563      84.35947205
C      86.19883413      54.46934260      81.37937367
H      88.04887618      54.33706176      80.48364340
C      84.40359412      52.92921566      79.73153232
H      82.45150684      53.33361709      80.25498651
H      84.94027639      50.96201056      80.01688100
C      84.72106815      53.42999312      76.84403052
H      86.47473417      52.57772655      76.17695713
H      84.75886268      55.47278727      76.60025581
S      82.08489995      52.35473886      75.01288572
C      80.15548938      55.12885708      74.89383295
H      78.20151236      54.47879123      74.88627406
H      80.79232715      56.07938942      73.17796147
H      80.48997094      56.36851754      76.50387978
C      85.37113399      57.31338069      81.37181476
O      86.40103484      58.94421450      80.07357279
N      83.55699673      57.96722601      83.07256845
H      82.46095548      56.55371073      83.73964183
C      82.59323631      60.60339421      83.47885960
H      82.80110622      61.60305942      81.68928877
C      79.84368453      60.40686267      84.31033917
H      79.29377417      62.22477938      85.10969341
H      79.77376465      59.12184878      85.91849627
C      77.87081027      59.75679683      82.40360533
H      78.70606930      58.13919110      81.43795518
C      75.36125372      58.81193366      83.74720074
H      75.79400105      57.30393206      85.08323724
H      73.85325212      58.47367266      82.38659778
H      74.66772416      60.44843666      84.78466049
C      77.29444374      61.62195670      80.28900158
H      76.59713473      63.36050490      81.14882705
H      75.82045722      60.71110860      79.17784251
H      79.01220496      61.98478414      79.21185759
C      84.08800983      62.26635337      85.35913727
O      83.95572900      64.61717289      85.21740780
N      85.60923951      61.14952511      87.02776561
H      85.82466831      59.25412962      86.97485328
C      87.48006856      62.27202254      88.80977753
H      86.47095472      63.92364335      89.51653516
C      87.82966794      60.47678254      91.11713335
H      89.25074211      59.18987893      90.36691201
H      86.05710466      59.45633033      91.35901832
C      88.84634069      61.89974646      93.51708577
H      87.36290553      63.10539184      94.28431466
H      90.53764573      62.97689045      93.04087474
C      89.64758464      59.95710782      95.44082715
H      89.92348469      60.99645728      97.20016236
H      91.45227327      59.13507687      94.89469626
N      87.72762271      57.92943148      95.91136901
H      87.78809395      56.23056752      95.03831546
C      85.88136010      57.95777737      97.66503503
N      85.54120937      59.94576945      98.96705646
H      84.26186465      60.09127838     100.37490257
H      87.04354179      61.12117921      99.03130716
N      84.29021054      56.24568533      98.15636388
H      83.60612962      56.44221686      99.92892715
H      84.49430098      54.53926248      97.32677402
C      89.87435181      63.32648982      87.49074857
O      91.55053904      64.53591467      88.61324599
N      89.98395593      62.93153702      85.00197901
H      88.52130777      62.02068894      84.18372752
C      92.00596309      64.19009475      83.53555138
H      92.86578855      65.75478813      84.56167278
C      94.19048670      62.36461913      83.02154583
H      95.52652321      63.45499121      81.89526894
C      95.50195677      61.35739501      85.35913727
H      94.32087782      59.84750368      86.11124836
H      95.86289448      63.05814869      86.46273745
H      97.29152758      60.49567981      84.81489611
C      93.46483179      60.02702769      81.37181476
H      92.21950216      58.88752271      82.55100398
H      95.19015192      58.94232478      81.06378936
C      92.07210351      60.31804553      78.91328083
H      91.69604797      58.42453977      78.20085400
H      93.28908725      61.42164570      77.66984092
H      90.31843749      61.38763062      79.09469456
C      90.79653824      65.67730936      81.35669695
O      92.13824392      66.90941091      79.91105631
N      88.26241525      65.65841209      81.17150377
H      87.08511576      64.94598527      82.49431219
C      86.97740137      66.87539584      78.93217809
H      88.04887618      66.31792658      77.26543949
C      84.21084205      66.04958544      78.66005750
H      83.20928709      66.46343551      80.41372352
H      84.37146877      64.05781390      78.16305948
C      82.69906099      67.33270961      76.44907772
O      80.42194079      68.18308645      77.05945931
O      83.59101182      67.55947676      74.26455409
C      87.02275479      69.77990518      79.03800277
O      87.09267467      71.12539033      77.03867232
N      86.73740613      70.72476835      81.34157914
H      86.51819787      69.37172430      82.66816701
C      86.72039858      73.32125229      82.06912377
H      87.61234941      74.40406548      80.56112218
C      84.05588449      74.29446135      82.57179096
H      83.12235969      73.20219954      84.04766722
H      82.89370281      73.83147841      80.93528799
C      84.03509750      77.12338163      83.17650339
H      85.13491821      77.54101116      84.86591871
H      82.08301022      77.67518172      83.53366167
C      85.16704356      78.68429557      80.96741332
O      87.10401303      80.00332453      81.31134352
O      84.06155367      78.91673191      78.93406781
C      88.28509198      73.65006468      84.44828920
O      88.41170363      71.83970687      85.83534832
N      89.55498805      75.76655815      84.91316187
H      89.26019075      77.19141178      83.67917059
C      91.18582186      76.04056847      87.16760537
H      92.55965289      77.54479061      86.85013134
H      92.30642957      74.38894766      87.67216229
C      89.88191070      76.73976720      89.56755778
O      87.95438986      78.08147288      89.49007900
N      91.08944582      75.91773624      91.60657246
H      92.87901665      75.29790601      91.37413614
C      90.19560528      76.62449390      94.16148244
H      88.15848032      76.32969658      94.08967284
C      91.42581711      74.71587031      96.00018615
H      93.48372907      74.67429634      95.93971491
H      90.81732523      72.82236454      95.45594497
C      90.85511976      75.08247722      98.76296602
H      91.69037879      76.88716584      99.29964829
C      88.05265563      74.94263747      99.13902155
H      87.24952196      73.08503651      98.74973794
H      87.11913084      76.46008771      98.10345154
H      87.74463024      75.39995125     101.12323419
C      92.08911104      72.99243992     100.33143886
H      94.13757437      72.93952759     100.11978952
H      91.37479450      71.25578143      99.48862092
H      91.67148153      73.08125706     102.34588711
C      90.79464852      79.37782512      94.91170379
O      92.87145774      80.33780609      94.65281129
N      88.82555369      80.65150066      95.90192038
H      87.04165206      79.99576563      95.72995529
C      89.05799004      83.20074146      97.20205208
H      91.00062868      83.61270179      97.74629326
C      88.05265563      85.30022740      95.34634085
H      88.36635021      86.99342218      96.47450746
H      86.03442793      85.04511435      95.02319765
C      89.19405034      85.70084937      92.69127538
H      91.20660885      85.70273909      93.13158161
H      88.81043589      87.54711198      91.86357524
C      88.70083177      83.80356416      90.58234081
H      86.78275955      83.91316829      89.83211947
H      88.88791466      81.80801317      91.05666211
N      90.38835735      84.24387039      88.53198776
H      92.05698569      85.06023215      88.96473509
C      89.98962511      83.57112782      86.21707302
N      87.72195353      82.82468593      85.51409484
H      87.49707611      82.10281048      83.76231854
H      86.51252870      82.27666529      86.88603614
N      91.56565686      84.01899295      84.41238440
H      90.76252317      84.17206078      82.68706428
H      93.35144822      84.53488824      84.84135227
C      87.50085556      83.11381404      99.68704218
O      85.31633193      82.25020912      99.74751342
N      88.39469610      84.47630673     101.68637263
H      90.01230182      85.45896440     101.43692875
C      87.31944182      84.60480811     104.26584905
H      86.01364095      83.02310718     104.46804976
C      89.44538393      83.90938883     106.32187126
H      88.88035577      83.99631623     108.30041472
H      90.97606224      85.27755067     106.13667810
C      90.96850333      81.42439873     106.18014179
H      92.16470010      81.32046378     104.50584428
C      92.58799878      81.24487472     108.43269557
H      93.77474691      82.92673114     108.38167295
H      93.91836611      79.67262243     108.35521679
H      91.32188215      81.23920555     110.05974991
C      89.03909278      79.34569978     106.06864795
H      88.32099677      78.94885726     104.17892163
H      87.31566238      79.50821624     107.18358646
H      90.05009635      77.60526185     106.51084391
C      85.87569093      86.87625913     104.98961422
O      84.75508323      86.99531189     106.97571658
N      86.13647316      88.87181012     103.48539207
H      87.35723635      88.61669707     102.03975145
C      84.78720857      91.32467487     103.70460033
H      83.32078094      91.23396801     105.14835122
C      86.54465403      93.60557453     104.71749363
H      88.14336250      93.80210608     103.43247974
H      87.52353227      93.04054637     106.43903431
C      85.18216136      96.06032902     105.37322866
H      83.98596462      95.74474473     107.02107001
H      83.90848583      96.35323659     103.78207911
C      86.75819311      98.34689786     105.88345477
H      87.77675559      98.90814657     104.18459080
H      87.84856520      97.93115808     107.58231872
C      85.11791068     100.62590779     106.46926992
H      83.74407964     100.22906527     107.95459480
H      83.79888170     100.75818864     104.89323817
N      86.47284443     103.03341911     106.77162613
H      85.48829704     104.53764126     107.41224336
H      87.14936646     103.41703355     105.02929847
H      88.00163303     103.06554446     107.91302083
C      83.35857547      91.75931193     101.20449242
O      84.30721809      91.20373240      99.10500648
N      81.24586145      93.04432582     101.45582602
H      80.70351000      93.53943412     103.21705094
C      79.52810023      93.47518343      99.30531747
H      78.81756314      91.65159754      98.66470025
C      77.29066429      95.17026792     100.21238609
H      77.90293562      97.13558330     100.17459157
C      74.91149886      94.93027269      98.29998308
H      73.16539174      95.84490023      98.90847494
H      74.00443023      93.08401008      98.17715087
H      75.25920849      95.71072965      96.42537456
C      76.10391617      94.62602674     102.76918581
H      77.47963692      94.97940557     104.26017986
H      75.54455717      92.64370385     102.78619334
C      74.05545283      96.44394346     103.54964277
H      72.14304981      95.96584271     102.95059953
H      74.31434535      98.33178004     102.76729607
H      73.70774320      96.36835440     105.57731911
C      80.95106415      94.70350552      97.14536030
O      81.95072937      96.83889626      97.53275419
N      80.67138465      93.77376018      94.72651061
H      79.40148858      92.34890655      94.67548801
C      81.38759094      94.88680898      92.29443285
H      81.68238824      96.91637504      92.47962603
C      83.74596936      93.48652179      91.51775534
H      85.10090313      93.43360945      93.06922063
H      84.75319350      94.35957533      89.94739277
C      83.33022958      90.71240356      90.65981959
C      83.96517762      90.02076372      88.18427812
H      84.81744418      91.33223378      86.87280806
C      83.27542752      87.67939283      87.21862798
H      83.82911732      87.26743249      85.29677632
C      82.50819863      85.82179185      88.90615357
O      82.38158698      83.38971409      88.01420275
H      82.16237872      83.40105245      86.21140385
C      82.07923077      86.33579742      91.49885808
H      81.42160601      84.90149515      92.79332060
C      82.52142672      88.86236149      92.33978627
H      82.22284996      89.22707868      94.32588864
C      79.26353855      94.98129529      90.33100720
O      77.25664921      93.91737939      90.62391479
N      79.73785985      96.18694068      88.19750620
H      81.57089439      96.69905651      88.06711509
C      77.89726644      96.62157773      86.04699766
H      76.03966546      96.26819891      86.86335942
C      78.04655480      99.45427747      85.28921741
H      77.52121089      99.60923504      83.30500478
H      79.89659688     100.24040362      85.73519282
C      76.22296891     100.81677016      87.00697863
H      76.75776147     100.38780228      88.94961728
H      74.23119739     100.33111049      86.80477791
C      76.26643263     103.77230210      86.63848200
H      75.78833187     104.09166586      84.66182826
H      78.10891577     104.66803237      86.85580051
C      74.47308236     104.87968173      88.58301037
H      74.61859127     104.17481380      90.51242093
H      72.58902522     104.15969599      88.16160140
N      74.74709266     107.56120337      88.84946178
H      73.28255477     107.93725889      90.01164346
H      74.21985903     108.29063772      87.16571563
H      76.42327991     108.31142471      89.36913652
C      77.96340686      94.53154044      84.02688023
O      79.97407564      93.41660190      83.33713013
N      75.69573528      93.89092321      83.11981160
H      74.14426998      94.55799660      84.00798296
C      75.21385507      92.39425998      80.86158865
H      76.54800185      90.83523576      80.67072630
C      72.46430328      91.59868520      81.19795994
H      71.23220172      93.23896763      81.02788456
H      72.11848337      90.69161657      83.01398693
C      71.44196134      89.77887875      79.19673977
O      70.95441195      90.51209256      76.98953944
O      71.02433183      87.54333253      79.84491590
C      75.49542428      94.08745475      78.40683418
O      75.38204070      96.44205374      78.66005750
N      75.91872299      92.99519294      76.22609001
H      75.89793599      91.08656937      76.26955372
C      76.11525452      94.41815686      73.80535061
H      77.44940130      95.97151189      74.02455886
C      77.23964168      92.63614495      71.78901262
H      77.51743144      93.64714851      70.01455961
C      79.94195031      91.67994343      72.51655726
H      80.00053182      90.69917548      74.32880479
H      81.03610183      93.41093273      72.73009633
H      80.64114903      90.89759674      70.74588371
O      75.54077772      90.45540077      71.43185436
H      76.02265793      89.74297395      69.83503562
C      73.61514661      95.64836869      72.99465801
O      73.74553773      97.31510729      71.39405982
N      71.40227710      95.19294465      74.23053903
H      71.47597642      93.88147459      75.61381869
C      69.10248018      96.66126199      73.88660884
H      69.24043020      97.53242582      72.02522842
C      66.68929966      94.87736034      74.22486985
H      66.17907357      94.64114456      76.20719275
H      67.15039289      93.02920801      73.44441288
C      64.39706166      95.75797281      72.86804636
H      63.98132186      97.60801488      73.67118003
H      62.86827307      94.55610688      73.54078892
C      64.44619454      95.67104539      69.98621372
O      65.80301803      94.06666777      68.78812724
O      62.85504497      97.07889151      68.81458341
C      68.89650001      98.86279315      75.91050571
O      67.21464359     100.43882489      75.64405430
N      70.75977015      99.00641235      77.53756007
H      72.12793199      97.67604501      77.49787582
C      71.22653254     100.73362220      79.64460490
H      70.43095777     102.58366426      79.21752677
H      73.22586299     100.94527153      80.08869060
C      70.02655634      99.97206249      82.06345459
O      69.88104741     101.43660038      83.86058432
N      68.96830961      97.67604501      82.13148474
H      69.15728223      96.69338734      80.50443039
C      67.62282447      96.61401882      84.37836932
H      66.30568522      98.01619576      85.11914204
C      66.26033179      94.10635201      83.64704524
H      65.58947896      93.41849164      85.46874141
H      67.50755116      92.77220524      82.69840264
C      64.02478557      94.19516914      81.85369497
C      63.50133137      92.14481610      80.15861047
H      64.70697677      90.54988710      80.57812971
C      61.55302355      92.37914216      78.47297460
H      61.00500291      90.69917548      77.44874294
C      60.19053088      94.68838772      78.20085400
O      58.14962646      95.02097954      76.51143869
H      57.75089421      96.79165310      76.51521813
C      60.84437619      96.72929214      79.74665013
H      59.91085139      98.53964995      79.59925148
C      62.77567647      96.49685579      81.56645657
H      63.35771218      98.13335879      82.64171085
C      69.36704185      95.93749680      86.47407581
O      71.55912437      95.89214337      85.95062162
N      68.52044446      95.34034329      88.78143164
H      66.64205652      95.35357138      89.11969265
C      70.26466185      94.51642262      90.79021070
H      72.05612240      95.45939605      90.41037572
C      69.33113705      95.49152140      93.32811315
H      70.62559957      94.55232742      94.62257566
H      67.36582169      94.94350077      93.62291045
C      69.46530763      98.40169993      93.57188784
C      67.30535045      99.83411247      93.07300009
H      65.54979471      98.97428699      92.48529520
C      67.39983677     102.53075191      93.40937138
H      65.66884745     103.53041713      92.99174186
C      69.60136791     103.70238223      94.49596400
O      69.75254603     106.21382850      95.10445588
H      68.24643416     107.05664644      94.54887634
C      71.88793675     102.20571900      94.79454076
H      73.46774796     103.12979516      95.69782994
C      71.70652302      99.67348573      94.27675576
H      73.30523150      98.41492801      94.42982359
C      70.60103313      91.69695096      91.04910320
O      68.81713149      90.20973635      90.94516827
N      72.94051432      91.04877483      91.71617660
H      74.31623507      92.36024489      91.52720397
C      73.98931242      88.35780457      91.81633210
H      72.48509028      86.97074545      92.05065816
C      75.22519343      87.44884622      89.33890089
H      76.44973608      85.79911515      89.49196872
C      73.22397326      86.46051936      87.56633762
H      71.63660316      87.74742296      87.31122457
H      72.25265393      84.77110402      88.23908019
H      73.96663571      85.92383707      85.72385446
O      76.51209705      89.44250747      87.97451850
H      77.47774718      90.31178157      89.23874539
C      75.92250243      87.89482162      93.97250981
O      77.33790744      89.60502393      94.79832022
N      76.15304905      85.44195687      94.62446540
H      75.12125848      84.16639161      93.65125635
C      77.75553695      84.50087317      96.79576092
H      79.46195982      85.63848841      96.99985137
C      76.15304905      84.80889856      99.24295650
H      75.56345443      86.78177282      99.28075103
C      73.78333224      83.34625038      99.05587360
H      72.64571700      84.12859707     100.58466219
H      73.97419460      81.30534596      99.24673595
H      72.75154169      83.62970934      97.29653839
C      77.69695545      84.35725397     101.80731511
H      78.06356234      82.34280571     102.01896446
H      76.59902446      84.85803143     103.47594345
C      80.34068256      85.71029800     102.06431789
H      79.81155919      87.68506200     102.32321040
H      81.37058339      85.33991165     100.32010049
H      81.58412247      85.21707943     103.62901128
C      78.50953775      81.68140150      96.42159512
O      77.35302526      80.39827733      94.83233528
N      80.31422638      80.63449313      97.87101520
H      81.54443821      81.56234875      98.99918181
C      81.09657307      77.95864066      97.89936110
H      79.45251119      76.84181241      98.44360228
H      82.60835413      77.66006391      99.26563322
C      81.93183210      77.02133642      95.24051617
O      83.98218515      77.76021940      94.26919685
N      80.59579561      75.23365533      94.08967284
H      78.91582892      74.83870253      94.90603462
C      81.31011215      74.13572433      91.54988069
H      83.14692613      74.91618131      91.04721349
C      81.47262862      71.26900953      91.68972042
H      79.69628588      70.48477310      92.37947053
C      81.94128075      70.09926893      89.13103100
H      80.16115856      69.97265727      88.10113015
H      82.70284045      68.20198372      89.39181324
H      83.32456040      71.30491431      88.19372674
C      83.27353779      70.40162514      93.82133171
H      83.39070082      68.39284607      93.37724603
H      82.52331645      70.63028202      95.72617583
C      85.97773614      71.39184173      93.73062484
H      87.21739661      70.35060254      95.00430038
H      85.69805666      73.39495163      94.11801873
H      86.79409791      71.39562119      91.84089854
C      79.46195982      75.21097861      89.64314684
O      77.75175751      73.84470648      88.77576246
N      79.65282217      77.70352762      89.11213374
H      81.05121965      78.69941338      89.94739277
C      78.15048975      78.90917300      87.17138482
H      78.01442947      77.72809405      85.48952840
H      78.93094672      80.72708972      86.60257720
C      75.33668728      79.38349430      87.81956093
O      74.02710694      80.41717460      86.18494768
N      74.52221524      78.70319284      90.08723252
H      75.75431679      78.66161886      91.54421150
C      71.82557578      78.52177911      90.93005045
H      70.76732906      77.59014404      89.42960776
C      71.61392645      76.83992270      93.35834877
H      72.77799785      77.94352285      94.65092157
H      72.59469440      75.12594093      92.77253361
C      69.02689111      76.47898496      94.52808935
N      67.10314974      75.16751490      93.24496519
H      67.21842304      73.78990443      91.92782594
C      64.97342818      75.79490404      94.54131743
H      63.09126077      75.10704366      94.14825437
N      65.58758923      77.38605359      96.43860266
H      64.33470069      78.34036539      97.51574666
C      68.09903550      77.80179338      96.58411158
H      69.07980345      79.31546417      97.53653364
C      70.44229612      81.06535073      91.37035668
O      71.35692366      82.61492631      92.81032813
N      68.23509580      81.29211789      90.10801951
H      67.65117036      79.75766011      89.13481046
C      66.64772568      83.63537851      90.15337293
H      67.77589230      85.28699930      89.65637492
C      64.72965349      83.26877161      87.98207741
H      64.17596367      81.29589734      88.18805757
H      65.71987008      83.35947848      86.17927850
C      62.42229766      85.10747531      87.75531025
H      61.48310368      85.34180137      89.57322695
C      63.41629370      87.85513736      86.97296356
H      64.48965825      87.51498663      85.24953315
H      64.60682128      88.64504296      88.45828844
H      61.81002633      89.09857729      86.62903336
C      60.45320283      84.27599574      85.91093736
H      58.84126629      85.50998702      86.26053674
H      59.87494659      82.31257010      86.14715316
H      61.21665227      84.39315877      84.00420352
C      65.64050156      84.21552450      92.72529045
O      64.07391845      82.82846538      93.73818375
N      66.10726397      86.49453443      93.57377757
H      67.49621280      87.47341266      92.70639318
C      65.10759874      87.60569349      95.93404573
H      64.43674591      85.98430831      97.01496918
C      67.32235798      88.71874229      97.41370142
H      68.37682527      90.15304456      96.37813142
H      68.51855474      87.10869547      97.87668437
C      66.29434686      89.88659315      99.90058125
H      64.37060548      90.62169669      99.84199975
C      66.18663247      88.00820520     102.09077405
H      68.14249921      87.42239004     102.34966655
H      65.08114258      86.33957686     101.60511440
H      65.34381454      88.79433134     103.79719692
C      67.97053410      92.11647021     100.59600055
H      67.88171698      93.23707791      98.87257014
H      70.00765907      91.94450511     100.85300331
H      67.18818742      93.29943887     102.09077405
C      62.74922031      89.21951977      95.33500249
O      60.67619054      88.13670659      95.44649634
N      62.90039841      91.67616398      94.69060581
H      64.58603429      92.57000453      94.69816471
C      60.72910288      93.13503268      93.67015360
H      58.88850944      92.21662570      93.77408855
C      60.23588430      95.52553647      95.29909768