 %block lattice_cart
   137.793   0.000   0.000
   0.000 143.498   0.000
   0.000   0.000   162.326
 %endblock lattice_cart

 %block positions_abs
N      89.54459456      37.23598348      79.64743950
H      90.12285081      36.58780736      81.34819318
H      90.99212491      37.63282600      78.47202974
H      88.36162589      35.87349081      79.02194008
C      88.32572109      39.73042221      79.79672788
H      89.63719115      41.13070941      80.54694923
C      87.72289839      40.93606760      77.19646447
H      86.69866673      42.70107198      77.48370288
H      86.56827562      39.63404618      76.09097458
C      90.20221932      41.85825405      75.90578140
H      89.82049460      42.73697678      74.08408524
H      91.62329350      40.37103944      75.78483891
S      91.57038117      44.43395100      77.72747757
C      94.21788773      45.13314974      75.86798687
H      95.41408449      43.46452142      76.03428279
H      95.02669059      46.90571302      76.52939109
H      93.55081434      45.35235799      73.93101741
C      85.89931250      39.68695852      81.22347124
O      84.20989718      38.07880142      80.80773145
N      85.56294122      41.45952180      83.05461605
H      86.83283730      42.87492681      83.23036058
C      83.10062783      41.75242937      84.58151491
H      81.79671668      40.29356066      83.93900795
C      83.80738547      41.32157178      87.41988382
H      85.42877065      42.48753291      87.93010992
H      84.40075954      39.35247696      87.51059068
C      81.75703242      41.49353686      89.39842728
O      79.53282455      41.47463961      88.68977990
N      82.58851200      41.92628420      91.70389338
H      81.51703718      41.50109577      93.22512305
H      84.44989242      41.94329173      92.13286125
C      81.93277697      44.31678797      84.13742921
O      83.20834223      46.30666978      84.36041692
N      79.46857386      44.41505375      83.75759423
H      78.58229222      42.75587404      83.44578938
C      77.97946952      46.72807875      83.59696750
H      78.76559567      47.64270628      81.92833916
C      75.17511568      46.26698553      83.05083658
H      75.32629378      44.88937506      81.52771719
C      73.75971067      45.15393674      85.30716981
H      71.89077134      44.58323938      84.65710395
H      73.46680309      46.73374793      86.59596316
H      74.61197723      43.65160432      86.43155696
C      73.82207164      48.69339411      82.07762754
H      73.73514422      50.08612241      83.59507776
H      71.85297682      48.15104266      81.81117613
C      74.98803277      49.93872375      79.69090320
H      75.17133622      48.40804544      78.32652081
H      76.90610498      50.41115533      80.27293891
H      73.92978603      51.40137192      78.69879690
C      78.51993125      48.57245164      85.75881440
O      78.77882375      50.95161707      85.43189175
N      78.45946001      47.64459601      88.15498736
H      78.63520455      45.76053888      88.40443124
C      78.54071824      49.28865791      90.39242332
H      77.46546397      51.04043419      90.26014247
C      77.84340923      47.65026519      92.64308736
H      78.68244771      48.29088241      94.40998146
H      78.57284359      45.81534094      92.04971330
C      74.98047386      47.58412477      93.20433607
C      73.84096890      49.83856826      94.13597114
H      74.98992250      51.51664523      94.31549514
C      71.29928701      49.90281896      94.93154592
H      70.51505059      51.72073568      95.42665421
C      69.96325050      47.62002957      94.83328015
H      67.96769952      47.45562338      95.23579186
C      71.22180823      45.35991690      94.00746976
H      70.18056903      43.61758924      93.80904849
C      73.66711408      45.47519020      93.01536343
H      74.65544094      43.80656187      92.38230513
C      81.18633508      50.38091971      90.79493502
O      81.78726804      51.50908632      92.77347846
N      82.89653739      49.91415731      89.08095325
H      82.42599554      48.91449209      87.52570850
C      85.63286109      50.62658414      89.10362996
H      86.01269608      51.96451037      90.62296993
C      87.03125856      48.29844131      89.67999649
H      86.40575915      47.00397880      88.20412024
H      86.11285157      47.72585425      91.42988306
C      89.87718639      48.49875230      89.71401157
H      90.44032483      48.99575032      87.79404964
H      90.57827485      46.62414380      90.19967123
C      90.80882146      50.16738065      91.74546736
O      92.23934428      52.01931243      91.19177754
O      90.35150769      49.67983125      94.04526427
C      86.60040096      51.78309665      86.54683026
O      87.88541486      53.69549966      86.77359743
N      85.81427482      50.82689513      84.38309363
H      84.69933629      49.27731954      84.42277789
C      86.79693250      51.68672059      81.96613369
H      88.85106500      51.61869045      82.09274534
C      85.99757827      50.04265871      79.68523402
H      86.55882698      48.10002006      80.08396627
H      87.12574488      50.56422317      78.04306186
C      83.21590114      49.78565593      78.86887225
H      82.60551954      51.60735209      78.12620981
H      81.94978451      49.34345998      80.43356565
S      82.59040173      47.47641038      76.49159656
C      83.20834223      49.07511883      73.44535774
H      82.60929899      51.02153694      73.74960368
H      82.04049137      48.40615571      71.88444381
H      85.22279048      49.18094351      73.02394877
C      86.05238033      54.50241280      81.25181713
O      87.42999081      55.82900067      80.15388615
N      83.92832796      55.38680471      82.34029949
H      83.05149495      54.08478330      83.42500240
C      82.80016135      57.89636126      82.34029949
H      83.05338467      58.77319428      80.49403688
C      79.92210817      57.82833111      83.04327769
H      79.22857862      59.75207251      83.28894211
H      79.51014784      56.94582893      84.85930468
C      78.25725929      56.34489596      81.17244863
H      78.94134022      54.41737512      81.41622333
C      75.41322119      56.67748779      81.71857954
H      75.16566704      55.92159726      83.61775449
H      74.35497446      55.62679996      80.29561562
H      74.80850877      58.64658260      81.70535145
C      78.71079361      57.46172421      78.60431057
H      78.71268333      59.51207727      78.80273184
H      77.27271188      56.94960838      77.22481036
H      80.50792333      56.86457069      77.78983854
C      84.25336088      59.82199238      84.06372989
O      83.52014707      62.10856122      84.25837171
N      86.27347831      59.19460324      85.43378146
H      86.78181469      57.35589953      85.52070889
C      87.65297852      60.81220896      87.27626462
H      86.26780913      61.91580913      88.32884218
C      89.20444382      59.32121490      89.20378546
H      90.52536252      58.03053183      88.29293739
H      87.96856281      57.94738387      90.11463355
C      90.49890635      60.87645965      91.36374263
H      89.04759654      61.79108719      92.50324760
H      91.47022567      62.42603524      90.41321031
C      92.46233199      59.17759571      92.85662643
H      93.55837325      60.32843903      94.16809649
H      93.82860411      58.63902370      91.41287553
N      91.57605035      56.67937751      93.83361493
H      91.80281750      55.05799235      92.85095725
C      90.14174807      56.42993364      95.81026866
N      89.40286509      58.29131407      97.27480655
H      88.09328475      57.76974961      98.56171016
H      89.78081035      60.11867941      96.87607429
N      89.52002812      54.18682852      96.63229961
H      88.43532521      54.08667302      98.20077244
H      89.98490079      52.64670157      95.60806793
C      89.26302534      62.85122365      85.98747128
O      89.55593292      64.90535615      86.87753238
N      90.26458028      62.25029068      83.76137368
H      89.83183296      60.46638904      83.24169894
C      91.93698807      63.61467308      81.94345696
H      93.10483893      64.79386231      83.16233044
C      93.74923561      61.70793923      80.51104442
H      94.99645497      62.94382024      79.43390043
C      95.70510234      60.57221372      82.30061525
H      94.86039468      59.36089915      83.73491752
H      96.54603055      62.27863659      83.08674138
H      96.97877787      59.36089915      81.22725069
C      92.55114912      59.76152114      78.95390995
H      91.36062155      58.64091344      80.20868821
H      94.10828361      58.81287853      77.99392898
C      90.92031532      60.72339183      76.76749659
H      89.10617805      61.33566315      77.53094603
H      90.71811460      59.13980118      75.46358545
H      91.83305312      62.18226054      75.63744026
C      90.41197894      65.36078019      80.24081356
O      91.46833595      66.97082701      78.83674692
N      87.91187102      65.39857473      80.53183141
H      87.10495789      64.17214234      81.75448434
C      86.17899200      66.33020980      78.46825028
H      87.01614075      65.99761796      76.61631850
C      83.70911970      64.78441367      78.56273660
H      82.68110859      65.03385754      80.33152042
H      84.08517524      62.79453186      78.19801942
C      81.73246598      65.72927684      76.53317053
O      79.48369167      65.96360290      77.01316101
O      82.52426131      66.20548787      74.32597021
C      85.60451520      69.12511502      78.71202498
O      85.29837953      70.40068027      76.81851921
N      85.55349259      70.30619397      80.89843832
H      86.08072623      69.26495476      82.40832964
C      85.47790353      73.04440738      81.50693019
H      86.01836526      73.93068902      79.72680800
C      82.70756476      73.84376162      82.10975289
H      82.38064211      72.92913408      83.92577988
H      81.63420021      73.13322453      80.50348551
C      82.39953937      76.73504288      82.38943237
H      83.54093406      77.52872792      83.91066206
H      80.42666510      77.17723883      82.78627490
C      82.93811137      78.22603693      79.99136968
O      85.12452471      79.06885487      79.80995597
O      81.26570358      78.80429319      78.36809478
C      87.36385039      73.77762119      83.64421065
O      87.99879844      72.21103809      85.19756569
N      88.23690395      76.12088182      83.82184492
H      87.38085793      77.42479299      82.72013449
C      89.78270007      77.06385525      85.93077949
H      90.23245494      79.04995762      85.62275410
H      91.51935856      75.96970372      85.77015275
C      88.54492934      76.93157442      88.50647645
O      86.50024547      77.94635744      88.65198539
N      89.68821376      75.83175371      90.39431305
H      91.39274689      75.00216385      90.18077397
C      88.85673418      75.89222495      93.09473195
H      86.80827086      75.67868587      93.03992987
C      89.66175759      73.63211227      94.61407189
H      91.69510310      73.67935543      94.94477400
H      89.44065961      71.81230583      93.67298820
C      88.15942517      73.13322453      97.08772364
H      86.13930774      73.05385602      96.69088111
C      88.77547595      70.71437485      98.39541426
H      87.34495313      70.15879531      99.76924528
H      90.63874609      70.98838516      99.22878356
H      88.66965128      69.21582187      96.98567843
C      88.51469372      75.10798852      99.05114928
H      90.42331729      75.84876124      99.25901918
H      88.04793132      74.30296512     100.88985299
H      87.12952433      76.59520313      98.71288827
C      89.76758226      78.35264861      94.36462803
O      91.86895792      78.57563630      95.35484462
N      87.93265801      80.17056532      94.33817185
H      86.36229545      79.57152207      93.43299296
C      88.00446761      82.48925951      95.77247413
H      89.96222407      83.06751575      96.03892554
C      86.57583452      84.77393861      94.58383627
H      86.55693726      86.45201557      95.78003304
H      84.64453423      84.08229879      94.41565064
C      87.66809633      85.71313259      92.04971330
H      89.63719115      86.30650665      91.91365300
H      86.73268181      87.45923970      91.48657486
C      87.39030656      83.90844397      89.82361570
H      85.47034463      83.16200206      89.79526981
H      88.79815267      82.43823689      90.14108972
N      87.68132441      85.41266610      87.53515712
H      88.46934029      87.12097869      87.86207979
C      86.95566951      84.62465023      85.24858830
N      86.22812488      82.29272797      84.74970054
H      85.61774328      81.78817104      83.01304207
H      85.88419469      81.03983941      86.14998775
N      87.22401065      85.94745865      83.23414005
H      87.13141406      84.85519684      81.67322610
H      87.50746959      87.82017742      83.44956885
C      86.95755924      82.05084300      98.43698823
O      84.70878492      81.60297786      98.79414651
N      88.54870879      82.67067323     100.30970701
H      90.26458028      83.45868910     100.00924052
C      87.96100391      83.01649314     103.02335399
H      86.54181945      81.58219088     103.44476296
C      90.40819948      82.34375058     104.74867412
H      89.98112134      82.45335471     106.75934292
H      91.95210588      83.69301516     104.54269394
C      91.74801544      79.79073032     104.35183158
H      92.29414634      79.53750700     102.38273677
C      94.15930622      79.31829874     105.83526674
H      93.93442878      79.55640426     107.86672253
H      95.73155851      80.35575850     104.99811799
H      94.92842482      77.41156489     105.70109618
C      90.00190833      77.61376562     105.06425841
H      90.75401940      75.74671602     104.61639328
H      88.23879368      77.91423209     104.04002675
H      89.47089523      77.78762044     107.04469158
C      86.64008522      85.44857090     103.71877328
O      85.84073099      85.68289696     105.87306127
N      86.13930774      87.23436227     102.02746823
H      86.32072147      86.92255743     100.15474945
C      84.60862943      89.56628455     102.60383475
H      83.30471827      89.03527145     104.10616717
C      86.15253583      91.79805132     103.52791092
H      87.17865722      91.28971494     105.24189268
H      85.07917128      93.44400293     104.14585143
C      88.51280399      92.41788155     101.61172844
H      87.92887856      92.84118025      99.68042815
H      89.54270483      90.64720800     101.40196882
C      90.13229944      94.59106680     102.68509298
H      91.87651683      94.85562849     101.62117706
H      90.65386390      93.85974272     104.53891450
C      88.80004239      97.17999185     103.02524372
H      87.13519351      96.95133498     104.21766102
H      88.32194163      98.01525089     101.20543727
N      90.31749262      99.01302638     104.57481929
H      89.78836925     100.84606091     104.62962135
H      92.12029152      99.04704145     103.95120961
H      90.44221456      98.15320091     106.27368325
C      82.95700863      90.35619014     100.35128099
O      83.14787099      89.43022425      98.27825121
N      80.98413436      91.87553009     100.77457967
H      80.52493087      92.33284387     102.56981968
C      79.14354093      92.57283910      98.82438212
H      78.32717917      90.79460664      98.17809573
C      77.20090228      94.21690100     100.20199261
H      78.11552982      95.86285262     101.03536191
C      75.31873487      95.11263128      98.21589026
H      73.80317437      96.31071776      98.93587598
H      74.50804229      93.54415843      97.15764352
H      76.38831997      96.25780542      96.88174348
C      75.79305618      92.89031313     102.20699223
H      76.98736321      91.85474311     103.52791092
H      74.65922039      91.51081292     101.17898111
C      74.08474359      94.64208941     103.78491370
H      73.21357976      93.54226870     105.29291530
H      72.71847147      95.56616558     102.55092242
H      75.33763214      95.98757456     104.71654876
C      80.40965756      94.06572289      96.81749278
O      81.70789954      95.94978002      97.21811476
N      80.01281504      93.27392757      94.52903421
H      78.87897925      91.74135953      94.44588626
C      80.71579322      94.38886609      92.03648521
H      81.56239061      96.23134924      92.38986402
C      82.49780514      92.65598707      90.50769662
H      84.08895469      92.45567607      91.79837969
H      83.35952034      93.72179271      88.96945940
C      81.63608994      90.12186407      89.50047249
C      81.40554333      89.85919212      86.94556252
H      81.38097689      91.51648209      85.75692466
C      80.68177815      87.44034244      85.89298496
H      80.67232952      87.16633212      83.86908809
C      80.51926169      85.37109212      87.46523726
O      80.05816847      83.05428767      86.52226382
H      79.55739099      82.97113971      84.77993616
C      80.98791381      85.60730792      90.05605204
H      80.89720695      83.94623849      91.23902071
C      81.63986939      88.01103979      91.05004808
H      82.11797015      88.10174665      93.03237098
C      78.23647230      94.78570862      90.53037334
O      76.15966308      94.25469552      91.49602348
N      78.46512919      95.87986015      88.23813531
H      80.17722123      96.47134450      87.63720235
C      76.42233504      96.32016638      86.40321106
H      74.73858890      95.48679709      87.24413927
C      76.00092607      99.20010928      85.90054387
H      74.62898477      99.27947779      84.36419638
H      77.69601058     100.06749367      85.11630745
C      74.85764165     100.50591016      88.21734833
H      76.23336241     100.39819576      89.74613691
H      73.04350439      99.61395935      88.60663195
C      74.28127513     103.31782293      87.80916744
H      72.95090780     104.15119222      89.14142449
H      73.33830170     103.42175786      85.98180210
C      76.67744809     104.95621564      87.62208455
H      77.99269761     103.98678603      86.36919599
H      77.73191538     104.99967935      89.39086837
N      76.09919184     107.64529617      86.87753238
H      77.55428110     108.59960796      86.09707540
H      75.60597327     108.68464565      88.40065178
H      74.82551631     107.60183248      85.45645819
C      77.08373925      94.90098192      84.02782509
O      79.18511491      95.41309775      83.07729276
N      75.20724102      93.58951186      82.99225508
H      73.55184077      93.74068997      83.93333877
C      75.44534654      92.14576096      80.75103967
H      77.09318788      90.95145393      81.07040342
C      73.15310852      90.36563878      80.67167117
H      71.42589867      91.44089304      80.34663824
H      72.98492288      89.29416395      82.42344746
C      73.33074279      88.18678433      78.76115786
O      74.54205736      86.22713814      79.34697302
O      72.16478166      88.38709532      76.58041370
C      75.46802325      93.78793312      78.25093175
O      75.33952186      96.16520883      78.51927290
N      75.96691100      92.75047338      75.99648826
H      76.09919184      90.84562926      75.94357593
C      75.86675551      94.06383317      73.56630023
H      77.21224064      95.58884230      73.24693647
C      76.52626999      92.11552534      71.44980675
H      75.09385744      90.63775936      71.52161636
C      76.81917757      93.15487481      68.77206456
H      76.85886182      91.60529923      67.41335134
H      78.43300384      94.43232979      68.66812963
H      75.12409306      94.08650988      68.05774802
O      79.02826763      91.27837658      72.06207808
H      79.21724026      89.50959275      71.70303008
C      73.20035168      95.07672647      73.15433988
O      72.95846671      97.19888912      72.27183770
N      71.16511644      93.75769751      73.83086191
H      71.46558292      92.11174589      74.75304834
C      68.55162495      94.76870109      73.57952830
H      68.52516878      95.48490735      71.64822802
C      66.72803906      92.48024251      73.71369888
H      66.22159240      92.49725005      75.71113958
H      67.74471181      90.74925322      73.25260565
C      64.38099898      92.86574669      72.00160684
H      63.40967965      94.65909695      72.28128634
H      62.99771931      91.51081292      72.70836447
C      64.91579152      92.35741031      69.32386465
O      64.86287919      90.23146820      68.48104672
O      65.63955670      94.07706125      67.81586305
C      67.85431594      96.78881852      75.64310945
O      65.69813822      97.46723026      75.90011223
N      69.63065867      97.50124533      77.27772271
H      71.43723703      96.93054799      77.06229391
C      69.18090381      99.42309700      79.20146408
H      67.74282209     100.75913349      78.57785440
H      70.91567257     100.53236634      79.28083260
C      68.53272768      98.56516125      81.93967751
O      68.55540440     100.05615531      83.73302779
N      68.12643653      96.06505333      82.30817414
H      68.03383994      94.81027506      80.87198215
C      67.02472609      95.08239565      84.72891356
H      65.74727110      96.60740478      85.26181637
C      65.36365666      92.79582681      84.21868745
H      64.01061262      92.58039801      85.75503495
H      66.31607872      90.97224091      84.31695321
C      63.84242698      92.97535082      81.94534669
C      63.88778041      90.90610050      80.26726973
H      65.11988196      89.32062013      80.63198691
C      62.33820483      90.87964433      78.15644543
H      62.39300689      89.33006875      76.82985756
C      60.71870938      92.99424808      77.78605909
O      59.45070302      93.17944126      75.57318957
H      58.59087755      94.73279629      75.20469293
C      60.76217309      95.08239565      79.45468741
H      59.39590096      96.58094862      79.23547917
C      62.30985894      95.13152854      81.53149663
H      62.17568837      96.75102398      82.76737764
C      69.02216680      94.55894147      86.76036935
O      70.91378284      93.26447893      86.20667954
N      68.63855236      95.22412513      89.11307860
H      66.87354798      95.86285262      89.45889852
C      70.40922591      94.40587364      91.14264467
H      72.26493715      95.05971894      90.53415279
C      69.44546549      95.54726833      93.68810600
H      70.40355673      94.62508188      95.26224803
H      67.51038575      94.88019493      93.92054235
C      69.85175665      98.36862970      93.90542453
C      67.69179948     100.02780942      93.79393067
H      65.75860946      99.37585383      93.84495329
C      68.27194545     102.65641872      93.96967523
H      66.64867055     103.88852027      93.84873275
C      70.80228899     103.60695104      94.06038209
O      71.19535206     106.12784595      94.29470815
H      69.74971143     107.22388721      94.32116432
C      72.91878246     101.93076380      94.05093346
H      74.83118549     102.63752146      94.06794100
C      72.38021046      99.35695657      93.90353481
H      73.93167576      98.06438378      93.61440667
C      70.46969716      91.57317388      91.38830909
O      68.57241194      90.28438055      91.07650424
N      72.56162418      90.46201482      92.11207425
H      74.02238262      91.62230677      92.50891678
C      73.32507361      87.78427262      91.94010916
H      71.72825488      86.50681765      92.18766331
C      74.26426759      87.12097869      89.15276286
H      76.09541239      87.96001717      88.72190525
C      74.07529496      84.29772758      88.30238601
H      75.27527117      84.08607824      86.64131658
H      72.18556865      83.67411789      87.77704209
H      74.80661904      83.09397193      89.80471843
O      72.61642625      88.08095966      87.25736737
H      72.36698237      89.85919212      87.49736261
C      75.42644927      86.97358005      93.78259232
O      76.84941319      88.57228850      94.58383627
N      75.53038422      84.64354750      94.49312941
H      74.22269361      83.40010759      93.87518891
C      77.47491260      83.61931584      96.21844954
H      79.26637314      84.43945705      95.61562684
C      76.91366388      84.43567760      99.00579584
H      76.51871108      86.45579503      98.90941980
C      74.52127037      82.96736025      99.88829804
H      74.81984713      80.93779420      99.69554596
H      73.02082768      83.49459390      98.58060742
H      74.03561071      83.50971171     101.81581888
C      79.08873887      84.22024881     100.83316120
H      80.68177815      85.34463596     100.16419808
H      79.68967184      82.28894851     101.21677564
C      78.64087373      85.02338248     103.52035202
H      77.73002565      83.40577677     104.41230284
H      77.32562422      86.57484779     103.85105411
H      80.22635411      85.29361335     104.80536591
C      77.92088801      80.67134279      95.98223375
O      76.42611449      79.22003298      94.80115480
N      80.09974245      79.80584813      97.03670104
H      81.25247550      80.99259627      97.98912309
C      80.98791381      77.20558472      96.91575855
H      79.74069445      76.13788937      98.15919847
H      82.87952985      77.04873745      97.71700250
C      81.32239537      76.40434078      94.14919923
O      81.98190985      78.01438759      92.54293186
N      80.82350762      73.90234313      93.86951973
H      80.46634935      72.95559026      95.48712545
C      80.81783845      72.81197105      91.22201317
H      82.35985512      73.77573147      90.25636302
C      81.25247550      70.01328638      91.19177754
H      79.68778211      68.87945060      91.90798381
C      81.53215499      69.14023282      88.46301275
H      79.76148144      69.25172667      87.41610438
H      82.16143385      67.18058663      88.37986480
H      82.96078808      70.20036928      87.42744273
C      83.59195667      69.60321577      92.82639081
H      82.99480316      69.96415350      94.76713973
H      85.07161238      70.97326735      92.41254075
C      84.58973217      66.93681194      92.61852092
H      85.38908640      66.43603447      90.78737612
H      83.11763537      65.56298091      93.04937852
H      86.10340294      66.92169413      94.01313894
C      78.38387095      73.46770609      89.77070335
O      76.54138780      72.13355931      89.57417183
N      78.35930451      75.87521741      88.93544433
H      79.97313078      76.82574974      89.29827178
C      76.43745285      77.03739909      87.36319203
H      76.25792885      75.66923723      85.83440345
H      77.25192489      78.80996236      86.70367755
C      73.77671820      77.60053752      88.51970454
O      71.97580903      77.99360061      87.07406391
N      73.37042705      77.40589571      90.96878985
H      74.81606768      77.44935943      92.21222975
C      70.73425884      77.49660259      92.12152289
H      69.54751071      76.15300717      91.10862959
C      70.80417871      76.71425589      94.83516988
H      71.94746313      78.04651294      95.91609333
H      71.65833501      74.83964739      94.88241303
C      68.22281257      76.33442089      95.97656457
N      67.02472609      74.11777194      95.80459948
H      67.75982962      72.54551965      95.01091442
C      64.91579152      74.23682469      97.13496679
H      63.74038176      72.59087307      97.40897711
N      64.65878874      76.53851134      98.19888271
H      63.28873717      77.02606073      99.43287399
C      66.81118701      77.88021703      97.50724288
H      67.18535282      79.83041457      97.97967447
C      69.60420250      80.19324203      91.83050504
O      70.73614857      81.90911353      92.94544357
N      67.46125287      80.52961332      90.58517540
H      66.43891093      79.01972199      90.02203696
C      66.49182327      83.11286918      90.09006711
H      68.07163446      84.40922144      89.83684378
C      64.64556066      83.25837811      87.97735309
H      62.79551860      82.60075335      88.59718331
H      65.40334091      82.10753479      86.44478505
C      63.98415645      85.97580454      87.10429953
H      65.59609299      87.02271293      86.35785764
C      62.24749797      85.74147848      84.71946492
H      60.23871890      85.57518257      85.13898416
H      62.95047616      84.12576248      83.65365929
H      62.24371852      87.43278353      83.54594488
C      62.51394938      87.68789659      88.93922378
H      61.54263005      86.31028610      90.12408217
H      61.21759713      89.03527145      88.07372912
H      63.91423658      88.58929603      90.15053835
C      65.10854361      83.84797271      92.49946816
O      63.38322348      82.52894376      93.44244158
N      66.27261501      85.75470656      93.60873749
H      67.53873164      86.67878273      92.52025515
C      65.38255392      86.74492316      96.03514608
H      64.68524491      85.11975853      97.09150310
C      67.65400495      87.66710959      97.48645590
H      68.37399067      89.30739203      96.46978314
H      69.15633737      86.31595529      97.08772364
C      67.74471181      88.33607272     100.28514057
H      66.59008904      90.02170858     100.54214334
C      66.63922192      86.05895251     101.89329765
H      67.20613981      86.61075259     103.79436232
H      67.40834053      84.24859470     101.28291606
H      64.60020723      86.03249633     101.60983871
C      70.54906566      88.90299060     101.14874549
H      71.33897126      89.99903187      99.59539046
H      71.74904187      87.23058282     101.15819412
H      70.39410810      89.81761815     102.98744919
C      63.16401523      88.64220837      95.85562209
O      61.09854437      87.99592197      96.79103661
N      63.59676256      90.85696762      94.64808697
H      65.30318542      91.19144918      93.86196082
C      61.63333692      92.94322547      94.57249791
H      59.72471334      92.16465823      94.57816709
C      61.53507115      94.51736748      96.99890650