 %block lattice_cart
   137.793   0.000   0.000
   0.000 143.498   0.000
   0.000   0.000   162.326
 %endblock lattice_cart

 %block positions_abs
N      88.35217725      40.37198430      77.27772271
H      88.70744580      38.59942102      77.89188376
H      89.49168223      40.77638573      75.80184646
H      86.50591464      40.14332742      76.84497538
C      88.87941090      42.00659756      79.57751963
H      90.32316181      41.19968443      80.80584173
C      89.99434942      44.50481575      78.48147837
H      88.48256837      45.44589944      77.44968780
H      91.45510787      44.03427389      77.10953706
C      91.00157355      46.22257697      80.46947044
H      92.70799640      45.32495696      81.19512535
H      89.84128159      46.75359006      82.08707616
S      92.41886829      49.10251987      79.08052161
C      94.39552201      50.33462142      81.69590283
H      93.27113485      51.32294828      83.10941811
H      95.85439071      51.74813670      81.35008291
H      95.30825982      48.70189788      82.55761802
C      86.54181944      42.56973600      81.19134589
O      84.52359175      42.79839288      80.06695874
N      86.77425579      42.97602715      83.70846135
H      88.54492935      42.76248809      84.38498336
C      84.78815343      43.59018821      85.59629794
H      83.24613676      42.25226199      85.32984653
C      85.67065561      42.94201209      88.23813532
H      87.37140931      44.05695060      88.55938879
H      85.86718716      40.89165904      88.28348874
C      83.89431289      43.65254918      90.47368155
O      81.73435571      44.34796846      90.17699452
N      84.74657945      43.55617313      92.81127300
H      83.25180593      43.78860948      93.97534441
H      86.53803999      43.03649841      93.21945387
C      83.77337041      46.25659203      85.29961090
O      85.24735692      47.96679436      85.09552045
N      81.31483647      46.67800100      85.15977116
H      80.31517124      45.08496172      85.49236298
C      80.24336164      49.25747743      84.90276838
H      80.89153777      49.67888639      82.99414479
C      77.24625571      49.18188837      84.60419162
H      76.84374401      47.76648336      83.16233044
C      75.92533703      48.34096016      87.00036458
H      76.98358376      46.78193595      87.83562362
H      74.07340523      47.53593675      86.59029398
H      75.83463016      49.88864601      88.35718807
C      76.16533226      51.66876819      83.66688737
H      76.33162818      53.15409308      85.08418210
H      74.12253813      51.44767022      83.53271679
C      77.31428586      52.65709506      81.16111027
H      79.37408755      52.61930053      81.18567671
H      76.53382889      54.42020971      80.43356565
H      76.97224540      51.13775510      79.81373541
C      81.28082140      51.16232154      86.84729675
O      81.96868177      53.25424857      86.11408295
N      81.82506258      50.51981460      89.23780054
H      81.47735293      48.66977253      89.55149511
C      82.66977023      52.16576622      91.28059468
H      81.45467622      53.82872538      91.37697073
C      81.90632081      50.81461190      93.79959985
H      82.76425654      51.84073329      95.36618297
H      82.74913874      48.93811367      93.89219644
C      79.04716490      50.60485228      94.31549514
C      77.70923866      52.38308475      95.69877480
H      78.75236759      54.05738225      96.22222899
C      74.98047386      52.16954567      96.03325636
H      73.85608672      53.45266983      97.15575379
C      73.72947504      50.02848575      95.03170142
H      71.71691652      49.83006450      95.31516036
C      75.15054923      48.23513549      93.71456217
H      74.17356073      46.65721401      92.86796478
C      77.73002565      48.63575746      93.17032099
H      78.81472855      47.32995659      92.03837494
C      85.39097613      52.98023826      91.07650424
O      86.10529267      55.01925295      91.76814407
N      86.84039620      51.57617160      89.58551018
H      86.19410981      50.06628029      88.61419086
C      89.37262946      52.22056828      88.82772992
H      90.23056522      53.42621366      90.26014248
C      91.01291191      49.79793915      88.86741418
H      90.55748787      48.71701570      87.17421941
H      90.36284606      48.59985267      90.41321031
C      93.87206782      50.19289194      88.86363472
H      94.46544188      51.17365990      90.57572676
H      94.40686037      51.26058731      87.18555776
C      95.44998928      47.71546075      88.79560457
O      97.47766563      47.74191692      87.55594412
O      94.62228917      45.76715293      89.80849789
C      89.57105072      53.49424382      86.24069461
O      91.00157355      55.31782970      85.95912539
N      87.99123954      52.80449371      84.40954980
H      86.80638114      51.41932432      84.97646769
C      87.66809634      53.85707127      81.85086037
H      89.44254933      53.65865000      80.82095954
C      85.81049537      52.29048815      80.14443752
H      83.87352590      52.46245325      80.81906982
H      86.42465641      50.34029060      80.37876359
C      85.79159810      53.03504032      77.37598847
H      87.52069768      52.32450323      76.51238355
H      85.80482618      55.09295228      77.31362750
S      83.19700388      52.30749570      75.37098886
C      82.88141959      55.19877695      73.60220503
H      83.93399713      56.63874841      74.63210586
H      80.88397886      55.63908319      73.37354814
H      83.71856833      54.76036045      71.77106022
C      87.00858185      56.66898403      82.08329672
O      88.44666358      58.16375754      81.10063904
N      84.93933154      57.33227795      83.33996472
H      83.90565125      56.01702844      84.25837171
C      84.26469925      60.03836603      83.82751411
H      84.24202253      60.70921888      81.87920628
C      81.66065639      60.17631606      84.93678345
H      81.59451596      62.12840334      85.58684930
H      81.46412484      59.06704672      86.66021385
C      79.51392730      59.14830494      83.20579414
H      80.09218355      57.18487930      82.97902699
C      77.14232076      59.06515699      84.64198615
H      76.41477614      60.94354494      85.06528483
H      77.34641121      57.79904036      86.25581242
H      75.81573289      58.33761236      83.24358867
C      79.53471429      60.44654692      80.71135541
H      79.42888960      62.47044381      81.07985205
H      77.79994552      60.38607568      79.60208607
H      80.90665559      59.73978929      79.34508329
C      86.11285158      61.56904436      85.33929516
O      85.89175360      63.78380359      85.18811704
N      87.85895869      60.39741403      86.67911111
H      88.18399161      58.51713635      86.58840425
C      89.77325144      61.79014233      88.25325313
H      88.89074926      63.56837479      88.80316348
C      90.47245019      60.49945926      90.79871447
H      91.70833118      61.81659849      91.78704133
H      91.25479688      58.60028431      90.64186719
C      88.00824707      60.63740929      92.48246062
H      86.40764888      59.71333311      91.57350226
H      87.36385040      62.58760684      92.65253599
C      88.45044302      59.62073652      95.15264389
H      89.64097061      57.94265955      95.15075417
H      86.58528316      59.12940769      95.87640907
N      89.84317132      61.48967584      96.65119687
H      90.45922210      63.15074527      95.94443922
C      90.40253030      61.02102372      99.07004654
N      89.65797814      58.96689122     100.31537619
H      89.89419392      58.91775834     102.20699223
H      88.45233275      57.83683489      99.35728495
N      91.72911817      62.46666435     100.36072961
H      91.89163465      61.91675399     102.18053606
H      92.62862791      64.05214473      99.79192200
C      92.15619632      62.48367188      86.73202345
O      93.57160133      64.06348309      87.53326741
N      92.50390597      61.38385118      84.48513886
H      91.04881671      60.38229623      83.76515314
C      94.12907060      62.37217804      82.36108649
H      95.26479611      63.90285635      83.14154346
C      96.07926815      60.45599556      81.39165689
H      97.24522928      61.20621691      79.86664775
C      97.96332528      60.02135850      83.52704762
H      98.32615273      61.81470877      84.47191077
H      99.45809880      58.89697134      82.66344270
H      96.86728403      58.82516175      84.79316424
C      94.95488099      58.05226368      80.23892384
H      93.31459856      58.41320140      79.04650652
H      94.37473501      57.01480394      81.92078025
C      96.60650180      56.49512920      78.47202974
H      98.52079455      56.29859767      79.21091272
H      96.59516343      57.23590191      76.55017808
H      96.03769418      54.54493164      78.12998927
C      92.66264298      63.48711656      80.11987108
O      93.48278419      63.67042002      77.91833992
N      90.29481591      64.44709753      80.64521500
H      89.57860963      64.13340295      82.38565293
C      89.02491983      66.07982107      78.77438595
H      89.71655965      65.54691825      76.90922606
C      86.09962350      65.80203129      78.99926337
H      85.60262547      66.77524035      80.74537049
H      85.72356795      63.78191386      79.14288258
C      84.64075478      66.81870404      76.61631850
O      84.10974168      69.04669137      76.68056919
O      84.48012804      65.52802098      74.57352435
C      89.93387818      68.78779886      79.26004561
O      90.88630025      70.10115865      77.46669533
N      89.58994799      69.65896269      81.55984253
H      88.57516496      68.59504678      82.77682628
C      90.35528715      72.20064458      82.57462555
H      91.96722370      72.84693099      81.46535621
C      88.30304438      74.01289212      82.08707616
H      87.45644699      74.96909363      83.70279217
H      86.64764412      73.01511663      81.37086989
C      88.84917527      76.03300955      80.10097382
H      87.37707847      76.81346651      78.88965925
H      90.37040495      75.33192108      78.90288733
C      90.06993847      78.27233523      81.63354186
O      92.10706344      78.01533245      82.75414955
O      88.90586706      80.14316428      81.97369259
C      91.11495712      71.90962673      85.28827254
O      90.51780361      70.14651208      86.66777276
N      92.37729430      73.87116264      86.40510080
H      92.86106423      75.26578066      85.19378622
C      93.15586154      73.83525785      89.07906353
H      94.64496587      75.21286833      89.43622180
H      94.06859936      72.02490004      89.44189098
C      91.05259616      74.27178462      91.08784259
O      89.40664453      75.78923485      90.76091994
N      91.15086192      72.83937208      93.05126824
H      92.55681831      71.56758627      93.26102786
C      89.47089524      73.20219953      95.12240827
H      87.59439700      73.37794408      94.29470815
C      89.52758703      70.81925465      96.73245510
H      91.46266676      70.28068265      97.19354832
H      88.70933554      69.41896746      95.46444874
C      87.61896344      70.89484370      99.10973080
H      88.48256837      72.33292543     100.30592755
C      84.90720619      71.45798214      98.23100806
H      83.73368615      71.22932526      99.90719530
H      84.49902531      69.95376000      96.88552293
H      84.61240889      73.39684134      97.60361893
C      87.66620661      68.43630977     100.69143172
H      89.56916101      67.93931175     101.30181332
H      86.92921334      66.95287461      99.46877880
H      86.43221532      68.44197895     102.33927307
C      90.05104121      75.64372593      96.46222424
O      92.02013604      75.78923485      97.66786962
N      88.25013204      77.35014879      96.62096125
H      86.61929822      76.83047405      95.78003304
C      88.61106976      79.63104845      98.10628612
H      90.59717212      79.99576563      98.51257727
C      87.72856757      82.03855977      96.46600369
H      87.41487301      83.62404015      97.74534840
H      85.97112211      81.71730630      95.43799257
C      89.78458980      82.93051060      94.63863834
H      91.55526335      83.21019008      95.64964192
H      89.07594244      84.73708894      93.94888823
C      90.05671040      81.22597746      92.40309212
H      88.28225739      80.21119443      92.14042016
H      91.53447636      79.85214643      92.82072163
N      90.81449065      82.69051535      90.17321507
H      91.67242638      84.38371012      90.36974660
C      90.49134745      81.94596318      87.82239553
N      89.93765763      79.54601076      87.17421941
H      90.13985834      79.25499291      85.29772118
H      90.13796863      78.26288660      88.57072715
N      91.02236053      83.32357366      85.92133086
H      90.90897696      82.58658040      84.16388539
H      91.35873183      85.18117463      86.19534118
C      87.14653187      79.61404091     100.71977761
O      84.99980278      78.82602504     100.82371257
N      88.28603684      80.64016230     102.66430598
H      89.84506104      81.64549670     102.22211004
C      87.26747435      80.70063354     105.32315091
H      85.36263023      79.92962520     105.45921121
C      88.76035814      78.85626066     107.11650119
H      88.36540534      76.88905558     106.64784906
H      88.11407174      78.91484217     109.07047820
C      91.60628597      79.25688264     107.08059639
H      92.10895317      79.09247645     105.08882485
C      92.79492382      81.85714604     107.70231634
H      92.24312374      82.30123173     109.63739609
H      92.19399086      83.38782437     106.46076616
H      94.84527686      81.68707068     107.64562455
C      93.06515469      77.35959742     108.74733500
H      92.45288336      75.45664302     108.24655752
H      92.38107375      77.46542209     110.68997365
H      95.08716183      77.73943241     108.77001171
C      86.77992496      83.30278667     106.44942780
O      86.08261595      83.60325316     108.70954047
N      86.90275718      85.21329998     104.85827824
H      87.63219154      84.55756494     103.22177525
C      85.92198921      87.76254077     104.98677962
H      84.89019866      87.77387914     106.76879154
C      88.05171078      89.58045748     105.42330641
H      89.02869928      89.51053761     103.61105887
H      89.24223836      88.81889778     106.92185937
C      87.35440177      92.33756818     105.96187841
H      86.07694678      92.26575859     107.57570467
H      86.15442555      93.17093748     104.50678914
C      89.54081511      94.05532940     107.00500734
H      90.56126732      92.84212510     108.32214658
H      88.77358623      95.54443373     108.20309382
C      91.14519275      95.43860906     104.96977209
H      90.13040972      96.40425920     103.46177049
H      92.08249700      93.82478278     104.10049799
N      93.15775128      97.14692164     106.05636473
H      92.60217174      98.35067730     107.43019575
H      93.88151644      98.28831634     104.70898987
H      94.75457001      96.37780303     106.76501209
C      84.17021292      88.45040115     102.81359437
O      84.26469925      87.37892633     100.73489543
N      82.61496818      90.32878910     103.27279787
H      82.68488805      91.06389264     105.03213306
C      80.95956792      91.50041942     101.27913661
H      79.79360679      90.00564591     100.47222346
C      79.29660877      93.54888275     102.47533336
H      80.40209866      94.69594661     103.78113425
C      78.05694830      95.34412274     100.63096048
H      76.58863096      96.52709142     101.45677088
H      77.11397487      94.32367053      99.11162053
H      79.41377180      96.77653528     100.03758642
C      77.40499272      92.00308662     104.18175622
H      78.44245248      90.52721037     105.17764199
H      76.25792885      90.99775222     102.79469710
C      75.47558216      93.50730876     105.74833933
H      74.94078961      92.39803942     107.39996014
H      73.85041753      93.61502316     104.48411243
H      76.24092132      95.36113029     106.21699145
C      82.38820101      92.58701205      99.11351025
O      84.08517524      94.08745474      99.44043290
N      81.90065162      91.53254477      96.81560305
H      80.84240489      89.95273357      96.98378870
C      83.39731486      92.32811954      94.48934996
H      84.22501499      94.16682325      94.90508974
C      85.53081588      90.35902473      93.94510879
H      86.19033035      89.73163560      95.79326112
H      87.12952434      91.18483512      92.94166411
C      84.61429860      87.89482161      92.67899216
C      85.67632479      87.18995370      90.36218770
H      87.15975995      88.30678195      89.51936975
C      84.78626371      84.95818692      89.13953477
H      85.30026926      84.37993067      87.25169819
C      83.14031209      83.23286681      90.38675414
O      82.52615103      80.98598221      89.30583069
H      83.15920934      80.69118491      87.63153317
C      82.43544417      83.77143880      92.85473669
H      81.27515221      82.44107148      93.88463754
C      82.91354492      86.12603778      93.96778550
H      81.99702766      86.54744675      95.74223851
C      81.57561870      92.67393946      92.21789894
O      79.42322043      92.28276612      92.71111749
N      82.36174485      93.25786489      89.93699928
H      84.20611773      93.63581016      89.63464307
C      80.53248977      93.85123895      87.89042568
H      78.68244771      93.83612114      88.79371486
C      80.82161790      96.58567293      86.84351729
H      79.70856911      96.47984825      85.11063827
H      82.70567504      96.82377844      86.04605280
C      79.68022321      98.49240679      88.65387510
H      80.71201378      98.19949920      90.41132058
H      77.75837154      97.99729848      89.21134437
C      79.82951159     101.24195856      87.66743797
H      79.34196220     101.37045996      85.67188699
H      81.78348859     101.86556825      87.86019006
C      78.02860240     103.04286774      89.14898340
H      78.82039774     102.97672732      91.05004806
H      76.10675074     102.51752382      88.62552922
N      78.45190110     105.73194829      88.27970930
H      77.29160914     107.07176424      88.98646694
H      78.06450721     105.85855995      86.41454943
H      80.22446439     106.36689632      88.59718332
C      80.29060480      91.79332700      85.73991713
O      82.07450644      90.63303504      84.94623207
N      77.88876267      91.54955230      84.80450260
H      76.36942271      92.39803942      85.58495957
C      77.50514822      90.40437816      82.31384333
H      78.24970039      88.48441622      82.21746728
C      74.67811765      90.00942536      82.00014875
H      73.82963054      91.87458523      81.78471995
H      73.91844768      89.10235674      83.68767435
C      74.02238263      88.43528334      79.67767511
O      72.79406052      89.35558005      77.88810430
O      75.23180747      86.36981248      79.32807576
C      78.56528468      91.90860030      80.03672312
O      79.27771151      94.13469790      80.36364577
N      78.79772102      90.63114531      77.76716182
H      78.24403120      88.81700805      77.54417412
C      79.51770674      92.01442498      75.43334981
H      81.31294675      93.01786965      75.56374093
C      79.59707525      89.94706439      73.32252553
H      80.07517601      90.97696523      71.60476431
C      81.72490708      87.94395450      73.74204477
H      81.74002488      86.42839399      72.34742676
H      81.59262624      87.18239479      75.65255808
H      83.59195668      88.69984502      73.31307690
O      77.27649134      88.62992515      72.85765285
H      77.36152903      88.01765382      71.15123000
C      77.82262224      94.28587600      74.67556957
O      78.60307921      96.01308585      73.27339265
N      75.52849449      94.29721436      75.51838751
H      75.10330608      92.76464633      76.57663424
C      73.67656271      96.40425920      75.39366557
H      74.41166624      97.69872173      73.97259138
C      71.19346233      95.46317550      74.35620583
H      69.82530049      96.99007436      74.16534347
H      70.24670946      94.09501365      75.56941011
C      71.55817952      94.31233217      71.67657390
H      72.70146393      92.60212986      71.70680954
H      72.79217080      95.46128577      70.48982579
C      69.12043257      93.32400531      70.34998604
O      69.02972571      93.67927386      67.95003362
O      67.31574395      92.29032503      71.45169648
C      73.42333938      98.04265191      77.83897142
O      71.81329257      99.76041313      77.98637007
N      75.13732115      97.84612038      79.50571002
H      76.53004945      96.59512156      79.13721340
C      75.61164246      99.56766105      81.60708569
H      75.32251433     101.53864559      81.08363150
H      77.48436123      99.33333500      82.43667554
C      73.69734970      99.37112951      83.83129356
O      73.81829218     100.90180783      85.52070887
N      72.00415492      97.47573402      83.80105794
H      72.30651113      96.02442421      82.60108173
C      70.68323624      96.99196408      86.14431857
H      69.76860870      98.66626160      86.92099608
C      68.61209619      94.98507474      85.55283422
H      67.65778441      94.48429727      87.30838997
H      69.58719497      93.22196010      85.12764581
C      66.75071578      95.46884468      83.50437091
C      66.14789307      93.67738413      81.65432885
H      66.96614458      91.81222426      81.78283024
C      64.69469355      94.33122944      79.60964498
H      64.45658803      92.97062649      78.10731256
C      63.92179548      96.82755790      79.11831613
O      62.76717271      97.43604978      76.91300553
H      61.95270067      99.05743494      76.90544662
C      64.30352020      98.53587048      81.14599247
H      63.71770505     100.47283995      80.88143077
C      65.73215330      97.92359916      83.35697225
H      66.02506087      99.37112951      84.76859780
C      72.45768924      95.65214813      88.09073667
O      74.20379636      94.22162531      87.53704685
N      71.76604940      96.03009339      90.47746100
H      70.37899029      97.23762851      90.99335629
C      73.11153455      94.75263840      92.46167363
H      75.11275470      94.82822746      91.97979342
C      72.94712835      96.06221874      95.05437812
H      73.59152503      94.70161579      96.46222424
H      70.96858491      96.45150236      95.47389736
C      74.40977652      98.57177529      95.20177677
C      73.29105854     100.99440442      95.64208301
H      71.25582331     101.15881060      95.67987754
C      75.00126085     103.07877254      96.09750706
H      74.17545046     104.87590226      96.60206398
C      77.62420098     102.76885742      96.14097075
O      79.07740051     104.80976184      96.52269548
H      78.10797092     106.34044015      96.44143725
C      78.63898400     100.37835364      95.43043367
H      80.66288088     100.17615292      95.26224803
C      77.02704747      98.26374989      95.09406238
H      78.00025651      96.47606880      94.92209729
C      72.51627075      91.95017428      92.79804490
O      70.36954167      91.05822346      92.42387910
N      74.59874916      90.66893984      93.59361969
H      76.29572339      91.53632423      93.46889776
C      74.57418270      87.87592435      93.61062723
H      72.63910297      87.20696124      93.84117384
C      75.57762738      86.71941185      91.11807821
H      75.71746713      84.66527934      91.18988782
C      73.80695382      87.26365303      88.82772992
H      71.91722752      86.86114132      89.54204648
H      73.96569084      86.05044873      87.17232968
H      73.92411685      89.20440195      88.14553873
O      77.88309348      87.49608936      90.37919523
H      78.31962026      89.16471771      90.93855421
C      76.14265554      86.76476528      95.78192275
O      77.38420573      88.29733332      96.98378870
N      76.09730211      84.29300326      96.17309610
H      75.05795265      83.36703737      94.86540550
C      77.62231125      83.00043046      98.09683750
H      79.50825811      83.82624086      98.06849159
C      76.35241516      83.26877160     100.69521117
H      75.84974798      85.24920478     100.95221396
C      73.75215177      81.85903577     100.81993311
H      73.99781619      79.81624163     100.73678516
H      72.57485227      82.73775851      99.37618221
H      72.78461190      82.01399333     102.63029092
C      77.79238663      82.52043998     103.06681769
H      78.07395585      80.47953556     103.03847180
H      76.78894195      83.12515240     104.76001247
C      80.54193840      83.53711274     103.28035677
H      80.20178767      85.53077400     102.88351425
H      81.66821529      82.83413455     101.70621474
H      81.40932279      83.61648124     105.14551664
C      77.96246199      80.29434238      97.28803463
O      76.86831045      79.55545939      95.31138091
N      79.79549651      79.05657165      98.36706836
H      81.04460560      79.92584575      99.51791168
C      80.18855959      76.35993220      97.86629088
H      78.41032713      75.32625192      97.74534840
H      81.36963854      75.54923961      99.34594659
C      81.49058102      76.00844310      95.31516036
O      83.43699911      77.23298576      94.95044318
N      80.34162742      74.52689768      93.55771489
H      78.85630253      73.53101191      94.22478828
C      80.75169802      74.50044151      90.81761173
H      82.21056673      75.92529516      90.52281443
C      81.74002488      72.03623840      89.83117460
H      80.30005343      70.57925941      90.03904449
C      82.19166947      72.28001310      86.93233444
H      83.63731011      73.69730782      86.54116108
H      80.46256991      72.85448990      85.97235346
H      82.69055722      70.56414160      85.90999249
C      84.10029306      71.16318484      91.30138167
H      83.59006694      70.81925465      93.26669704
H      85.47979327      72.69008370      91.22390290
C      85.37018914      68.94464616      90.31494454
H      86.34528792      69.24511263      88.52537372
H      83.84518001      67.57270484      90.11841299
H      86.86496264      68.40040498      91.62074542
C      78.33095862      75.36404643      89.47590606
O      76.78894195      73.92785444      88.62363948
N      78.00970514      77.79990365      89.32472795
H      79.50636839      78.85815038      89.85574105
C      76.09919185      79.12649152      87.66554824
H      75.69290069      78.20052563      85.87030825
H      76.53571862      81.06346099      87.12697625
C      73.55562023      79.44207582      88.91087789
O      71.84919737      80.16584099      87.60129755
N      73.07940920      78.40272634      91.21634399
H      74.65733066      77.85281600      92.13853042
C      70.64544170      78.67862639      92.52781404
H      69.13177092      77.56557759      91.67932694
C      70.94779791      77.86793380      95.30382201
H      71.98336793      79.20019085      96.48679068
H      72.22147344      76.24843835      95.29815283
C      68.45335919      77.26889056      96.51135712
N      67.41023026      74.88405595      96.77024961
H      68.14911324      73.29290639      96.02002828
C      65.28239842      75.14483818      98.02502790
H      64.02384070      73.62171877      98.53525400
N      64.79673877      77.66195363      98.38974506
H      63.22826593      78.35170374      99.22689383
C      66.79795893      79.03578466      97.50157370
H      67.24015489      81.02755619      97.46188944
C      69.71002717      81.51699531      92.55993940
O      70.67945678      83.15160857      93.91676288
N      67.61810016      82.04989813      91.36374264
H      66.83008427      80.56079379      90.46801237
C      66.67134727      84.60102865      90.88375215
H      68.36076259      85.77454869      90.74013296
C      65.18980183      84.95062803      88.43844630
H      63.59298311      83.64860659      88.46112303
H      66.39166778      84.21363476      86.93800361
C      64.42257295      87.63214967      87.65609962
H      63.29062690      88.53732856      89.11874778
C      66.78662058      89.24219648      87.12508652
H      68.22281258      88.24820044      86.03093499
H      67.32708229      89.98674864      88.96945940
H      66.24615884      90.88625837      86.00636855
C      63.17535359      87.58112705      85.07284375
H      61.25161221      86.90271531      85.36764104
H      64.14478318      86.58902073      83.54783461
H      62.77095216      89.52376570      84.51915394
C      65.41089981      85.52321509      93.27803540
O      63.47015090      84.55567522      94.04715401
N      66.56174315      87.32790372      94.70288903
H      68.16423106      88.07245589      93.98479304
C      65.36554639      88.42016553      96.98378870
H      64.52461818      86.95940709      98.17053682
C      67.26094188      89.81100410      98.62407114
H      66.31607872      90.67838847     100.23411796
H      68.42312356      91.21507075      97.66031072
C      69.24893396      88.15749357      99.87506996
H      69.83663885      86.74397829      98.49934920
C      71.73581379      89.44061774     100.48545155
H      72.49926322      90.32878910      98.79036704
H      73.29105854      88.37859155     101.31882085
H      71.47503155      91.19806321     101.52858047
C      68.15289269      86.97452490     102.30336827
H      66.34253488      86.08635354     101.88384903
H      68.06785501      88.41827580     103.76979589
H      69.37554563      85.69518019     103.35594583
C      63.18291250      90.26453841      96.38474546
O      61.24027384      89.81100410      97.57905249
N      63.48904815      92.15615445      94.69721986
H      65.23137582      92.27520721      93.92810125
C      61.58798349      93.95706363      93.81282794
H      59.91746543      92.81566893      93.43299296
C      61.20625878      95.73718581      96.04837416