 %block lattice_cart
   137.793   0.000   0.000
   0.000 143.498   0.000
   0.000   0.000   162.326
 %endblock lattice_cart

 %block positions_abs
N      82.45623116      41.04472687      77.19835420
H      81.00492135      41.40944405      76.01349580
H      81.90065163      39.42145197      78.02983377
H      84.05304990      40.71969394      76.20057870
C      82.85496341      42.94957099      78.98792501
H      84.47634859      42.56595655      80.19734985
C      83.73746560      45.53660632      77.99203925
H      82.13875714      46.76681815      77.58196864
H      84.68421848      45.00370350      76.24215268
C      85.62908164      46.84240720      79.75893335
H      87.31660724      45.69723305      80.05562038
H      84.81083015      47.27137507      81.60141650
S      86.93677225      49.87541793      78.87643116
C      89.00224311      50.36863650      81.80550695
H      87.72856757      50.43288719      83.42311267
H      90.29292618      51.95600660      81.57118088
H      90.03781313      48.63575747      82.21935701
C      80.73846994      42.98925525      80.77938556
O      78.62764565      43.29539091      79.86286830
N      81.17121727      42.79650316      83.27004484
H      82.86819150      42.22958527      83.93711823
C      79.09062860      43.07618266      85.13520471
H      77.57506809      41.88187563      84.41143953
C      80.16399314      41.86297836      87.61263591
H      81.81372421      42.94579154      88.20223052
H      80.38509112      39.89199382      87.06083582
C      78.53882851      41.98014139      89.90865338
O      77.09885706      43.65632863      90.30927536
N      78.78449293      40.23970346      91.67176803
H      78.08340447      40.46836034      93.43110322
H      79.85974721      38.69201761      91.37697072
C      78.02293323      45.66321798      85.54149587
O      79.59140607      47.41121482      85.72479932
N      75.52849450      45.88620568      85.72101987
H      74.36442309      44.37820409      85.62653355
C      74.49859366      48.42221840      85.56228286
H      75.54550203      49.30283086      84.02026619
C      71.66778364      48.05750122      84.98402661
H      71.57896650      46.40399069      83.75759423
C      70.29017316      47.50759086      87.44633999
H      71.00071025      45.70101251      88.13986955
H      68.24548929      47.31672850      87.26492626
H      70.49426360      48.99858492      88.85229637
C      70.44135126      50.43477692      83.68389490
H      70.50371223      52.05238264      84.95568071
H      68.43257219      49.99636041      83.56106269
C      71.30117674      51.10185031      81.07418286
H      73.36097842      51.06216606      81.05717533
H      70.81362735      53.03693005      80.56395676
H      70.60386773      49.69589393      79.74003609
C      75.18645403      50.18344332      87.72224003
O      75.16188759      52.47757106      87.22713174
N      75.74581302      49.26692606      90.00313969
H      75.54739176      47.39042783      90.28092946
C      76.76059605      50.77303793      92.19333249
H      75.67589315      52.51536559      92.38608457
C      76.20501652      49.38975827      94.65375615
H      77.49947904      49.99636041      96.13719130
H      76.45068094      47.38097920      94.27392116
C      73.43467774      49.72612955      95.54381724
C      72.66933859      52.15064841      96.57560781
H      74.02049290      53.66053974      96.81938250
C      70.06151627      52.30560597      96.95733252
H      69.13932983      53.95155759      97.73589977
C      68.32674752      50.39887212      96.50568794
H      66.32930681      50.66154408      96.81560305
C      69.19224217      48.21623823      95.22823295
H      67.85053649      46.75547979      94.74068356
C      71.77171859      47.87797722      94.69155068
H      72.38210019      46.10919339      93.87896836
C      79.62731087      51.61396614      91.84940230
O      80.37564249      53.43944176      92.86418533
N      80.85374325      50.60674201      89.90109447
H      80.11486026      49.03637945      89.10929915
C      83.46912446      51.46278803      89.12063750
H      84.18155128      52.68355123      90.61730074
C      85.37396859      49.26692606      89.06016626
H      87.15975995      50.10974399      88.47813056
H      84.95633907      47.93277928      87.54838521
C      85.84451044      47.85530050      91.66987830
H      87.38274766      46.55516880      91.23146180
H      84.27981705      46.74036198      92.40687156
C      86.90086745      49.58251035      93.77692314
O      89.28759178      50.01525768      93.79204095
O      85.46278573      50.27415018      95.58728095
C      83.35196143      52.92354647      86.66021384
O      84.61618834      54.93610500      86.44100559
N      81.77970914      52.12986142      84.81584096
H      80.86130215      50.51225570      85.24858829
C      81.73435571      53.19566706      82.27226935
H      83.54093406      52.74402247      81.39165688
C      79.48369167      51.93521961      80.88898968
H      77.64687769      52.40387174      81.69212337
H      79.79549651      49.92833027      81.23291987
C      79.18511491      52.23568610      78.03928240
H      80.90665558      52.20167102      76.90922607
H      78.22324422      54.04226445      77.81629470
S      77.37286738      49.70345284      76.52372190
C      77.21035092      51.06783523      73.48504199
H      79.18133546      51.44200104      73.02394877
H      76.31273092      52.92165675      73.55874132
H      76.32784873      49.68644530      72.23782262
C      81.19956316      56.01135927      82.32329196
O      82.62252708      57.43243346      81.21024316
N      79.38920536      56.72567582      83.86908808
H      78.69000662      55.31027081      84.94056290
C      78.44623192      59.29759333      84.00514838
H      79.17377656      60.11395509      82.26093099
C      75.52660477      59.54892693      84.27348951
H      75.11275471      61.56337518      84.19601073
H      74.89921564      59.05381863      86.17266446
C      74.06773606      57.95966710      82.38376320
H      74.81606768      56.04348462      82.30628442
C      71.24826440      57.76691501      83.03004960
H      71.12921164      56.73890390      84.81017178
H      70.11253888      57.11684916      81.43890004
H      70.36954166      59.56593446      83.52137844
C      74.37954090      59.05192891      79.76460253
H      76.36375353      58.90830971      79.23169971
H      73.85797644      61.02858263      79.50948948
H      73.26838183      57.87273969      78.49659617
C      80.01281504      60.99456756      85.74558631
O      79.50825811      63.27168776      85.93266921
N      82.05560918      60.14419072      86.93989334
H      82.39009074      58.26580276      86.83406867
C      83.67510463      61.62384642      88.61608058
H      82.51859213      62.40241366      90.13164108
C      85.70089124      60.06104276      90.13542053
H      86.79504278      61.32149021      91.34106592
H      87.12574488      59.10295152      88.99591557
C      84.26847870      58.20911097      91.88719683
H      83.32928472      56.87685392      90.62863910
H      82.85496341      59.38452074      92.81694217
C      86.29615503      56.72378609      93.34984499
H      87.58116892      58.08249931      94.20778074
H      87.20511339      55.31027081      92.15931742
N      85.12263499      55.44444137      95.40775695
H      84.74280000      53.57928150      95.25846857
C      84.18155128      56.65575594      97.44488191
N      84.26469924      59.08972343      97.81148882
H      83.67699436      59.89096739      99.43854317
H      85.57805903      60.24245648      97.04048048
N      83.10818674      55.19310778      99.05114928
H      82.22190510      55.92065241     100.57615841
H      83.15354017      53.30149174      98.79225677
C      84.95633907      63.85939265      87.24224955
O      85.39286585      65.81714911      88.47813056
N      85.54971314      63.56459534      84.84418686
H      85.55538231      61.81281905      84.08451688
C      86.70622564      65.61494839      83.35886198
H      87.56038193      66.97933079      84.64387587
C      88.71500471      64.55859138      81.59763705
H      89.61640416      66.10249778      80.57340539
C      90.75590913      63.29814393      83.21524278
H      91.75368462      64.69087222      84.36041692
H      92.23745456      62.80681509      81.87353709
H      89.93009873      61.68998684      84.20545936
C      87.82683334      62.57248903      79.64743950
H      86.91787499      60.92086823      80.47891907
H      89.41231372      61.90730537      78.51171398
C      85.90498168      63.40774806      77.68212413
H      84.01903482      63.79136250      78.41911739
H      85.92009949      62.04336566      76.13821773
H      86.65898248      65.10472229      76.79017331
C      84.91665482      67.34782742      81.82629394
O      85.87285633      69.15440578      80.55261840
N      82.46190034      66.91130064      81.88109600
H      81.74380434      65.48644700      82.93178383
C      80.68933706      68.32292620      80.22380602
H      81.41310224      68.16229946      78.30195436
C      78.21757504      66.95854380      80.09341491
H      77.29916805      66.74878418      81.92455970
H      78.85441281      65.09527366      79.48303331
C      76.52249054      67.90718641      77.87109676
O      74.56473408      68.92196944      78.42100712
O      77.37286738      67.70687542      75.66389643
C      80.37753222      71.11594169      80.74726021
O      79.83518076      72.44252956      78.94824076
N      80.81972817      72.12694527      82.97902699
H      81.07862068      70.89484371      84.41332926
C      81.53593445      74.69508333      83.48736337
H      82.11985988      75.42073823      81.65054939
C      79.13976148      76.15017259      84.26215115
H      78.36875315      75.09003612      85.85141098
H      78.05505858      75.91017734      82.52738240
C      79.32117521      78.90161410      85.01804168
H      80.53437950      79.03578467      86.67722138
H      77.34641121      79.28144909      85.46401709
C      80.29816371      80.45118967      82.75792901
O      82.57339419      80.85559111      82.39132210
O      78.65410182      81.44707544      81.34819318
C      83.77526013      74.67996551      85.31472871
O      83.96423276      72.90929196      86.80383304
N      85.12452471      76.86637886      85.49992189
H      84.53304038      78.24776879      84.32451212
C      87.18810585      77.31613372      87.25736736
H      88.74524033      78.47831540      86.57895561
H      88.10462311      75.49065810      87.51625986
C      86.33583928      78.55201473      89.71401157
O      84.34973693      79.82946972      90.07872875
N      87.66053743      77.83202900      91.70200365
H      89.03247873      76.53567675      91.40909607
C      86.62496741      78.21942290      94.23990609
H      84.59729107      77.91328724      94.05093345
C      87.85517924      76.20308492      95.78570221
H      89.88285557      76.16906985      95.43421312
H      86.96322842      74.40784493      95.31138091
C      87.55849221      76.13694450      98.68832183
H      87.37518875      77.88683107      99.75979665
C      85.15665006      74.78201074      99.29303425
H      85.01492059      72.79212893      98.78847732
H      83.56172105      75.68529991      98.35761972
H      84.98090552      75.05980050     101.32637976
C      89.73545692      74.78012101     100.04703505
H      90.06237957      72.96220430      99.13429724
H      89.23467945      74.32469697     101.99345315
H      91.40975443      75.94986160      99.77302473
C      87.10495789      80.89527536      95.40964667
O      89.27625342      81.89494058      95.29248364
N      85.23412884      81.99320635      96.56049000
H      83.66376628      80.91228290      96.46789341
C      85.33806379      84.37804095      97.97211555
H      87.33550450      84.70307388      98.35573000
C      84.00391701      86.56445430      96.62096124
H      84.16454375      88.38804019      97.56582440
H      82.01025575      86.15438369      96.30159749
C      85.39664530      87.19184343      94.04715400
H      87.36574012      87.31467564      94.64052806
H      84.89208838      89.12881290      93.56338407
C      85.00925141      85.40605207      91.73034954
H      83.28771074      84.28544436      91.87396874
H      86.70433591      84.24009093      91.66987830
N      84.82783768      86.84035434      89.33417658
H      85.14531170      88.71874229      89.22646218
C      84.55760682      85.88604255      87.01548239
N      83.86029781      83.50309767      86.55060972
H      83.82439301      82.85303182      84.75536972
H      83.72801697      82.23131186      87.96601473
N      84.99980278      87.49419964      85.30905953
H      84.81271987      86.97830436      83.48169419
H      85.37774804      89.32345471      85.70590206
C      84.31950131      83.95852171     100.59883513
O      82.43733390      82.57524205     101.05425917
N      85.74246522      84.99220200     102.51879706
H      87.24101819      86.00131586     101.90085656
C      85.10373773      84.99409173     105.24378241
H      83.68833272      83.52766411     105.54046944
C      87.49424151      84.53488824     106.76690182
H      86.71945372      84.44796083     108.67174594
H      88.73201225      86.18083986     106.78012990
C      89.19310547      82.28233447     106.16407912
H      89.90931174      82.47130710     104.24222746
C      91.18865645      82.03667005     108.20876299
H      92.39808129      83.70340866     108.27301369
H      92.37918403      80.43229241     107.70420607
H      90.32883098      81.87982277     110.07392286
C      87.94210665      79.58758475     106.25856544
H      86.27914749      79.71986559     105.04914060
H      87.03314829      79.25877237     108.07648215
H      89.27247397      78.09848042     105.74833933
C      83.46156556      87.32412428     106.03557773
O      82.02915301      87.38081606     107.81947937
N      83.54471352      89.36691842     104.50867887
H      84.42343625      89.14771017     102.82871218
C      82.05749891      91.75364275     104.88284468
H      81.01248026      91.43427901     106.62706207
C      83.92265878      93.98918898     105.04158169
H      82.62063735      95.58789744     105.07181731
H      84.93744181      94.23863285     103.26523896
C      85.95600429      93.94761500     107.20531832
H      87.79659772      93.25975462     106.58548809
H      85.27192337      92.59268124     108.59993634
C      86.56071671      96.43260510     108.52623701
H      84.73146164      97.11479630     109.18386177
H      87.40353465      97.77053133     107.20531832
C      88.48445810      96.00174750     110.63895103
H      90.29481591      95.24585698     110.01345162
H      87.70211141      94.62224730     111.95231082
N      89.03247873      98.43571500     111.94853137
H      87.55093330      99.36735007     112.71009107
H      90.03970286      99.70750080     110.94319697
H      90.17387342      97.99351904     113.41306926
C      80.30383289      92.11835993     102.66052654
O      80.50792333      91.16782760     100.63473993
N      78.50481344      93.89848212     102.88351424
H      78.72024224      94.93027268     104.47655352
C      76.73980906      94.53909934     100.87095572
H      75.86297605      92.78354359     100.24356658
C      74.52127037      96.00552696     101.79503189
H      75.15432869      97.82155394     102.53013542
C      72.76382490      96.80488119      99.59539046
H      70.75504583      97.12613466      99.91475420
H      72.80161943      95.20806245      98.29336903
H      73.33830170      98.29398552      98.29336903
C      72.90177492      94.53720961     103.71310409
H      74.16222237      93.73785538     105.13417828
H      71.68857063      93.08023062     102.90430123
C      71.19535206      96.38725167     105.20031870
H      69.72703472      95.19861382     106.02045992
H      70.36387248      97.80454641     103.95498906
H      72.31407004      97.19416481     106.72910729
C      77.96057226      95.77687007      98.59383551
O      79.50447866      97.52864637      98.75824170
N      77.65065715      94.56177605      96.34128175
H      76.23525214      93.28054161      96.28270023
C      78.39331959      95.37246864      93.72023135
H      79.06039298      97.31132784      93.89408617
C      80.47768771      93.71139921      92.63552845
H      82.11985988      93.42605054      93.84684301
H      81.29782893      94.78287403      91.08028369
C      79.71801773      91.14515088      91.82105641
C      79.51203757      90.63870423      89.30016150
H      79.86163693      92.12780856      87.94900719
C      78.67866826      88.29733333      88.43088740
H      78.31962026      87.99119766      86.44478505
C      78.20245723      86.37737139      90.20345068
O      77.24814544      84.09647173      89.43433207
H      76.80217003      84.31001081      87.69011469
C      78.57095386      86.85547215      92.79048600
H      78.23269285      85.41739043      94.19833211
C      79.08495942      89.35369034      93.56905325
H      79.15298957      89.89604179      95.53436861
C      76.03494115      95.46506523      91.97790369
O      73.84285863      95.17782683      92.65064626
N      76.45068094      96.08867491      89.57228209
H      78.18733942      96.63858527      88.99591557
C      74.36442309      95.91104064      87.59751810
H      72.55406528      95.39325563      88.43088740
C      73.69923943      98.48673761      86.63942686
H      72.46524814      98.33366977      84.99536496
H      75.48692052      99.39758569      86.17455418
C      72.43312280     100.10623306      88.64442647
H      73.72569559     100.45016325      90.21100959
H      70.58686019      99.41648295      89.23969026
C      71.85675627     102.56665672      87.26303654
H      70.32607796     102.33988956      85.90243359
H      73.49325926     103.28664244      86.24258433
C      71.13866027     104.65858374      89.32850740
H      72.66744886     104.48283920      90.69666925
H      69.47759084     104.01229735      90.36407742
N      70.78906090     107.36467182      88.60852167
H      72.19123783     108.01284795      87.48980370
H      70.45457935     108.58354530      90.04093422
H      69.21680861     107.50073212      87.53515713
C      74.84063412      94.09123420      85.45834791
O      76.96468650      93.73407593      84.60608134
N      72.64099269      93.17282721      84.39632172
H      71.00637943      93.40715328      85.35252324
C      72.73547901      91.50230915      82.14187823
H      74.41355597      90.31556103      82.25715154
C      70.34308549      89.94706440      82.15888577
H      68.71036196      91.05255429      81.56551170
H      69.73459362      89.40282322      84.05050181
C      70.73803829      87.54333253      80.66978143
O      69.82530048      87.72285653      78.52116261
O      71.86620490      85.59313497      81.37653907
C      73.06429139      92.94417033      79.56807099
O      72.95846671      95.25908506      79.62287306
N      73.51971543      91.69884069      77.41567272
H      73.30995581      89.81667328      77.17945693
C      73.62554010      93.07267172      75.01194085
H      74.88598755      94.69594662      75.14611142
C      75.07307046      91.69695096      72.90300629
H      75.72313631      92.82511757      71.30807728
C      77.49947904      90.30044322      73.71747833
H      78.61819702      91.81789345      74.54706818
H      78.54638742      89.46707391      72.15089521
H      77.25192490      88.92472246      75.23303883
O      73.43278802      89.69384107      72.28506578
H      73.76537985      89.20251223      70.57108402
C      71.16511644      94.27453765      74.10865167
O      71.31629455      95.99607833      72.58553227
N      68.86154007      93.47140397      74.83808603
H      68.71981059      91.86891606      75.86609714
C      66.45969792      95.09467887      74.66801066
H      66.61465548      96.00363723      72.82552751
C      64.37155035      93.31833614      74.60753942
H      64.23737978      92.64370385      76.54828834
H      65.05563127      91.68750233      73.55307214
C      61.84687599      94.07800612      73.68913243
H      61.18547178      95.71261938      74.75304835
H      60.47304496      92.70984427      74.38077226
C      61.82041982      94.48240755      70.88099913
O      60.98705052      96.48929689      69.86999555
O      62.57064117      92.86480182      69.34654137
C      66.21970268      96.83133736      76.92245415
O      64.47359557      98.36201567      76.91300552
N      67.96392007      96.85023462      78.84052636
H      69.37176617      95.56522073      78.74604005
C      68.15667215      98.77775546      80.89654859
H      67.39133299     100.52008312      80.10475326
H      70.16167177      98.75318902      81.36142126
C      66.46347737      98.22973483      83.14532290
O      66.94724731      99.39758569      85.17299924
N      64.89311481      96.18694068      83.16799962
H      64.62288395      94.96995694      81.72424872
C      63.70825641      95.45372687      85.62275410
H      62.37599936      96.94661066      86.11786239
C      61.77884584      93.31077723      85.27882391
H      60.62989225      93.21440119      86.98524677
H      62.95803506      91.62514136      85.15599170
C      60.09320997      93.23896763      82.99603452
C      60.02895928      91.00909059      81.58818842
H      61.23271494      89.41794103      82.02282547
C      58.54363440      90.99019332      79.39799562
H      58.41513301      89.23085812      78.36998451
C      57.17547255      93.16904776      78.73659141
O      55.64101478      93.35046149      76.63710548
H      55.35944556      95.09089942      76.21380679
C      57.38145271      95.46317551      80.05939983
H      56.44414846      97.17526754      79.46035659
C      58.78551936      95.43293988      82.23069537
H      58.90079267      97.20361344      83.24169894
C      65.57908546      94.93594186      87.71468113
O      67.68613030      94.06477803      87.28571325
N      64.76650315      95.17971656      90.17132533
H      63.01850631      95.79198788      90.63241855
C      66.69780344      94.82633774      92.10829481
H      68.55162495      95.45372687      91.47145704
C      66.24804857      96.28898590      94.55171093
H      67.99415569      95.97907079      95.59861931
H      64.49816201      95.83923104      95.53814806
C      66.30851982      99.14814182      94.55171093
C      64.08620167     100.61834889      94.42698899
H      62.24560824      99.73773643      94.50824722
C      64.43013186     103.29987053      94.21156019
H      62.70859119     104.34866863      93.89408617
C      66.83764318     104.47528029      94.34573076
O      67.06441034     107.02263136      93.79771013
H      65.38822310     107.67647667      94.03203619
C      68.99004145     102.96727869      94.78603699
H      70.85709105     103.78930964      94.86162604
C      68.70280306     100.34244885      94.85784659
H      70.35820331      99.16136990      95.02225278
C      67.11165350      91.90671058      92.76780929
O      65.27483952      90.51020284      93.26291758
N      69.49648811      91.22451939      93.20244634
H      70.73614857      92.62858604      92.83017026
C      70.44702044      88.59402036      93.40464706
H      68.79728937      87.37703661      93.60873750
C      71.75849050      87.79088667      91.01792272
H      72.78650162      86.09391245      91.56405363
C      69.82719021      87.30144756      88.82206075
H      68.76327430      89.05700330      88.64064702
H      68.49115371      85.88226310      89.48157523
H      70.91000339      86.68728651      87.17988858
O      73.26460237      89.72785615      90.05983148
H      74.45890940      90.13603703      91.36185291
C      72.38210019      88.35024566      95.61562684
O      73.72569559      90.06422743      96.11073514
N      72.65422078      86.05422819      96.71733728
H      71.36164798      84.70874306      96.31293585
C      74.71969164      85.46841304      98.51068755
H      76.43745285      86.50020360      98.03258680
C      74.11686894      86.39059948     101.17520165
H      73.58963530      88.38048128     101.23945235
C      72.14966385      84.56323413     102.32982443
H      71.87376381      84.80700883     104.35561104
H      72.69201530      82.57713178     102.41108266
H      70.31284987      84.69362525     101.40763799
C      76.47713711      86.20729602     103.07059715
H      78.03805104      87.04822423     102.02557850
H      76.75492687      84.23064230     103.58460270
C      76.17478090      87.87592436     105.48755710
H      74.47591694      87.30144756     106.50234013
H      76.22769323      89.84690890     104.89040359
H      77.71868729      87.55656061     106.81225525
C      75.12031361      82.44296121      98.23289779
O      73.58207640      81.17495485      97.20677640
N      77.25003517      81.44329599      99.20610684
H      78.54638742      82.62248521      99.96010764
C      77.86608595      78.80334833      99.07382599
H      76.28816448      77.57691595      99.57649319
H      79.42699988      78.33847566     100.33616317
C      78.81283883      78.04556808      96.55671055
O      80.48713634      79.34569978      95.57783232
N      77.72813593      75.93474379      95.58728095
H      76.56028506      74.89539431      96.68143248
C      78.08907365      75.13727928      93.05315796
H      79.71990746      75.89316981      92.04593384
C      78.64654291      72.28946173      93.00402508
H      77.49380986      71.24066363      94.35139994
C      78.69567580      70.95909440      90.48501990
H      80.01659449      71.91529592      89.22646218
H      76.77382414      71.07058826      89.75558555
H      79.40999234      69.03157357      90.35840824
C      81.43766868      71.89261920      93.76747451
H      81.69089200      72.75622413      95.62129602
H      82.51670240      72.86960771      92.31049552
C      82.49402569      69.17897222      94.39675337
H      82.40520855      68.00545218      92.70544832
H      81.61152350      68.46465567      96.11451459
H      84.49335613      69.34526813      94.85784659
C      75.80817399      75.90639789      91.66231940
O      73.86553534      74.41729356      91.70578310
N      75.71746713      78.26477633      90.69855898
H      77.17822557      79.49120871      90.73446378
C      73.75971067      79.00176959      88.85985527
H      73.92978604      77.76588858      87.22335229
H      74.42300460      80.75732534      88.01325788
C      71.06685067      79.34381006      89.93321982
O      69.32074356      80.00332454      88.56883742
N      70.63032389      78.94129835      92.44088664
H      72.16289193      78.92995999      93.57850188
C      68.29084272      78.78823052      93.63519367
H      66.98693156      77.84903654      92.34451059
C      68.29084272      77.30668509      96.00868992
H      69.50593674      78.20052564      97.40897711
H      69.08830722      75.42640741      95.74601796
C      65.71136630      76.95141654      97.32204970
N      64.49249283      74.81224636      97.50346343
H      64.73437780      73.19464063      96.51513657
C      62.24371852      75.21853751      98.78091842
H      60.89634366      73.86171402      99.48956578
N      62.25127742      77.62604884      99.53113976
H      61.17224370      78.41028526     100.89363243
C      64.40367569      78.76366408      98.57304852
H      64.86476891      80.74598698      98.70721909
C      66.88677607      81.32613296      93.86007110
O      67.60109261      83.09302706      95.14697472
N      64.70603190      81.52644395      92.53348323
H      63.95014138      79.98631700      91.69255502
C      63.29251662      83.83568950      92.60340310
H      64.47737502      85.35691918      91.87396874
C      61.11933136      83.45774424      90.57761649
H      59.71526471      82.06690567      91.15965220
H      61.93191368      82.69240508      88.84662719
C      59.77573595      85.96163160      89.95589653
H      59.31653246      86.71563240      91.81727695
C      61.27239919      87.93450587      88.57639633
H      61.61066020      87.44128731      86.60541178
H      63.13188988      88.28977442      89.38897864
H      60.07809216      89.60124448      88.36852643
C      57.35499655      85.42494933      88.50647645
H      58.05986446      84.43473274      86.84351730
H      56.50084025      87.25798385      88.11530311
H      56.07565183      84.08135392      89.40220672
C      62.31174866      84.59913893      95.27547611
O      61.24216357      82.97397430      96.62852015
N      62.58386925      86.99909135      96.04270499
H      63.26795018      88.23497236      94.75769110
C      61.33476016      88.14804495      98.27636149
H      60.72437856      86.68539678      99.59350073
C      63.24527346      90.04533017      99.51035277
H      62.36277127      91.43616873     100.74812351
H      64.16934963      91.30388789      98.16675736
C      65.24271418      88.64126352     101.03914136
H      66.10820883      87.13704137      99.92798229
C      67.17401447      90.54421791     101.90463601
H      68.73870785      89.68628217     102.92886767
H      66.45591847      92.05032978     103.11028140
H      68.08108310      91.39270503     100.26246385
C      64.20903388      87.21829960     103.34082801
H      62.72559873      85.82557131     103.02146426
H      63.43802555      88.64315324     104.61261382
H      65.88333140      86.50587278     104.30836788
C      58.86488787      89.68628217      97.71700250
O      57.05830951      89.25731429      99.17965067
N      58.96693309      91.36813858      95.80270975
H      60.64312033      91.38325640      94.89186166
C      56.83721154      93.05188473      94.91642811
H      55.07409689      91.98607909      94.90697947
C      56.53107587      95.33467412      96.77969825